c D(4) quadratic DU-4 permutation model, sb=True, sb3=True, perm=True, desarg=True, units=[]
p cnf 942 2983
-13 0
17 0
-41 17 -13 0
-41 -17 13 0
41 -17 -13 0
41 17 13 0
-41 0
-42 13 17 0
-42 -13 -17 0
42 -13 17 0
42 13 -17 0
-43 42 17 0
-43 -42 -17 0
43 -42 17 0
43 42 -17 0
-43 0
14 0
18 0
-44 18 14 0
-44 -18 -14 0
44 -18 14 0
44 18 -14 0
-44 0
-45 14 18 0
-45 -14 -18 0
45 -14 18 0
45 14 -18 0
-46 45 -18 0
-46 -45 18 0
46 -45 -18 0
46 45 18 0
-46 0
-15 0
-19 0
-47 19 15 0
-47 -19 -15 0
47 -19 15 0
47 19 -15 0
-47 0
-48 15 19 0
-48 -15 -19 0
48 -15 19 0
48 15 -19 0
-49 48 19 0
-49 -48 -19 0
49 -48 19 0
49 48 -19 0
-49 0
-16 0
-20 0
-50 20 16 0
-50 -20 -16 0
50 -20 16 0
50 20 -16 0
-50 0
-51 16 20 0
-51 -16 -20 0
51 -16 20 0
51 16 -20 0
-52 51 20 0
-52 -51 -20 0
52 -51 20 0
52 51 -20 0
-52 0
-17 0
-14 0
-53 13 14 0
-53 -13 -14 0
53 -13 14 0
53 13 -14 0
-54 17 18 0
-54 -17 -18 0
54 -17 18 0
54 17 -18 0
-55 54 53 0
-55 -54 -53 0
55 -54 53 0
55 54 -53 0
-55 0
15 19 0
-56 13 15 0
-56 -13 -15 0
56 -13 15 0
56 13 -15 0
-57 17 19 0
-57 -17 -19 0
57 -17 19 0
57 17 -19 0
-57 0
-58 14 15 0
-58 -14 -15 0
58 -14 15 0
58 14 -15 0
-59 18 19 0
-59 -18 -19 0
59 -18 19 0
59 18 -19 0
-58 0
-60 13 14 0
-60 -13 -14 0
60 -13 14 0
60 13 -14 0
-61 60 15 0
-61 -60 -15 0
61 -60 15 0
61 60 -15 0
-62 17 18 0
-62 -17 -18 0
62 -17 18 0
62 17 -18 0
-63 62 19 0
-63 -62 -19 0
63 -62 19 0
63 62 -19 0
-64 63 61 0
-64 -63 -61 0
64 -63 61 0
64 63 -61 0
-64 0
16 20 0
-65 13 16 0
-65 -13 -16 0
65 -13 16 0
65 13 -16 0
-66 17 20 0
-66 -17 -20 0
66 -17 20 0
66 17 -20 0
-66 0
-67 14 16 0
-67 -14 -16 0
67 -14 16 0
67 14 -16 0
-68 18 20 0
-68 -18 -20 0
68 -18 20 0
68 18 -20 0
-67 0
-69 13 14 0
-69 -13 -14 0
69 -13 14 0
69 13 -14 0
-70 69 16 0
-70 -69 -16 0
70 -69 16 0
70 69 -16 0
-71 17 18 0
-71 -17 -18 0
71 -17 18 0
71 17 -18 0
-72 71 20 0
-72 -71 -20 0
72 -71 20 0
72 71 -20 0
-73 72 70 0
-73 -72 -70 0
73 -72 70 0
73 72 -70 0
-73 0
-74 15 16 0
-74 -15 -16 0
74 -15 16 0
74 15 -16 0
-75 19 20 0
-75 -19 -20 0
75 -19 20 0
75 19 -20 0
74 75 0
-76 13 15 0
-76 -13 -15 0
76 -13 15 0
76 13 -15 0
-77 76 16 0
-77 -76 -16 0
77 -76 16 0
77 76 -16 0
-78 17 19 0
-78 -17 -19 0
78 -17 19 0
78 17 -19 0
-79 78 20 0
-79 -78 -20 0
79 -78 20 0
79 78 -20 0
-79 0
-80 14 15 0
-80 -14 -15 0
80 -14 15 0
80 14 -15 0
-81 80 16 0
-81 -80 -16 0
81 -80 16 0
81 80 -16 0
-82 18 19 0
-82 -18 -19 0
82 -18 19 0
82 18 -19 0
-83 82 20 0
-83 -82 -20 0
83 -82 20 0
83 82 -20 0
-81 0
-84 13 14 0
-84 -13 -14 0
84 -13 14 0
84 13 -14 0
-85 84 15 0
-85 -84 -15 0
85 -84 15 0
85 84 -15 0
-86 85 16 0
-86 -85 -16 0
86 -85 16 0
86 85 -16 0
-87 17 18 0
-87 -17 -18 0
87 -17 18 0
87 17 -18 0
-88 87 19 0
-88 -87 -19 0
88 -87 19 0
88 87 -19 0
-89 88 20 0
-89 -88 -20 0
89 -88 20 0
89 88 -20 0
-90 89 86 0
-90 -89 -86 0
90 -89 86 0
90 89 -86 0
-90 0
91 92 93 94 0
-91 0
-92 0
95 96 97 98 0
-95 0
-96 0
-99 91 95 0
-99 -91 -95 0
99 -91 95 0
99 91 -95 0
-100 92 96 0
-100 -92 -96 0
100 -92 96 0
100 92 -96 0
-101 93 97 0
-101 -93 -97 0
101 -93 97 0
101 93 -97 0
-102 94 98 0
-102 -94 -98 0
102 -94 98 0
102 94 -98 0
99 100 101 102 0
93 97 0
103 104 105 106 0
-107 103 0
-107 13 0
107 -103 -13 0
-108 104 0
-108 14 0
108 -104 -14 0
-109 105 0
-109 15 0
109 -105 -15 0
-110 106 0
-110 16 0
110 -106 -16 0
-111 107 108 0
-111 -107 -108 0
111 -107 108 0
111 107 -108 0
-112 111 109 0
-112 -111 -109 0
112 -111 109 0
112 111 -109 0
-113 112 110 0
-113 -112 -110 0
113 -112 110 0
113 112 -110 0
-113 0
-114 103 0
-114 17 0
114 -103 -17 0
-115 104 0
-115 18 0
115 -104 -18 0
-116 105 0
-116 19 0
116 -105 -19 0
-117 106 0
-117 20 0
117 -106 -20 0
-118 114 115 0
-118 -114 -115 0
118 -114 115 0
118 114 -115 0
-119 118 116 0
-119 -118 -116 0
119 -118 116 0
119 118 -116 0
-120 119 117 0
-120 -119 -117 0
120 -119 117 0
120 119 -117 0
-120 0
-121 103 0
-121 29 0
121 -103 -29 0
-122 104 0
-122 30 0
122 -104 -30 0
-123 106 0
-123 32 0
123 -106 -32 0
-124 121 122 0
-124 -121 -122 0
124 -121 122 0
124 121 -122 0
-125 124 123 0
-125 -124 -123 0
125 -124 123 0
125 124 -123 0
126 127 128 129 0
-130 126 0
-130 13 0
130 -126 -13 0
-131 127 0
-131 14 0
131 -127 -14 0
-132 128 0
-132 15 0
132 -128 -15 0
-133 129 0
-133 16 0
133 -129 -16 0
-134 130 131 0
-134 -130 -131 0
134 -130 131 0
134 130 -131 0
-135 134 132 0
-135 -134 -132 0
135 -134 132 0
135 134 -132 0
-136 135 133 0
-136 -135 -133 0
136 -135 133 0
136 135 -133 0
-136 0
-137 126 0
-137 17 0
137 -126 -17 0
-138 127 0
-138 18 0
138 -127 -18 0
-139 128 0
-139 19 0
139 -128 -19 0
-140 129 0
-140 20 0
140 -129 -20 0
-141 137 138 0
-141 -137 -138 0
141 -137 138 0
141 137 -138 0
-142 141 139 0
-142 -141 -139 0
142 -141 139 0
142 141 -139 0
-143 142 140 0
-143 -142 -140 0
143 -142 140 0
143 142 -140 0
-143 0
-144 126 0
-144 29 0
144 -126 -29 0
-145 127 0
-145 30 0
145 -127 -30 0
-146 129 0
-146 32 0
146 -129 -32 0
-147 144 145 0
-147 -144 -145 0
147 -144 145 0
147 144 -145 0
-148 147 146 0
-148 -147 -146 0
148 -147 146 0
148 147 -146 0
-149 103 126 0
-149 -103 -126 0
149 -103 126 0
149 103 -126 0
-150 104 127 0
-150 -104 -127 0
150 -104 127 0
150 104 -127 0
-151 105 128 0
-151 -105 -128 0
151 -105 128 0
151 105 -128 0
-152 106 129 0
-152 -106 -129 0
152 -106 129 0
152 106 -129 0
149 150 151 152 0
125 148 0
153 154 155 156 0
-157 153 0
-157 -13 0
157 -153 13 0
-158 154 0
-158 14 0
158 -154 -14 0
-159 155 0
-159 15 0
159 -155 -15 0
-160 156 0
-160 16 0
160 -156 -16 0
-161 157 158 0
-161 -157 -158 0
161 -157 158 0
161 157 -158 0
-162 161 159 0
-162 -161 -159 0
162 -161 159 0
162 161 -159 0
-163 162 160 0
-163 -162 -160 0
163 -162 160 0
163 162 -160 0
-163 0
-164 153 0
-164 17 0
164 -153 -17 0
-165 154 0
-165 -18 0
165 -154 18 0
-166 155 0
-166 19 0
166 -155 -19 0
-167 156 0
-167 20 0
167 -156 -20 0
-168 164 165 0
-168 -164 -165 0
168 -164 165 0
168 164 -165 0
-169 168 166 0
-169 -168 -166 0
169 -168 166 0
169 168 -166 0
-170 169 167 0
-170 -169 -167 0
170 -169 167 0
170 169 -167 0
-170 0
-171 153 0
-171 29 0
171 -153 -29 0
-172 154 0
-172 30 0
172 -154 -30 0
-173 156 0
-173 32 0
173 -156 -32 0
-174 171 172 0
-174 -171 -172 0
174 -171 172 0
174 171 -172 0
-175 174 155 0
-175 -174 -155 0
175 -174 155 0
175 174 -155 0
-176 175 173 0
-176 -175 -173 0
176 -175 173 0
176 175 -173 0
177 178 179 180 0
-181 177 0
-181 -13 0
181 -177 13 0
-182 178 0
-182 14 0
182 -178 -14 0
-183 179 0
-183 15 0
183 -179 -15 0
-184 180 0
-184 16 0
184 -180 -16 0
-185 181 182 0
-185 -181 -182 0
185 -181 182 0
185 181 -182 0
-186 185 183 0
-186 -185 -183 0
186 -185 183 0
186 185 -183 0
-187 186 184 0
-187 -186 -184 0
187 -186 184 0
187 186 -184 0
-187 0
-188 177 0
-188 17 0
188 -177 -17 0
-189 178 0
-189 -18 0
189 -178 18 0
-190 179 0
-190 19 0
190 -179 -19 0
-191 180 0
-191 20 0
191 -180 -20 0
-192 188 189 0
-192 -188 -189 0
192 -188 189 0
192 188 -189 0
-193 192 190 0
-193 -192 -190 0
193 -192 190 0
193 192 -190 0
-194 193 191 0
-194 -193 -191 0
194 -193 191 0
194 193 -191 0
-194 0
-195 177 0
-195 29 0
195 -177 -29 0
-196 178 0
-196 30 0
196 -178 -30 0
-197 180 0
-197 32 0
197 -180 -32 0
-198 195 196 0
-198 -195 -196 0
198 -195 196 0
198 195 -196 0
-199 198 179 0
-199 -198 -179 0
199 -198 179 0
199 198 -179 0
-200 199 197 0
-200 -199 -197 0
200 -199 197 0
200 199 -197 0
-201 153 177 0
-201 -153 -177 0
201 -153 177 0
201 153 -177 0
-202 154 178 0
-202 -154 -178 0
202 -154 178 0
202 154 -178 0
-203 155 179 0
-203 -155 -179 0
203 -155 179 0
203 155 -179 0
-204 156 180 0
-204 -156 -180 0
204 -156 180 0
204 156 -180 0
201 202 203 204 0
176 200 0
205 206 207 208 0
-205 0
-209 205 0
-209 13 0
209 -205 -13 0
-210 206 0
-210 14 0
210 -206 -14 0
-211 207 0
-211 15 0
211 -207 -15 0
-212 208 0
-212 16 0
212 -208 -16 0
-213 209 210 0
-213 -209 -210 0
213 -209 210 0
213 209 -210 0
-214 213 211 0
-214 -213 -211 0
214 -213 211 0
214 213 -211 0
-215 214 212 0
-215 -214 -212 0
215 -214 212 0
215 214 -212 0
-215 0
-216 205 0
-216 33 0
216 -205 -33 0
-217 206 0
-217 34 0
217 -206 -34 0
-218 207 0
-218 35 0
218 -207 -35 0
-219 208 0
-219 36 0
219 -208 -36 0
-220 216 217 0
-220 -216 -217 0
220 -216 217 0
220 216 -217 0
-221 220 218 0
-221 -220 -218 0
221 -220 218 0
221 220 -218 0
-222 221 219 0
-222 -221 -219 0
222 -221 219 0
222 221 -219 0
223 224 225 226 0
-223 0
-227 223 0
-227 13 0
227 -223 -13 0
-228 224 0
-228 14 0
228 -224 -14 0
-229 225 0
-229 15 0
229 -225 -15 0
-230 226 0
-230 16 0
230 -226 -16 0
-231 227 228 0
-231 -227 -228 0
231 -227 228 0
231 227 -228 0
-232 231 229 0
-232 -231 -229 0
232 -231 229 0
232 231 -229 0
-233 232 230 0
-233 -232 -230 0
233 -232 230 0
233 232 -230 0
-233 0
-234 223 0
-234 33 0
234 -223 -33 0
-235 224 0
-235 34 0
235 -224 -34 0
-236 225 0
-236 35 0
236 -225 -35 0
-237 226 0
-237 36 0
237 -226 -36 0
-238 234 235 0
-238 -234 -235 0
238 -234 235 0
238 234 -235 0
-239 238 236 0
-239 -238 -236 0
239 -238 236 0
239 238 -236 0
-240 239 237 0
-240 -239 -237 0
240 -239 237 0
240 239 -237 0
-241 205 223 0
-241 -205 -223 0
241 -205 223 0
241 205 -223 0
-242 206 224 0
-242 -206 -224 0
242 -206 224 0
242 206 -224 0
-243 207 225 0
-243 -207 -225 0
243 -207 225 0
243 207 -225 0
-244 208 226 0
-244 -208 -226 0
244 -208 226 0
244 208 -226 0
241 242 243 244 0
222 240 0
245 246 247 248 0
-245 0
-249 245 0
-249 13 0
249 -245 -13 0
-250 246 0
-250 14 0
250 -246 -14 0
-251 247 0
-251 15 0
251 -247 -15 0
-252 248 0
-252 16 0
252 -248 -16 0
-253 249 250 0
-253 -249 -250 0
253 -249 250 0
253 249 -250 0
-254 253 251 0
-254 -253 -251 0
254 -253 251 0
254 253 -251 0
-255 254 252 0
-255 -254 -252 0
255 -254 252 0
255 254 -252 0
-255 0
-245 0
-246 0
-256 245 0
-256 -33 0
256 -245 33 0
-257 246 0
-257 34 0
257 -246 -34 0
-258 247 0
-258 -35 0
258 -247 35 0
-259 248 0
-259 36 0
259 -248 -36 0
-260 256 257 0
-260 -256 -257 0
260 -256 257 0
260 256 -257 0
-261 260 258 0
-261 -260 -258 0
261 -260 258 0
261 260 -258 0
-262 261 259 0
-262 -261 -259 0
262 -261 259 0
262 261 -259 0
263 264 265 266 0
-263 0
-267 263 0
-267 13 0
267 -263 -13 0
-268 264 0
-268 14 0
268 -264 -14 0
-269 265 0
-269 15 0
269 -265 -15 0
-270 266 0
-270 16 0
270 -266 -16 0
-271 267 268 0
-271 -267 -268 0
271 -267 268 0
271 267 -268 0
-272 271 269 0
-272 -271 -269 0
272 -271 269 0
272 271 -269 0
-273 272 270 0
-273 -272 -270 0
273 -272 270 0
273 272 -270 0
-273 0
-263 0
-264 0
-274 263 0
-274 -33 0
274 -263 33 0
-275 264 0
-275 34 0
275 -264 -34 0
-276 265 0
-276 -35 0
276 -265 35 0
-277 266 0
-277 36 0
277 -266 -36 0
-278 274 275 0
-278 -274 -275 0
278 -274 275 0
278 274 -275 0
-279 278 276 0
-279 -278 -276 0
279 -278 276 0
279 278 -276 0
-280 279 277 0
-280 -279 -277 0
280 -279 277 0
280 279 -277 0
-281 245 263 0
-281 -245 -263 0
281 -245 263 0
281 245 -263 0
-282 246 264 0
-282 -246 -264 0
282 -246 264 0
282 246 -264 0
-283 247 265 0
-283 -247 -265 0
283 -247 265 0
283 247 -265 0
-284 248 266 0
-284 -248 -266 0
284 -248 266 0
284 248 -266 0
281 282 283 284 0
262 280 0
-285 29 33 0
-285 -29 -33 0
285 -29 33 0
285 29 -33 0
-286 285 13 0
-286 -285 -13 0
286 -285 13 0
286 285 -13 0
-287 30 34 0
-287 -30 -34 0
287 -30 34 0
287 30 -34 0
-288 287 14 0
-288 -287 -14 0
288 -287 14 0
288 287 -14 0
-289 35 15 0
-289 -35 -15 0
289 -35 15 0
289 35 -15 0
-290 32 36 0
-290 -32 -36 0
290 -32 36 0
290 32 -36 0
-291 290 16 0
-291 -290 -16 0
291 -290 16 0
291 290 -16 0
292 293 294 295 0
-292 0
-296 292 0
-296 13 0
296 -292 -13 0
-297 293 0
-297 14 0
297 -293 -14 0
-298 294 0
-298 15 0
298 -294 -15 0
-299 295 0
-299 16 0
299 -295 -16 0
-300 296 297 0
-300 -296 -297 0
300 -296 297 0
300 296 -297 0
-301 300 298 0
-301 -300 -298 0
301 -300 298 0
301 300 -298 0
-302 301 299 0
-302 -301 -299 0
302 -301 299 0
302 301 -299 0
-302 0
-303 292 0
-303 13 0
303 -292 -13 0
-304 293 0
-304 14 0
304 -293 -14 0
-305 294 0
-305 15 0
305 -294 -15 0
-306 295 0
-306 16 0
306 -295 -16 0
-307 303 304 0
-307 -303 -304 0
307 -303 304 0
307 303 -304 0
-308 307 305 0
-308 -307 -305 0
308 -307 305 0
308 307 -305 0
-309 308 306 0
-309 -308 -306 0
309 -308 306 0
309 308 -306 0
-309 0
-310 292 0
-310 17 0
310 -292 -17 0
-311 293 0
-311 18 0
311 -293 -18 0
-312 294 0
-312 19 0
312 -294 -19 0
-313 295 0
-313 20 0
313 -295 -20 0
-314 310 311 0
-314 -310 -311 0
314 -310 311 0
314 310 -311 0
-315 314 312 0
-315 -314 -312 0
315 -314 312 0
315 314 -312 0
-316 315 313 0
-316 -315 -313 0
316 -315 313 0
316 315 -313 0
-316 0
-317 292 0
-317 286 0
317 -292 -286 0
-318 293 0
-318 288 0
318 -293 -288 0
-319 294 0
-319 289 0
319 -294 -289 0
-320 295 0
-320 291 0
320 -295 -291 0
-321 317 318 0
-321 -317 -318 0
321 -317 318 0
321 317 -318 0
-322 321 319 0
-322 -321 -319 0
322 -321 319 0
322 321 -319 0
-323 322 320 0
-323 -322 -320 0
323 -322 320 0
323 322 -320 0
324 325 326 327 0
-324 0
-328 324 0
-328 13 0
328 -324 -13 0
-329 325 0
-329 14 0
329 -325 -14 0
-330 326 0
-330 15 0
330 -326 -15 0
-331 327 0
-331 16 0
331 -327 -16 0
-332 328 329 0
-332 -328 -329 0
332 -328 329 0
332 328 -329 0
-333 332 330 0
-333 -332 -330 0
333 -332 330 0
333 332 -330 0
-334 333 331 0
-334 -333 -331 0
334 -333 331 0
334 333 -331 0
-334 0
-335 324 0
-335 13 0
335 -324 -13 0
-336 325 0
-336 14 0
336 -325 -14 0
-337 326 0
-337 15 0
337 -326 -15 0
-338 327 0
-338 16 0
338 -327 -16 0
-339 335 336 0
-339 -335 -336 0
339 -335 336 0
339 335 -336 0
-340 339 337 0
-340 -339 -337 0
340 -339 337 0
340 339 -337 0
-341 340 338 0
-341 -340 -338 0
341 -340 338 0
341 340 -338 0
-341 0
-342 324 0
-342 17 0
342 -324 -17 0
-343 325 0
-343 18 0
343 -325 -18 0
-344 326 0
-344 19 0
344 -326 -19 0
-345 327 0
-345 20 0
345 -327 -20 0
-346 342 343 0
-346 -342 -343 0
346 -342 343 0
346 342 -343 0
-347 346 344 0
-347 -346 -344 0
347 -346 344 0
347 346 -344 0
-348 347 345 0
-348 -347 -345 0
348 -347 345 0
348 347 -345 0
-348 0
-349 324 0
-349 286 0
349 -324 -286 0
-350 325 0
-350 288 0
350 -325 -288 0
-351 326 0
-351 289 0
351 -326 -289 0
-352 327 0
-352 291 0
352 -327 -291 0
-353 349 350 0
-353 -349 -350 0
353 -349 350 0
353 349 -350 0
-354 353 351 0
-354 -353 -351 0
354 -353 351 0
354 353 -351 0
-355 354 352 0
-355 -354 -352 0
355 -354 352 0
355 354 -352 0
-356 292 324 0
-356 -292 -324 0
356 -292 324 0
356 292 -324 0
-357 293 325 0
-357 -293 -325 0
357 -293 325 0
357 293 -325 0
-358 294 326 0
-358 -294 -326 0
358 -294 326 0
358 294 -326 0
-359 295 327 0
-359 -295 -327 0
359 -295 327 0
359 295 -327 0
356 357 358 359 0
323 355 0
-360 29 33 0
-360 -29 -33 0
360 -29 33 0
360 29 -33 0
-361 -360 13 0
-361 360 -13 0
361 360 13 0
361 -360 -13 0
-362 30 34 0
-362 -30 -34 0
362 -30 34 0
362 30 -34 0
-363 362 14 0
-363 -362 -14 0
363 -362 14 0
363 362 -14 0
-364 -35 15 0
-364 35 -15 0
364 35 15 0
364 -35 -15 0
-365 32 36 0
-365 -32 -36 0
365 -32 36 0
365 32 -36 0
-366 365 16 0
-366 -365 -16 0
366 -365 16 0
366 365 -16 0
367 368 369 370 0
-367 0
-371 367 0
-371 13 0
371 -367 -13 0
-372 368 0
-372 14 0
372 -368 -14 0
-373 369 0
-373 15 0
373 -369 -15 0
-374 370 0
-374 16 0
374 -370 -16 0
-375 371 372 0
-375 -371 -372 0
375 -371 372 0
375 371 -372 0
-376 375 373 0
-376 -375 -373 0
376 -375 373 0
376 375 -373 0
-377 376 374 0
-377 -376 -374 0
377 -376 374 0
377 376 -374 0
-377 0
-378 367 0
-378 -13 0
378 -367 13 0
-379 368 0
-379 14 0
379 -368 -14 0
-380 369 0
-380 15 0
380 -369 -15 0
-381 370 0
-381 16 0
381 -370 -16 0
-382 378 379 0
-382 -378 -379 0
382 -378 379 0
382 378 -379 0
-383 382 380 0
-383 -382 -380 0
383 -382 380 0
383 382 -380 0
-384 383 381 0
-384 -383 -381 0
384 -383 381 0
384 383 -381 0
-384 0
-385 367 0
-385 17 0
385 -367 -17 0
-386 368 0
-386 -18 0
386 -368 18 0
-387 369 0
-387 19 0
387 -369 -19 0
-388 370 0
-388 20 0
388 -370 -20 0
-389 385 386 0
-389 -385 -386 0
389 -385 386 0
389 385 -386 0
-390 389 387 0
-390 -389 -387 0
390 -389 387 0
390 389 -387 0
-391 390 388 0
-391 -390 -388 0
391 -390 388 0
391 390 -388 0
-391 0
-392 367 0
-392 361 0
392 -367 -361 0
-393 368 0
-393 363 0
393 -368 -363 0
-394 369 0
-394 364 0
394 -369 -364 0
-395 370 0
-395 366 0
395 -370 -366 0
-396 392 393 0
-396 -392 -393 0
396 -392 393 0
396 392 -393 0
-397 396 394 0
-397 -396 -394 0
397 -396 394 0
397 396 -394 0
-398 397 395 0
-398 -397 -395 0
398 -397 395 0
398 397 -395 0
399 400 401 402 0
-399 0
-403 399 0
-403 13 0
403 -399 -13 0
-404 400 0
-404 14 0
404 -400 -14 0
-405 401 0
-405 15 0
405 -401 -15 0
-406 402 0
-406 16 0
406 -402 -16 0
-407 403 404 0
-407 -403 -404 0
407 -403 404 0
407 403 -404 0
-408 407 405 0
-408 -407 -405 0
408 -407 405 0
408 407 -405 0
-409 408 406 0
-409 -408 -406 0
409 -408 406 0
409 408 -406 0
-409 0
-410 399 0
-410 -13 0
410 -399 13 0
-411 400 0
-411 14 0
411 -400 -14 0
-412 401 0
-412 15 0
412 -401 -15 0
-413 402 0
-413 16 0
413 -402 -16 0
-414 410 411 0
-414 -410 -411 0
414 -410 411 0
414 410 -411 0
-415 414 412 0
-415 -414 -412 0
415 -414 412 0
415 414 -412 0
-416 415 413 0
-416 -415 -413 0
416 -415 413 0
416 415 -413 0
-416 0
-417 399 0
-417 17 0
417 -399 -17 0
-418 400 0
-418 -18 0
418 -400 18 0
-419 401 0
-419 19 0
419 -401 -19 0
-420 402 0
-420 20 0
420 -402 -20 0
-421 417 418 0
-421 -417 -418 0
421 -417 418 0
421 417 -418 0
-422 421 419 0
-422 -421 -419 0
422 -421 419 0
422 421 -419 0
-423 422 420 0
-423 -422 -420 0
423 -422 420 0
423 422 -420 0
-423 0
-424 399 0
-424 361 0
424 -399 -361 0
-425 400 0
-425 363 0
425 -400 -363 0
-426 401 0
-426 364 0
426 -401 -364 0
-427 402 0
-427 366 0
427 -402 -366 0
-428 424 425 0
-428 -424 -425 0
428 -424 425 0
428 424 -425 0
-429 428 426 0
-429 -428 -426 0
429 -428 426 0
429 428 -426 0
-430 429 427 0
-430 -429 -427 0
430 -429 427 0
430 429 -427 0
-431 367 399 0
-431 -367 -399 0
431 -367 399 0
431 367 -399 0
-432 368 400 0
-432 -368 -400 0
432 -368 400 0
432 368 -400 0
-433 369 401 0
-433 -369 -401 0
433 -369 401 0
433 369 -401 0
-434 370 402 0
-434 -370 -402 0
434 -370 402 0
434 370 -402 0
431 432 433 434 0
398 430 0
435 436 437 438 0
-436 0
-439 435 0
-439 17 0
439 -435 -17 0
-440 436 0
-440 18 0
440 -436 -18 0
-441 437 0
-441 19 0
441 -437 -19 0
-442 438 0
-442 20 0
442 -438 -20 0
-443 439 440 0
-443 -439 -440 0
443 -439 440 0
443 439 -440 0
-444 443 441 0
-444 -443 -441 0
444 -443 441 0
444 443 -441 0
-445 444 442 0
-445 -444 -442 0
445 -444 442 0
445 444 -442 0
-445 0
-446 435 0
-446 37 0
446 -435 -37 0
-447 436 0
-447 38 0
447 -436 -38 0
-448 437 0
-448 39 0
448 -437 -39 0
-449 438 0
-449 40 0
449 -438 -40 0
-450 446 447 0
-450 -446 -447 0
450 -446 447 0
450 446 -447 0
-451 450 448 0
-451 -450 -448 0
451 -450 448 0
451 450 -448 0
-452 451 449 0
-452 -451 -449 0
452 -451 449 0
452 451 -449 0
453 454 455 456 0
-454 0
-457 453 0
-457 17 0
457 -453 -17 0
-458 454 0
-458 18 0
458 -454 -18 0
-459 455 0
-459 19 0
459 -455 -19 0
-460 456 0
-460 20 0
460 -456 -20 0
-461 457 458 0
-461 -457 -458 0
461 -457 458 0
461 457 -458 0
-462 461 459 0
-462 -461 -459 0
462 -461 459 0
462 461 -459 0
-463 462 460 0
-463 -462 -460 0
463 -462 460 0
463 462 -460 0
-463 0
-464 453 0
-464 37 0
464 -453 -37 0
-465 454 0
-465 38 0
465 -454 -38 0
-466 455 0
-466 39 0
466 -455 -39 0
-467 456 0
-467 40 0
467 -456 -40 0
-468 464 465 0
-468 -464 -465 0
468 -464 465 0
468 464 -465 0
-469 468 466 0
-469 -468 -466 0
469 -468 466 0
469 468 -466 0
-470 469 467 0
-470 -469 -467 0
470 -469 467 0
470 469 -467 0
-471 435 453 0
-471 -435 -453 0
471 -435 453 0
471 435 -453 0
-472 436 454 0
-472 -436 -454 0
472 -436 454 0
472 436 -454 0
-473 437 455 0
-473 -437 -455 0
473 -437 455 0
473 437 -455 0
-474 438 456 0
-474 -438 -456 0
474 -438 456 0
474 438 -456 0
471 472 473 474 0
452 470 0
475 476 477 478 0
-476 0
-479 475 0
-479 17 0
479 -475 -17 0
-480 476 0
-480 18 0
480 -476 -18 0
-481 477 0
-481 19 0
481 -477 -19 0
-482 478 0
-482 20 0
482 -478 -20 0
-483 479 480 0
-483 -479 -480 0
483 -479 480 0
483 479 -480 0
-484 483 481 0
-484 -483 -481 0
484 -483 481 0
484 483 -481 0
-485 484 482 0
-485 -484 -482 0
485 -484 482 0
485 484 -482 0
-485 0
-475 0
-476 0
-486 475 0
-486 37 0
486 -475 -37 0
-487 476 0
-487 -38 0
487 -476 38 0
-488 477 0
-488 -39 0
488 -477 39 0
-489 478 0
-489 40 0
489 -478 -40 0
-490 486 487 0
-490 -486 -487 0
490 -486 487 0
490 486 -487 0
-491 490 488 0
-491 -490 -488 0
491 -490 488 0
491 490 -488 0
-492 491 489 0
-492 -491 -489 0
492 -491 489 0
492 491 -489 0
493 494 495 496 0
-494 0
-497 493 0
-497 17 0
497 -493 -17 0
-498 494 0
-498 18 0
498 -494 -18 0
-499 495 0
-499 19 0
499 -495 -19 0
-500 496 0
-500 20 0
500 -496 -20 0
-501 497 498 0
-501 -497 -498 0
501 -497 498 0
501 497 -498 0
-502 501 499 0
-502 -501 -499 0
502 -501 499 0
502 501 -499 0
-503 502 500 0
-503 -502 -500 0
503 -502 500 0
503 502 -500 0
-503 0
-493 0
-494 0
-504 493 0
-504 37 0
504 -493 -37 0
-505 494 0
-505 -38 0
505 -494 38 0
-506 495 0
-506 -39 0
506 -495 39 0
-507 496 0
-507 40 0
507 -496 -40 0
-508 504 505 0
-508 -504 -505 0
508 -504 505 0
508 504 -505 0
-509 508 506 0
-509 -508 -506 0
509 -508 506 0
509 508 -506 0
-510 509 507 0
-510 -509 -507 0
510 -509 507 0
510 509 -507 0
-511 475 493 0
-511 -475 -493 0
511 -475 493 0
511 475 -493 0
-512 476 494 0
-512 -476 -494 0
512 -476 494 0
512 476 -494 0
-513 477 495 0
-513 -477 -495 0
513 -477 495 0
513 477 -495 0
-514 478 496 0
-514 -478 -496 0
514 -478 496 0
514 478 -496 0
511 512 513 514 0
492 510 0
-515 29 37 0
-515 -29 -37 0
515 -29 37 0
515 29 -37 0
-516 515 17 0
-516 -515 -17 0
516 -515 17 0
516 515 -17 0
-517 30 38 0
-517 -30 -38 0
517 -30 38 0
517 30 -38 0
-518 517 18 0
-518 -517 -18 0
518 -517 18 0
518 517 -18 0
-519 39 19 0
-519 -39 -19 0
519 -39 19 0
519 39 -19 0
-520 32 40 0
-520 -32 -40 0
520 -32 40 0
520 32 -40 0
-521 520 20 0
-521 -520 -20 0
521 -520 20 0
521 520 -20 0
522 523 524 525 0
-523 0
-526 522 0
-526 17 0
526 -522 -17 0
-527 523 0
-527 18 0
527 -523 -18 0
-528 524 0
-528 19 0
528 -524 -19 0
-529 525 0
-529 20 0
529 -525 -20 0
-530 526 527 0
-530 -526 -527 0
530 -526 527 0
530 526 -527 0
-531 530 528 0
-531 -530 -528 0
531 -530 528 0
531 530 -528 0
-532 531 529 0
-532 -531 -529 0
532 -531 529 0
532 531 -529 0
-532 0
-533 522 0
-533 13 0
533 -522 -13 0
-534 523 0
-534 14 0
534 -523 -14 0
-535 524 0
-535 15 0
535 -524 -15 0
-536 525 0
-536 16 0
536 -525 -16 0
-537 533 534 0
-537 -533 -534 0
537 -533 534 0
537 533 -534 0
-538 537 535 0
-538 -537 -535 0
538 -537 535 0
538 537 -535 0
-539 538 536 0
-539 -538 -536 0
539 -538 536 0
539 538 -536 0
-539 0
-540 522 0
-540 17 0
540 -522 -17 0
-541 523 0
-541 18 0
541 -523 -18 0
-542 524 0
-542 19 0
542 -524 -19 0
-543 525 0
-543 20 0
543 -525 -20 0
-544 540 541 0
-544 -540 -541 0
544 -540 541 0
544 540 -541 0
-545 544 542 0
-545 -544 -542 0
545 -544 542 0
545 544 -542 0
-546 545 543 0
-546 -545 -543 0
546 -545 543 0
546 545 -543 0
-546 0
-547 522 0
-547 516 0
547 -522 -516 0
-548 523 0
-548 518 0
548 -523 -518 0
-549 524 0
-549 519 0
549 -524 -519 0
-550 525 0
-550 521 0
550 -525 -521 0
-551 547 548 0
-551 -547 -548 0
551 -547 548 0
551 547 -548 0
-552 551 549 0
-552 -551 -549 0
552 -551 549 0
552 551 -549 0
-553 552 550 0
-553 -552 -550 0
553 -552 550 0
553 552 -550 0
554 555 556 557 0
-555 0
-558 554 0
-558 17 0
558 -554 -17 0
-559 555 0
-559 18 0
559 -555 -18 0
-560 556 0
-560 19 0
560 -556 -19 0
-561 557 0
-561 20 0
561 -557 -20 0
-562 558 559 0
-562 -558 -559 0
562 -558 559 0
562 558 -559 0
-563 562 560 0
-563 -562 -560 0
563 -562 560 0
563 562 -560 0
-564 563 561 0
-564 -563 -561 0
564 -563 561 0
564 563 -561 0
-564 0
-565 554 0
-565 13 0
565 -554 -13 0
-566 555 0
-566 14 0
566 -555 -14 0
-567 556 0
-567 15 0
567 -556 -15 0
-568 557 0
-568 16 0
568 -557 -16 0
-569 565 566 0
-569 -565 -566 0
569 -565 566 0
569 565 -566 0
-570 569 567 0
-570 -569 -567 0
570 -569 567 0
570 569 -567 0
-571 570 568 0
-571 -570 -568 0
571 -570 568 0
571 570 -568 0
-571 0
-572 554 0
-572 17 0
572 -554 -17 0
-573 555 0
-573 18 0
573 -555 -18 0
-574 556 0
-574 19 0
574 -556 -19 0
-575 557 0
-575 20 0
575 -557 -20 0
-576 572 573 0
-576 -572 -573 0
576 -572 573 0
576 572 -573 0
-577 576 574 0
-577 -576 -574 0
577 -576 574 0
577 576 -574 0
-578 577 575 0
-578 -577 -575 0
578 -577 575 0
578 577 -575 0
-578 0
-579 554 0
-579 516 0
579 -554 -516 0
-580 555 0
-580 518 0
580 -555 -518 0
-581 556 0
-581 519 0
581 -556 -519 0
-582 557 0
-582 521 0
582 -557 -521 0
-583 579 580 0
-583 -579 -580 0
583 -579 580 0
583 579 -580 0
-584 583 581 0
-584 -583 -581 0
584 -583 581 0
584 583 -581 0
-585 584 582 0
-585 -584 -582 0
585 -584 582 0
585 584 -582 0
-586 522 554 0
-586 -522 -554 0
586 -522 554 0
586 522 -554 0
-587 523 555 0
-587 -523 -555 0
587 -523 555 0
587 523 -555 0
-588 524 556 0
-588 -524 -556 0
588 -524 556 0
588 524 -556 0
-589 525 557 0
-589 -525 -557 0
589 -525 557 0
589 525 -557 0
586 587 588 589 0
553 585 0
-590 29 37 0
-590 -29 -37 0
590 -29 37 0
590 29 -37 0
-591 590 17 0
-591 -590 -17 0
591 -590 17 0
591 590 -17 0
-592 30 38 0
-592 -30 -38 0
592 -30 38 0
592 30 -38 0
-593 -592 18 0
-593 592 -18 0
593 592 18 0
593 -592 -18 0
-594 -39 19 0
-594 39 -19 0
594 39 19 0
594 -39 -19 0
-595 32 40 0
-595 -32 -40 0
595 -32 40 0
595 32 -40 0
-596 595 20 0
-596 -595 -20 0
596 -595 20 0
596 595 -20 0
597 598 599 600 0
-598 0
-601 597 0
-601 17 0
601 -597 -17 0
-602 598 0
-602 18 0
602 -598 -18 0
-603 599 0
-603 19 0
603 -599 -19 0
-604 600 0
-604 20 0
604 -600 -20 0
-605 601 602 0
-605 -601 -602 0
605 -601 602 0
605 601 -602 0
-606 605 603 0
-606 -605 -603 0
606 -605 603 0
606 605 -603 0
-607 606 604 0
-607 -606 -604 0
607 -606 604 0
607 606 -604 0
-607 0
-608 597 0
-608 -13 0
608 -597 13 0
-609 598 0
-609 14 0
609 -598 -14 0
-610 599 0
-610 15 0
610 -599 -15 0
-611 600 0
-611 16 0
611 -600 -16 0
-612 608 609 0
-612 -608 -609 0
612 -608 609 0
612 608 -609 0
-613 612 610 0
-613 -612 -610 0
613 -612 610 0
613 612 -610 0
-614 613 611 0
-614 -613 -611 0
614 -613 611 0
614 613 -611 0
-614 0
-615 597 0
-615 17 0
615 -597 -17 0
-616 598 0
-616 -18 0
616 -598 18 0
-617 599 0
-617 19 0
617 -599 -19 0
-618 600 0
-618 20 0
618 -600 -20 0
-619 615 616 0
-619 -615 -616 0
619 -615 616 0
619 615 -616 0
-620 619 617 0
-620 -619 -617 0
620 -619 617 0
620 619 -617 0
-621 620 618 0
-621 -620 -618 0
621 -620 618 0
621 620 -618 0
-621 0
-622 597 0
-622 591 0
622 -597 -591 0
-623 598 0
-623 593 0
623 -598 -593 0
-624 599 0
-624 594 0
624 -599 -594 0
-625 600 0
-625 596 0
625 -600 -596 0
-626 622 623 0
-626 -622 -623 0
626 -622 623 0
626 622 -623 0
-627 626 624 0
-627 -626 -624 0
627 -626 624 0
627 626 -624 0
-628 627 625 0
-628 -627 -625 0
628 -627 625 0
628 627 -625 0
629 630 631 632 0
-630 0
-633 629 0
-633 17 0
633 -629 -17 0
-634 630 0
-634 18 0
634 -630 -18 0
-635 631 0
-635 19 0
635 -631 -19 0
-636 632 0
-636 20 0
636 -632 -20 0
-637 633 634 0
-637 -633 -634 0
637 -633 634 0
637 633 -634 0
-638 637 635 0
-638 -637 -635 0
638 -637 635 0
638 637 -635 0
-639 638 636 0
-639 -638 -636 0
639 -638 636 0
639 638 -636 0
-639 0
-640 629 0
-640 -13 0
640 -629 13 0
-641 630 0
-641 14 0
641 -630 -14 0
-642 631 0
-642 15 0
642 -631 -15 0
-643 632 0
-643 16 0
643 -632 -16 0
-644 640 641 0
-644 -640 -641 0
644 -640 641 0
644 640 -641 0
-645 644 642 0
-645 -644 -642 0
645 -644 642 0
645 644 -642 0
-646 645 643 0
-646 -645 -643 0
646 -645 643 0
646 645 -643 0
-646 0
-647 629 0
-647 17 0
647 -629 -17 0
-648 630 0
-648 -18 0
648 -630 18 0
-649 631 0
-649 19 0
649 -631 -19 0
-650 632 0
-650 20 0
650 -632 -20 0
-651 647 648 0
-651 -647 -648 0
651 -647 648 0
651 647 -648 0
-652 651 649 0
-652 -651 -649 0
652 -651 649 0
652 651 -649 0
-653 652 650 0
-653 -652 -650 0
653 -652 650 0
653 652 -650 0
-653 0
-654 629 0
-654 591 0
654 -629 -591 0
-655 630 0
-655 593 0
655 -630 -593 0
-656 631 0
-656 594 0
656 -631 -594 0
-657 632 0
-657 596 0
657 -632 -596 0
-658 654 655 0
-658 -654 -655 0
658 -654 655 0
658 654 -655 0
-659 658 656 0
-659 -658 -656 0
659 -658 656 0
659 658 -656 0
-660 659 657 0
-660 -659 -657 0
660 -659 657 0
660 659 -657 0
-661 597 629 0
-661 -597 -629 0
661 -597 629 0
661 597 -629 0
-662 598 630 0
-662 -598 -630 0
662 -598 630 0
662 598 -630 0
-663 599 631 0
-663 -599 -631 0
663 -599 631 0
663 599 -631 0
-664 600 632 0
-664 -600 -632 0
664 -600 632 0
664 600 -632 0
661 662 663 664 0
628 660 0
-665 13 17 0
-665 -13 -17 0
665 -13 17 0
665 13 -17 0
-666 14 18 0
-666 -14 -18 0
666 -14 18 0
666 14 -18 0
-667 15 19 0
-667 -15 -19 0
667 -15 19 0
667 15 -19 0
-668 16 20 0
-668 -16 -20 0
668 -16 20 0
668 16 -20 0
-669 33 37 0
-669 -33 -37 0
669 -33 37 0
669 33 -37 0
-670 34 38 0
-670 -34 -38 0
670 -34 38 0
670 34 -38 0
-671 35 39 0
-671 -35 -39 0
671 -35 39 0
671 35 -39 0
-672 36 40 0
-672 -36 -40 0
672 -36 40 0
672 36 -40 0
673 674 675 676 0
-677 673 674 0
-677 -673 -674 0
677 -673 674 0
677 673 -674 0
-677 0
-678 673 0
-678 665 0
678 -673 -665 0
-679 674 0
-679 666 0
679 -674 -666 0
-680 675 0
-680 667 0
680 -675 -667 0
-681 676 0
-681 668 0
681 -676 -668 0
-682 678 679 0
-682 -678 -679 0
682 -678 679 0
682 678 -679 0
-683 682 680 0
-683 -682 -680 0
683 -682 680 0
683 682 -680 0
-684 683 681 0
-684 -683 -681 0
684 -683 681 0
684 683 -681 0
-684 0
-685 673 0
-685 669 0
685 -673 -669 0
-686 674 0
-686 670 0
686 -674 -670 0
-687 675 0
-687 671 0
687 -675 -671 0
-688 676 0
-688 672 0
688 -676 -672 0
-689 685 686 0
-689 -685 -686 0
689 -685 686 0
689 685 -686 0
-690 689 687 0
-690 -689 -687 0
690 -689 687 0
690 689 -687 0
-691 690 688 0
-691 -690 -688 0
691 -690 688 0
691 690 -688 0
692 693 694 695 0
-696 692 693 0
-696 -692 -693 0
696 -692 693 0
696 692 -693 0
-696 0
-697 692 0
-697 665 0
697 -692 -665 0
-698 693 0
-698 666 0
698 -693 -666 0
-699 694 0
-699 667 0
699 -694 -667 0
-700 695 0
-700 668 0
700 -695 -668 0
-701 697 698 0
-701 -697 -698 0
701 -697 698 0
701 697 -698 0
-702 701 699 0
-702 -701 -699 0
702 -701 699 0
702 701 -699 0
-703 702 700 0
-703 -702 -700 0
703 -702 700 0
703 702 -700 0
-703 0
-704 692 0
-704 669 0
704 -692 -669 0
-705 693 0
-705 670 0
705 -693 -670 0
-706 694 0
-706 671 0
706 -694 -671 0
-707 695 0
-707 672 0
707 -695 -672 0
-708 704 705 0
-708 -704 -705 0
708 -704 705 0
708 704 -705 0
-709 708 706 0
-709 -708 -706 0
709 -708 706 0
709 708 -706 0
-710 709 707 0
-710 -709 -707 0
710 -709 707 0
710 709 -707 0
-711 673 692 0
-711 -673 -692 0
711 -673 692 0
711 673 -692 0
-712 674 693 0
-712 -674 -693 0
712 -674 693 0
712 674 -693 0
-713 675 694 0
-713 -675 -694 0
713 -675 694 0
713 675 -694 0
-714 676 695 0
-714 -676 -695 0
714 -676 695 0
714 676 -695 0
711 712 713 714 0
691 710 0
-715 13 17 0
-715 -13 -17 0
715 -13 17 0
715 13 -17 0
-716 14 18 0
-716 -14 -18 0
716 -14 18 0
716 14 -18 0
-717 15 19 0
-717 -15 -19 0
717 -15 19 0
717 15 -19 0
-718 16 20 0
-718 -16 -20 0
718 -16 20 0
718 16 -20 0
-719 33 37 0
-719 -33 -37 0
719 -33 37 0
719 33 -37 0
-720 34 38 0
-720 -34 -38 0
720 -34 38 0
720 34 -38 0
-721 -35 39 0
-721 35 -39 0
721 35 39 0
721 -35 -39 0
-722 36 40 0
-722 -36 -40 0
722 -36 40 0
722 36 -40 0
723 724 725 726 0
-727 723 724 0
-727 -723 -724 0
727 -723 724 0
727 723 -724 0
-727 0
-728 723 0
-728 715 0
728 -723 -715 0
-729 724 0
-729 716 0
729 -724 -716 0
-730 725 0
-730 717 0
730 -725 -717 0
-731 726 0
-731 718 0
731 -726 -718 0
-732 728 729 0
-732 -728 -729 0
732 -728 729 0
732 728 -729 0
-733 732 730 0
-733 -732 -730 0
733 -732 730 0
733 732 -730 0
-734 733 731 0
-734 -733 -731 0
734 -733 731 0
734 733 -731 0
-734 0
-723 0
-724 0
-735 723 0
-735 -719 0
735 -723 719 0
-736 724 0
-736 -720 0
736 -724 720 0
-737 725 0
-737 721 0
737 -725 -721 0
-738 726 0
-738 722 0
738 -726 -722 0
-739 735 736 0
-739 -735 -736 0
739 -735 736 0
739 735 -736 0
-740 739 737 0
-740 -739 -737 0
740 -739 737 0
740 739 -737 0
-741 740 738 0
-741 -740 -738 0
741 -740 738 0
741 740 -738 0
742 743 744 745 0
-746 742 743 0
-746 -742 -743 0
746 -742 743 0
746 742 -743 0
-746 0
-747 742 0
-747 715 0
747 -742 -715 0
-748 743 0
-748 716 0
748 -743 -716 0
-749 744 0
-749 717 0
749 -744 -717 0
-750 745 0
-750 718 0
750 -745 -718 0
-751 747 748 0
-751 -747 -748 0
751 -747 748 0
751 747 -748 0
-752 751 749 0
-752 -751 -749 0
752 -751 749 0
752 751 -749 0
-753 752 750 0
-753 -752 -750 0
753 -752 750 0
753 752 -750 0
-753 0
-742 0
-743 0
-754 742 0
-754 -719 0
754 -742 719 0
-755 743 0
-755 -720 0
755 -743 720 0
-756 744 0
-756 721 0
756 -744 -721 0
-757 745 0
-757 722 0
757 -745 -722 0
-758 754 755 0
-758 -754 -755 0
758 -754 755 0
758 754 -755 0
-759 758 756 0
-759 -758 -756 0
759 -758 756 0
759 758 -756 0
-760 759 757 0
-760 -759 -757 0
760 -759 757 0
760 759 -757 0
-761 723 742 0
-761 -723 -742 0
761 -723 742 0
761 723 -742 0
-762 724 743 0
-762 -724 -743 0
762 -724 743 0
762 724 -743 0
-763 725 744 0
-763 -725 -744 0
763 -725 744 0
763 725 -744 0
-764 726 745 0
-764 -726 -745 0
764 -726 745 0
764 726 -745 0
761 762 763 764 0
741 760 0
-765 13 17 0
-765 -13 -17 0
765 -13 17 0
765 13 -17 0
-766 14 18 0
-766 -14 -18 0
766 -14 18 0
766 14 -18 0
-767 15 19 0
-767 -15 -19 0
767 -15 19 0
767 15 -19 0
-768 16 20 0
-768 -16 -20 0
768 -16 20 0
768 16 -20 0
-769 29 33 0
-769 -29 -33 0
769 -29 33 0
769 29 -33 0
-770 769 37 0
-770 -769 -37 0
770 -769 37 0
770 769 -37 0
-771 770 13 0
-771 -770 -13 0
771 -770 13 0
771 770 -13 0
-772 771 17 0
-772 -771 -17 0
772 -771 17 0
772 771 -17 0
-773 30 34 0
-773 -30 -34 0
773 -30 34 0
773 30 -34 0
-774 773 38 0
-774 -773 -38 0
774 -773 38 0
774 773 -38 0
-775 774 14 0
-775 -774 -14 0
775 -774 14 0
775 774 -14 0
-776 775 18 0
-776 -775 -18 0
776 -775 18 0
776 775 -18 0
-777 35 39 0
-777 -35 -39 0
777 -35 39 0
777 35 -39 0
-778 777 15 0
-778 -777 -15 0
778 -777 15 0
778 777 -15 0
-779 778 19 0
-779 -778 -19 0
779 -778 19 0
779 778 -19 0
-780 32 36 0
-780 -32 -36 0
780 -32 36 0
780 32 -36 0
-781 780 40 0
-781 -780 -40 0
781 -780 40 0
781 780 -40 0
-782 781 16 0
-782 -781 -16 0
782 -781 16 0
782 781 -16 0
-783 782 20 0
-783 -782 -20 0
783 -782 20 0
783 782 -20 0
784 785 786 787 0
-788 784 785 0
-788 -784 -785 0
788 -784 785 0
788 784 -785 0
-788 0
-789 784 0
-789 765 0
789 -784 -765 0
-790 785 0
-790 766 0
790 -785 -766 0
-791 786 0
-791 767 0
791 -786 -767 0
-792 787 0
-792 768 0
792 -787 -768 0
-793 789 790 0
-793 -789 -790 0
793 -789 790 0
793 789 -790 0
-794 793 791 0
-794 -793 -791 0
794 -793 791 0
794 793 -791 0
-795 794 792 0
-795 -794 -792 0
795 -794 792 0
795 794 -792 0
-795 0
-796 784 0
-796 13 0
796 -784 -13 0
-797 785 0
-797 14 0
797 -785 -14 0
-798 786 0
-798 15 0
798 -786 -15 0
-799 787 0
-799 16 0
799 -787 -16 0
-800 796 797 0
-800 -796 -797 0
800 -796 797 0
800 796 -797 0
-801 800 798 0
-801 -800 -798 0
801 -800 798 0
801 800 -798 0
-802 801 799 0
-802 -801 -799 0
802 -801 799 0
802 801 -799 0
-802 0
-803 784 0
-803 17 0
803 -784 -17 0
-804 785 0
-804 18 0
804 -785 -18 0
-805 786 0
-805 19 0
805 -786 -19 0
-806 787 0
-806 20 0
806 -787 -20 0
-807 803 804 0
-807 -803 -804 0
807 -803 804 0
807 803 -804 0
-808 807 805 0
-808 -807 -805 0
808 -807 805 0
808 807 -805 0
-809 808 806 0
-809 -808 -806 0
809 -808 806 0
809 808 -806 0
-809 0
-810 784 0
-810 772 0
810 -784 -772 0
-811 785 0
-811 776 0
811 -785 -776 0
-812 786 0
-812 779 0
812 -786 -779 0
-813 787 0
-813 783 0
813 -787 -783 0
-814 810 811 0
-814 -810 -811 0
814 -810 811 0
814 810 -811 0
-815 814 812 0
-815 -814 -812 0
815 -814 812 0
815 814 -812 0
-816 815 813 0
-816 -815 -813 0
816 -815 813 0
816 815 -813 0
817 818 819 820 0
-821 817 818 0
-821 -817 -818 0
821 -817 818 0
821 817 -818 0
-821 0
-822 817 0
-822 765 0
822 -817 -765 0
-823 818 0
-823 766 0
823 -818 -766 0
-824 819 0
-824 767 0
824 -819 -767 0
-825 820 0
-825 768 0
825 -820 -768 0
-826 822 823 0
-826 -822 -823 0
826 -822 823 0
826 822 -823 0
-827 826 824 0
-827 -826 -824 0
827 -826 824 0
827 826 -824 0
-828 827 825 0
-828 -827 -825 0
828 -827 825 0
828 827 -825 0
-828 0
-829 817 0
-829 13 0
829 -817 -13 0
-830 818 0
-830 14 0
830 -818 -14 0
-831 819 0
-831 15 0
831 -819 -15 0
-832 820 0
-832 16 0
832 -820 -16 0
-833 829 830 0
-833 -829 -830 0
833 -829 830 0
833 829 -830 0
-834 833 831 0
-834 -833 -831 0
834 -833 831 0
834 833 -831 0
-835 834 832 0
-835 -834 -832 0
835 -834 832 0
835 834 -832 0
-835 0
-836 817 0
-836 17 0
836 -817 -17 0
-837 818 0
-837 18 0
837 -818 -18 0
-838 819 0
-838 19 0
838 -819 -19 0
-839 820 0
-839 20 0
839 -820 -20 0
-840 836 837 0
-840 -836 -837 0
840 -836 837 0
840 836 -837 0
-841 840 838 0
-841 -840 -838 0
841 -840 838 0
841 840 -838 0
-842 841 839 0
-842 -841 -839 0
842 -841 839 0
842 841 -839 0
-842 0
-843 817 0
-843 772 0
843 -817 -772 0
-844 818 0
-844 776 0
844 -818 -776 0
-845 819 0
-845 779 0
845 -819 -779 0
-846 820 0
-846 783 0
846 -820 -783 0
-847 843 844 0
-847 -843 -844 0
847 -843 844 0
847 843 -844 0
-848 847 845 0
-848 -847 -845 0
848 -847 845 0
848 847 -845 0
-849 848 846 0
-849 -848 -846 0
849 -848 846 0
849 848 -846 0
-850 784 817 0
-850 -784 -817 0
850 -784 817 0
850 784 -817 0
-851 785 818 0
-851 -785 -818 0
851 -785 818 0
851 785 -818 0
-852 786 819 0
-852 -786 -819 0
852 -786 819 0
852 786 -819 0
-853 787 820 0
-853 -787 -820 0
853 -787 820 0
853 787 -820 0
850 851 852 853 0
816 849 0
-854 13 17 0
-854 -13 -17 0
854 -13 17 0
854 13 -17 0
-855 14 18 0
-855 -14 -18 0
855 -14 18 0
855 14 -18 0
-856 15 19 0
-856 -15 -19 0
856 -15 19 0
856 15 -19 0
-857 16 20 0
-857 -16 -20 0
857 -16 20 0
857 16 -20 0
-858 29 33 0
-858 -29 -33 0
858 -29 33 0
858 29 -33 0
-859 858 37 0
-859 -858 -37 0
859 -858 37 0
859 858 -37 0
-860 -859 13 0
-860 859 -13 0
860 859 13 0
860 -859 -13 0
-861 860 17 0
-861 -860 -17 0
861 -860 17 0
861 860 -17 0
-862 30 34 0
-862 -30 -34 0
862 -30 34 0
862 30 -34 0
-863 862 38 0
-863 -862 -38 0
863 -862 38 0
863 862 -38 0
-864 -863 14 0
-864 863 -14 0
864 863 14 0
864 -863 -14 0
-865 864 18 0
-865 -864 -18 0
865 -864 18 0
865 864 -18 0
-866 -35 39 0
-866 35 -39 0
866 35 39 0
866 -35 -39 0
-867 866 15 0
-867 -866 -15 0
867 -866 15 0
867 866 -15 0
-868 867 19 0
-868 -867 -19 0
868 -867 19 0
868 867 -19 0
-869 32 36 0
-869 -32 -36 0
869 -32 36 0
869 32 -36 0
-870 869 40 0
-870 -869 -40 0
870 -869 40 0
870 869 -40 0
-871 870 16 0
-871 -870 -16 0
871 -870 16 0
871 870 -16 0
-872 871 20 0
-872 -871 -20 0
872 -871 20 0
872 871 -20 0
873 874 875 876 0
-877 873 874 0
-877 -873 -874 0
877 -873 874 0
877 873 -874 0
-877 0
-878 873 0
-878 854 0
878 -873 -854 0
-879 874 0
-879 855 0
879 -874 -855 0
-880 875 0
-880 856 0
880 -875 -856 0
-881 876 0
-881 857 0
881 -876 -857 0
-882 878 879 0
-882 -878 -879 0
882 -878 879 0
882 878 -879 0
-883 882 880 0
-883 -882 -880 0
883 -882 880 0
883 882 -880 0
-884 883 881 0
-884 -883 -881 0
884 -883 881 0
884 883 -881 0
-884 0
-885 873 0
-885 -13 0
885 -873 13 0
-886 874 0
-886 14 0
886 -874 -14 0
-887 875 0
-887 15 0
887 -875 -15 0
-888 876 0
-888 16 0
888 -876 -16 0
-889 885 886 0
-889 -885 -886 0
889 -885 886 0
889 885 -886 0
-890 889 887 0
-890 -889 -887 0
890 -889 887 0
890 889 -887 0
-891 890 888 0
-891 -890 -888 0
891 -890 888 0
891 890 -888 0
-891 0
-892 873 0
-892 17 0
892 -873 -17 0
-893 874 0
-893 -18 0
893 -874 18 0
-894 875 0
-894 19 0
894 -875 -19 0
-895 876 0
-895 20 0
895 -876 -20 0
-896 892 893 0
-896 -892 -893 0
896 -892 893 0
896 892 -893 0
-897 896 894 0
-897 -896 -894 0
897 -896 894 0
897 896 -894 0
-898 897 895 0
-898 -897 -895 0
898 -897 895 0
898 897 -895 0
-898 0
-899 873 0
-899 861 0
899 -873 -861 0
-900 874 0
-900 865 0
900 -874 -865 0
-901 875 0
-901 868 0
901 -875 -868 0
-902 876 0
-902 872 0
902 -876 -872 0
-903 899 900 0
-903 -899 -900 0
903 -899 900 0
903 899 -900 0
-904 903 901 0
-904 -903 -901 0
904 -903 901 0
904 903 -901 0
-905 904 902 0
-905 -904 -902 0
905 -904 902 0
905 904 -902 0
906 907 908 909 0
-910 906 907 0
-910 -906 -907 0
910 -906 907 0
910 906 -907 0
-910 0
-911 906 0
-911 854 0
911 -906 -854 0
-912 907 0
-912 855 0
912 -907 -855 0
-913 908 0
-913 856 0
913 -908 -856 0
-914 909 0
-914 857 0
914 -909 -857 0
-915 911 912 0
-915 -911 -912 0
915 -911 912 0
915 911 -912 0
-916 915 913 0
-916 -915 -913 0
916 -915 913 0
916 915 -913 0
-917 916 914 0
-917 -916 -914 0
917 -916 914 0
917 916 -914 0
-917 0
-918 906 0
-918 -13 0
918 -906 13 0
-919 907 0
-919 14 0
919 -907 -14 0
-920 908 0
-920 15 0
920 -908 -15 0
-921 909 0
-921 16 0
921 -909 -16 0
-922 918 919 0
-922 -918 -919 0
922 -918 919 0
922 918 -919 0
-923 922 920 0
-923 -922 -920 0
923 -922 920 0
923 922 -920 0
-924 923 921 0
-924 -923 -921 0
924 -923 921 0
924 923 -921 0
-924 0
-925 906 0
-925 17 0
925 -906 -17 0
-926 907 0
-926 -18 0
926 -907 18 0
-927 908 0
-927 19 0
927 -908 -19 0
-928 909 0
-928 20 0
928 -909 -20 0
-929 925 926 0
-929 -925 -926 0
929 -925 926 0
929 925 -926 0
-930 929 927 0
-930 -929 -927 0
930 -929 927 0
930 929 -927 0
-931 930 928 0
-931 -930 -928 0
931 -930 928 0
931 930 -928 0
-931 0
-932 906 0
-932 861 0
932 -906 -861 0
-933 907 0
-933 865 0
933 -907 -865 0
-934 908 0
-934 868 0
934 -908 -868 0
-935 909 0
-935 872 0
935 -909 -872 0
-936 932 933 0
-936 -932 -933 0
936 -932 933 0
936 932 -933 0
-937 936 934 0
-937 -936 -934 0
937 -936 934 0
937 936 -934 0
-938 937 935 0
-938 -937 -935 0
938 -937 935 0
938 937 -935 0
-939 873 906 0
-939 -873 -906 0
939 -873 906 0
939 873 -906 0
-940 874 907 0
-940 -874 -907 0
940 -874 907 0
940 874 -907 0
-941 875 908 0
-941 -875 -908 0
941 -875 908 0
941 875 -908 0
-942 876 909 0
-942 -876 -909 0
942 -876 909 0
942 876 -909 0
939 940 941 942 0
905 938 0
