c D(4) quadratic DU-4 permutation model, sb=True, sb3=False, perm=False, units=[]
p cnf 984 3108
-17 0
-14 0
-41 13 14 0
-41 -13 -14 0
41 -13 14 0
41 13 -14 0
-42 17 18 0
-42 -17 -18 0
42 -17 18 0
42 17 -18 0
-43 42 41 0
-43 -42 -41 0
43 -42 41 0
43 42 -41 0
-43 0
15 19 0
-44 13 15 0
-44 -13 -15 0
44 -13 15 0
44 13 -15 0
-45 17 19 0
-45 -17 -19 0
45 -17 19 0
45 17 -19 0
-45 0
-46 14 15 0
-46 -14 -15 0
46 -14 15 0
46 14 -15 0
-47 18 19 0
-47 -18 -19 0
47 -18 19 0
47 18 -19 0
-46 0
-48 13 14 0
-48 -13 -14 0
48 -13 14 0
48 13 -14 0
-49 48 15 0
-49 -48 -15 0
49 -48 15 0
49 48 -15 0
-50 17 18 0
-50 -17 -18 0
50 -17 18 0
50 17 -18 0
-51 50 19 0
-51 -50 -19 0
51 -50 19 0
51 50 -19 0
-52 51 49 0
-52 -51 -49 0
52 -51 49 0
52 51 -49 0
-52 0
16 20 0
-53 13 16 0
-53 -13 -16 0
53 -13 16 0
53 13 -16 0
-54 17 20 0
-54 -17 -20 0
54 -17 20 0
54 17 -20 0
-54 0
-55 14 16 0
-55 -14 -16 0
55 -14 16 0
55 14 -16 0
-56 18 20 0
-56 -18 -20 0
56 -18 20 0
56 18 -20 0
-55 0
-57 13 14 0
-57 -13 -14 0
57 -13 14 0
57 13 -14 0
-58 57 16 0
-58 -57 -16 0
58 -57 16 0
58 57 -16 0
-59 17 18 0
-59 -17 -18 0
59 -17 18 0
59 17 -18 0
-60 59 20 0
-60 -59 -20 0
60 -59 20 0
60 59 -20 0
-61 60 58 0
-61 -60 -58 0
61 -60 58 0
61 60 -58 0
-61 0
-62 15 16 0
-62 -15 -16 0
62 -15 16 0
62 15 -16 0
-63 19 20 0
-63 -19 -20 0
63 -19 20 0
63 19 -20 0
62 63 0
-64 13 15 0
-64 -13 -15 0
64 -13 15 0
64 13 -15 0
-65 64 16 0
-65 -64 -16 0
65 -64 16 0
65 64 -16 0
-66 17 19 0
-66 -17 -19 0
66 -17 19 0
66 17 -19 0
-67 66 20 0
-67 -66 -20 0
67 -66 20 0
67 66 -20 0
-67 0
-68 14 15 0
-68 -14 -15 0
68 -14 15 0
68 14 -15 0
-69 68 16 0
-69 -68 -16 0
69 -68 16 0
69 68 -16 0
-70 18 19 0
-70 -18 -19 0
70 -18 19 0
70 18 -19 0
-71 70 20 0
-71 -70 -20 0
71 -70 20 0
71 70 -20 0
-69 0
-72 13 14 0
-72 -13 -14 0
72 -13 14 0
72 13 -14 0
-73 72 15 0
-73 -72 -15 0
73 -72 15 0
73 72 -15 0
-74 73 16 0
-74 -73 -16 0
74 -73 16 0
74 73 -16 0
-75 17 18 0
-75 -17 -18 0
75 -17 18 0
75 17 -18 0
-76 75 19 0
-76 -75 -19 0
76 -75 19 0
76 75 -19 0
-77 76 20 0
-77 -76 -20 0
77 -76 20 0
77 76 -20 0
-78 77 74 0
-78 -77 -74 0
78 -77 74 0
78 77 -74 0
-78 0
79 80 81 82 0
-79 0
-80 0
-83 79 0
-83 25 0
83 -79 -25 0
-84 80 0
-84 26 0
84 -80 -26 0
-85 81 0
-85 27 0
85 -81 -27 0
-86 82 0
-86 28 0
86 -82 -28 0
-87 83 84 0
-87 -83 -84 0
87 -83 84 0
87 83 -84 0
-88 87 85 0
-88 -87 -85 0
88 -87 85 0
88 87 -85 0
-89 88 86 0
-89 -88 -86 0
89 -88 86 0
89 88 -86 0
90 91 92 93 0
-90 0
-91 0
-94 90 0
-94 25 0
94 -90 -25 0
-95 91 0
-95 26 0
95 -91 -26 0
-96 92 0
-96 27 0
96 -92 -27 0
-97 93 0
-97 28 0
97 -93 -28 0
-98 94 95 0
-98 -94 -95 0
98 -94 95 0
98 94 -95 0
-99 98 96 0
-99 -98 -96 0
99 -98 96 0
99 98 -96 0
-100 99 97 0
-100 -99 -97 0
100 -99 97 0
100 99 -97 0
-101 79 90 0
-101 -79 -90 0
101 -79 90 0
101 79 -90 0
-102 80 91 0
-102 -80 -91 0
102 -80 91 0
102 80 -91 0
-103 81 92 0
-103 -81 -92 0
103 -81 92 0
103 81 -92 0
-104 82 93 0
-104 -82 -93 0
104 -82 93 0
104 82 -93 0
101 102 103 104 0
105 106 107 108 0
-109 105 0
-109 13 0
109 -105 -13 0
-110 106 0
-110 14 0
110 -106 -14 0
-111 107 0
-111 15 0
111 -107 -15 0
-112 108 0
-112 16 0
112 -108 -16 0
-113 109 110 0
-113 -109 -110 0
113 -109 110 0
113 109 -110 0
-114 113 111 0
-114 -113 -111 0
114 -113 111 0
114 113 -111 0
-115 114 112 0
-115 -114 -112 0
115 -114 112 0
115 114 -112 0
-115 0
-116 105 0
-116 17 0
116 -105 -17 0
-117 106 0
-117 18 0
117 -106 -18 0
-118 107 0
-118 19 0
118 -107 -19 0
-119 108 0
-119 20 0
119 -108 -20 0
-120 116 117 0
-120 -116 -117 0
120 -116 117 0
120 116 -117 0
-121 120 118 0
-121 -120 -118 0
121 -120 118 0
121 120 -118 0
-122 121 119 0
-122 -121 -119 0
122 -121 119 0
122 121 -119 0
-122 0
-123 105 0
-123 29 0
123 -105 -29 0
-124 106 0
-124 30 0
124 -106 -30 0
-125 107 0
-125 31 0
125 -107 -31 0
-126 108 0
-126 32 0
126 -108 -32 0
-127 123 124 0
-127 -123 -124 0
127 -123 124 0
127 123 -124 0
-128 127 125 0
-128 -127 -125 0
128 -127 125 0
128 127 -125 0
-129 128 126 0
-129 -128 -126 0
129 -128 126 0
129 128 -126 0
130 131 132 133 0
-134 130 0
-134 13 0
134 -130 -13 0
-135 131 0
-135 14 0
135 -131 -14 0
-136 132 0
-136 15 0
136 -132 -15 0
-137 133 0
-137 16 0
137 -133 -16 0
-138 134 135 0
-138 -134 -135 0
138 -134 135 0
138 134 -135 0
-139 138 136 0
-139 -138 -136 0
139 -138 136 0
139 138 -136 0
-140 139 137 0
-140 -139 -137 0
140 -139 137 0
140 139 -137 0
-140 0
-141 130 0
-141 17 0
141 -130 -17 0
-142 131 0
-142 18 0
142 -131 -18 0
-143 132 0
-143 19 0
143 -132 -19 0
-144 133 0
-144 20 0
144 -133 -20 0
-145 141 142 0
-145 -141 -142 0
145 -141 142 0
145 141 -142 0
-146 145 143 0
-146 -145 -143 0
146 -145 143 0
146 145 -143 0
-147 146 144 0
-147 -146 -144 0
147 -146 144 0
147 146 -144 0
-147 0
-148 130 0
-148 29 0
148 -130 -29 0
-149 131 0
-149 30 0
149 -131 -30 0
-150 132 0
-150 31 0
150 -132 -31 0
-151 133 0
-151 32 0
151 -133 -32 0
-152 148 149 0
-152 -148 -149 0
152 -148 149 0
152 148 -149 0
-153 152 150 0
-153 -152 -150 0
153 -152 150 0
153 152 -150 0
-154 153 151 0
-154 -153 -151 0
154 -153 151 0
154 153 -151 0
-155 105 130 0
-155 -105 -130 0
155 -105 130 0
155 105 -130 0
-156 106 131 0
-156 -106 -131 0
156 -106 131 0
156 106 -131 0
-157 107 132 0
-157 -107 -132 0
157 -107 132 0
157 107 -132 0
-158 108 133 0
-158 -108 -133 0
158 -108 133 0
158 108 -133 0
155 156 157 158 0
-159 25 29 0
-159 -25 -29 0
159 -25 29 0
159 25 -29 0
-160 26 30 0
-160 -26 -30 0
160 -26 30 0
160 26 -30 0
-161 27 31 0
-161 -27 -31 0
161 -27 31 0
161 27 -31 0
-162 28 32 0
-162 -28 -32 0
162 -28 32 0
162 28 -32 0
163 164 165 166 0
-167 163 0
-167 -13 0
167 -163 13 0
-168 164 0
-168 14 0
168 -164 -14 0
-169 165 0
-169 15 0
169 -165 -15 0
-170 166 0
-170 16 0
170 -166 -16 0
-171 167 168 0
-171 -167 -168 0
171 -167 168 0
171 167 -168 0
-172 171 169 0
-172 -171 -169 0
172 -171 169 0
172 171 -169 0
-173 172 170 0
-173 -172 -170 0
173 -172 170 0
173 172 -170 0
-173 0
-174 163 0
-174 17 0
174 -163 -17 0
-175 164 0
-175 -18 0
175 -164 18 0
-176 165 0
-176 19 0
176 -165 -19 0
-177 166 0
-177 20 0
177 -166 -20 0
-178 174 175 0
-178 -174 -175 0
178 -174 175 0
178 174 -175 0
-179 178 176 0
-179 -178 -176 0
179 -178 176 0
179 178 -176 0
-180 179 177 0
-180 -179 -177 0
180 -179 177 0
180 179 -177 0
-180 0
-181 163 0
-181 159 0
181 -163 -159 0
-182 164 0
-182 160 0
182 -164 -160 0
-183 165 0
-183 161 0
183 -165 -161 0
-184 166 0
-184 162 0
184 -166 -162 0
-185 181 182 0
-185 -181 -182 0
185 -181 182 0
185 181 -182 0
-186 185 183 0
-186 -185 -183 0
186 -185 183 0
186 185 -183 0
-187 186 184 0
-187 -186 -184 0
187 -186 184 0
187 186 -184 0
188 189 190 191 0
-192 188 0
-192 -13 0
192 -188 13 0
-193 189 0
-193 14 0
193 -189 -14 0
-194 190 0
-194 15 0
194 -190 -15 0
-195 191 0
-195 16 0
195 -191 -16 0
-196 192 193 0
-196 -192 -193 0
196 -192 193 0
196 192 -193 0
-197 196 194 0
-197 -196 -194 0
197 -196 194 0
197 196 -194 0
-198 197 195 0
-198 -197 -195 0
198 -197 195 0
198 197 -195 0
-198 0
-199 188 0
-199 17 0
199 -188 -17 0
-200 189 0
-200 -18 0
200 -189 18 0
-201 190 0
-201 19 0
201 -190 -19 0
-202 191 0
-202 20 0
202 -191 -20 0
-203 199 200 0
-203 -199 -200 0
203 -199 200 0
203 199 -200 0
-204 203 201 0
-204 -203 -201 0
204 -203 201 0
204 203 -201 0
-205 204 202 0
-205 -204 -202 0
205 -204 202 0
205 204 -202 0
-205 0
-206 188 0
-206 159 0
206 -188 -159 0
-207 189 0
-207 160 0
207 -189 -160 0
-208 190 0
-208 161 0
208 -190 -161 0
-209 191 0
-209 162 0
209 -191 -162 0
-210 206 207 0
-210 -206 -207 0
210 -206 207 0
210 206 -207 0
-211 210 208 0
-211 -210 -208 0
211 -210 208 0
211 210 -208 0
-212 211 209 0
-212 -211 -209 0
212 -211 209 0
212 211 -209 0
-213 163 188 0
-213 -163 -188 0
213 -163 188 0
213 163 -188 0
-214 164 189 0
-214 -164 -189 0
214 -164 189 0
214 164 -189 0
-215 165 190 0
-215 -165 -190 0
215 -165 190 0
215 165 -190 0
-216 166 191 0
-216 -166 -191 0
216 -166 191 0
216 166 -191 0
213 214 215 216 0
217 218 219 220 0
-217 0
-221 217 0
-221 13 0
221 -217 -13 0
-222 218 0
-222 14 0
222 -218 -14 0
-223 219 0
-223 15 0
223 -219 -15 0
-224 220 0
-224 16 0
224 -220 -16 0
-225 221 222 0
-225 -221 -222 0
225 -221 222 0
225 221 -222 0
-226 225 223 0
-226 -225 -223 0
226 -225 223 0
226 225 -223 0
-227 226 224 0
-227 -226 -224 0
227 -226 224 0
227 226 -224 0
-227 0
-228 217 0
-228 33 0
228 -217 -33 0
-229 218 0
-229 34 0
229 -218 -34 0
-230 219 0
-230 35 0
230 -219 -35 0
-231 220 0
-231 36 0
231 -220 -36 0
-232 228 229 0
-232 -228 -229 0
232 -228 229 0
232 228 -229 0
-233 232 230 0
-233 -232 -230 0
233 -232 230 0
233 232 -230 0
-234 233 231 0
-234 -233 -231 0
234 -233 231 0
234 233 -231 0
235 236 237 238 0
-235 0
-239 235 0
-239 13 0
239 -235 -13 0
-240 236 0
-240 14 0
240 -236 -14 0
-241 237 0
-241 15 0
241 -237 -15 0
-242 238 0
-242 16 0
242 -238 -16 0
-243 239 240 0
-243 -239 -240 0
243 -239 240 0
243 239 -240 0
-244 243 241 0
-244 -243 -241 0
244 -243 241 0
244 243 -241 0
-245 244 242 0
-245 -244 -242 0
245 -244 242 0
245 244 -242 0
-245 0
-246 235 0
-246 33 0
246 -235 -33 0
-247 236 0
-247 34 0
247 -236 -34 0
-248 237 0
-248 35 0
248 -237 -35 0
-249 238 0
-249 36 0
249 -238 -36 0
-250 246 247 0
-250 -246 -247 0
250 -246 247 0
250 246 -247 0
-251 250 248 0
-251 -250 -248 0
251 -250 248 0
251 250 -248 0
-252 251 249 0
-252 -251 -249 0
252 -251 249 0
252 251 -249 0
-253 217 235 0
-253 -217 -235 0
253 -217 235 0
253 217 -235 0
-254 218 236 0
-254 -218 -236 0
254 -218 236 0
254 218 -236 0
-255 219 237 0
-255 -219 -237 0
255 -219 237 0
255 219 -237 0
-256 220 238 0
-256 -220 -238 0
256 -220 238 0
256 220 -238 0
253 254 255 256 0
-257 25 33 0
-257 -25 -33 0
257 -25 33 0
257 25 -33 0
-258 26 34 0
-258 -26 -34 0
258 -26 34 0
258 26 -34 0
-259 27 35 0
-259 -27 -35 0
259 -27 35 0
259 27 -35 0
-260 28 36 0
-260 -28 -36 0
260 -28 36 0
260 28 -36 0
261 262 263 264 0
-261 0
-265 261 0
-265 13 0
265 -261 -13 0
-266 262 0
-266 14 0
266 -262 -14 0
-267 263 0
-267 15 0
267 -263 -15 0
-268 264 0
-268 16 0
268 -264 -16 0
-269 265 266 0
-269 -265 -266 0
269 -265 266 0
269 265 -266 0
-270 269 267 0
-270 -269 -267 0
270 -269 267 0
270 269 -267 0
-271 270 268 0
-271 -270 -268 0
271 -270 268 0
271 270 -268 0
-271 0
-261 0
-262 0
-272 261 0
-272 -257 0
272 -261 257 0
-273 262 0
-273 258 0
273 -262 -258 0
-274 263 0
-274 259 0
274 -263 -259 0
-275 264 0
-275 260 0
275 -264 -260 0
-276 272 273 0
-276 -272 -273 0
276 -272 273 0
276 272 -273 0
-277 276 274 0
-277 -276 -274 0
277 -276 274 0
277 276 -274 0
-278 277 275 0
-278 -277 -275 0
278 -277 275 0
278 277 -275 0
279 280 281 282 0
-279 0
-283 279 0
-283 13 0
283 -279 -13 0
-284 280 0
-284 14 0
284 -280 -14 0
-285 281 0
-285 15 0
285 -281 -15 0
-286 282 0
-286 16 0
286 -282 -16 0
-287 283 284 0
-287 -283 -284 0
287 -283 284 0
287 283 -284 0
-288 287 285 0
-288 -287 -285 0
288 -287 285 0
288 287 -285 0
-289 288 286 0
-289 -288 -286 0
289 -288 286 0
289 288 -286 0
-289 0
-279 0
-280 0
-290 279 0
-290 -257 0
290 -279 257 0
-291 280 0
-291 258 0
291 -280 -258 0
-292 281 0
-292 259 0
292 -281 -259 0
-293 282 0
-293 260 0
293 -282 -260 0
-294 290 291 0
-294 -290 -291 0
294 -290 291 0
294 290 -291 0
-295 294 292 0
-295 -294 -292 0
295 -294 292 0
295 294 -292 0
-296 295 293 0
-296 -295 -293 0
296 -295 293 0
296 295 -293 0
-297 261 279 0
-297 -261 -279 0
297 -261 279 0
297 261 -279 0
-298 262 280 0
-298 -262 -280 0
298 -262 280 0
298 262 -280 0
-299 263 281 0
-299 -263 -281 0
299 -263 281 0
299 263 -281 0
-300 264 282 0
-300 -264 -282 0
300 -264 282 0
300 264 -282 0
297 298 299 300 0
-301 29 33 0
-301 -29 -33 0
301 -29 33 0
301 29 -33 0
-302 301 13 0
-302 -301 -13 0
302 -301 13 0
302 301 -13 0
-303 30 34 0
-303 -30 -34 0
303 -30 34 0
303 30 -34 0
-304 303 14 0
-304 -303 -14 0
304 -303 14 0
304 303 -14 0
-305 31 35 0
-305 -31 -35 0
305 -31 35 0
305 31 -35 0
-306 305 15 0
-306 -305 -15 0
306 -305 15 0
306 305 -15 0
-307 32 36 0
-307 -32 -36 0
307 -32 36 0
307 32 -36 0
-308 307 16 0
-308 -307 -16 0
308 -307 16 0
308 307 -16 0
309 310 311 312 0
-309 0
-313 309 0
-313 13 0
313 -309 -13 0
-314 310 0
-314 14 0
314 -310 -14 0
-315 311 0
-315 15 0
315 -311 -15 0
-316 312 0
-316 16 0
316 -312 -16 0
-317 313 314 0
-317 -313 -314 0
317 -313 314 0
317 313 -314 0
-318 317 315 0
-318 -317 -315 0
318 -317 315 0
318 317 -315 0
-319 318 316 0
-319 -318 -316 0
319 -318 316 0
319 318 -316 0
-319 0
-320 309 0
-320 13 0
320 -309 -13 0
-321 310 0
-321 14 0
321 -310 -14 0
-322 311 0
-322 15 0
322 -311 -15 0
-323 312 0
-323 16 0
323 -312 -16 0
-324 320 321 0
-324 -320 -321 0
324 -320 321 0
324 320 -321 0
-325 324 322 0
-325 -324 -322 0
325 -324 322 0
325 324 -322 0
-326 325 323 0
-326 -325 -323 0
326 -325 323 0
326 325 -323 0
-326 0
-327 309 0
-327 17 0
327 -309 -17 0
-328 310 0
-328 18 0
328 -310 -18 0
-329 311 0
-329 19 0
329 -311 -19 0
-330 312 0
-330 20 0
330 -312 -20 0
-331 327 328 0
-331 -327 -328 0
331 -327 328 0
331 327 -328 0
-332 331 329 0
-332 -331 -329 0
332 -331 329 0
332 331 -329 0
-333 332 330 0
-333 -332 -330 0
333 -332 330 0
333 332 -330 0
-333 0
-334 309 0
-334 302 0
334 -309 -302 0
-335 310 0
-335 304 0
335 -310 -304 0
-336 311 0
-336 306 0
336 -311 -306 0
-337 312 0
-337 308 0
337 -312 -308 0
-338 334 335 0
-338 -334 -335 0
338 -334 335 0
338 334 -335 0
-339 338 336 0
-339 -338 -336 0
339 -338 336 0
339 338 -336 0
-340 339 337 0
-340 -339 -337 0
340 -339 337 0
340 339 -337 0
341 342 343 344 0
-341 0
-345 341 0
-345 13 0
345 -341 -13 0
-346 342 0
-346 14 0
346 -342 -14 0
-347 343 0
-347 15 0
347 -343 -15 0
-348 344 0
-348 16 0
348 -344 -16 0
-349 345 346 0
-349 -345 -346 0
349 -345 346 0
349 345 -346 0
-350 349 347 0
-350 -349 -347 0
350 -349 347 0
350 349 -347 0
-351 350 348 0
-351 -350 -348 0
351 -350 348 0
351 350 -348 0
-351 0
-352 341 0
-352 13 0
352 -341 -13 0
-353 342 0
-353 14 0
353 -342 -14 0
-354 343 0
-354 15 0
354 -343 -15 0
-355 344 0
-355 16 0
355 -344 -16 0
-356 352 353 0
-356 -352 -353 0
356 -352 353 0
356 352 -353 0
-357 356 354 0
-357 -356 -354 0
357 -356 354 0
357 356 -354 0
-358 357 355 0
-358 -357 -355 0
358 -357 355 0
358 357 -355 0
-358 0
-359 341 0
-359 17 0
359 -341 -17 0
-360 342 0
-360 18 0
360 -342 -18 0
-361 343 0
-361 19 0
361 -343 -19 0
-362 344 0
-362 20 0
362 -344 -20 0
-363 359 360 0
-363 -359 -360 0
363 -359 360 0
363 359 -360 0
-364 363 361 0
-364 -363 -361 0
364 -363 361 0
364 363 -361 0
-365 364 362 0
-365 -364 -362 0
365 -364 362 0
365 364 -362 0
-365 0
-366 341 0
-366 302 0
366 -341 -302 0
-367 342 0
-367 304 0
367 -342 -304 0
-368 343 0
-368 306 0
368 -343 -306 0
-369 344 0
-369 308 0
369 -344 -308 0
-370 366 367 0
-370 -366 -367 0
370 -366 367 0
370 366 -367 0
-371 370 368 0
-371 -370 -368 0
371 -370 368 0
371 370 -368 0
-372 371 369 0
-372 -371 -369 0
372 -371 369 0
372 371 -369 0
-373 309 341 0
-373 -309 -341 0
373 -309 341 0
373 309 -341 0
-374 310 342 0
-374 -310 -342 0
374 -310 342 0
374 310 -342 0
-375 311 343 0
-375 -311 -343 0
375 -311 343 0
375 311 -343 0
-376 312 344 0
-376 -312 -344 0
376 -312 344 0
376 312 -344 0
373 374 375 376 0
-377 25 29 0
-377 -25 -29 0
377 -25 29 0
377 25 -29 0
-378 377 33 0
-378 -377 -33 0
378 -377 33 0
378 377 -33 0
-379 -378 13 0
-379 378 -13 0
379 378 13 0
379 -378 -13 0
-380 26 30 0
-380 -26 -30 0
380 -26 30 0
380 26 -30 0
-381 380 34 0
-381 -380 -34 0
381 -380 34 0
381 380 -34 0
-382 381 14 0
-382 -381 -14 0
382 -381 14 0
382 381 -14 0
-383 27 31 0
-383 -27 -31 0
383 -27 31 0
383 27 -31 0
-384 383 35 0
-384 -383 -35 0
384 -383 35 0
384 383 -35 0
-385 384 15 0
-385 -384 -15 0
385 -384 15 0
385 384 -15 0
-386 28 32 0
-386 -28 -32 0
386 -28 32 0
386 28 -32 0
-387 386 36 0
-387 -386 -36 0
387 -386 36 0
387 386 -36 0
-388 387 16 0
-388 -387 -16 0
388 -387 16 0
388 387 -16 0
389 390 391 392 0
-389 0
-393 389 0
-393 13 0
393 -389 -13 0
-394 390 0
-394 14 0
394 -390 -14 0
-395 391 0
-395 15 0
395 -391 -15 0
-396 392 0
-396 16 0
396 -392 -16 0
-397 393 394 0
-397 -393 -394 0
397 -393 394 0
397 393 -394 0
-398 397 395 0
-398 -397 -395 0
398 -397 395 0
398 397 -395 0
-399 398 396 0
-399 -398 -396 0
399 -398 396 0
399 398 -396 0
-399 0
-400 389 0
-400 -13 0
400 -389 13 0
-401 390 0
-401 14 0
401 -390 -14 0
-402 391 0
-402 15 0
402 -391 -15 0
-403 392 0
-403 16 0
403 -392 -16 0
-404 400 401 0
-404 -400 -401 0
404 -400 401 0
404 400 -401 0
-405 404 402 0
-405 -404 -402 0
405 -404 402 0
405 404 -402 0
-406 405 403 0
-406 -405 -403 0
406 -405 403 0
406 405 -403 0
-406 0
-407 389 0
-407 17 0
407 -389 -17 0
-408 390 0
-408 -18 0
408 -390 18 0
-409 391 0
-409 19 0
409 -391 -19 0
-410 392 0
-410 20 0
410 -392 -20 0
-411 407 408 0
-411 -407 -408 0
411 -407 408 0
411 407 -408 0
-412 411 409 0
-412 -411 -409 0
412 -411 409 0
412 411 -409 0
-413 412 410 0
-413 -412 -410 0
413 -412 410 0
413 412 -410 0
-413 0
-414 389 0
-414 379 0
414 -389 -379 0
-415 390 0
-415 382 0
415 -390 -382 0
-416 391 0
-416 385 0
416 -391 -385 0
-417 392 0
-417 388 0
417 -392 -388 0
-418 414 415 0
-418 -414 -415 0
418 -414 415 0
418 414 -415 0
-419 418 416 0
-419 -418 -416 0
419 -418 416 0
419 418 -416 0
-420 419 417 0
-420 -419 -417 0
420 -419 417 0
420 419 -417 0
421 422 423 424 0
-421 0
-425 421 0
-425 13 0
425 -421 -13 0
-426 422 0
-426 14 0
426 -422 -14 0
-427 423 0
-427 15 0
427 -423 -15 0
-428 424 0
-428 16 0
428 -424 -16 0
-429 425 426 0
-429 -425 -426 0
429 -425 426 0
429 425 -426 0
-430 429 427 0
-430 -429 -427 0
430 -429 427 0
430 429 -427 0
-431 430 428 0
-431 -430 -428 0
431 -430 428 0
431 430 -428 0
-431 0
-432 421 0
-432 -13 0
432 -421 13 0
-433 422 0
-433 14 0
433 -422 -14 0
-434 423 0
-434 15 0
434 -423 -15 0
-435 424 0
-435 16 0
435 -424 -16 0
-436 432 433 0
-436 -432 -433 0
436 -432 433 0
436 432 -433 0
-437 436 434 0
-437 -436 -434 0
437 -436 434 0
437 436 -434 0
-438 437 435 0
-438 -437 -435 0
438 -437 435 0
438 437 -435 0
-438 0
-439 421 0
-439 17 0
439 -421 -17 0
-440 422 0
-440 -18 0
440 -422 18 0
-441 423 0
-441 19 0
441 -423 -19 0
-442 424 0
-442 20 0
442 -424 -20 0
-443 439 440 0
-443 -439 -440 0
443 -439 440 0
443 439 -440 0
-444 443 441 0
-444 -443 -441 0
444 -443 441 0
444 443 -441 0
-445 444 442 0
-445 -444 -442 0
445 -444 442 0
445 444 -442 0
-445 0
-446 421 0
-446 379 0
446 -421 -379 0
-447 422 0
-447 382 0
447 -422 -382 0
-448 423 0
-448 385 0
448 -423 -385 0
-449 424 0
-449 388 0
449 -424 -388 0
-450 446 447 0
-450 -446 -447 0
450 -446 447 0
450 446 -447 0
-451 450 448 0
-451 -450 -448 0
451 -450 448 0
451 450 -448 0
-452 451 449 0
-452 -451 -449 0
452 -451 449 0
452 451 -449 0
-453 389 421 0
-453 -389 -421 0
453 -389 421 0
453 389 -421 0
-454 390 422 0
-454 -390 -422 0
454 -390 422 0
454 390 -422 0
-455 391 423 0
-455 -391 -423 0
455 -391 423 0
455 391 -423 0
-456 392 424 0
-456 -392 -424 0
456 -392 424 0
456 392 -424 0
453 454 455 456 0
457 458 459 460 0
-458 0
-461 457 0
-461 17 0
461 -457 -17 0
-462 458 0
-462 18 0
462 -458 -18 0
-463 459 0
-463 19 0
463 -459 -19 0
-464 460 0
-464 20 0
464 -460 -20 0
-465 461 462 0
-465 -461 -462 0
465 -461 462 0
465 461 -462 0
-466 465 463 0
-466 -465 -463 0
466 -465 463 0
466 465 -463 0
-467 466 464 0
-467 -466 -464 0
467 -466 464 0
467 466 -464 0
-467 0
-468 457 0
-468 37 0
468 -457 -37 0
-469 458 0
-469 38 0
469 -458 -38 0
-470 459 0
-470 39 0
470 -459 -39 0
-471 460 0
-471 40 0
471 -460 -40 0
-472 468 469 0
-472 -468 -469 0
472 -468 469 0
472 468 -469 0
-473 472 470 0
-473 -472 -470 0
473 -472 470 0
473 472 -470 0
-474 473 471 0
-474 -473 -471 0
474 -473 471 0
474 473 -471 0
475 476 477 478 0
-476 0
-479 475 0
-479 17 0
479 -475 -17 0
-480 476 0
-480 18 0
480 -476 -18 0
-481 477 0
-481 19 0
481 -477 -19 0
-482 478 0
-482 20 0
482 -478 -20 0
-483 479 480 0
-483 -479 -480 0
483 -479 480 0
483 479 -480 0
-484 483 481 0
-484 -483 -481 0
484 -483 481 0
484 483 -481 0
-485 484 482 0
-485 -484 -482 0
485 -484 482 0
485 484 -482 0
-485 0
-486 475 0
-486 37 0
486 -475 -37 0
-487 476 0
-487 38 0
487 -476 -38 0
-488 477 0
-488 39 0
488 -477 -39 0
-489 478 0
-489 40 0
489 -478 -40 0
-490 486 487 0
-490 -486 -487 0
490 -486 487 0
490 486 -487 0
-491 490 488 0
-491 -490 -488 0
491 -490 488 0
491 490 -488 0
-492 491 489 0
-492 -491 -489 0
492 -491 489 0
492 491 -489 0
-493 457 475 0
-493 -457 -475 0
493 -457 475 0
493 457 -475 0
-494 458 476 0
-494 -458 -476 0
494 -458 476 0
494 458 -476 0
-495 459 477 0
-495 -459 -477 0
495 -459 477 0
495 459 -477 0
-496 460 478 0
-496 -460 -478 0
496 -460 478 0
496 460 -478 0
493 494 495 496 0
-497 25 37 0
-497 -25 -37 0
497 -25 37 0
497 25 -37 0
-498 26 38 0
-498 -26 -38 0
498 -26 38 0
498 26 -38 0
-499 27 39 0
-499 -27 -39 0
499 -27 39 0
499 27 -39 0
-500 28 40 0
-500 -28 -40 0
500 -28 40 0
500 28 -40 0
501 502 503 504 0
-502 0
-505 501 0
-505 17 0
505 -501 -17 0
-506 502 0
-506 18 0
506 -502 -18 0
-507 503 0
-507 19 0
507 -503 -19 0
-508 504 0
-508 20 0
508 -504 -20 0
-509 505 506 0
-509 -505 -506 0
509 -505 506 0
509 505 -506 0
-510 509 507 0
-510 -509 -507 0
510 -509 507 0
510 509 -507 0
-511 510 508 0
-511 -510 -508 0
511 -510 508 0
511 510 -508 0
-511 0
-501 0
-502 0
-512 501 0
-512 497 0
512 -501 -497 0
-513 502 0
-513 -498 0
513 -502 498 0
-514 503 0
-514 499 0
514 -503 -499 0
-515 504 0
-515 500 0
515 -504 -500 0
-516 512 513 0
-516 -512 -513 0
516 -512 513 0
516 512 -513 0
-517 516 514 0
-517 -516 -514 0
517 -516 514 0
517 516 -514 0
-518 517 515 0
-518 -517 -515 0
518 -517 515 0
518 517 -515 0
519 520 521 522 0
-520 0
-523 519 0
-523 17 0
523 -519 -17 0
-524 520 0
-524 18 0
524 -520 -18 0
-525 521 0
-525 19 0
525 -521 -19 0
-526 522 0
-526 20 0
526 -522 -20 0
-527 523 524 0
-527 -523 -524 0
527 -523 524 0
527 523 -524 0
-528 527 525 0
-528 -527 -525 0
528 -527 525 0
528 527 -525 0
-529 528 526 0
-529 -528 -526 0
529 -528 526 0
529 528 -526 0
-529 0
-519 0
-520 0
-530 519 0
-530 497 0
530 -519 -497 0
-531 520 0
-531 -498 0
531 -520 498 0
-532 521 0
-532 499 0
532 -521 -499 0
-533 522 0
-533 500 0
533 -522 -500 0
-534 530 531 0
-534 -530 -531 0
534 -530 531 0
534 530 -531 0
-535 534 532 0
-535 -534 -532 0
535 -534 532 0
535 534 -532 0
-536 535 533 0
-536 -535 -533 0
536 -535 533 0
536 535 -533 0
-537 501 519 0
-537 -501 -519 0
537 -501 519 0
537 501 -519 0
-538 502 520 0
-538 -502 -520 0
538 -502 520 0
538 502 -520 0
-539 503 521 0
-539 -503 -521 0
539 -503 521 0
539 503 -521 0
-540 504 522 0
-540 -504 -522 0
540 -504 522 0
540 504 -522 0
537 538 539 540 0
-541 29 37 0
-541 -29 -37 0
541 -29 37 0
541 29 -37 0
-542 541 17 0
-542 -541 -17 0
542 -541 17 0
542 541 -17 0
-543 30 38 0
-543 -30 -38 0
543 -30 38 0
543 30 -38 0
-544 543 18 0
-544 -543 -18 0
544 -543 18 0
544 543 -18 0
-545 31 39 0
-545 -31 -39 0
545 -31 39 0
545 31 -39 0
-546 545 19 0
-546 -545 -19 0
546 -545 19 0
546 545 -19 0
-547 32 40 0
-547 -32 -40 0
547 -32 40 0
547 32 -40 0
-548 547 20 0
-548 -547 -20 0
548 -547 20 0
548 547 -20 0
549 550 551 552 0
-550 0
-553 549 0
-553 17 0
553 -549 -17 0
-554 550 0
-554 18 0
554 -550 -18 0
-555 551 0
-555 19 0
555 -551 -19 0
-556 552 0
-556 20 0
556 -552 -20 0
-557 553 554 0
-557 -553 -554 0
557 -553 554 0
557 553 -554 0
-558 557 555 0
-558 -557 -555 0
558 -557 555 0
558 557 -555 0
-559 558 556 0
-559 -558 -556 0
559 -558 556 0
559 558 -556 0
-559 0
-560 549 0
-560 13 0
560 -549 -13 0
-561 550 0
-561 14 0
561 -550 -14 0
-562 551 0
-562 15 0
562 -551 -15 0
-563 552 0
-563 16 0
563 -552 -16 0
-564 560 561 0
-564 -560 -561 0
564 -560 561 0
564 560 -561 0
-565 564 562 0
-565 -564 -562 0
565 -564 562 0
565 564 -562 0
-566 565 563 0
-566 -565 -563 0
566 -565 563 0
566 565 -563 0
-566 0
-567 549 0
-567 17 0
567 -549 -17 0
-568 550 0
-568 18 0
568 -550 -18 0
-569 551 0
-569 19 0
569 -551 -19 0
-570 552 0
-570 20 0
570 -552 -20 0
-571 567 568 0
-571 -567 -568 0
571 -567 568 0
571 567 -568 0
-572 571 569 0
-572 -571 -569 0
572 -571 569 0
572 571 -569 0
-573 572 570 0
-573 -572 -570 0
573 -572 570 0
573 572 -570 0
-573 0
-574 549 0
-574 542 0
574 -549 -542 0
-575 550 0
-575 544 0
575 -550 -544 0
-576 551 0
-576 546 0
576 -551 -546 0
-577 552 0
-577 548 0
577 -552 -548 0
-578 574 575 0
-578 -574 -575 0
578 -574 575 0
578 574 -575 0
-579 578 576 0
-579 -578 -576 0
579 -578 576 0
579 578 -576 0
-580 579 577 0
-580 -579 -577 0
580 -579 577 0
580 579 -577 0
581 582 583 584 0
-582 0
-585 581 0
-585 17 0
585 -581 -17 0
-586 582 0
-586 18 0
586 -582 -18 0
-587 583 0
-587 19 0
587 -583 -19 0
-588 584 0
-588 20 0
588 -584 -20 0
-589 585 586 0
-589 -585 -586 0
589 -585 586 0
589 585 -586 0
-590 589 587 0
-590 -589 -587 0
590 -589 587 0
590 589 -587 0
-591 590 588 0
-591 -590 -588 0
591 -590 588 0
591 590 -588 0
-591 0
-592 581 0
-592 13 0
592 -581 -13 0
-593 582 0
-593 14 0
593 -582 -14 0
-594 583 0
-594 15 0
594 -583 -15 0
-595 584 0
-595 16 0
595 -584 -16 0
-596 592 593 0
-596 -592 -593 0
596 -592 593 0
596 592 -593 0
-597 596 594 0
-597 -596 -594 0
597 -596 594 0
597 596 -594 0
-598 597 595 0
-598 -597 -595 0
598 -597 595 0
598 597 -595 0
-598 0
-599 581 0
-599 17 0
599 -581 -17 0
-600 582 0
-600 18 0
600 -582 -18 0
-601 583 0
-601 19 0
601 -583 -19 0
-602 584 0
-602 20 0
602 -584 -20 0
-603 599 600 0
-603 -599 -600 0
603 -599 600 0
603 599 -600 0
-604 603 601 0
-604 -603 -601 0
604 -603 601 0
604 603 -601 0
-605 604 602 0
-605 -604 -602 0
605 -604 602 0
605 604 -602 0
-605 0
-606 581 0
-606 542 0
606 -581 -542 0
-607 582 0
-607 544 0
607 -582 -544 0
-608 583 0
-608 546 0
608 -583 -546 0
-609 584 0
-609 548 0
609 -584 -548 0
-610 606 607 0
-610 -606 -607 0
610 -606 607 0
610 606 -607 0
-611 610 608 0
-611 -610 -608 0
611 -610 608 0
611 610 -608 0
-612 611 609 0
-612 -611 -609 0
612 -611 609 0
612 611 -609 0
-613 549 581 0
-613 -549 -581 0
613 -549 581 0
613 549 -581 0
-614 550 582 0
-614 -550 -582 0
614 -550 582 0
614 550 -582 0
-615 551 583 0
-615 -551 -583 0
615 -551 583 0
615 551 -583 0
-616 552 584 0
-616 -552 -584 0
616 -552 584 0
616 552 -584 0
613 614 615 616 0
-617 25 29 0
-617 -25 -29 0
617 -25 29 0
617 25 -29 0
-618 617 37 0
-618 -617 -37 0
618 -617 37 0
618 617 -37 0
-619 618 17 0
-619 -618 -17 0
619 -618 17 0
619 618 -17 0
-620 26 30 0
-620 -26 -30 0
620 -26 30 0
620 26 -30 0
-621 620 38 0
-621 -620 -38 0
621 -620 38 0
621 620 -38 0
-622 -621 18 0
-622 621 -18 0
622 621 18 0
622 -621 -18 0
-623 27 31 0
-623 -27 -31 0
623 -27 31 0
623 27 -31 0
-624 623 39 0
-624 -623 -39 0
624 -623 39 0
624 623 -39 0
-625 624 19 0
-625 -624 -19 0
625 -624 19 0
625 624 -19 0
-626 28 32 0
-626 -28 -32 0
626 -28 32 0
626 28 -32 0
-627 626 40 0
-627 -626 -40 0
627 -626 40 0
627 626 -40 0
-628 627 20 0
-628 -627 -20 0
628 -627 20 0
628 627 -20 0
629 630 631 632 0
-630 0
-633 629 0
-633 17 0
633 -629 -17 0
-634 630 0
-634 18 0
634 -630 -18 0
-635 631 0
-635 19 0
635 -631 -19 0
-636 632 0
-636 20 0
636 -632 -20 0
-637 633 634 0
-637 -633 -634 0
637 -633 634 0
637 633 -634 0
-638 637 635 0
-638 -637 -635 0
638 -637 635 0
638 637 -635 0
-639 638 636 0
-639 -638 -636 0
639 -638 636 0
639 638 -636 0
-639 0
-640 629 0
-640 -13 0
640 -629 13 0
-641 630 0
-641 14 0
641 -630 -14 0
-642 631 0
-642 15 0
642 -631 -15 0
-643 632 0
-643 16 0
643 -632 -16 0
-644 640 641 0
-644 -640 -641 0
644 -640 641 0
644 640 -641 0
-645 644 642 0
-645 -644 -642 0
645 -644 642 0
645 644 -642 0
-646 645 643 0
-646 -645 -643 0
646 -645 643 0
646 645 -643 0
-646 0
-647 629 0
-647 17 0
647 -629 -17 0
-648 630 0
-648 -18 0
648 -630 18 0
-649 631 0
-649 19 0
649 -631 -19 0
-650 632 0
-650 20 0
650 -632 -20 0
-651 647 648 0
-651 -647 -648 0
651 -647 648 0
651 647 -648 0
-652 651 649 0
-652 -651 -649 0
652 -651 649 0
652 651 -649 0
-653 652 650 0
-653 -652 -650 0
653 -652 650 0
653 652 -650 0
-653 0
-654 629 0
-654 619 0
654 -629 -619 0
-655 630 0
-655 622 0
655 -630 -622 0
-656 631 0
-656 625 0
656 -631 -625 0
-657 632 0
-657 628 0
657 -632 -628 0
-658 654 655 0
-658 -654 -655 0
658 -654 655 0
658 654 -655 0
-659 658 656 0
-659 -658 -656 0
659 -658 656 0
659 658 -656 0
-660 659 657 0
-660 -659 -657 0
660 -659 657 0
660 659 -657 0
661 662 663 664 0
-662 0
-665 661 0
-665 17 0
665 -661 -17 0
-666 662 0
-666 18 0
666 -662 -18 0
-667 663 0
-667 19 0
667 -663 -19 0
-668 664 0
-668 20 0
668 -664 -20 0
-669 665 666 0
-669 -665 -666 0
669 -665 666 0
669 665 -666 0
-670 669 667 0
-670 -669 -667 0
670 -669 667 0
670 669 -667 0
-671 670 668 0
-671 -670 -668 0
671 -670 668 0
671 670 -668 0
-671 0
-672 661 0
-672 -13 0
672 -661 13 0
-673 662 0
-673 14 0
673 -662 -14 0
-674 663 0
-674 15 0
674 -663 -15 0
-675 664 0
-675 16 0
675 -664 -16 0
-676 672 673 0
-676 -672 -673 0
676 -672 673 0
676 672 -673 0
-677 676 674 0
-677 -676 -674 0
677 -676 674 0
677 676 -674 0
-678 677 675 0
-678 -677 -675 0
678 -677 675 0
678 677 -675 0
-678 0
-679 661 0
-679 17 0
679 -661 -17 0
-680 662 0
-680 -18 0
680 -662 18 0
-681 663 0
-681 19 0
681 -663 -19 0
-682 664 0
-682 20 0
682 -664 -20 0
-683 679 680 0
-683 -679 -680 0
683 -679 680 0
683 679 -680 0
-684 683 681 0
-684 -683 -681 0
684 -683 681 0
684 683 -681 0
-685 684 682 0
-685 -684 -682 0
685 -684 682 0
685 684 -682 0
-685 0
-686 661 0
-686 619 0
686 -661 -619 0
-687 662 0
-687 622 0
687 -662 -622 0
-688 663 0
-688 625 0
688 -663 -625 0
-689 664 0
-689 628 0
689 -664 -628 0
-690 686 687 0
-690 -686 -687 0
690 -686 687 0
690 686 -687 0
-691 690 688 0
-691 -690 -688 0
691 -690 688 0
691 690 -688 0
-692 691 689 0
-692 -691 -689 0
692 -691 689 0
692 691 -689 0
-693 629 661 0
-693 -629 -661 0
693 -629 661 0
693 629 -661 0
-694 630 662 0
-694 -630 -662 0
694 -630 662 0
694 630 -662 0
-695 631 663 0
-695 -631 -663 0
695 -631 663 0
695 631 -663 0
-696 632 664 0
-696 -632 -664 0
696 -632 664 0
696 632 -664 0
693 694 695 696 0
-697 13 17 0
-697 -13 -17 0
697 -13 17 0
697 13 -17 0
-698 14 18 0
-698 -14 -18 0
698 -14 18 0
698 14 -18 0
-699 15 19 0
-699 -15 -19 0
699 -15 19 0
699 15 -19 0
-700 16 20 0
-700 -16 -20 0
700 -16 20 0
700 16 -20 0
-701 33 37 0
-701 -33 -37 0
701 -33 37 0
701 33 -37 0
-702 34 38 0
-702 -34 -38 0
702 -34 38 0
702 34 -38 0
-703 35 39 0
-703 -35 -39 0
703 -35 39 0
703 35 -39 0
-704 36 40 0
-704 -36 -40 0
704 -36 40 0
704 36 -40 0
705 706 707 708 0
-709 705 706 0
-709 -705 -706 0
709 -705 706 0
709 705 -706 0
-709 0
-710 705 0
-710 697 0
710 -705 -697 0
-711 706 0
-711 698 0
711 -706 -698 0
-712 707 0
-712 699 0
712 -707 -699 0
-713 708 0
-713 700 0
713 -708 -700 0
-714 710 711 0
-714 -710 -711 0
714 -710 711 0
714 710 -711 0
-715 714 712 0
-715 -714 -712 0
715 -714 712 0
715 714 -712 0
-716 715 713 0
-716 -715 -713 0
716 -715 713 0
716 715 -713 0
-716 0
-717 705 0
-717 701 0
717 -705 -701 0
-718 706 0
-718 702 0
718 -706 -702 0
-719 707 0
-719 703 0
719 -707 -703 0
-720 708 0
-720 704 0
720 -708 -704 0
-721 717 718 0
-721 -717 -718 0
721 -717 718 0
721 717 -718 0
-722 721 719 0
-722 -721 -719 0
722 -721 719 0
722 721 -719 0
-723 722 720 0
-723 -722 -720 0
723 -722 720 0
723 722 -720 0
724 725 726 727 0
-728 724 725 0
-728 -724 -725 0
728 -724 725 0
728 724 -725 0
-728 0
-729 724 0
-729 697 0
729 -724 -697 0
-730 725 0
-730 698 0
730 -725 -698 0
-731 726 0
-731 699 0
731 -726 -699 0
-732 727 0
-732 700 0
732 -727 -700 0
-733 729 730 0
-733 -729 -730 0
733 -729 730 0
733 729 -730 0
-734 733 731 0
-734 -733 -731 0
734 -733 731 0
734 733 -731 0
-735 734 732 0
-735 -734 -732 0
735 -734 732 0
735 734 -732 0
-735 0
-736 724 0
-736 701 0
736 -724 -701 0
-737 725 0
-737 702 0
737 -725 -702 0
-738 726 0
-738 703 0
738 -726 -703 0
-739 727 0
-739 704 0
739 -727 -704 0
-740 736 737 0
-740 -736 -737 0
740 -736 737 0
740 736 -737 0
-741 740 738 0
-741 -740 -738 0
741 -740 738 0
741 740 -738 0
-742 741 739 0
-742 -741 -739 0
742 -741 739 0
742 741 -739 0
-743 705 724 0
-743 -705 -724 0
743 -705 724 0
743 705 -724 0
-744 706 725 0
-744 -706 -725 0
744 -706 725 0
744 706 -725 0
-745 707 726 0
-745 -707 -726 0
745 -707 726 0
745 707 -726 0
-746 708 727 0
-746 -708 -727 0
746 -708 727 0
746 708 -727 0
743 744 745 746 0
-747 13 17 0
-747 -13 -17 0
747 -13 17 0
747 13 -17 0
-748 14 18 0
-748 -14 -18 0
748 -14 18 0
748 14 -18 0
-749 15 19 0
-749 -15 -19 0
749 -15 19 0
749 15 -19 0
-750 16 20 0
-750 -16 -20 0
750 -16 20 0
750 16 -20 0
-751 25 33 0
-751 -25 -33 0
751 -25 33 0
751 25 -33 0
-752 751 37 0
-752 -751 -37 0
752 -751 37 0
752 751 -37 0
-753 26 34 0
-753 -26 -34 0
753 -26 34 0
753 26 -34 0
-754 753 38 0
-754 -753 -38 0
754 -753 38 0
754 753 -38 0
-755 27 35 0
-755 -27 -35 0
755 -27 35 0
755 27 -35 0
-756 755 39 0
-756 -755 -39 0
756 -755 39 0
756 755 -39 0
-757 28 36 0
-757 -28 -36 0
757 -28 36 0
757 28 -36 0
-758 757 40 0
-758 -757 -40 0
758 -757 40 0
758 757 -40 0
759 760 761 762 0
-763 759 760 0
-763 -759 -760 0
763 -759 760 0
763 759 -760 0
-763 0
-764 759 0
-764 747 0
764 -759 -747 0
-765 760 0
-765 748 0
765 -760 -748 0
-766 761 0
-766 749 0
766 -761 -749 0
-767 762 0
-767 750 0
767 -762 -750 0
-768 764 765 0
-768 -764 -765 0
768 -764 765 0
768 764 -765 0
-769 768 766 0
-769 -768 -766 0
769 -768 766 0
769 768 -766 0
-770 769 767 0
-770 -769 -767 0
770 -769 767 0
770 769 -767 0
-770 0
-759 0
-760 0
-771 759 0
-771 -752 0
771 -759 752 0
-772 760 0
-772 -754 0
772 -760 754 0
-773 761 0
-773 756 0
773 -761 -756 0
-774 762 0
-774 758 0
774 -762 -758 0
-775 771 772 0
-775 -771 -772 0
775 -771 772 0
775 771 -772 0
-776 775 773 0
-776 -775 -773 0
776 -775 773 0
776 775 -773 0
-777 776 774 0
-777 -776 -774 0
777 -776 774 0
777 776 -774 0
778 779 780 781 0
-782 778 779 0
-782 -778 -779 0
782 -778 779 0
782 778 -779 0
-782 0
-783 778 0
-783 747 0
783 -778 -747 0
-784 779 0
-784 748 0
784 -779 -748 0
-785 780 0
-785 749 0
785 -780 -749 0
-786 781 0
-786 750 0
786 -781 -750 0
-787 783 784 0
-787 -783 -784 0
787 -783 784 0
787 783 -784 0
-788 787 785 0
-788 -787 -785 0
788 -787 785 0
788 787 -785 0
-789 788 786 0
-789 -788 -786 0
789 -788 786 0
789 788 -786 0
-789 0
-778 0
-779 0
-790 778 0
-790 -752 0
790 -778 752 0
-791 779 0
-791 -754 0
791 -779 754 0
-792 780 0
-792 756 0
792 -780 -756 0
-793 781 0
-793 758 0
793 -781 -758 0
-794 790 791 0
-794 -790 -791 0
794 -790 791 0
794 790 -791 0
-795 794 792 0
-795 -794 -792 0
795 -794 792 0
795 794 -792 0
-796 795 793 0
-796 -795 -793 0
796 -795 793 0
796 795 -793 0
-797 759 778 0
-797 -759 -778 0
797 -759 778 0
797 759 -778 0
-798 760 779 0
-798 -760 -779 0
798 -760 779 0
798 760 -779 0
-799 761 780 0
-799 -761 -780 0
799 -761 780 0
799 761 -780 0
-800 762 781 0
-800 -762 -781 0
800 -762 781 0
800 762 -781 0
797 798 799 800 0
-801 13 17 0
-801 -13 -17 0
801 -13 17 0
801 13 -17 0
-802 14 18 0
-802 -14 -18 0
802 -14 18 0
802 14 -18 0
-803 15 19 0
-803 -15 -19 0
803 -15 19 0
803 15 -19 0
-804 16 20 0
-804 -16 -20 0
804 -16 20 0
804 16 -20 0
-805 29 33 0
-805 -29 -33 0
805 -29 33 0
805 29 -33 0
-806 805 37 0
-806 -805 -37 0
806 -805 37 0
806 805 -37 0
-807 806 13 0
-807 -806 -13 0
807 -806 13 0
807 806 -13 0
-808 807 17 0
-808 -807 -17 0
808 -807 17 0
808 807 -17 0
-809 30 34 0
-809 -30 -34 0
809 -30 34 0
809 30 -34 0
-810 809 38 0
-810 -809 -38 0
810 -809 38 0
810 809 -38 0
-811 810 14 0
-811 -810 -14 0
811 -810 14 0
811 810 -14 0
-812 811 18 0
-812 -811 -18 0
812 -811 18 0
812 811 -18 0
-813 31 35 0
-813 -31 -35 0
813 -31 35 0
813 31 -35 0
-814 813 39 0
-814 -813 -39 0
814 -813 39 0
814 813 -39 0
-815 814 15 0
-815 -814 -15 0
815 -814 15 0
815 814 -15 0
-816 815 19 0
-816 -815 -19 0
816 -815 19 0
816 815 -19 0
-817 32 36 0
-817 -32 -36 0
817 -32 36 0
817 32 -36 0
-818 817 40 0
-818 -817 -40 0
818 -817 40 0
818 817 -40 0
-819 818 16 0
-819 -818 -16 0
819 -818 16 0
819 818 -16 0
-820 819 20 0
-820 -819 -20 0
820 -819 20 0
820 819 -20 0
821 822 823 824 0
-825 821 822 0
-825 -821 -822 0
825 -821 822 0
825 821 -822 0
-825 0
-826 821 0
-826 801 0
826 -821 -801 0
-827 822 0
-827 802 0
827 -822 -802 0
-828 823 0
-828 803 0
828 -823 -803 0
-829 824 0
-829 804 0
829 -824 -804 0
-830 826 827 0
-830 -826 -827 0
830 -826 827 0
830 826 -827 0
-831 830 828 0
-831 -830 -828 0
831 -830 828 0
831 830 -828 0
-832 831 829 0
-832 -831 -829 0
832 -831 829 0
832 831 -829 0
-832 0
-833 821 0
-833 13 0
833 -821 -13 0
-834 822 0
-834 14 0
834 -822 -14 0
-835 823 0
-835 15 0
835 -823 -15 0
-836 824 0
-836 16 0
836 -824 -16 0
-837 833 834 0
-837 -833 -834 0
837 -833 834 0
837 833 -834 0
-838 837 835 0
-838 -837 -835 0
838 -837 835 0
838 837 -835 0
-839 838 836 0
-839 -838 -836 0
839 -838 836 0
839 838 -836 0
-839 0
-840 821 0
-840 17 0
840 -821 -17 0
-841 822 0
-841 18 0
841 -822 -18 0
-842 823 0
-842 19 0
842 -823 -19 0
-843 824 0
-843 20 0
843 -824 -20 0
-844 840 841 0
-844 -840 -841 0
844 -840 841 0
844 840 -841 0
-845 844 842 0
-845 -844 -842 0
845 -844 842 0
845 844 -842 0
-846 845 843 0
-846 -845 -843 0
846 -845 843 0
846 845 -843 0
-846 0
-847 821 0
-847 808 0
847 -821 -808 0
-848 822 0
-848 812 0
848 -822 -812 0
-849 823 0
-849 816 0
849 -823 -816 0
-850 824 0
-850 820 0
850 -824 -820 0
-851 847 848 0
-851 -847 -848 0
851 -847 848 0
851 847 -848 0
-852 851 849 0
-852 -851 -849 0
852 -851 849 0
852 851 -849 0
-853 852 850 0
-853 -852 -850 0
853 -852 850 0
853 852 -850 0
854 855 856 857 0
-858 854 855 0
-858 -854 -855 0
858 -854 855 0
858 854 -855 0
-858 0
-859 854 0
-859 801 0
859 -854 -801 0
-860 855 0
-860 802 0
860 -855 -802 0
-861 856 0
-861 803 0
861 -856 -803 0
-862 857 0
-862 804 0
862 -857 -804 0
-863 859 860 0
-863 -859 -860 0
863 -859 860 0
863 859 -860 0
-864 863 861 0
-864 -863 -861 0
864 -863 861 0
864 863 -861 0
-865 864 862 0
-865 -864 -862 0
865 -864 862 0
865 864 -862 0
-865 0
-866 854 0
-866 13 0
866 -854 -13 0
-867 855 0
-867 14 0
867 -855 -14 0
-868 856 0
-868 15 0
868 -856 -15 0
-869 857 0
-869 16 0
869 -857 -16 0
-870 866 867 0
-870 -866 -867 0
870 -866 867 0
870 866 -867 0
-871 870 868 0
-871 -870 -868 0
871 -870 868 0
871 870 -868 0
-872 871 869 0
-872 -871 -869 0
872 -871 869 0
872 871 -869 0
-872 0
-873 854 0
-873 17 0
873 -854 -17 0
-874 855 0
-874 18 0
874 -855 -18 0
-875 856 0
-875 19 0
875 -856 -19 0
-876 857 0
-876 20 0
876 -857 -20 0
-877 873 874 0
-877 -873 -874 0
877 -873 874 0
877 873 -874 0
-878 877 875 0
-878 -877 -875 0
878 -877 875 0
878 877 -875 0
-879 878 876 0
-879 -878 -876 0
879 -878 876 0
879 878 -876 0
-879 0
-880 854 0
-880 808 0
880 -854 -808 0
-881 855 0
-881 812 0
881 -855 -812 0
-882 856 0
-882 816 0
882 -856 -816 0
-883 857 0
-883 820 0
883 -857 -820 0
-884 880 881 0
-884 -880 -881 0
884 -880 881 0
884 880 -881 0
-885 884 882 0
-885 -884 -882 0
885 -884 882 0
885 884 -882 0
-886 885 883 0
-886 -885 -883 0
886 -885 883 0
886 885 -883 0
-887 821 854 0
-887 -821 -854 0
887 -821 854 0
887 821 -854 0
-888 822 855 0
-888 -822 -855 0
888 -822 855 0
888 822 -855 0
-889 823 856 0
-889 -823 -856 0
889 -823 856 0
889 823 -856 0
-890 824 857 0
-890 -824 -857 0
890 -824 857 0
890 824 -857 0
887 888 889 890 0
-891 13 17 0
-891 -13 -17 0
891 -13 17 0
891 13 -17 0
-892 14 18 0
-892 -14 -18 0
892 -14 18 0
892 14 -18 0
-893 15 19 0
-893 -15 -19 0
893 -15 19 0
893 15 -19 0
-894 16 20 0
-894 -16 -20 0
894 -16 20 0
894 16 -20 0
-895 25 29 0
-895 -25 -29 0
895 -25 29 0
895 25 -29 0
-896 895 33 0
-896 -895 -33 0
896 -895 33 0
896 895 -33 0
-897 896 37 0
-897 -896 -37 0
897 -896 37 0
897 896 -37 0
-898 -897 13 0
-898 897 -13 0
898 897 13 0
898 -897 -13 0
-899 898 17 0
-899 -898 -17 0
899 -898 17 0
899 898 -17 0
-900 26 30 0
-900 -26 -30 0
900 -26 30 0
900 26 -30 0
-901 900 34 0
-901 -900 -34 0
901 -900 34 0
901 900 -34 0
-902 901 38 0
-902 -901 -38 0
902 -901 38 0
902 901 -38 0
-903 -902 14 0
-903 902 -14 0
903 902 14 0
903 -902 -14 0
-904 903 18 0
-904 -903 -18 0
904 -903 18 0
904 903 -18 0
-905 27 31 0
-905 -27 -31 0
905 -27 31 0
905 27 -31 0
-906 905 35 0
-906 -905 -35 0
906 -905 35 0
906 905 -35 0
-907 906 39 0
-907 -906 -39 0
907 -906 39 0
907 906 -39 0
-908 907 15 0
-908 -907 -15 0
908 -907 15 0
908 907 -15 0
-909 908 19 0
-909 -908 -19 0
909 -908 19 0
909 908 -19 0
-910 28 32 0
-910 -28 -32 0
910 -28 32 0
910 28 -32 0
-911 910 36 0
-911 -910 -36 0
911 -910 36 0
911 910 -36 0
-912 911 40 0
-912 -911 -40 0
912 -911 40 0
912 911 -40 0
-913 912 16 0
-913 -912 -16 0
913 -912 16 0
913 912 -16 0
-914 913 20 0
-914 -913 -20 0
914 -913 20 0
914 913 -20 0
915 916 917 918 0
-919 915 916 0
-919 -915 -916 0
919 -915 916 0
919 915 -916 0
-919 0
-920 915 0
-920 891 0
920 -915 -891 0
-921 916 0
-921 892 0
921 -916 -892 0
-922 917 0
-922 893 0
922 -917 -893 0
-923 918 0
-923 894 0
923 -918 -894 0
-924 920 921 0
-924 -920 -921 0
924 -920 921 0
924 920 -921 0
-925 924 922 0
-925 -924 -922 0
925 -924 922 0
925 924 -922 0
-926 925 923 0
-926 -925 -923 0
926 -925 923 0
926 925 -923 0
-926 0
-927 915 0
-927 -13 0
927 -915 13 0
-928 916 0
-928 14 0
928 -916 -14 0
-929 917 0
-929 15 0
929 -917 -15 0
-930 918 0
-930 16 0
930 -918 -16 0
-931 927 928 0
-931 -927 -928 0
931 -927 928 0
931 927 -928 0
-932 931 929 0
-932 -931 -929 0
932 -931 929 0
932 931 -929 0
-933 932 930 0
-933 -932 -930 0
933 -932 930 0
933 932 -930 0
-933 0
-934 915 0
-934 17 0
934 -915 -17 0
-935 916 0
-935 -18 0
935 -916 18 0
-936 917 0
-936 19 0
936 -917 -19 0
-937 918 0
-937 20 0
937 -918 -20 0
-938 934 935 0
-938 -934 -935 0
938 -934 935 0
938 934 -935 0
-939 938 936 0
-939 -938 -936 0
939 -938 936 0
939 938 -936 0
-940 939 937 0
-940 -939 -937 0
940 -939 937 0
940 939 -937 0
-940 0
-941 915 0
-941 899 0
941 -915 -899 0
-942 916 0
-942 904 0
942 -916 -904 0
-943 917 0
-943 909 0
943 -917 -909 0
-944 918 0
-944 914 0
944 -918 -914 0
-945 941 942 0
-945 -941 -942 0
945 -941 942 0
945 941 -942 0
-946 945 943 0
-946 -945 -943 0
946 -945 943 0
946 945 -943 0
-947 946 944 0
-947 -946 -944 0
947 -946 944 0
947 946 -944 0
948 949 950 951 0
-952 948 949 0
-952 -948 -949 0
952 -948 949 0
952 948 -949 0
-952 0
-953 948 0
-953 891 0
953 -948 -891 0
-954 949 0
-954 892 0
954 -949 -892 0
-955 950 0
-955 893 0
955 -950 -893 0
-956 951 0
-956 894 0
956 -951 -894 0
-957 953 954 0
-957 -953 -954 0
957 -953 954 0
957 953 -954 0
-958 957 955 0
-958 -957 -955 0
958 -957 955 0
958 957 -955 0
-959 958 956 0
-959 -958 -956 0
959 -958 956 0
959 958 -956 0
-959 0
-960 948 0
-960 -13 0
960 -948 13 0
-961 949 0
-961 14 0
961 -949 -14 0
-962 950 0
-962 15 0
962 -950 -15 0
-963 951 0
-963 16 0
963 -951 -16 0
-964 960 961 0
-964 -960 -961 0
964 -960 961 0
964 960 -961 0
-965 964 962 0
-965 -964 -962 0
965 -964 962 0
965 964 -962 0
-966 965 963 0
-966 -965 -963 0
966 -965 963 0
966 965 -963 0
-966 0
-967 948 0
-967 17 0
967 -948 -17 0
-968 949 0
-968 -18 0
968 -949 18 0
-969 950 0
-969 19 0
969 -950 -19 0
-970 951 0
-970 20 0
970 -951 -20 0
-971 967 968 0
-971 -967 -968 0
971 -967 968 0
971 967 -968 0
-972 971 969 0
-972 -971 -969 0
972 -971 969 0
972 971 -969 0
-973 972 970 0
-973 -972 -970 0
973 -972 970 0
973 972 -970 0
-973 0
-974 948 0
-974 899 0
974 -948 -899 0
-975 949 0
-975 904 0
975 -949 -904 0
-976 950 0
-976 909 0
976 -950 -909 0
-977 951 0
-977 914 0
977 -951 -914 0
-978 974 975 0
-978 -974 -975 0
978 -974 975 0
978 974 -975 0
-979 978 976 0
-979 -978 -976 0
979 -978 976 0
979 978 -976 0
-980 979 977 0
-980 -979 -977 0
980 -979 977 0
980 979 -977 0
-981 915 948 0
-981 -915 -948 0
981 -915 948 0
981 915 -948 0
-982 916 949 0
-982 -916 -949 0
982 -916 949 0
982 916 -949 0
-983 917 950 0
-983 -917 -950 0
983 -917 950 0
983 917 -950 0
-984 918 951 0
-984 -918 -951 0
984 -918 951 0
984 918 -951 0
981 982 983 984 0
