c D(4) quadratic DU-4 permutation model, sb=True, sb3=True, units=[]
p cnf 930 2919
-17 0
-14 0
-41 13 14 0
-41 -13 -14 0
41 -13 14 0
41 13 -14 0
-42 17 18 0
-42 -17 -18 0
42 -17 18 0
42 17 -18 0
-43 42 41 0
-43 -42 -41 0
43 -42 41 0
43 42 -41 0
-43 0
15 19 0
-44 13 15 0
-44 -13 -15 0
44 -13 15 0
44 13 -15 0
-45 17 19 0
-45 -17 -19 0
45 -17 19 0
45 17 -19 0
-45 0
-46 14 15 0
-46 -14 -15 0
46 -14 15 0
46 14 -15 0
-47 18 19 0
-47 -18 -19 0
47 -18 19 0
47 18 -19 0
-46 0
-48 13 14 0
-48 -13 -14 0
48 -13 14 0
48 13 -14 0
-49 48 15 0
-49 -48 -15 0
49 -48 15 0
49 48 -15 0
-50 17 18 0
-50 -17 -18 0
50 -17 18 0
50 17 -18 0
-51 50 19 0
-51 -50 -19 0
51 -50 19 0
51 50 -19 0
-52 51 49 0
-52 -51 -49 0
52 -51 49 0
52 51 -49 0
-52 0
16 20 0
-53 13 16 0
-53 -13 -16 0
53 -13 16 0
53 13 -16 0
-54 17 20 0
-54 -17 -20 0
54 -17 20 0
54 17 -20 0
-54 0
-55 14 16 0
-55 -14 -16 0
55 -14 16 0
55 14 -16 0
-56 18 20 0
-56 -18 -20 0
56 -18 20 0
56 18 -20 0
-55 0
-57 13 14 0
-57 -13 -14 0
57 -13 14 0
57 13 -14 0
-58 57 16 0
-58 -57 -16 0
58 -57 16 0
58 57 -16 0
-59 17 18 0
-59 -17 -18 0
59 -17 18 0
59 17 -18 0
-60 59 20 0
-60 -59 -20 0
60 -59 20 0
60 59 -20 0
-61 60 58 0
-61 -60 -58 0
61 -60 58 0
61 60 -58 0
-61 0
-62 15 16 0
-62 -15 -16 0
62 -15 16 0
62 15 -16 0
-63 19 20 0
-63 -19 -20 0
63 -19 20 0
63 19 -20 0
62 63 0
-64 13 15 0
-64 -13 -15 0
64 -13 15 0
64 13 -15 0
-65 64 16 0
-65 -64 -16 0
65 -64 16 0
65 64 -16 0
-66 17 19 0
-66 -17 -19 0
66 -17 19 0
66 17 -19 0
-67 66 20 0
-67 -66 -20 0
67 -66 20 0
67 66 -20 0
-67 0
-68 14 15 0
-68 -14 -15 0
68 -14 15 0
68 14 -15 0
-69 68 16 0
-69 -68 -16 0
69 -68 16 0
69 68 -16 0
-70 18 19 0
-70 -18 -19 0
70 -18 19 0
70 18 -19 0
-71 70 20 0
-71 -70 -20 0
71 -70 20 0
71 70 -20 0
-69 0
-72 13 14 0
-72 -13 -14 0
72 -13 14 0
72 13 -14 0
-73 72 15 0
-73 -72 -15 0
73 -72 15 0
73 72 -15 0
-74 73 16 0
-74 -73 -16 0
74 -73 16 0
74 73 -16 0
-75 17 18 0
-75 -17 -18 0
75 -17 18 0
75 17 -18 0
-76 75 19 0
-76 -75 -19 0
76 -75 19 0
76 75 -19 0
-77 76 20 0
-77 -76 -20 0
77 -76 20 0
77 76 -20 0
-78 77 74 0
-78 -77 -74 0
78 -77 74 0
78 77 -74 0
-78 0
79 80 81 82 0
-79 0
-80 0
83 84 85 86 0
-83 0
-84 0
-87 79 83 0
-87 -79 -83 0
87 -79 83 0
87 79 -83 0
-88 80 84 0
-88 -80 -84 0
88 -80 84 0
88 80 -84 0
-89 81 85 0
-89 -81 -85 0
89 -81 85 0
89 81 -85 0
-90 82 86 0
-90 -82 -86 0
90 -82 86 0
90 82 -86 0
87 88 89 90 0
81 85 0
91 92 93 94 0
-95 91 0
-95 13 0
95 -91 -13 0
-96 92 0
-96 14 0
96 -92 -14 0
-97 93 0
-97 15 0
97 -93 -15 0
-98 94 0
-98 16 0
98 -94 -16 0
-99 95 96 0
-99 -95 -96 0
99 -95 96 0
99 95 -96 0
-100 99 97 0
-100 -99 -97 0
100 -99 97 0
100 99 -97 0
-101 100 98 0
-101 -100 -98 0
101 -100 98 0
101 100 -98 0
-101 0
-102 91 0
-102 17 0
102 -91 -17 0
-103 92 0
-103 18 0
103 -92 -18 0
-104 93 0
-104 19 0
104 -93 -19 0
-105 94 0
-105 20 0
105 -94 -20 0
-106 102 103 0
-106 -102 -103 0
106 -102 103 0
106 102 -103 0
-107 106 104 0
-107 -106 -104 0
107 -106 104 0
107 106 -104 0
-108 107 105 0
-108 -107 -105 0
108 -107 105 0
108 107 -105 0
-108 0
-109 91 0
-109 29 0
109 -91 -29 0
-110 92 0
-110 30 0
110 -92 -30 0
-111 94 0
-111 32 0
111 -94 -32 0
-112 109 110 0
-112 -109 -110 0
112 -109 110 0
112 109 -110 0
-113 112 111 0
-113 -112 -111 0
113 -112 111 0
113 112 -111 0
114 115 116 117 0
-118 114 0
-118 13 0
118 -114 -13 0
-119 115 0
-119 14 0
119 -115 -14 0
-120 116 0
-120 15 0
120 -116 -15 0
-121 117 0
-121 16 0
121 -117 -16 0
-122 118 119 0
-122 -118 -119 0
122 -118 119 0
122 118 -119 0
-123 122 120 0
-123 -122 -120 0
123 -122 120 0
123 122 -120 0
-124 123 121 0
-124 -123 -121 0
124 -123 121 0
124 123 -121 0
-124 0
-125 114 0
-125 17 0
125 -114 -17 0
-126 115 0
-126 18 0
126 -115 -18 0
-127 116 0
-127 19 0
127 -116 -19 0
-128 117 0
-128 20 0
128 -117 -20 0
-129 125 126 0
-129 -125 -126 0
129 -125 126 0
129 125 -126 0
-130 129 127 0
-130 -129 -127 0
130 -129 127 0
130 129 -127 0
-131 130 128 0
-131 -130 -128 0
131 -130 128 0
131 130 -128 0
-131 0
-132 114 0
-132 29 0
132 -114 -29 0
-133 115 0
-133 30 0
133 -115 -30 0
-134 117 0
-134 32 0
134 -117 -32 0
-135 132 133 0
-135 -132 -133 0
135 -132 133 0
135 132 -133 0
-136 135 134 0
-136 -135 -134 0
136 -135 134 0
136 135 -134 0
-137 91 114 0
-137 -91 -114 0
137 -91 114 0
137 91 -114 0
-138 92 115 0
-138 -92 -115 0
138 -92 115 0
138 92 -115 0
-139 93 116 0
-139 -93 -116 0
139 -93 116 0
139 93 -116 0
-140 94 117 0
-140 -94 -117 0
140 -94 117 0
140 94 -117 0
137 138 139 140 0
113 136 0
141 142 143 144 0
-145 141 0
-145 -13 0
145 -141 13 0
-146 142 0
-146 14 0
146 -142 -14 0
-147 143 0
-147 15 0
147 -143 -15 0
-148 144 0
-148 16 0
148 -144 -16 0
-149 145 146 0
-149 -145 -146 0
149 -145 146 0
149 145 -146 0
-150 149 147 0
-150 -149 -147 0
150 -149 147 0
150 149 -147 0
-151 150 148 0
-151 -150 -148 0
151 -150 148 0
151 150 -148 0
-151 0
-152 141 0
-152 17 0
152 -141 -17 0
-153 142 0
-153 -18 0
153 -142 18 0
-154 143 0
-154 19 0
154 -143 -19 0
-155 144 0
-155 20 0
155 -144 -20 0
-156 152 153 0
-156 -152 -153 0
156 -152 153 0
156 152 -153 0
-157 156 154 0
-157 -156 -154 0
157 -156 154 0
157 156 -154 0
-158 157 155 0
-158 -157 -155 0
158 -157 155 0
158 157 -155 0
-158 0
-159 141 0
-159 29 0
159 -141 -29 0
-160 142 0
-160 30 0
160 -142 -30 0
-161 144 0
-161 32 0
161 -144 -32 0
-162 159 160 0
-162 -159 -160 0
162 -159 160 0
162 159 -160 0
-163 162 143 0
-163 -162 -143 0
163 -162 143 0
163 162 -143 0
-164 163 161 0
-164 -163 -161 0
164 -163 161 0
164 163 -161 0
165 166 167 168 0
-169 165 0
-169 -13 0
169 -165 13 0
-170 166 0
-170 14 0
170 -166 -14 0
-171 167 0
-171 15 0
171 -167 -15 0
-172 168 0
-172 16 0
172 -168 -16 0
-173 169 170 0
-173 -169 -170 0
173 -169 170 0
173 169 -170 0
-174 173 171 0
-174 -173 -171 0
174 -173 171 0
174 173 -171 0
-175 174 172 0
-175 -174 -172 0
175 -174 172 0
175 174 -172 0
-175 0
-176 165 0
-176 17 0
176 -165 -17 0
-177 166 0
-177 -18 0
177 -166 18 0
-178 167 0
-178 19 0
178 -167 -19 0
-179 168 0
-179 20 0
179 -168 -20 0
-180 176 177 0
-180 -176 -177 0
180 -176 177 0
180 176 -177 0
-181 180 178 0
-181 -180 -178 0
181 -180 178 0
181 180 -178 0
-182 181 179 0
-182 -181 -179 0
182 -181 179 0
182 181 -179 0
-182 0
-183 165 0
-183 29 0
183 -165 -29 0
-184 166 0
-184 30 0
184 -166 -30 0
-185 168 0
-185 32 0
185 -168 -32 0
-186 183 184 0
-186 -183 -184 0
186 -183 184 0
186 183 -184 0
-187 186 167 0
-187 -186 -167 0
187 -186 167 0
187 186 -167 0
-188 187 185 0
-188 -187 -185 0
188 -187 185 0
188 187 -185 0
-189 141 165 0
-189 -141 -165 0
189 -141 165 0
189 141 -165 0
-190 142 166 0
-190 -142 -166 0
190 -142 166 0
190 142 -166 0
-191 143 167 0
-191 -143 -167 0
191 -143 167 0
191 143 -167 0
-192 144 168 0
-192 -144 -168 0
192 -144 168 0
192 144 -168 0
189 190 191 192 0
164 188 0
193 194 195 196 0
-193 0
-197 193 0
-197 13 0
197 -193 -13 0
-198 194 0
-198 14 0
198 -194 -14 0
-199 195 0
-199 15 0
199 -195 -15 0
-200 196 0
-200 16 0
200 -196 -16 0
-201 197 198 0
-201 -197 -198 0
201 -197 198 0
201 197 -198 0
-202 201 199 0
-202 -201 -199 0
202 -201 199 0
202 201 -199 0
-203 202 200 0
-203 -202 -200 0
203 -202 200 0
203 202 -200 0
-203 0
-204 193 0
-204 33 0
204 -193 -33 0
-205 194 0
-205 34 0
205 -194 -34 0
-206 195 0
-206 35 0
206 -195 -35 0
-207 196 0
-207 36 0
207 -196 -36 0
-208 204 205 0
-208 -204 -205 0
208 -204 205 0
208 204 -205 0
-209 208 206 0
-209 -208 -206 0
209 -208 206 0
209 208 -206 0
-210 209 207 0
-210 -209 -207 0
210 -209 207 0
210 209 -207 0
211 212 213 214 0
-211 0
-215 211 0
-215 13 0
215 -211 -13 0
-216 212 0
-216 14 0
216 -212 -14 0
-217 213 0
-217 15 0
217 -213 -15 0
-218 214 0
-218 16 0
218 -214 -16 0
-219 215 216 0
-219 -215 -216 0
219 -215 216 0
219 215 -216 0
-220 219 217 0
-220 -219 -217 0
220 -219 217 0
220 219 -217 0
-221 220 218 0
-221 -220 -218 0
221 -220 218 0
221 220 -218 0
-221 0
-222 211 0
-222 33 0
222 -211 -33 0
-223 212 0
-223 34 0
223 -212 -34 0
-224 213 0
-224 35 0
224 -213 -35 0
-225 214 0
-225 36 0
225 -214 -36 0
-226 222 223 0
-226 -222 -223 0
226 -222 223 0
226 222 -223 0
-227 226 224 0
-227 -226 -224 0
227 -226 224 0
227 226 -224 0
-228 227 225 0
-228 -227 -225 0
228 -227 225 0
228 227 -225 0
-229 193 211 0
-229 -193 -211 0
229 -193 211 0
229 193 -211 0
-230 194 212 0
-230 -194 -212 0
230 -194 212 0
230 194 -212 0
-231 195 213 0
-231 -195 -213 0
231 -195 213 0
231 195 -213 0
-232 196 214 0
-232 -196 -214 0
232 -196 214 0
232 196 -214 0
229 230 231 232 0
210 228 0
233 234 235 236 0
-233 0
-237 233 0
-237 13 0
237 -233 -13 0
-238 234 0
-238 14 0
238 -234 -14 0
-239 235 0
-239 15 0
239 -235 -15 0
-240 236 0
-240 16 0
240 -236 -16 0
-241 237 238 0
-241 -237 -238 0
241 -237 238 0
241 237 -238 0
-242 241 239 0
-242 -241 -239 0
242 -241 239 0
242 241 -239 0
-243 242 240 0
-243 -242 -240 0
243 -242 240 0
243 242 -240 0
-243 0
-233 0
-234 0
-244 233 0
-244 -33 0
244 -233 33 0
-245 234 0
-245 34 0
245 -234 -34 0
-246 235 0
-246 -35 0
246 -235 35 0
-247 236 0
-247 36 0
247 -236 -36 0
-248 244 245 0
-248 -244 -245 0
248 -244 245 0
248 244 -245 0
-249 248 246 0
-249 -248 -246 0
249 -248 246 0
249 248 -246 0
-250 249 247 0
-250 -249 -247 0
250 -249 247 0
250 249 -247 0
251 252 253 254 0
-251 0
-255 251 0
-255 13 0
255 -251 -13 0
-256 252 0
-256 14 0
256 -252 -14 0
-257 253 0
-257 15 0
257 -253 -15 0
-258 254 0
-258 16 0
258 -254 -16 0
-259 255 256 0
-259 -255 -256 0
259 -255 256 0
259 255 -256 0
-260 259 257 0
-260 -259 -257 0
260 -259 257 0
260 259 -257 0
-261 260 258 0
-261 -260 -258 0
261 -260 258 0
261 260 -258 0
-261 0
-251 0
-252 0
-262 251 0
-262 -33 0
262 -251 33 0
-263 252 0
-263 34 0
263 -252 -34 0
-264 253 0
-264 -35 0
264 -253 35 0
-265 254 0
-265 36 0
265 -254 -36 0
-266 262 263 0
-266 -262 -263 0
266 -262 263 0
266 262 -263 0
-267 266 264 0
-267 -266 -264 0
267 -266 264 0
267 266 -264 0
-268 267 265 0
-268 -267 -265 0
268 -267 265 0
268 267 -265 0
-269 233 251 0
-269 -233 -251 0
269 -233 251 0
269 233 -251 0
-270 234 252 0
-270 -234 -252 0
270 -234 252 0
270 234 -252 0
-271 235 253 0
-271 -235 -253 0
271 -235 253 0
271 235 -253 0
-272 236 254 0
-272 -236 -254 0
272 -236 254 0
272 236 -254 0
269 270 271 272 0
250 268 0
-273 29 33 0
-273 -29 -33 0
273 -29 33 0
273 29 -33 0
-274 273 13 0
-274 -273 -13 0
274 -273 13 0
274 273 -13 0
-275 30 34 0
-275 -30 -34 0
275 -30 34 0
275 30 -34 0
-276 275 14 0
-276 -275 -14 0
276 -275 14 0
276 275 -14 0
-277 35 15 0
-277 -35 -15 0
277 -35 15 0
277 35 -15 0
-278 32 36 0
-278 -32 -36 0
278 -32 36 0
278 32 -36 0
-279 278 16 0
-279 -278 -16 0
279 -278 16 0
279 278 -16 0
280 281 282 283 0
-280 0
-284 280 0
-284 13 0
284 -280 -13 0
-285 281 0
-285 14 0
285 -281 -14 0
-286 282 0
-286 15 0
286 -282 -15 0
-287 283 0
-287 16 0
287 -283 -16 0
-288 284 285 0
-288 -284 -285 0
288 -284 285 0
288 284 -285 0
-289 288 286 0
-289 -288 -286 0
289 -288 286 0
289 288 -286 0
-290 289 287 0
-290 -289 -287 0
290 -289 287 0
290 289 -287 0
-290 0
-291 280 0
-291 13 0
291 -280 -13 0
-292 281 0
-292 14 0
292 -281 -14 0
-293 282 0
-293 15 0
293 -282 -15 0
-294 283 0
-294 16 0
294 -283 -16 0
-295 291 292 0
-295 -291 -292 0
295 -291 292 0
295 291 -292 0
-296 295 293 0
-296 -295 -293 0
296 -295 293 0
296 295 -293 0
-297 296 294 0
-297 -296 -294 0
297 -296 294 0
297 296 -294 0
-297 0
-298 280 0
-298 17 0
298 -280 -17 0
-299 281 0
-299 18 0
299 -281 -18 0
-300 282 0
-300 19 0
300 -282 -19 0
-301 283 0
-301 20 0
301 -283 -20 0
-302 298 299 0
-302 -298 -299 0
302 -298 299 0
302 298 -299 0
-303 302 300 0
-303 -302 -300 0
303 -302 300 0
303 302 -300 0
-304 303 301 0
-304 -303 -301 0
304 -303 301 0
304 303 -301 0
-304 0
-305 280 0
-305 274 0
305 -280 -274 0
-306 281 0
-306 276 0
306 -281 -276 0
-307 282 0
-307 277 0
307 -282 -277 0
-308 283 0
-308 279 0
308 -283 -279 0
-309 305 306 0
-309 -305 -306 0
309 -305 306 0
309 305 -306 0
-310 309 307 0
-310 -309 -307 0
310 -309 307 0
310 309 -307 0
-311 310 308 0
-311 -310 -308 0
311 -310 308 0
311 310 -308 0
312 313 314 315 0
-312 0
-316 312 0
-316 13 0
316 -312 -13 0
-317 313 0
-317 14 0
317 -313 -14 0
-318 314 0
-318 15 0
318 -314 -15 0
-319 315 0
-319 16 0
319 -315 -16 0
-320 316 317 0
-320 -316 -317 0
320 -316 317 0
320 316 -317 0
-321 320 318 0
-321 -320 -318 0
321 -320 318 0
321 320 -318 0
-322 321 319 0
-322 -321 -319 0
322 -321 319 0
322 321 -319 0
-322 0
-323 312 0
-323 13 0
323 -312 -13 0
-324 313 0
-324 14 0
324 -313 -14 0
-325 314 0
-325 15 0
325 -314 -15 0
-326 315 0
-326 16 0
326 -315 -16 0
-327 323 324 0
-327 -323 -324 0
327 -323 324 0
327 323 -324 0
-328 327 325 0
-328 -327 -325 0
328 -327 325 0
328 327 -325 0
-329 328 326 0
-329 -328 -326 0
329 -328 326 0
329 328 -326 0
-329 0
-330 312 0
-330 17 0
330 -312 -17 0
-331 313 0
-331 18 0
331 -313 -18 0
-332 314 0
-332 19 0
332 -314 -19 0
-333 315 0
-333 20 0
333 -315 -20 0
-334 330 331 0
-334 -330 -331 0
334 -330 331 0
334 330 -331 0
-335 334 332 0
-335 -334 -332 0
335 -334 332 0
335 334 -332 0
-336 335 333 0
-336 -335 -333 0
336 -335 333 0
336 335 -333 0
-336 0
-337 312 0
-337 274 0
337 -312 -274 0
-338 313 0
-338 276 0
338 -313 -276 0
-339 314 0
-339 277 0
339 -314 -277 0
-340 315 0
-340 279 0
340 -315 -279 0
-341 337 338 0
-341 -337 -338 0
341 -337 338 0
341 337 -338 0
-342 341 339 0
-342 -341 -339 0
342 -341 339 0
342 341 -339 0
-343 342 340 0
-343 -342 -340 0
343 -342 340 0
343 342 -340 0
-344 280 312 0
-344 -280 -312 0
344 -280 312 0
344 280 -312 0
-345 281 313 0
-345 -281 -313 0
345 -281 313 0
345 281 -313 0
-346 282 314 0
-346 -282 -314 0
346 -282 314 0
346 282 -314 0
-347 283 315 0
-347 -283 -315 0
347 -283 315 0
347 283 -315 0
344 345 346 347 0
311 343 0
-348 29 33 0
-348 -29 -33 0
348 -29 33 0
348 29 -33 0
-349 -348 13 0
-349 348 -13 0
349 348 13 0
349 -348 -13 0
-350 30 34 0
-350 -30 -34 0
350 -30 34 0
350 30 -34 0
-351 350 14 0
-351 -350 -14 0
351 -350 14 0
351 350 -14 0
-352 -35 15 0
-352 35 -15 0
352 35 15 0
352 -35 -15 0
-353 32 36 0
-353 -32 -36 0
353 -32 36 0
353 32 -36 0
-354 353 16 0
-354 -353 -16 0
354 -353 16 0
354 353 -16 0
355 356 357 358 0
-355 0
-359 355 0
-359 13 0
359 -355 -13 0
-360 356 0
-360 14 0
360 -356 -14 0
-361 357 0
-361 15 0
361 -357 -15 0
-362 358 0
-362 16 0
362 -358 -16 0
-363 359 360 0
-363 -359 -360 0
363 -359 360 0
363 359 -360 0
-364 363 361 0
-364 -363 -361 0
364 -363 361 0
364 363 -361 0
-365 364 362 0
-365 -364 -362 0
365 -364 362 0
365 364 -362 0
-365 0
-366 355 0
-366 -13 0
366 -355 13 0
-367 356 0
-367 14 0
367 -356 -14 0
-368 357 0
-368 15 0
368 -357 -15 0
-369 358 0
-369 16 0
369 -358 -16 0
-370 366 367 0
-370 -366 -367 0
370 -366 367 0
370 366 -367 0
-371 370 368 0
-371 -370 -368 0
371 -370 368 0
371 370 -368 0
-372 371 369 0
-372 -371 -369 0
372 -371 369 0
372 371 -369 0
-372 0
-373 355 0
-373 17 0
373 -355 -17 0
-374 356 0
-374 -18 0
374 -356 18 0
-375 357 0
-375 19 0
375 -357 -19 0
-376 358 0
-376 20 0
376 -358 -20 0
-377 373 374 0
-377 -373 -374 0
377 -373 374 0
377 373 -374 0
-378 377 375 0
-378 -377 -375 0
378 -377 375 0
378 377 -375 0
-379 378 376 0
-379 -378 -376 0
379 -378 376 0
379 378 -376 0
-379 0
-380 355 0
-380 349 0
380 -355 -349 0
-381 356 0
-381 351 0
381 -356 -351 0
-382 357 0
-382 352 0
382 -357 -352 0
-383 358 0
-383 354 0
383 -358 -354 0
-384 380 381 0
-384 -380 -381 0
384 -380 381 0
384 380 -381 0
-385 384 382 0
-385 -384 -382 0
385 -384 382 0
385 384 -382 0
-386 385 383 0
-386 -385 -383 0
386 -385 383 0
386 385 -383 0
387 388 389 390 0
-387 0
-391 387 0
-391 13 0
391 -387 -13 0
-392 388 0
-392 14 0
392 -388 -14 0
-393 389 0
-393 15 0
393 -389 -15 0
-394 390 0
-394 16 0
394 -390 -16 0
-395 391 392 0
-395 -391 -392 0
395 -391 392 0
395 391 -392 0
-396 395 393 0
-396 -395 -393 0
396 -395 393 0
396 395 -393 0
-397 396 394 0
-397 -396 -394 0
397 -396 394 0
397 396 -394 0
-397 0
-398 387 0
-398 -13 0
398 -387 13 0
-399 388 0
-399 14 0
399 -388 -14 0
-400 389 0
-400 15 0
400 -389 -15 0
-401 390 0
-401 16 0
401 -390 -16 0
-402 398 399 0
-402 -398 -399 0
402 -398 399 0
402 398 -399 0
-403 402 400 0
-403 -402 -400 0
403 -402 400 0
403 402 -400 0
-404 403 401 0
-404 -403 -401 0
404 -403 401 0
404 403 -401 0
-404 0
-405 387 0
-405 17 0
405 -387 -17 0
-406 388 0
-406 -18 0
406 -388 18 0
-407 389 0
-407 19 0
407 -389 -19 0
-408 390 0
-408 20 0
408 -390 -20 0
-409 405 406 0
-409 -405 -406 0
409 -405 406 0
409 405 -406 0
-410 409 407 0
-410 -409 -407 0
410 -409 407 0
410 409 -407 0
-411 410 408 0
-411 -410 -408 0
411 -410 408 0
411 410 -408 0
-411 0
-412 387 0
-412 349 0
412 -387 -349 0
-413 388 0
-413 351 0
413 -388 -351 0
-414 389 0
-414 352 0
414 -389 -352 0
-415 390 0
-415 354 0
415 -390 -354 0
-416 412 413 0
-416 -412 -413 0
416 -412 413 0
416 412 -413 0
-417 416 414 0
-417 -416 -414 0
417 -416 414 0
417 416 -414 0
-418 417 415 0
-418 -417 -415 0
418 -417 415 0
418 417 -415 0
-419 355 387 0
-419 -355 -387 0
419 -355 387 0
419 355 -387 0
-420 356 388 0
-420 -356 -388 0
420 -356 388 0
420 356 -388 0
-421 357 389 0
-421 -357 -389 0
421 -357 389 0
421 357 -389 0
-422 358 390 0
-422 -358 -390 0
422 -358 390 0
422 358 -390 0
419 420 421 422 0
386 418 0
423 424 425 426 0
-424 0
-427 423 0
-427 17 0
427 -423 -17 0
-428 424 0
-428 18 0
428 -424 -18 0
-429 425 0
-429 19 0
429 -425 -19 0
-430 426 0
-430 20 0
430 -426 -20 0
-431 427 428 0
-431 -427 -428 0
431 -427 428 0
431 427 -428 0
-432 431 429 0
-432 -431 -429 0
432 -431 429 0
432 431 -429 0
-433 432 430 0
-433 -432 -430 0
433 -432 430 0
433 432 -430 0
-433 0
-434 423 0
-434 37 0
434 -423 -37 0
-435 424 0
-435 38 0
435 -424 -38 0
-436 425 0
-436 39 0
436 -425 -39 0
-437 426 0
-437 40 0
437 -426 -40 0
-438 434 435 0
-438 -434 -435 0
438 -434 435 0
438 434 -435 0
-439 438 436 0
-439 -438 -436 0
439 -438 436 0
439 438 -436 0
-440 439 437 0
-440 -439 -437 0
440 -439 437 0
440 439 -437 0
441 442 443 444 0
-442 0
-445 441 0
-445 17 0
445 -441 -17 0
-446 442 0
-446 18 0
446 -442 -18 0
-447 443 0
-447 19 0
447 -443 -19 0
-448 444 0
-448 20 0
448 -444 -20 0
-449 445 446 0
-449 -445 -446 0
449 -445 446 0
449 445 -446 0
-450 449 447 0
-450 -449 -447 0
450 -449 447 0
450 449 -447 0
-451 450 448 0
-451 -450 -448 0
451 -450 448 0
451 450 -448 0
-451 0
-452 441 0
-452 37 0
452 -441 -37 0
-453 442 0
-453 38 0
453 -442 -38 0
-454 443 0
-454 39 0
454 -443 -39 0
-455 444 0
-455 40 0
455 -444 -40 0
-456 452 453 0
-456 -452 -453 0
456 -452 453 0
456 452 -453 0
-457 456 454 0
-457 -456 -454 0
457 -456 454 0
457 456 -454 0
-458 457 455 0
-458 -457 -455 0
458 -457 455 0
458 457 -455 0
-459 423 441 0
-459 -423 -441 0
459 -423 441 0
459 423 -441 0
-460 424 442 0
-460 -424 -442 0
460 -424 442 0
460 424 -442 0
-461 425 443 0
-461 -425 -443 0
461 -425 443 0
461 425 -443 0
-462 426 444 0
-462 -426 -444 0
462 -426 444 0
462 426 -444 0
459 460 461 462 0
440 458 0
463 464 465 466 0
-464 0
-467 463 0
-467 17 0
467 -463 -17 0
-468 464 0
-468 18 0
468 -464 -18 0
-469 465 0
-469 19 0
469 -465 -19 0
-470 466 0
-470 20 0
470 -466 -20 0
-471 467 468 0
-471 -467 -468 0
471 -467 468 0
471 467 -468 0
-472 471 469 0
-472 -471 -469 0
472 -471 469 0
472 471 -469 0
-473 472 470 0
-473 -472 -470 0
473 -472 470 0
473 472 -470 0
-473 0
-463 0
-464 0
-474 463 0
-474 37 0
474 -463 -37 0
-475 464 0
-475 -38 0
475 -464 38 0
-476 465 0
-476 -39 0
476 -465 39 0
-477 466 0
-477 40 0
477 -466 -40 0
-478 474 475 0
-478 -474 -475 0
478 -474 475 0
478 474 -475 0
-479 478 476 0
-479 -478 -476 0
479 -478 476 0
479 478 -476 0
-480 479 477 0
-480 -479 -477 0
480 -479 477 0
480 479 -477 0
481 482 483 484 0
-482 0
-485 481 0
-485 17 0
485 -481 -17 0
-486 482 0
-486 18 0
486 -482 -18 0
-487 483 0
-487 19 0
487 -483 -19 0
-488 484 0
-488 20 0
488 -484 -20 0
-489 485 486 0
-489 -485 -486 0
489 -485 486 0
489 485 -486 0
-490 489 487 0
-490 -489 -487 0
490 -489 487 0
490 489 -487 0
-491 490 488 0
-491 -490 -488 0
491 -490 488 0
491 490 -488 0
-491 0
-481 0
-482 0
-492 481 0
-492 37 0
492 -481 -37 0
-493 482 0
-493 -38 0
493 -482 38 0
-494 483 0
-494 -39 0
494 -483 39 0
-495 484 0
-495 40 0
495 -484 -40 0
-496 492 493 0
-496 -492 -493 0
496 -492 493 0
496 492 -493 0
-497 496 494 0
-497 -496 -494 0
497 -496 494 0
497 496 -494 0
-498 497 495 0
-498 -497 -495 0
498 -497 495 0
498 497 -495 0
-499 463 481 0
-499 -463 -481 0
499 -463 481 0
499 463 -481 0
-500 464 482 0
-500 -464 -482 0
500 -464 482 0
500 464 -482 0
-501 465 483 0
-501 -465 -483 0
501 -465 483 0
501 465 -483 0
-502 466 484 0
-502 -466 -484 0
502 -466 484 0
502 466 -484 0
499 500 501 502 0
480 498 0
-503 29 37 0
-503 -29 -37 0
503 -29 37 0
503 29 -37 0
-504 503 17 0
-504 -503 -17 0
504 -503 17 0
504 503 -17 0
-505 30 38 0
-505 -30 -38 0
505 -30 38 0
505 30 -38 0
-506 505 18 0
-506 -505 -18 0
506 -505 18 0
506 505 -18 0
-507 39 19 0
-507 -39 -19 0
507 -39 19 0
507 39 -19 0
-508 32 40 0
-508 -32 -40 0
508 -32 40 0
508 32 -40 0
-509 508 20 0
-509 -508 -20 0
509 -508 20 0
509 508 -20 0
510 511 512 513 0
-511 0
-514 510 0
-514 17 0
514 -510 -17 0
-515 511 0
-515 18 0
515 -511 -18 0
-516 512 0
-516 19 0
516 -512 -19 0
-517 513 0
-517 20 0
517 -513 -20 0
-518 514 515 0
-518 -514 -515 0
518 -514 515 0
518 514 -515 0
-519 518 516 0
-519 -518 -516 0
519 -518 516 0
519 518 -516 0
-520 519 517 0
-520 -519 -517 0
520 -519 517 0
520 519 -517 0
-520 0
-521 510 0
-521 13 0
521 -510 -13 0
-522 511 0
-522 14 0
522 -511 -14 0
-523 512 0
-523 15 0
523 -512 -15 0
-524 513 0
-524 16 0
524 -513 -16 0
-525 521 522 0
-525 -521 -522 0
525 -521 522 0
525 521 -522 0
-526 525 523 0
-526 -525 -523 0
526 -525 523 0
526 525 -523 0
-527 526 524 0
-527 -526 -524 0
527 -526 524 0
527 526 -524 0
-527 0
-528 510 0
-528 17 0
528 -510 -17 0
-529 511 0
-529 18 0
529 -511 -18 0
-530 512 0
-530 19 0
530 -512 -19 0
-531 513 0
-531 20 0
531 -513 -20 0
-532 528 529 0
-532 -528 -529 0
532 -528 529 0
532 528 -529 0
-533 532 530 0
-533 -532 -530 0
533 -532 530 0
533 532 -530 0
-534 533 531 0
-534 -533 -531 0
534 -533 531 0
534 533 -531 0
-534 0
-535 510 0
-535 504 0
535 -510 -504 0
-536 511 0
-536 506 0
536 -511 -506 0
-537 512 0
-537 507 0
537 -512 -507 0
-538 513 0
-538 509 0
538 -513 -509 0
-539 535 536 0
-539 -535 -536 0
539 -535 536 0
539 535 -536 0
-540 539 537 0
-540 -539 -537 0
540 -539 537 0
540 539 -537 0
-541 540 538 0
-541 -540 -538 0
541 -540 538 0
541 540 -538 0
542 543 544 545 0
-543 0
-546 542 0
-546 17 0
546 -542 -17 0
-547 543 0
-547 18 0
547 -543 -18 0
-548 544 0
-548 19 0
548 -544 -19 0
-549 545 0
-549 20 0
549 -545 -20 0
-550 546 547 0
-550 -546 -547 0
550 -546 547 0
550 546 -547 0
-551 550 548 0
-551 -550 -548 0
551 -550 548 0
551 550 -548 0
-552 551 549 0
-552 -551 -549 0
552 -551 549 0
552 551 -549 0
-552 0
-553 542 0
-553 13 0
553 -542 -13 0
-554 543 0
-554 14 0
554 -543 -14 0
-555 544 0
-555 15 0
555 -544 -15 0
-556 545 0
-556 16 0
556 -545 -16 0
-557 553 554 0
-557 -553 -554 0
557 -553 554 0
557 553 -554 0
-558 557 555 0
-558 -557 -555 0
558 -557 555 0
558 557 -555 0
-559 558 556 0
-559 -558 -556 0
559 -558 556 0
559 558 -556 0
-559 0
-560 542 0
-560 17 0
560 -542 -17 0
-561 543 0
-561 18 0
561 -543 -18 0
-562 544 0
-562 19 0
562 -544 -19 0
-563 545 0
-563 20 0
563 -545 -20 0
-564 560 561 0
-564 -560 -561 0
564 -560 561 0
564 560 -561 0
-565 564 562 0
-565 -564 -562 0
565 -564 562 0
565 564 -562 0
-566 565 563 0
-566 -565 -563 0
566 -565 563 0
566 565 -563 0
-566 0
-567 542 0
-567 504 0
567 -542 -504 0
-568 543 0
-568 506 0
568 -543 -506 0
-569 544 0
-569 507 0
569 -544 -507 0
-570 545 0
-570 509 0
570 -545 -509 0
-571 567 568 0
-571 -567 -568 0
571 -567 568 0
571 567 -568 0
-572 571 569 0
-572 -571 -569 0
572 -571 569 0
572 571 -569 0
-573 572 570 0
-573 -572 -570 0
573 -572 570 0
573 572 -570 0
-574 510 542 0
-574 -510 -542 0
574 -510 542 0
574 510 -542 0
-575 511 543 0
-575 -511 -543 0
575 -511 543 0
575 511 -543 0
-576 512 544 0
-576 -512 -544 0
576 -512 544 0
576 512 -544 0
-577 513 545 0
-577 -513 -545 0
577 -513 545 0
577 513 -545 0
574 575 576 577 0
541 573 0
-578 29 37 0
-578 -29 -37 0
578 -29 37 0
578 29 -37 0
-579 578 17 0
-579 -578 -17 0
579 -578 17 0
579 578 -17 0
-580 30 38 0
-580 -30 -38 0
580 -30 38 0
580 30 -38 0
-581 -580 18 0
-581 580 -18 0
581 580 18 0
581 -580 -18 0
-582 -39 19 0
-582 39 -19 0
582 39 19 0
582 -39 -19 0
-583 32 40 0
-583 -32 -40 0
583 -32 40 0
583 32 -40 0
-584 583 20 0
-584 -583 -20 0
584 -583 20 0
584 583 -20 0
585 586 587 588 0
-586 0
-589 585 0
-589 17 0
589 -585 -17 0
-590 586 0
-590 18 0
590 -586 -18 0
-591 587 0
-591 19 0
591 -587 -19 0
-592 588 0
-592 20 0
592 -588 -20 0
-593 589 590 0
-593 -589 -590 0
593 -589 590 0
593 589 -590 0
-594 593 591 0
-594 -593 -591 0
594 -593 591 0
594 593 -591 0
-595 594 592 0
-595 -594 -592 0
595 -594 592 0
595 594 -592 0
-595 0
-596 585 0
-596 -13 0
596 -585 13 0
-597 586 0
-597 14 0
597 -586 -14 0
-598 587 0
-598 15 0
598 -587 -15 0
-599 588 0
-599 16 0
599 -588 -16 0
-600 596 597 0
-600 -596 -597 0
600 -596 597 0
600 596 -597 0
-601 600 598 0
-601 -600 -598 0
601 -600 598 0
601 600 -598 0
-602 601 599 0
-602 -601 -599 0
602 -601 599 0
602 601 -599 0
-602 0
-603 585 0
-603 17 0
603 -585 -17 0
-604 586 0
-604 -18 0
604 -586 18 0
-605 587 0
-605 19 0
605 -587 -19 0
-606 588 0
-606 20 0
606 -588 -20 0
-607 603 604 0
-607 -603 -604 0
607 -603 604 0
607 603 -604 0
-608 607 605 0
-608 -607 -605 0
608 -607 605 0
608 607 -605 0
-609 608 606 0
-609 -608 -606 0
609 -608 606 0
609 608 -606 0
-609 0
-610 585 0
-610 579 0
610 -585 -579 0
-611 586 0
-611 581 0
611 -586 -581 0
-612 587 0
-612 582 0
612 -587 -582 0
-613 588 0
-613 584 0
613 -588 -584 0
-614 610 611 0
-614 -610 -611 0
614 -610 611 0
614 610 -611 0
-615 614 612 0
-615 -614 -612 0
615 -614 612 0
615 614 -612 0
-616 615 613 0
-616 -615 -613 0
616 -615 613 0
616 615 -613 0
617 618 619 620 0
-618 0
-621 617 0
-621 17 0
621 -617 -17 0
-622 618 0
-622 18 0
622 -618 -18 0
-623 619 0
-623 19 0
623 -619 -19 0
-624 620 0
-624 20 0
624 -620 -20 0
-625 621 622 0
-625 -621 -622 0
625 -621 622 0
625 621 -622 0
-626 625 623 0
-626 -625 -623 0
626 -625 623 0
626 625 -623 0
-627 626 624 0
-627 -626 -624 0
627 -626 624 0
627 626 -624 0
-627 0
-628 617 0
-628 -13 0
628 -617 13 0
-629 618 0
-629 14 0
629 -618 -14 0
-630 619 0
-630 15 0
630 -619 -15 0
-631 620 0
-631 16 0
631 -620 -16 0
-632 628 629 0
-632 -628 -629 0
632 -628 629 0
632 628 -629 0
-633 632 630 0
-633 -632 -630 0
633 -632 630 0
633 632 -630 0
-634 633 631 0
-634 -633 -631 0
634 -633 631 0
634 633 -631 0
-634 0
-635 617 0
-635 17 0
635 -617 -17 0
-636 618 0
-636 -18 0
636 -618 18 0
-637 619 0
-637 19 0
637 -619 -19 0
-638 620 0
-638 20 0
638 -620 -20 0
-639 635 636 0
-639 -635 -636 0
639 -635 636 0
639 635 -636 0
-640 639 637 0
-640 -639 -637 0
640 -639 637 0
640 639 -637 0
-641 640 638 0
-641 -640 -638 0
641 -640 638 0
641 640 -638 0
-641 0
-642 617 0
-642 579 0
642 -617 -579 0
-643 618 0
-643 581 0
643 -618 -581 0
-644 619 0
-644 582 0
644 -619 -582 0
-645 620 0
-645 584 0
645 -620 -584 0
-646 642 643 0
-646 -642 -643 0
646 -642 643 0
646 642 -643 0
-647 646 644 0
-647 -646 -644 0
647 -646 644 0
647 646 -644 0
-648 647 645 0
-648 -647 -645 0
648 -647 645 0
648 647 -645 0
-649 585 617 0
-649 -585 -617 0
649 -585 617 0
649 585 -617 0
-650 586 618 0
-650 -586 -618 0
650 -586 618 0
650 586 -618 0
-651 587 619 0
-651 -587 -619 0
651 -587 619 0
651 587 -619 0
-652 588 620 0
-652 -588 -620 0
652 -588 620 0
652 588 -620 0
649 650 651 652 0
616 648 0
-653 13 17 0
-653 -13 -17 0
653 -13 17 0
653 13 -17 0
-654 14 18 0
-654 -14 -18 0
654 -14 18 0
654 14 -18 0
-655 15 19 0
-655 -15 -19 0
655 -15 19 0
655 15 -19 0
-656 16 20 0
-656 -16 -20 0
656 -16 20 0
656 16 -20 0
-657 33 37 0
-657 -33 -37 0
657 -33 37 0
657 33 -37 0
-658 34 38 0
-658 -34 -38 0
658 -34 38 0
658 34 -38 0
-659 35 39 0
-659 -35 -39 0
659 -35 39 0
659 35 -39 0
-660 36 40 0
-660 -36 -40 0
660 -36 40 0
660 36 -40 0
661 662 663 664 0
-665 661 662 0
-665 -661 -662 0
665 -661 662 0
665 661 -662 0
-665 0
-666 661 0
-666 653 0
666 -661 -653 0
-667 662 0
-667 654 0
667 -662 -654 0
-668 663 0
-668 655 0
668 -663 -655 0
-669 664 0
-669 656 0
669 -664 -656 0
-670 666 667 0
-670 -666 -667 0
670 -666 667 0
670 666 -667 0
-671 670 668 0
-671 -670 -668 0
671 -670 668 0
671 670 -668 0
-672 671 669 0
-672 -671 -669 0
672 -671 669 0
672 671 -669 0
-672 0
-673 661 0
-673 657 0
673 -661 -657 0
-674 662 0
-674 658 0
674 -662 -658 0
-675 663 0
-675 659 0
675 -663 -659 0
-676 664 0
-676 660 0
676 -664 -660 0
-677 673 674 0
-677 -673 -674 0
677 -673 674 0
677 673 -674 0
-678 677 675 0
-678 -677 -675 0
678 -677 675 0
678 677 -675 0
-679 678 676 0
-679 -678 -676 0
679 -678 676 0
679 678 -676 0
680 681 682 683 0
-684 680 681 0
-684 -680 -681 0
684 -680 681 0
684 680 -681 0
-684 0
-685 680 0
-685 653 0
685 -680 -653 0
-686 681 0
-686 654 0
686 -681 -654 0
-687 682 0
-687 655 0
687 -682 -655 0
-688 683 0
-688 656 0
688 -683 -656 0
-689 685 686 0
-689 -685 -686 0
689 -685 686 0
689 685 -686 0
-690 689 687 0
-690 -689 -687 0
690 -689 687 0
690 689 -687 0
-691 690 688 0
-691 -690 -688 0
691 -690 688 0
691 690 -688 0
-691 0
-692 680 0
-692 657 0
692 -680 -657 0
-693 681 0
-693 658 0
693 -681 -658 0
-694 682 0
-694 659 0
694 -682 -659 0
-695 683 0
-695 660 0
695 -683 -660 0
-696 692 693 0
-696 -692 -693 0
696 -692 693 0
696 692 -693 0
-697 696 694 0
-697 -696 -694 0
697 -696 694 0
697 696 -694 0
-698 697 695 0
-698 -697 -695 0
698 -697 695 0
698 697 -695 0
-699 661 680 0
-699 -661 -680 0
699 -661 680 0
699 661 -680 0
-700 662 681 0
-700 -662 -681 0
700 -662 681 0
700 662 -681 0
-701 663 682 0
-701 -663 -682 0
701 -663 682 0
701 663 -682 0
-702 664 683 0
-702 -664 -683 0
702 -664 683 0
702 664 -683 0
699 700 701 702 0
679 698 0
-703 13 17 0
-703 -13 -17 0
703 -13 17 0
703 13 -17 0
-704 14 18 0
-704 -14 -18 0
704 -14 18 0
704 14 -18 0
-705 15 19 0
-705 -15 -19 0
705 -15 19 0
705 15 -19 0
-706 16 20 0
-706 -16 -20 0
706 -16 20 0
706 16 -20 0
-707 33 37 0
-707 -33 -37 0
707 -33 37 0
707 33 -37 0
-708 34 38 0
-708 -34 -38 0
708 -34 38 0
708 34 -38 0
-709 -35 39 0
-709 35 -39 0
709 35 39 0
709 -35 -39 0
-710 36 40 0
-710 -36 -40 0
710 -36 40 0
710 36 -40 0
711 712 713 714 0
-715 711 712 0
-715 -711 -712 0
715 -711 712 0
715 711 -712 0
-715 0
-716 711 0
-716 703 0
716 -711 -703 0
-717 712 0
-717 704 0
717 -712 -704 0
-718 713 0
-718 705 0
718 -713 -705 0
-719 714 0
-719 706 0
719 -714 -706 0
-720 716 717 0
-720 -716 -717 0
720 -716 717 0
720 716 -717 0
-721 720 718 0
-721 -720 -718 0
721 -720 718 0
721 720 -718 0
-722 721 719 0
-722 -721 -719 0
722 -721 719 0
722 721 -719 0
-722 0
-711 0
-712 0
-723 711 0
-723 -707 0
723 -711 707 0
-724 712 0
-724 -708 0
724 -712 708 0
-725 713 0
-725 709 0
725 -713 -709 0
-726 714 0
-726 710 0
726 -714 -710 0
-727 723 724 0
-727 -723 -724 0
727 -723 724 0
727 723 -724 0
-728 727 725 0
-728 -727 -725 0
728 -727 725 0
728 727 -725 0
-729 728 726 0
-729 -728 -726 0
729 -728 726 0
729 728 -726 0
730 731 732 733 0
-734 730 731 0
-734 -730 -731 0
734 -730 731 0
734 730 -731 0
-734 0
-735 730 0
-735 703 0
735 -730 -703 0
-736 731 0
-736 704 0
736 -731 -704 0
-737 732 0
-737 705 0
737 -732 -705 0
-738 733 0
-738 706 0
738 -733 -706 0
-739 735 736 0
-739 -735 -736 0
739 -735 736 0
739 735 -736 0
-740 739 737 0
-740 -739 -737 0
740 -739 737 0
740 739 -737 0
-741 740 738 0
-741 -740 -738 0
741 -740 738 0
741 740 -738 0
-741 0
-730 0
-731 0
-742 730 0
-742 -707 0
742 -730 707 0
-743 731 0
-743 -708 0
743 -731 708 0
-744 732 0
-744 709 0
744 -732 -709 0
-745 733 0
-745 710 0
745 -733 -710 0
-746 742 743 0
-746 -742 -743 0
746 -742 743 0
746 742 -743 0
-747 746 744 0
-747 -746 -744 0
747 -746 744 0
747 746 -744 0
-748 747 745 0
-748 -747 -745 0
748 -747 745 0
748 747 -745 0
-749 711 730 0
-749 -711 -730 0
749 -711 730 0
749 711 -730 0
-750 712 731 0
-750 -712 -731 0
750 -712 731 0
750 712 -731 0
-751 713 732 0
-751 -713 -732 0
751 -713 732 0
751 713 -732 0
-752 714 733 0
-752 -714 -733 0
752 -714 733 0
752 714 -733 0
749 750 751 752 0
729 748 0
-753 13 17 0
-753 -13 -17 0
753 -13 17 0
753 13 -17 0
-754 14 18 0
-754 -14 -18 0
754 -14 18 0
754 14 -18 0
-755 15 19 0
-755 -15 -19 0
755 -15 19 0
755 15 -19 0
-756 16 20 0
-756 -16 -20 0
756 -16 20 0
756 16 -20 0
-757 29 33 0
-757 -29 -33 0
757 -29 33 0
757 29 -33 0
-758 757 37 0
-758 -757 -37 0
758 -757 37 0
758 757 -37 0
-759 758 13 0
-759 -758 -13 0
759 -758 13 0
759 758 -13 0
-760 759 17 0
-760 -759 -17 0
760 -759 17 0
760 759 -17 0
-761 30 34 0
-761 -30 -34 0
761 -30 34 0
761 30 -34 0
-762 761 38 0
-762 -761 -38 0
762 -761 38 0
762 761 -38 0
-763 762 14 0
-763 -762 -14 0
763 -762 14 0
763 762 -14 0
-764 763 18 0
-764 -763 -18 0
764 -763 18 0
764 763 -18 0
-765 35 39 0
-765 -35 -39 0
765 -35 39 0
765 35 -39 0
-766 765 15 0
-766 -765 -15 0
766 -765 15 0
766 765 -15 0
-767 766 19 0
-767 -766 -19 0
767 -766 19 0
767 766 -19 0
-768 32 36 0
-768 -32 -36 0
768 -32 36 0
768 32 -36 0
-769 768 40 0
-769 -768 -40 0
769 -768 40 0
769 768 -40 0
-770 769 16 0
-770 -769 -16 0
770 -769 16 0
770 769 -16 0
-771 770 20 0
-771 -770 -20 0
771 -770 20 0
771 770 -20 0
772 773 774 775 0
-776 772 773 0
-776 -772 -773 0
776 -772 773 0
776 772 -773 0
-776 0
-777 772 0
-777 753 0
777 -772 -753 0
-778 773 0
-778 754 0
778 -773 -754 0
-779 774 0
-779 755 0
779 -774 -755 0
-780 775 0
-780 756 0
780 -775 -756 0
-781 777 778 0
-781 -777 -778 0
781 -777 778 0
781 777 -778 0
-782 781 779 0
-782 -781 -779 0
782 -781 779 0
782 781 -779 0
-783 782 780 0
-783 -782 -780 0
783 -782 780 0
783 782 -780 0
-783 0
-784 772 0
-784 13 0
784 -772 -13 0
-785 773 0
-785 14 0
785 -773 -14 0
-786 774 0
-786 15 0
786 -774 -15 0
-787 775 0
-787 16 0
787 -775 -16 0
-788 784 785 0
-788 -784 -785 0
788 -784 785 0
788 784 -785 0
-789 788 786 0
-789 -788 -786 0
789 -788 786 0
789 788 -786 0
-790 789 787 0
-790 -789 -787 0
790 -789 787 0
790 789 -787 0
-790 0
-791 772 0
-791 17 0
791 -772 -17 0
-792 773 0
-792 18 0
792 -773 -18 0
-793 774 0
-793 19 0
793 -774 -19 0
-794 775 0
-794 20 0
794 -775 -20 0
-795 791 792 0
-795 -791 -792 0
795 -791 792 0
795 791 -792 0
-796 795 793 0
-796 -795 -793 0
796 -795 793 0
796 795 -793 0
-797 796 794 0
-797 -796 -794 0
797 -796 794 0
797 796 -794 0
-797 0
-798 772 0
-798 760 0
798 -772 -760 0
-799 773 0
-799 764 0
799 -773 -764 0
-800 774 0
-800 767 0
800 -774 -767 0
-801 775 0
-801 771 0
801 -775 -771 0
-802 798 799 0
-802 -798 -799 0
802 -798 799 0
802 798 -799 0
-803 802 800 0
-803 -802 -800 0
803 -802 800 0
803 802 -800 0
-804 803 801 0
-804 -803 -801 0
804 -803 801 0
804 803 -801 0
805 806 807 808 0
-809 805 806 0
-809 -805 -806 0
809 -805 806 0
809 805 -806 0
-809 0
-810 805 0
-810 753 0
810 -805 -753 0
-811 806 0
-811 754 0
811 -806 -754 0
-812 807 0
-812 755 0
812 -807 -755 0
-813 808 0
-813 756 0
813 -808 -756 0
-814 810 811 0
-814 -810 -811 0
814 -810 811 0
814 810 -811 0
-815 814 812 0
-815 -814 -812 0
815 -814 812 0
815 814 -812 0
-816 815 813 0
-816 -815 -813 0
816 -815 813 0
816 815 -813 0
-816 0
-817 805 0
-817 13 0
817 -805 -13 0
-818 806 0
-818 14 0
818 -806 -14 0
-819 807 0
-819 15 0
819 -807 -15 0
-820 808 0
-820 16 0
820 -808 -16 0
-821 817 818 0
-821 -817 -818 0
821 -817 818 0
821 817 -818 0
-822 821 819 0
-822 -821 -819 0
822 -821 819 0
822 821 -819 0
-823 822 820 0
-823 -822 -820 0
823 -822 820 0
823 822 -820 0
-823 0
-824 805 0
-824 17 0
824 -805 -17 0
-825 806 0
-825 18 0
825 -806 -18 0
-826 807 0
-826 19 0
826 -807 -19 0
-827 808 0
-827 20 0
827 -808 -20 0
-828 824 825 0
-828 -824 -825 0
828 -824 825 0
828 824 -825 0
-829 828 826 0
-829 -828 -826 0
829 -828 826 0
829 828 -826 0
-830 829 827 0
-830 -829 -827 0
830 -829 827 0
830 829 -827 0
-830 0
-831 805 0
-831 760 0
831 -805 -760 0
-832 806 0
-832 764 0
832 -806 -764 0
-833 807 0
-833 767 0
833 -807 -767 0
-834 808 0
-834 771 0
834 -808 -771 0
-835 831 832 0
-835 -831 -832 0
835 -831 832 0
835 831 -832 0
-836 835 833 0
-836 -835 -833 0
836 -835 833 0
836 835 -833 0
-837 836 834 0
-837 -836 -834 0
837 -836 834 0
837 836 -834 0
-838 772 805 0
-838 -772 -805 0
838 -772 805 0
838 772 -805 0
-839 773 806 0
-839 -773 -806 0
839 -773 806 0
839 773 -806 0
-840 774 807 0
-840 -774 -807 0
840 -774 807 0
840 774 -807 0
-841 775 808 0
-841 -775 -808 0
841 -775 808 0
841 775 -808 0
838 839 840 841 0
804 837 0
-842 13 17 0
-842 -13 -17 0
842 -13 17 0
842 13 -17 0
-843 14 18 0
-843 -14 -18 0
843 -14 18 0
843 14 -18 0
-844 15 19 0
-844 -15 -19 0
844 -15 19 0
844 15 -19 0
-845 16 20 0
-845 -16 -20 0
845 -16 20 0
845 16 -20 0
-846 29 33 0
-846 -29 -33 0
846 -29 33 0
846 29 -33 0
-847 846 37 0
-847 -846 -37 0
847 -846 37 0
847 846 -37 0
-848 -847 13 0
-848 847 -13 0
848 847 13 0
848 -847 -13 0
-849 848 17 0
-849 -848 -17 0
849 -848 17 0
849 848 -17 0
-850 30 34 0
-850 -30 -34 0
850 -30 34 0
850 30 -34 0
-851 850 38 0
-851 -850 -38 0
851 -850 38 0
851 850 -38 0
-852 -851 14 0
-852 851 -14 0
852 851 14 0
852 -851 -14 0
-853 852 18 0
-853 -852 -18 0
853 -852 18 0
853 852 -18 0
-854 -35 39 0
-854 35 -39 0
854 35 39 0
854 -35 -39 0
-855 854 15 0
-855 -854 -15 0
855 -854 15 0
855 854 -15 0
-856 855 19 0
-856 -855 -19 0
856 -855 19 0
856 855 -19 0
-857 32 36 0
-857 -32 -36 0
857 -32 36 0
857 32 -36 0
-858 857 40 0
-858 -857 -40 0
858 -857 40 0
858 857 -40 0
-859 858 16 0
-859 -858 -16 0
859 -858 16 0
859 858 -16 0
-860 859 20 0
-860 -859 -20 0
860 -859 20 0
860 859 -20 0
861 862 863 864 0
-865 861 862 0
-865 -861 -862 0
865 -861 862 0
865 861 -862 0
-865 0
-866 861 0
-866 842 0
866 -861 -842 0
-867 862 0
-867 843 0
867 -862 -843 0
-868 863 0
-868 844 0
868 -863 -844 0
-869 864 0
-869 845 0
869 -864 -845 0
-870 866 867 0
-870 -866 -867 0
870 -866 867 0
870 866 -867 0
-871 870 868 0
-871 -870 -868 0
871 -870 868 0
871 870 -868 0
-872 871 869 0
-872 -871 -869 0
872 -871 869 0
872 871 -869 0
-872 0
-873 861 0
-873 -13 0
873 -861 13 0
-874 862 0
-874 14 0
874 -862 -14 0
-875 863 0
-875 15 0
875 -863 -15 0
-876 864 0
-876 16 0
876 -864 -16 0
-877 873 874 0
-877 -873 -874 0
877 -873 874 0
877 873 -874 0
-878 877 875 0
-878 -877 -875 0
878 -877 875 0
878 877 -875 0
-879 878 876 0
-879 -878 -876 0
879 -878 876 0
879 878 -876 0
-879 0
-880 861 0
-880 17 0
880 -861 -17 0
-881 862 0
-881 -18 0
881 -862 18 0
-882 863 0
-882 19 0
882 -863 -19 0
-883 864 0
-883 20 0
883 -864 -20 0
-884 880 881 0
-884 -880 -881 0
884 -880 881 0
884 880 -881 0
-885 884 882 0
-885 -884 -882 0
885 -884 882 0
885 884 -882 0
-886 885 883 0
-886 -885 -883 0
886 -885 883 0
886 885 -883 0
-886 0
-887 861 0
-887 849 0
887 -861 -849 0
-888 862 0
-888 853 0
888 -862 -853 0
-889 863 0
-889 856 0
889 -863 -856 0
-890 864 0
-890 860 0
890 -864 -860 0
-891 887 888 0
-891 -887 -888 0
891 -887 888 0
891 887 -888 0
-892 891 889 0
-892 -891 -889 0
892 -891 889 0
892 891 -889 0
-893 892 890 0
-893 -892 -890 0
893 -892 890 0
893 892 -890 0
894 895 896 897 0
-898 894 895 0
-898 -894 -895 0
898 -894 895 0
898 894 -895 0
-898 0
-899 894 0
-899 842 0
899 -894 -842 0
-900 895 0
-900 843 0
900 -895 -843 0
-901 896 0
-901 844 0
901 -896 -844 0
-902 897 0
-902 845 0
902 -897 -845 0
-903 899 900 0
-903 -899 -900 0
903 -899 900 0
903 899 -900 0
-904 903 901 0
-904 -903 -901 0
904 -903 901 0
904 903 -901 0
-905 904 902 0
-905 -904 -902 0
905 -904 902 0
905 904 -902 0
-905 0
-906 894 0
-906 -13 0
906 -894 13 0
-907 895 0
-907 14 0
907 -895 -14 0
-908 896 0
-908 15 0
908 -896 -15 0
-909 897 0
-909 16 0
909 -897 -16 0
-910 906 907 0
-910 -906 -907 0
910 -906 907 0
910 906 -907 0
-911 910 908 0
-911 -910 -908 0
911 -910 908 0
911 910 -908 0
-912 911 909 0
-912 -911 -909 0
912 -911 909 0
912 911 -909 0
-912 0
-913 894 0
-913 17 0
913 -894 -17 0
-914 895 0
-914 -18 0
914 -895 18 0
-915 896 0
-915 19 0
915 -896 -19 0
-916 897 0
-916 20 0
916 -897 -20 0
-917 913 914 0
-917 -913 -914 0
917 -913 914 0
917 913 -914 0
-918 917 915 0
-918 -917 -915 0
918 -917 915 0
918 917 -915 0
-919 918 916 0
-919 -918 -916 0
919 -918 916 0
919 918 -916 0
-919 0
-920 894 0
-920 849 0
920 -894 -849 0
-921 895 0
-921 853 0
921 -895 -853 0
-922 896 0
-922 856 0
922 -896 -856 0
-923 897 0
-923 860 0
923 -897 -860 0
-924 920 921 0
-924 -920 -921 0
924 -920 921 0
924 920 -921 0
-925 924 922 0
-925 -924 -922 0
925 -924 922 0
925 924 -922 0
-926 925 923 0
-926 -925 -923 0
926 -925 923 0
926 925 -923 0
-927 861 894 0
-927 -861 -894 0
927 -861 894 0
927 861 -894 0
-928 862 895 0
-928 -862 -895 0
928 -862 895 0
928 862 -895 0
-929 863 896 0
-929 -863 -896 0
929 -863 896 0
929 863 -896 0
-930 864 897 0
-930 -864 -897 0
930 -864 897 0
930 864 -897 0
927 928 929 930 0
893 926 0
