c D(6) quadratic DU-4 permutation model, sb=True, sb3=True, perm=True, desarg=True, units=[]
p cnf 13985 48801
-31 0
37 0
-43 0
-49 0
-127 37 -31 0
-127 -37 31 0
127 -37 -31 0
127 37 31 0
-127 0
-128 31 37 0
-128 -31 -37 0
128 -31 37 0
128 31 -37 0
-129 128 37 0
-129 -128 -37 0
129 -128 37 0
129 128 -37 0
-129 0
-130 49 43 0
-130 -49 -43 0
130 -49 43 0
130 49 -43 0
-130 0
-131 43 49 0
-131 -43 -49 0
131 -43 49 0
131 43 -49 0
-132 131 49 0
-132 -131 -49 0
132 -131 49 0
132 131 -49 0
-132 0
-133 67 73 0
-133 -67 -73 0
133 -67 73 0
133 67 -73 0
-133 0
-134 61 67 0
-134 -61 -67 0
134 -61 67 0
134 61 -67 0
-135 134 79 0
-135 -134 -79 0
135 -134 79 0
135 134 -79 0
-135 0
-136 61 73 0
-136 -61 -73 0
136 -61 73 0
136 61 -73 0
-137 79 136 0
-137 -79 -136 0
137 -79 136 0
137 79 -136 0
-137 0
-138 73 79 0
-138 -73 -79 0
138 -73 79 0
138 73 -79 0
-139 67 79 0
-139 -67 -79 0
139 -67 79 0
139 67 -79 0
-140 138 139 0
-140 -138 -139 0
140 -138 139 0
140 138 -139 0
-140 0
32 0
38 0
-44 0
-50 0
-141 38 32 0
-141 -38 -32 0
141 -38 32 0
141 38 -32 0
-141 0
-142 32 38 0
-142 -32 -38 0
142 -32 38 0
142 32 -38 0
-143 142 -38 0
-143 -142 38 0
143 -142 -38 0
143 142 38 0
-143 0
-144 50 44 0
-144 -50 -44 0
144 -50 44 0
144 50 -44 0
-144 0
-145 44 50 0
-145 -44 -50 0
145 -44 50 0
145 44 -50 0
-146 145 50 0
-146 -145 -50 0
146 -145 50 0
146 145 -50 0
-146 0
-147 68 74 0
-147 -68 -74 0
147 -68 74 0
147 68 -74 0
-147 0
-148 62 68 0
-148 -62 -68 0
148 -62 68 0
148 62 -68 0
-149 148 80 0
-149 -148 -80 0
149 -148 80 0
149 148 -80 0
-149 0
-150 62 74 0
-150 -62 -74 0
150 -62 74 0
150 62 -74 0
-151 80 150 0
-151 -80 -150 0
151 -80 150 0
151 80 -150 0
-151 0
-152 74 80 0
-152 -74 -80 0
152 -74 80 0
152 74 -80 0
-153 68 80 0
-153 -68 -80 0
153 -68 80 0
153 68 -80 0
-154 152 153 0
-154 -152 -153 0
154 -152 153 0
154 152 -153 0
-154 0
-33 0
-39 0
-45 0
51 0
-155 39 33 0
-155 -39 -33 0
155 -39 33 0
155 39 -33 0
-155 0
-156 33 39 0
-156 -33 -39 0
156 -33 39 0
156 33 -39 0
-157 156 39 0
-157 -156 -39 0
157 -156 39 0
157 156 -39 0
-157 0
-158 51 -45 0
-158 -51 45 0
158 -51 -45 0
158 51 45 0
-158 0
-159 45 51 0
-159 -45 -51 0
159 -45 51 0
159 45 -51 0
-160 159 51 0
-160 -159 -51 0
160 -159 51 0
160 159 -51 0
-160 0
-161 69 75 0
-161 -69 -75 0
161 -69 75 0
161 69 -75 0
-161 0
-162 63 69 0
-162 -63 -69 0
162 -63 69 0
162 63 -69 0
-163 162 81 0
-163 -162 -81 0
163 -162 81 0
163 162 -81 0
-163 0
-164 63 75 0
-164 -63 -75 0
164 -63 75 0
164 63 -75 0
-165 81 164 0
-165 -81 -164 0
165 -81 164 0
165 81 -164 0
-165 0
-166 75 81 0
-166 -75 -81 0
166 -75 81 0
166 75 -81 0
-167 69 81 0
-167 -69 -81 0
167 -69 81 0
167 69 -81 0
-168 166 167 0
-168 -166 -167 0
168 -166 167 0
168 166 -167 0
-168 0
-34 0
-40 0
46 0
52 0
-169 40 34 0
-169 -40 -34 0
169 -40 34 0
169 40 -34 0
-169 0
-170 34 40 0
-170 -34 -40 0
170 -34 40 0
170 34 -40 0
-171 170 40 0
-171 -170 -40 0
171 -170 40 0
171 170 -40 0
-171 0
-172 52 46 0
-172 -52 -46 0
172 -52 46 0
172 52 -46 0
-172 0
-173 46 52 0
-173 -46 -52 0
173 -46 52 0
173 46 -52 0
-174 173 -52 0
-174 -173 52 0
174 -173 -52 0
174 173 52 0
-174 0
-175 70 76 0
-175 -70 -76 0
175 -70 76 0
175 70 -76 0
-175 0
-176 64 70 0
-176 -64 -70 0
176 -64 70 0
176 64 -70 0
-177 176 82 0
-177 -176 -82 0
177 -176 82 0
177 176 -82 0
-177 0
-178 64 76 0
-178 -64 -76 0
178 -64 76 0
178 64 -76 0
-179 82 178 0
-179 -82 -178 0
179 -82 178 0
179 82 -178 0
-179 0
-180 76 82 0
-180 -76 -82 0
180 -76 82 0
180 76 -82 0
-181 70 82 0
-181 -70 -82 0
181 -70 82 0
181 70 -82 0
-182 180 181 0
-182 -180 -181 0
182 -180 181 0
182 180 -181 0
-182 0
-35 0
-41 0
-47 0
-53 0
-183 41 35 0
-183 -41 -35 0
183 -41 35 0
183 41 -35 0
-183 0
-184 35 41 0
-184 -35 -41 0
184 -35 41 0
184 35 -41 0
-185 184 41 0
-185 -184 -41 0
185 -184 41 0
185 184 -41 0
-185 0
-186 53 47 0
-186 -53 -47 0
186 -53 47 0
186 53 -47 0
-186 0
-187 47 53 0
-187 -47 -53 0
187 -47 53 0
187 47 -53 0
-188 187 53 0
-188 -187 -53 0
188 -187 53 0
188 187 -53 0
-188 0
-189 71 77 0
-189 -71 -77 0
189 -71 77 0
189 71 -77 0
-189 0
-190 65 71 0
-190 -65 -71 0
190 -65 71 0
190 65 -71 0
-191 190 83 0
-191 -190 -83 0
191 -190 83 0
191 190 -83 0
-191 0
-192 65 77 0
-192 -65 -77 0
192 -65 77 0
192 65 -77 0
-193 83 192 0
-193 -83 -192 0
193 -83 192 0
193 83 -192 0
-193 0
-194 77 83 0
-194 -77 -83 0
194 -77 83 0
194 77 -83 0
-195 71 83 0
-195 -71 -83 0
195 -71 83 0
195 71 -83 0
-196 194 195 0
-196 -194 -195 0
196 -194 195 0
196 194 -195 0
-196 0
-36 0
-42 0
-48 0
-54 0
-197 42 36 0
-197 -42 -36 0
197 -42 36 0
197 42 -36 0
-197 0
-198 36 42 0
-198 -36 -42 0
198 -36 42 0
198 36 -42 0
-199 198 42 0
-199 -198 -42 0
199 -198 42 0
199 198 -42 0
-199 0
-200 54 48 0
-200 -54 -48 0
200 -54 48 0
200 54 -48 0
-200 0
-201 48 54 0
-201 -48 -54 0
201 -48 54 0
201 48 -54 0
-202 201 54 0
-202 -201 -54 0
202 -201 54 0
202 201 -54 0
-202 0
-203 72 78 0
-203 -72 -78 0
203 -72 78 0
203 72 -78 0
-203 0
-204 66 72 0
-204 -66 -72 0
204 -66 72 0
204 66 -72 0
-205 204 84 0
-205 -204 -84 0
205 -204 84 0
205 204 -84 0
-205 0
-206 66 78 0
-206 -66 -78 0
206 -66 78 0
206 66 -78 0
-207 84 206 0
-207 -84 -206 0
207 -84 206 0
207 84 -206 0
-207 0
-208 78 84 0
-208 -78 -84 0
208 -78 84 0
208 78 -84 0
-209 72 84 0
-209 -72 -84 0
209 -72 84 0
209 72 -84 0
-210 208 209 0
-210 -208 -209 0
210 -208 209 0
210 208 -209 0
-210 0
-211 61 0
-211 79 0
211 -61 -79 0
-212 67 0
-212 73 0
212 -67 -73 0
-213 211 212 0
-213 -211 -212 0
213 -211 212 0
213 211 -212 0
-214 43 0
-214 79 0
214 -43 -79 0
-215 49 0
-215 73 0
215 -49 -73 0
-216 214 215 0
-216 -214 -215 0
216 -214 215 0
216 214 -215 0
-217 43 0
-217 67 0
217 -43 -67 0
-218 49 0
-218 61 0
218 -49 -61 0
-219 217 218 0
-219 -217 -218 0
219 -217 218 0
219 217 -218 0
-220 31 0
-220 79 0
220 -31 -79 0
-221 37 0
-221 67 0
221 -37 -67 0
-222 220 221 0
-222 -220 -221 0
222 -220 221 0
222 220 -221 0
-223 31 0
-223 73 0
223 -31 -73 0
-224 37 0
-224 61 0
224 -37 -61 0
-225 223 224 0
-225 -223 -224 0
225 -223 224 0
225 223 -224 0
-216 0
37 43 49 73 79 225 222 219 216 213 0
-226 62 0
-226 80 0
226 -62 -80 0
-227 68 0
-227 74 0
227 -68 -74 0
-228 226 227 0
-228 -226 -227 0
228 -226 227 0
228 226 -227 0
-229 44 0
-229 80 0
229 -44 -80 0
-230 50 0
-230 74 0
230 -50 -74 0
-231 229 230 0
-231 -229 -230 0
231 -229 230 0
231 229 -230 0
-232 44 0
-232 68 0
232 -44 -68 0
-233 50 0
-233 62 0
233 -50 -62 0
-234 232 233 0
-234 -232 -233 0
234 -232 233 0
234 232 -233 0
-235 32 0
-235 80 0
235 -32 -80 0
-236 38 0
-236 68 0
236 -38 -68 0
-237 235 236 0
-237 -235 -236 0
237 -235 236 0
237 235 -236 0
-238 32 0
-238 74 0
238 -32 -74 0
-239 38 0
-239 62 0
239 -38 -62 0
-240 238 239 0
-240 -238 -239 0
240 -238 239 0
240 238 -239 0
-234 0
32 44 50 62 68 240 237 234 231 228 0
-241 31 32 0
-241 -31 -32 0
241 -31 32 0
241 31 -32 0
-242 37 38 0
-242 -37 -38 0
242 -37 38 0
242 37 -38 0
-243 43 44 0
-243 -43 -44 0
243 -43 44 0
243 43 -44 0
-244 49 50 0
-244 -49 -50 0
244 -49 50 0
244 49 -50 0
-245 61 62 0
-245 -61 -62 0
245 -61 62 0
245 61 -62 0
-246 67 68 0
-246 -67 -68 0
246 -67 68 0
246 67 -68 0
-247 73 74 0
-247 -73 -74 0
247 -73 74 0
247 73 -74 0
-248 79 80 0
-248 -79 -80 0
248 -79 80 0
248 79 -80 0
-249 245 0
-249 248 0
249 -245 -248 0
-250 246 0
-250 247 0
250 -246 -247 0
-251 249 250 0
-251 -249 -250 0
251 -249 250 0
251 249 -250 0
-252 243 0
-252 248 0
252 -243 -248 0
-253 244 0
-253 247 0
253 -244 -247 0
-254 252 253 0
-254 -252 -253 0
254 -252 253 0
254 252 -253 0
-255 243 0
-255 246 0
255 -243 -246 0
-256 244 0
-256 245 0
256 -244 -245 0
-257 255 256 0
-257 -255 -256 0
257 -255 256 0
257 255 -256 0
-258 241 0
-258 248 0
258 -241 -248 0
-259 242 0
-259 246 0
259 -242 -246 0
-260 258 259 0
-260 -258 -259 0
260 -258 259 0
260 258 -259 0
-261 241 0
-261 247 0
261 -241 -247 0
-262 242 0
-262 245 0
262 -242 -245 0
-263 261 262 0
-263 -261 -262 0
263 -261 262 0
263 261 -262 0
-264 254 257 0
-264 -254 -257 0
264 -254 257 0
264 254 -257 0
-264 0
-265 242 241 0
-265 -242 -241 0
265 -242 241 0
265 242 -241 0
-266 247 245 0
-266 -247 -245 0
266 -247 245 0
266 247 -245 0
-267 248 246 0
-267 -248 -246 0
267 -248 246 0
267 248 -246 0
265 243 244 243 244 266 267 263 260 257 254 251 0
-268 63 0
-268 81 0
268 -63 -81 0
-269 69 0
-269 75 0
269 -69 -75 0
-270 268 269 0
-270 -268 -269 0
270 -268 269 0
270 268 -269 0
-271 45 0
-271 81 0
271 -45 -81 0
-272 51 0
-272 75 0
272 -51 -75 0
-273 271 272 0
-273 -271 -272 0
273 -271 272 0
273 271 -272 0
-274 45 0
-274 69 0
274 -45 -69 0
-275 51 0
-275 63 0
275 -51 -63 0
-276 274 275 0
-276 -274 -275 0
276 -274 275 0
276 274 -275 0
-277 33 0
-277 81 0
277 -33 -81 0
-278 39 0
-278 69 0
278 -39 -69 0
-279 277 278 0
-279 -277 -278 0
279 -277 278 0
279 277 -278 0
-280 33 0
-280 75 0
280 -33 -75 0
-281 39 0
-281 63 0
281 -39 -63 0
-282 280 281 0
-282 -280 -281 0
282 -280 281 0
282 280 -281 0
-279 0
33 39 51 69 81 282 279 276 273 270 0
-283 31 33 0
-283 -31 -33 0
283 -31 33 0
283 31 -33 0
-284 37 39 0
-284 -37 -39 0
284 -37 39 0
284 37 -39 0
-285 43 45 0
-285 -43 -45 0
285 -43 45 0
285 43 -45 0
-286 49 51 0
-286 -49 -51 0
286 -49 51 0
286 49 -51 0
-287 61 63 0
-287 -61 -63 0
287 -61 63 0
287 61 -63 0
-288 67 69 0
-288 -67 -69 0
288 -67 69 0
288 67 -69 0
-289 73 75 0
-289 -73 -75 0
289 -73 75 0
289 73 -75 0
-290 79 81 0
-290 -79 -81 0
290 -79 81 0
290 79 -81 0
-291 287 0
-291 290 0
291 -287 -290 0
-292 288 0
-292 289 0
292 -288 -289 0
-293 291 292 0
-293 -291 -292 0
293 -291 292 0
293 291 -292 0
-294 285 0
-294 290 0
294 -285 -290 0
-295 286 0
-295 289 0
295 -286 -289 0
-296 294 295 0
-296 -294 -295 0
296 -294 295 0
296 294 -295 0
-297 285 0
-297 288 0
297 -285 -288 0
-298 286 0
-298 287 0
298 -286 -287 0
-299 297 298 0
-299 -297 -298 0
299 -297 298 0
299 297 -298 0
-300 283 0
-300 290 0
300 -283 -290 0
-301 284 0
-301 288 0
301 -284 -288 0
-302 300 301 0
-302 -300 -301 0
302 -300 301 0
302 300 -301 0
-303 283 0
-303 289 0
303 -283 -289 0
-304 284 0
-304 287 0
304 -284 -287 0
-305 303 304 0
-305 -303 -304 0
305 -303 304 0
305 303 -304 0
-306 296 302 0
-306 -296 -302 0
306 -296 302 0
306 296 -302 0
-306 0
-307 285 283 0
-307 -285 -283 0
307 -285 283 0
307 285 -283 0
284 307 286 284 286 289 290 288 290 305 302 299 296 293 0
-308 32 33 0
-308 -32 -33 0
308 -32 33 0
308 32 -33 0
-309 38 39 0
-309 -38 -39 0
309 -38 39 0
309 38 -39 0
-310 44 45 0
-310 -44 -45 0
310 -44 45 0
310 44 -45 0
-311 50 51 0
-311 -50 -51 0
311 -50 51 0
311 50 -51 0
-312 62 63 0
-312 -62 -63 0
312 -62 63 0
312 62 -63 0
-313 68 69 0
-313 -68 -69 0
313 -68 69 0
313 68 -69 0
-314 74 75 0
-314 -74 -75 0
314 -74 75 0
314 74 -75 0
-315 80 81 0
-315 -80 -81 0
315 -80 81 0
315 80 -81 0
-316 312 0
-316 315 0
316 -312 -315 0
-317 313 0
-317 314 0
317 -313 -314 0
-318 316 317 0
-318 -316 -317 0
318 -316 317 0
318 316 -317 0
-319 310 0
-319 315 0
319 -310 -315 0
-320 311 0
-320 314 0
320 -311 -314 0
-321 319 320 0
-321 -319 -320 0
321 -319 320 0
321 319 -320 0
-322 310 0
-322 313 0
322 -310 -313 0
-323 311 0
-323 312 0
323 -311 -312 0
-324 322 323 0
-324 -322 -323 0
324 -322 323 0
324 322 -323 0
-325 308 0
-325 315 0
325 -308 -315 0
-326 309 0
-326 313 0
326 -309 -313 0
-327 325 326 0
-327 -325 -326 0
327 -325 326 0
327 325 -326 0
-328 308 0
-328 314 0
328 -308 -314 0
-329 309 0
-329 312 0
329 -309 -312 0
-330 328 329 0
-330 -328 -329 0
330 -328 329 0
330 328 -329 0
-331 324 327 0
-331 -324 -327 0
331 -324 327 0
331 324 -327 0
-331 0
-332 310 309 0
-332 -310 -309 0
332 -310 309 0
332 310 -309 0
308 308 332 311 311 312 313 313 315 330 327 324 321 318 0
-333 31 32 0
-333 -31 -32 0
333 -31 32 0
333 31 -32 0
-334 333 33 0
-334 -333 -33 0
334 -333 33 0
334 333 -33 0
-335 37 38 0
-335 -37 -38 0
335 -37 38 0
335 37 -38 0
-336 335 39 0
-336 -335 -39 0
336 -335 39 0
336 335 -39 0
-337 43 44 0
-337 -43 -44 0
337 -43 44 0
337 43 -44 0
-338 337 45 0
-338 -337 -45 0
338 -337 45 0
338 337 -45 0
-339 49 50 0
-339 -49 -50 0
339 -49 50 0
339 49 -50 0
-340 339 51 0
-340 -339 -51 0
340 -339 51 0
340 339 -51 0
-341 61 62 0
-341 -61 -62 0
341 -61 62 0
341 61 -62 0
-342 341 63 0
-342 -341 -63 0
342 -341 63 0
342 341 -63 0
-343 67 68 0
-343 -67 -68 0
343 -67 68 0
343 67 -68 0
-344 343 69 0
-344 -343 -69 0
344 -343 69 0
344 343 -69 0
-345 73 74 0
-345 -73 -74 0
345 -73 74 0
345 73 -74 0
-346 345 75 0
-346 -345 -75 0
346 -345 75 0
346 345 -75 0
-347 79 80 0
-347 -79 -80 0
347 -79 80 0
347 79 -80 0
-348 347 81 0
-348 -347 -81 0
348 -347 81 0
348 347 -81 0
-349 342 0
-349 348 0
349 -342 -348 0
-350 344 0
-350 346 0
350 -344 -346 0
-351 349 350 0
-351 -349 -350 0
351 -349 350 0
351 349 -350 0
-352 338 0
-352 348 0
352 -338 -348 0
-353 340 0
-353 346 0
353 -340 -346 0
-354 352 353 0
-354 -352 -353 0
354 -352 353 0
354 352 -353 0
-355 338 0
-355 344 0
355 -338 -344 0
-356 340 0
-356 342 0
356 -340 -342 0
-357 355 356 0
-357 -355 -356 0
357 -355 356 0
357 355 -356 0
-358 334 0
-358 348 0
358 -334 -348 0
-359 336 0
-359 344 0
359 -336 -344 0
-360 358 359 0
-360 -358 -359 0
360 -358 359 0
360 358 -359 0
-361 334 0
-361 346 0
361 -334 -346 0
-362 336 0
-362 342 0
362 -336 -342 0
-363 361 362 0
-363 -361 -362 0
363 -361 362 0
363 361 -362 0
-364 354 357 0
-364 -354 -357 0
364 -354 357 0
364 354 -357 0
-365 364 360 0
-365 -364 -360 0
365 -364 360 0
365 364 -360 0
-365 0
-366 336 334 0
-366 -336 -334 0
366 -336 334 0
366 336 -334 0
-367 338 334 0
-367 -338 -334 0
367 -338 334 0
367 338 -334 0
-368 338 336 0
-368 -338 -336 0
368 -338 336 0
368 338 -336 0
-369 346 342 0
-369 -346 -342 0
369 -346 342 0
369 346 -342 0
-370 348 344 0
-370 -348 -344 0
370 -348 344 0
370 348 -344 0
366 367 340 368 340 340 369 370 344 348 363 360 357 354 351 0
-371 64 0
-371 82 0
371 -64 -82 0
-372 70 0
-372 76 0
372 -70 -76 0
-373 371 372 0
-373 -371 -372 0
373 -371 372 0
373 371 -372 0
-374 46 0
-374 82 0
374 -46 -82 0
-375 52 0
-375 76 0
375 -52 -76 0
-376 374 375 0
-376 -374 -375 0
376 -374 375 0
376 374 -375 0
-377 46 0
-377 70 0
377 -46 -70 0
-378 52 0
-378 64 0
378 -52 -64 0
-379 377 378 0
-379 -377 -378 0
379 -377 378 0
379 377 -378 0
-380 34 0
-380 82 0
380 -34 -82 0
-381 40 0
-381 70 0
381 -40 -70 0
-382 380 381 0
-382 -380 -381 0
382 -380 381 0
382 380 -381 0
-383 34 0
-383 76 0
383 -34 -76 0
-384 40 0
-384 64 0
384 -40 -64 0
-385 383 384 0
-385 -383 -384 0
385 -383 384 0
385 383 -384 0
-385 0
34 40 46 64 76 385 382 379 376 373 0
-386 31 34 0
-386 -31 -34 0
386 -31 34 0
386 31 -34 0
-387 37 40 0
-387 -37 -40 0
387 -37 40 0
387 37 -40 0
-388 43 46 0
-388 -43 -46 0
388 -43 46 0
388 43 -46 0
-389 49 52 0
-389 -49 -52 0
389 -49 52 0
389 49 -52 0
-390 61 64 0
-390 -61 -64 0
390 -61 64 0
390 61 -64 0
-391 67 70 0
-391 -67 -70 0
391 -67 70 0
391 67 -70 0
-392 73 76 0
-392 -73 -76 0
392 -73 76 0
392 73 -76 0
-393 79 82 0
-393 -79 -82 0
393 -79 82 0
393 79 -82 0
-394 390 0
-394 393 0
394 -390 -393 0
-395 391 0
-395 392 0
395 -391 -392 0
-396 394 395 0
-396 -394 -395 0
396 -394 395 0
396 394 -395 0
-397 388 0
-397 393 0
397 -388 -393 0
-398 389 0
-398 392 0
398 -389 -392 0
-399 397 398 0
-399 -397 -398 0
399 -397 398 0
399 397 -398 0
-400 388 0
-400 391 0
400 -388 -391 0
-401 389 0
-401 390 0
401 -389 -390 0
-402 400 401 0
-402 -400 -401 0
402 -400 401 0
402 400 -401 0
-403 386 0
-403 393 0
403 -386 -393 0
-404 387 0
-404 391 0
404 -387 -391 0
-405 403 404 0
-405 -403 -404 0
405 -403 404 0
405 403 -404 0
-406 386 0
-406 392 0
406 -386 -392 0
-407 387 0
-407 390 0
407 -387 -390 0
-408 406 407 0
-408 -406 -407 0
408 -406 407 0
408 406 -407 0
-409 399 408 0
-409 -399 -408 0
409 -399 408 0
409 399 -408 0
-409 0
-410 389 386 0
-410 -389 -386 0
410 -389 386 0
410 389 -386 0
387 388 410 387 388 392 393 390 392 408 405 402 399 396 0
-411 32 34 0
-411 -32 -34 0
411 -32 34 0
411 32 -34 0
-412 38 40 0
-412 -38 -40 0
412 -38 40 0
412 38 -40 0
-413 44 46 0
-413 -44 -46 0
413 -44 46 0
413 44 -46 0
-414 50 52 0
-414 -50 -52 0
414 -50 52 0
414 50 -52 0
-415 62 64 0
-415 -62 -64 0
415 -62 64 0
415 62 -64 0
-416 68 70 0
-416 -68 -70 0
416 -68 70 0
416 68 -70 0
-417 74 76 0
-417 -74 -76 0
417 -74 76 0
417 74 -76 0
-418 80 82 0
-418 -80 -82 0
418 -80 82 0
418 80 -82 0
-419 415 0
-419 418 0
419 -415 -418 0
-420 416 0
-420 417 0
420 -416 -417 0
-421 419 420 0
-421 -419 -420 0
421 -419 420 0
421 419 -420 0
-422 413 0
-422 418 0
422 -413 -418 0
-423 414 0
-423 417 0
423 -414 -417 0
-424 422 423 0
-424 -422 -423 0
424 -422 423 0
424 422 -423 0
-425 413 0
-425 416 0
425 -413 -416 0
-426 414 0
-426 415 0
426 -414 -415 0
-427 425 426 0
-427 -425 -426 0
427 -425 426 0
427 425 -426 0
-428 411 0
-428 418 0
428 -411 -418 0
-429 412 0
-429 416 0
429 -412 -416 0
-430 428 429 0
-430 -428 -429 0
430 -428 429 0
430 428 -429 0
-431 411 0
-431 417 0
431 -411 -417 0
-432 412 0
-432 415 0
432 -412 -415 0
-433 431 432 0
-433 -431 -432 0
433 -431 432 0
433 431 -432 0
-434 427 433 0
-434 -427 -433 0
434 -427 433 0
434 427 -433 0
-434 0
-435 414 412 0
-435 -414 -412 0
435 -414 412 0
435 414 -412 0
411 411 413 435 413 415 416 415 417 433 430 427 424 421 0
-436 31 32 0
-436 -31 -32 0
436 -31 32 0
436 31 -32 0
-437 436 34 0
-437 -436 -34 0
437 -436 34 0
437 436 -34 0
-438 37 38 0
-438 -37 -38 0
438 -37 38 0
438 37 -38 0
-439 438 40 0
-439 -438 -40 0
439 -438 40 0
439 438 -40 0
-440 43 44 0
-440 -43 -44 0
440 -43 44 0
440 43 -44 0
-441 440 46 0
-441 -440 -46 0
441 -440 46 0
441 440 -46 0
-442 49 50 0
-442 -49 -50 0
442 -49 50 0
442 49 -50 0
-443 442 52 0
-443 -442 -52 0
443 -442 52 0
443 442 -52 0
-444 61 62 0
-444 -61 -62 0
444 -61 62 0
444 61 -62 0
-445 444 64 0
-445 -444 -64 0
445 -444 64 0
445 444 -64 0
-446 67 68 0
-446 -67 -68 0
446 -67 68 0
446 67 -68 0
-447 446 70 0
-447 -446 -70 0
447 -446 70 0
447 446 -70 0
-448 73 74 0
-448 -73 -74 0
448 -73 74 0
448 73 -74 0
-449 448 76 0
-449 -448 -76 0
449 -448 76 0
449 448 -76 0
-450 79 80 0
-450 -79 -80 0
450 -79 80 0
450 79 -80 0
-451 450 82 0
-451 -450 -82 0
451 -450 82 0
451 450 -82 0
-452 445 0
-452 451 0
452 -445 -451 0
-453 447 0
-453 449 0
453 -447 -449 0
-454 452 453 0
-454 -452 -453 0
454 -452 453 0
454 452 -453 0
-455 441 0
-455 451 0
455 -441 -451 0
-456 443 0
-456 449 0
456 -443 -449 0
-457 455 456 0
-457 -455 -456 0
457 -455 456 0
457 455 -456 0
-458 441 0
-458 447 0
458 -441 -447 0
-459 443 0
-459 445 0
459 -443 -445 0
-460 458 459 0
-460 -458 -459 0
460 -458 459 0
460 458 -459 0
-461 437 0
-461 451 0
461 -437 -451 0
-462 439 0
-462 447 0
462 -439 -447 0
-463 461 462 0
-463 -461 -462 0
463 -461 462 0
463 461 -462 0
-464 437 0
-464 449 0
464 -437 -449 0
-465 439 0
-465 445 0
465 -439 -445 0
-466 464 465 0
-466 -464 -465 0
466 -464 465 0
466 464 -465 0
-467 457 460 0
-467 -457 -460 0
467 -457 460 0
467 457 -460 0
-468 467 466 0
-468 -467 -466 0
468 -467 466 0
468 467 -466 0
-468 0
-469 439 437 0
-469 -439 -437 0
469 -439 437 0
469 439 -437 0
-470 443 437 0
-470 -443 -437 0
470 -443 437 0
470 443 -437 0
-471 443 439 0
-471 -443 -439 0
471 -443 439 0
471 443 -439 0
-472 449 445 0
-472 -449 -445 0
472 -449 445 0
472 449 -445 0
-473 451 447 0
-473 -451 -447 0
473 -451 447 0
473 451 -447 0
469 441 470 441 471 441 472 473 445 449 466 463 460 457 454 0
-474 33 34 0
-474 -33 -34 0
474 -33 34 0
474 33 -34 0
-475 39 40 0
-475 -39 -40 0
475 -39 40 0
475 39 -40 0
-476 45 46 0
-476 -45 -46 0
476 -45 46 0
476 45 -46 0
-477 51 52 0
-477 -51 -52 0
477 -51 52 0
477 51 -52 0
-478 63 64 0
-478 -63 -64 0
478 -63 64 0
478 63 -64 0
-479 69 70 0
-479 -69 -70 0
479 -69 70 0
479 69 -70 0
-480 75 76 0
-480 -75 -76 0
480 -75 76 0
480 75 -76 0
-481 81 82 0
-481 -81 -82 0
481 -81 82 0
481 81 -82 0
-482 478 0
-482 481 0
482 -478 -481 0
-483 479 0
-483 480 0
483 -479 -480 0
-484 482 483 0
-484 -482 -483 0
484 -482 483 0
484 482 -483 0
-485 476 0
-485 481 0
485 -476 -481 0
-486 477 0
-486 480 0
486 -477 -480 0
-487 485 486 0
-487 -485 -486 0
487 -485 486 0
487 485 -486 0
-488 476 0
-488 479 0
488 -476 -479 0
-489 477 0
-489 478 0
489 -477 -478 0
-490 488 489 0
-490 -488 -489 0
490 -488 489 0
490 488 -489 0
-491 474 0
-491 481 0
491 -474 -481 0
-492 475 0
-492 479 0
492 -475 -479 0
-493 491 492 0
-493 -491 -492 0
493 -491 492 0
493 491 -492 0
-494 474 0
-494 480 0
494 -474 -480 0
-495 475 0
-495 478 0
495 -475 -478 0
-496 494 495 0
-496 -494 -495 0
496 -494 495 0
496 494 -495 0
-497 493 496 0
-497 -493 -496 0
497 -493 496 0
497 493 -496 0
-497 0
-498 477 476 0
-498 -477 -476 0
498 -477 476 0
498 477 -476 0
-499 479 478 0
-499 -479 -478 0
499 -479 478 0
499 479 -478 0
-500 481 480 0
-500 -481 -480 0
500 -481 480 0
500 481 -480 0
474 474 475 475 498 499 500 496 493 490 487 484 0
-501 31 33 0
-501 -31 -33 0
501 -31 33 0
501 31 -33 0
-502 501 34 0
-502 -501 -34 0
502 -501 34 0
502 501 -34 0
-503 37 39 0
-503 -37 -39 0
503 -37 39 0
503 37 -39 0
-504 503 40 0
-504 -503 -40 0
504 -503 40 0
504 503 -40 0
-505 43 45 0
-505 -43 -45 0
505 -43 45 0
505 43 -45 0
-506 505 46 0
-506 -505 -46 0
506 -505 46 0
506 505 -46 0
-507 49 51 0
-507 -49 -51 0
507 -49 51 0
507 49 -51 0
-508 507 52 0
-508 -507 -52 0
508 -507 52 0
508 507 -52 0
-509 61 63 0
-509 -61 -63 0
509 -61 63 0
509 61 -63 0
-510 509 64 0
-510 -509 -64 0
510 -509 64 0
510 509 -64 0
-511 67 69 0
-511 -67 -69 0
511 -67 69 0
511 67 -69 0
-512 511 70 0
-512 -511 -70 0
512 -511 70 0
512 511 -70 0
-513 73 75 0
-513 -73 -75 0
513 -73 75 0
513 73 -75 0
-514 513 76 0
-514 -513 -76 0
514 -513 76 0
514 513 -76 0
-515 79 81 0
-515 -79 -81 0
515 -79 81 0
515 79 -81 0
-516 515 82 0
-516 -515 -82 0
516 -515 82 0
516 515 -82 0
-517 510 0
-517 516 0
517 -510 -516 0
-518 512 0
-518 514 0
518 -512 -514 0
-519 517 518 0
-519 -517 -518 0
519 -517 518 0
519 517 -518 0
-520 506 0
-520 516 0
520 -506 -516 0
-521 508 0
-521 514 0
521 -508 -514 0
-522 520 521 0
-522 -520 -521 0
522 -520 521 0
522 520 -521 0
-523 506 0
-523 512 0
523 -506 -512 0
-524 508 0
-524 510 0
524 -508 -510 0
-525 523 524 0
-525 -523 -524 0
525 -523 524 0
525 523 -524 0
-526 502 0
-526 516 0
526 -502 -516 0
-527 504 0
-527 512 0
527 -504 -512 0
-528 526 527 0
-528 -526 -527 0
528 -526 527 0
528 526 -527 0
-529 502 0
-529 514 0
529 -502 -514 0
-530 504 0
-530 510 0
530 -504 -510 0
-531 529 530 0
-531 -529 -530 0
531 -529 530 0
531 529 -530 0
-532 522 528 0
-532 -522 -528 0
532 -522 528 0
532 522 -528 0
-533 532 531 0
-533 -532 -531 0
533 -532 531 0
533 532 -531 0
-533 0
-534 506 502 0
-534 -506 -502 0
534 -506 502 0
534 506 -502 0
-535 508 502 0
-535 -508 -502 0
535 -508 502 0
535 508 -502 0
-536 508 506 0
-536 -508 -506 0
536 -508 506 0
536 508 -506 0
-537 512 510 0
-537 -512 -510 0
537 -512 510 0
537 512 -510 0
-538 516 514 0
-538 -516 -514 0
538 -516 514 0
538 516 -514 0
504 534 535 504 504 536 514 516 537 538 531 528 525 522 519 0
-539 32 33 0
-539 -32 -33 0
539 -32 33 0
539 32 -33 0
-540 539 34 0
-540 -539 -34 0
540 -539 34 0
540 539 -34 0
-541 38 39 0
-541 -38 -39 0
541 -38 39 0
541 38 -39 0
-542 541 40 0
-542 -541 -40 0
542 -541 40 0
542 541 -40 0
-543 44 45 0
-543 -44 -45 0
543 -44 45 0
543 44 -45 0
-544 543 46 0
-544 -543 -46 0
544 -543 46 0
544 543 -46 0
-545 50 51 0
-545 -50 -51 0
545 -50 51 0
545 50 -51 0
-546 545 52 0
-546 -545 -52 0
546 -545 52 0
546 545 -52 0
-547 62 63 0
-547 -62 -63 0
547 -62 63 0
547 62 -63 0
-548 547 64 0
-548 -547 -64 0
548 -547 64 0
548 547 -64 0
-549 68 69 0
-549 -68 -69 0
549 -68 69 0
549 68 -69 0
-550 549 70 0
-550 -549 -70 0
550 -549 70 0
550 549 -70 0
-551 74 75 0
-551 -74 -75 0
551 -74 75 0
551 74 -75 0
-552 551 76 0
-552 -551 -76 0
552 -551 76 0
552 551 -76 0
-553 80 81 0
-553 -80 -81 0
553 -80 81 0
553 80 -81 0
-554 553 82 0
-554 -553 -82 0
554 -553 82 0
554 553 -82 0
-555 548 0
-555 554 0
555 -548 -554 0
-556 550 0
-556 552 0
556 -550 -552 0
-557 555 556 0
-557 -555 -556 0
557 -555 556 0
557 555 -556 0
-558 544 0
-558 554 0
558 -544 -554 0
-559 546 0
-559 552 0
559 -546 -552 0
-560 558 559 0
-560 -558 -559 0
560 -558 559 0
560 558 -559 0
-561 544 0
-561 550 0
561 -544 -550 0
-562 546 0
-562 548 0
562 -546 -548 0
-563 561 562 0
-563 -561 -562 0
563 -561 562 0
563 561 -562 0
-564 540 0
-564 554 0
564 -540 -554 0
-565 542 0
-565 550 0
565 -542 -550 0
-566 564 565 0
-566 -564 -565 0
566 -564 565 0
566 564 -565 0
-567 540 0
-567 552 0
567 -540 -552 0
-568 542 0
-568 548 0
568 -542 -548 0
-569 567 568 0
-569 -567 -568 0
569 -567 568 0
569 567 -568 0
-570 563 566 0
-570 -563 -566 0
570 -563 566 0
570 563 -566 0
-571 570 569 0
-571 -570 -569 0
571 -570 569 0
571 570 -569 0
-571 0
-572 544 542 0
-572 -544 -542 0
572 -544 542 0
572 544 -542 0
-573 546 542 0
-573 -546 -542 0
573 -546 542 0
573 546 -542 0
-574 546 544 0
-574 -546 -544 0
574 -546 544 0
574 546 -544 0
-575 550 548 0
-575 -550 -548 0
575 -550 548 0
575 550 -548 0
-576 554 552 0
-576 -554 -552 0
576 -554 552 0
576 554 -552 0
540 540 540 572 573 574 548 550 575 576 569 566 563 560 557 0
-577 31 32 0
-577 -31 -32 0
577 -31 32 0
577 31 -32 0
-578 577 33 0
-578 -577 -33 0
578 -577 33 0
578 577 -33 0
-579 578 34 0
-579 -578 -34 0
579 -578 34 0
579 578 -34 0
-580 37 38 0
-580 -37 -38 0
580 -37 38 0
580 37 -38 0
-581 580 39 0
-581 -580 -39 0
581 -580 39 0
581 580 -39 0
-582 581 40 0
-582 -581 -40 0
582 -581 40 0
582 581 -40 0
-583 43 44 0
-583 -43 -44 0
583 -43 44 0
583 43 -44 0
-584 583 45 0
-584 -583 -45 0
584 -583 45 0
584 583 -45 0
-585 584 46 0
-585 -584 -46 0
585 -584 46 0
585 584 -46 0
-586 49 50 0
-586 -49 -50 0
586 -49 50 0
586 49 -50 0
-587 586 51 0
-587 -586 -51 0
587 -586 51 0
587 586 -51 0
-588 587 52 0
-588 -587 -52 0
588 -587 52 0
588 587 -52 0
-589 61 62 0
-589 -61 -62 0
589 -61 62 0
589 61 -62 0
-590 589 63 0
-590 -589 -63 0
590 -589 63 0
590 589 -63 0
-591 590 64 0
-591 -590 -64 0
591 -590 64 0
591 590 -64 0
-592 67 68 0
-592 -67 -68 0
592 -67 68 0
592 67 -68 0
-593 592 69 0
-593 -592 -69 0
593 -592 69 0
593 592 -69 0
-594 593 70 0
-594 -593 -70 0
594 -593 70 0
594 593 -70 0
-595 73 74 0
-595 -73 -74 0
595 -73 74 0
595 73 -74 0
-596 595 75 0
-596 -595 -75 0
596 -595 75 0
596 595 -75 0
-597 596 76 0
-597 -596 -76 0
597 -596 76 0
597 596 -76 0
-598 79 80 0
-598 -79 -80 0
598 -79 80 0
598 79 -80 0
-599 598 81 0
-599 -598 -81 0
599 -598 81 0
599 598 -81 0
-600 599 82 0
-600 -599 -82 0
600 -599 82 0
600 599 -82 0
-601 591 0
-601 600 0
601 -591 -600 0
-602 594 0
-602 597 0
602 -594 -597 0
-603 601 602 0
-603 -601 -602 0
603 -601 602 0
603 601 -602 0
-604 585 0
-604 600 0
604 -585 -600 0
-605 588 0
-605 597 0
605 -588 -597 0
-606 604 605 0
-606 -604 -605 0
606 -604 605 0
606 604 -605 0
-607 585 0
-607 594 0
607 -585 -594 0
-608 588 0
-608 591 0
608 -588 -591 0
-609 607 608 0
-609 -607 -608 0
609 -607 608 0
609 607 -608 0
-610 579 0
-610 600 0
610 -579 -600 0
-611 582 0
-611 594 0
611 -582 -594 0
-612 610 611 0
-612 -610 -611 0
612 -610 611 0
612 610 -611 0
-613 579 0
-613 597 0
613 -579 -597 0
-614 582 0
-614 591 0
614 -582 -591 0
-615 613 614 0
-615 -613 -614 0
615 -613 614 0
615 613 -614 0
-616 606 609 0
-616 -606 -609 0
616 -606 609 0
616 606 -609 0
-617 616 612 0
-617 -616 -612 0
617 -616 612 0
617 616 -612 0
-618 617 615 0
-618 -617 -615 0
618 -617 615 0
618 617 -615 0
-618 0
-619 582 579 0
-619 -582 -579 0
619 -582 579 0
619 582 -579 0
-620 585 579 0
-620 -585 -579 0
620 -585 579 0
620 585 -579 0
-621 588 579 0
-621 -588 -579 0
621 -588 579 0
621 588 -579 0
-622 585 582 0
-622 -585 -582 0
622 -585 582 0
622 585 -582 0
-623 588 582 0
-623 -588 -582 0
623 -588 582 0
623 588 -582 0
-624 588 585 0
-624 -588 -585 0
624 -588 585 0
624 588 -585 0
-625 597 591 0
-625 -597 -591 0
625 -597 591 0
625 597 -591 0
-626 600 594 0
-626 -600 -594 0
626 -600 594 0
626 600 -594 0
-627 594 591 0
-627 -594 -591 0
627 -594 591 0
627 594 -591 0
-628 600 597 0
-628 -600 -597 0
628 -600 597 0
628 600 -597 0
619 620 621 622 623 624 625 626 627 628 615 612 609 606 603 0
-629 65 0
-629 83 0
629 -65 -83 0
-630 71 0
-630 77 0
630 -71 -77 0
-631 629 630 0
-631 -629 -630 0
631 -629 630 0
631 629 -630 0
-632 47 0
-632 83 0
632 -47 -83 0
-633 53 0
-633 77 0
633 -53 -77 0
-634 632 633 0
-634 -632 -633 0
634 -632 633 0
634 632 -633 0
-635 47 0
-635 71 0
635 -47 -71 0
-636 53 0
-636 65 0
636 -53 -65 0
-637 635 636 0
-637 -635 -636 0
637 -635 636 0
637 635 -636 0
-638 35 0
-638 83 0
638 -35 -83 0
-639 41 0
-639 71 0
639 -41 -71 0
-640 638 639 0
-640 -638 -639 0
640 -638 639 0
640 638 -639 0
-641 35 0
-641 77 0
641 -35 -77 0
-642 41 0
-642 65 0
642 -41 -65 0
-643 641 642 0
-643 -641 -642 0
643 -641 642 0
643 641 -642 0
643 640 637 634 631 0
-644 31 35 0
-644 -31 -35 0
644 -31 35 0
644 31 -35 0
-645 37 41 0
-645 -37 -41 0
645 -37 41 0
645 37 -41 0
-646 43 47 0
-646 -43 -47 0
646 -43 47 0
646 43 -47 0
-647 49 53 0
-647 -49 -53 0
647 -49 53 0
647 49 -53 0
-648 61 65 0
-648 -61 -65 0
648 -61 65 0
648 61 -65 0
-649 67 71 0
-649 -67 -71 0
649 -67 71 0
649 67 -71 0
-650 73 77 0
-650 -73 -77 0
650 -73 77 0
650 73 -77 0
-651 79 83 0
-651 -79 -83 0
651 -79 83 0
651 79 -83 0
-652 648 0
-652 651 0
652 -648 -651 0
-653 649 0
-653 650 0
653 -649 -650 0
-654 652 653 0
-654 -652 -653 0
654 -652 653 0
654 652 -653 0
-655 646 0
-655 651 0
655 -646 -651 0
-656 647 0
-656 650 0
656 -647 -650 0
-657 655 656 0
-657 -655 -656 0
657 -655 656 0
657 655 -656 0
-658 646 0
-658 649 0
658 -646 -649 0
-659 647 0
-659 648 0
659 -647 -648 0
-660 658 659 0
-660 -658 -659 0
660 -658 659 0
660 658 -659 0
-661 644 0
-661 651 0
661 -644 -651 0
-662 645 0
-662 649 0
662 -645 -649 0
-663 661 662 0
-663 -661 -662 0
663 -661 662 0
663 661 -662 0
-664 644 0
-664 650 0
664 -644 -650 0
-665 645 0
-665 648 0
665 -645 -648 0
-666 664 665 0
-666 -664 -665 0
666 -664 665 0
666 664 -665 0
-657 0
645 646 647 650 651 666 663 660 657 654 0
-667 32 35 0
-667 -32 -35 0
667 -32 35 0
667 32 -35 0
-668 38 41 0
-668 -38 -41 0
668 -38 41 0
668 38 -41 0
-669 44 47 0
-669 -44 -47 0
669 -44 47 0
669 44 -47 0
-670 50 53 0
-670 -50 -53 0
670 -50 53 0
670 50 -53 0
-671 62 65 0
-671 -62 -65 0
671 -62 65 0
671 62 -65 0
-672 68 71 0
-672 -68 -71 0
672 -68 71 0
672 68 -71 0
-673 74 77 0
-673 -74 -77 0
673 -74 77 0
673 74 -77 0
-674 80 83 0
-674 -80 -83 0
674 -80 83 0
674 80 -83 0
-675 671 0
-675 674 0
675 -671 -674 0
-676 672 0
-676 673 0
676 -672 -673 0
-677 675 676 0
-677 -675 -676 0
677 -675 676 0
677 675 -676 0
-678 669 0
-678 674 0
678 -669 -674 0
-679 670 0
-679 673 0
679 -670 -673 0
-680 678 679 0
-680 -678 -679 0
680 -678 679 0
680 678 -679 0
-681 669 0
-681 672 0
681 -669 -672 0
-682 670 0
-682 671 0
682 -670 -671 0
-683 681 682 0
-683 -681 -682 0
683 -681 682 0
683 681 -682 0
-684 667 0
-684 674 0
684 -667 -674 0
-685 668 0
-685 672 0
685 -668 -672 0
-686 684 685 0
-686 -684 -685 0
686 -684 685 0
686 684 -685 0
-687 667 0
-687 673 0
687 -667 -673 0
-688 668 0
-688 671 0
688 -668 -671 0
-689 687 688 0
-689 -687 -688 0
689 -687 688 0
689 687 -688 0
-683 0
667 669 670 671 672 689 686 683 680 677 0
-690 31 32 0
-690 -31 -32 0
690 -31 32 0
690 31 -32 0
-691 690 35 0
-691 -690 -35 0
691 -690 35 0
691 690 -35 0
-692 37 38 0
-692 -37 -38 0
692 -37 38 0
692 37 -38 0
-693 692 41 0
-693 -692 -41 0
693 -692 41 0
693 692 -41 0
-694 43 44 0
-694 -43 -44 0
694 -43 44 0
694 43 -44 0
-695 694 47 0
-695 -694 -47 0
695 -694 47 0
695 694 -47 0
-696 49 50 0
-696 -49 -50 0
696 -49 50 0
696 49 -50 0
-697 696 53 0
-697 -696 -53 0
697 -696 53 0
697 696 -53 0
-698 61 62 0
-698 -61 -62 0
698 -61 62 0
698 61 -62 0
-699 698 65 0
-699 -698 -65 0
699 -698 65 0
699 698 -65 0
-700 67 68 0
-700 -67 -68 0
700 -67 68 0
700 67 -68 0
-701 700 71 0
-701 -700 -71 0
701 -700 71 0
701 700 -71 0
-702 73 74 0
-702 -73 -74 0
702 -73 74 0
702 73 -74 0
-703 702 77 0
-703 -702 -77 0
703 -702 77 0
703 702 -77 0
-704 79 80 0
-704 -79 -80 0
704 -79 80 0
704 79 -80 0
-705 704 83 0
-705 -704 -83 0
705 -704 83 0
705 704 -83 0
-706 699 0
-706 705 0
706 -699 -705 0
-707 701 0
-707 703 0
707 -701 -703 0
-708 706 707 0
-708 -706 -707 0
708 -706 707 0
708 706 -707 0
-709 695 0
-709 705 0
709 -695 -705 0
-710 697 0
-710 703 0
710 -697 -703 0
-711 709 710 0
-711 -709 -710 0
711 -709 710 0
711 709 -710 0
-712 695 0
-712 701 0
712 -695 -701 0
-713 697 0
-713 699 0
713 -697 -699 0
-714 712 713 0
-714 -712 -713 0
714 -712 713 0
714 712 -713 0
-715 691 0
-715 705 0
715 -691 -705 0
-716 693 0
-716 701 0
716 -693 -701 0
-717 715 716 0
-717 -715 -716 0
717 -715 716 0
717 715 -716 0
-718 691 0
-718 703 0
718 -691 -703 0
-719 693 0
-719 699 0
719 -693 -699 0
-720 718 719 0
-720 -718 -719 0
720 -718 719 0
720 718 -719 0
-721 711 714 0
-721 -711 -714 0
721 -711 714 0
721 711 -714 0
-721 0
-722 693 691 0
-722 -693 -691 0
722 -693 691 0
722 693 -691 0
-723 703 699 0
-723 -703 -699 0
723 -703 699 0
723 703 -699 0
-724 705 701 0
-724 -705 -701 0
724 -705 701 0
724 705 -701 0
722 695 697 695 697 723 724 720 717 714 711 708 0
-725 33 35 0
-725 -33 -35 0
725 -33 35 0
725 33 -35 0
-726 39 41 0
-726 -39 -41 0
726 -39 41 0
726 39 -41 0
-727 45 47 0
-727 -45 -47 0
727 -45 47 0
727 45 -47 0
-728 51 53 0
-728 -51 -53 0
728 -51 53 0
728 51 -53 0
-729 63 65 0
-729 -63 -65 0
729 -63 65 0
729 63 -65 0
-730 69 71 0
-730 -69 -71 0
730 -69 71 0
730 69 -71 0
-731 75 77 0
-731 -75 -77 0
731 -75 77 0
731 75 -77 0
-732 81 83 0
-732 -81 -83 0
732 -81 83 0
732 81 -83 0
-733 729 0
-733 732 0
733 -729 -732 0
-734 730 0
-734 731 0
734 -730 -731 0
-735 733 734 0
-735 -733 -734 0
735 -733 734 0
735 733 -734 0
-736 727 0
-736 732 0
736 -727 -732 0
-737 728 0
-737 731 0
737 -728 -731 0
-738 736 737 0
-738 -736 -737 0
738 -736 737 0
738 736 -737 0
-739 727 0
-739 730 0
739 -727 -730 0
-740 728 0
-740 729 0
740 -728 -729 0
-741 739 740 0
-741 -739 -740 0
741 -739 740 0
741 739 -740 0
-742 725 0
-742 732 0
742 -725 -732 0
-743 726 0
-743 730 0
743 -726 -730 0
-744 742 743 0
-744 -742 -743 0
744 -742 743 0
744 742 -743 0
-745 725 0
-745 731 0
745 -725 -731 0
-746 726 0
-746 729 0
746 -726 -729 0
-747 745 746 0
-747 -745 -746 0
747 -745 746 0
747 745 -746 0
-744 0
725 726 728 730 732 747 744 741 738 735 0
-748 31 33 0
-748 -31 -33 0
748 -31 33 0
748 31 -33 0
-749 748 35 0
-749 -748 -35 0
749 -748 35 0
749 748 -35 0
-750 37 39 0
-750 -37 -39 0
750 -37 39 0
750 37 -39 0
-751 750 41 0
-751 -750 -41 0
751 -750 41 0
751 750 -41 0
-752 43 45 0
-752 -43 -45 0
752 -43 45 0
752 43 -45 0
-753 752 47 0
-753 -752 -47 0
753 -752 47 0
753 752 -47 0
-754 49 51 0
-754 -49 -51 0
754 -49 51 0
754 49 -51 0
-755 754 53 0
-755 -754 -53 0
755 -754 53 0
755 754 -53 0
-756 61 63 0
-756 -61 -63 0
756 -61 63 0
756 61 -63 0
-757 756 65 0
-757 -756 -65 0
757 -756 65 0
757 756 -65 0
-758 67 69 0
-758 -67 -69 0
758 -67 69 0
758 67 -69 0
-759 758 71 0
-759 -758 -71 0
759 -758 71 0
759 758 -71 0
-760 73 75 0
-760 -73 -75 0
760 -73 75 0
760 73 -75 0
-761 760 77 0
-761 -760 -77 0
761 -760 77 0
761 760 -77 0
-762 79 81 0
-762 -79 -81 0
762 -79 81 0
762 79 -81 0
-763 762 83 0
-763 -762 -83 0
763 -762 83 0
763 762 -83 0
-764 757 0
-764 763 0
764 -757 -763 0
-765 759 0
-765 761 0
765 -759 -761 0
-766 764 765 0
-766 -764 -765 0
766 -764 765 0
766 764 -765 0
-767 753 0
-767 763 0
767 -753 -763 0
-768 755 0
-768 761 0
768 -755 -761 0
-769 767 768 0
-769 -767 -768 0
769 -767 768 0
769 767 -768 0
-770 753 0
-770 759 0
770 -753 -759 0
-771 755 0
-771 757 0
771 -755 -757 0
-772 770 771 0
-772 -770 -771 0
772 -770 771 0
772 770 -771 0
-773 749 0
-773 763 0
773 -749 -763 0
-774 751 0
-774 759 0
774 -751 -759 0
-775 773 774 0
-775 -773 -774 0
775 -773 774 0
775 773 -774 0
-776 749 0
-776 761 0
776 -749 -761 0
-777 751 0
-777 757 0
777 -751 -757 0
-778 776 777 0
-778 -776 -777 0
778 -776 777 0
778 776 -777 0
-779 769 775 0
-779 -769 -775 0
779 -769 775 0
779 769 -775 0
-779 0
-780 753 749 0
-780 -753 -749 0
780 -753 749 0
780 753 -749 0
751 780 755 751 755 761 763 759 763 778 775 772 769 766 0
-781 32 33 0
-781 -32 -33 0
781 -32 33 0
781 32 -33 0
-782 781 35 0
-782 -781 -35 0
782 -781 35 0
782 781 -35 0
-783 38 39 0
-783 -38 -39 0
783 -38 39 0
783 38 -39 0
-784 783 41 0
-784 -783 -41 0
784 -783 41 0
784 783 -41 0
-785 44 45 0
-785 -44 -45 0
785 -44 45 0
785 44 -45 0
-786 785 47 0
-786 -785 -47 0
786 -785 47 0
786 785 -47 0
-787 50 51 0
-787 -50 -51 0
787 -50 51 0
787 50 -51 0
-788 787 53 0
-788 -787 -53 0
788 -787 53 0
788 787 -53 0
-789 62 63 0
-789 -62 -63 0
789 -62 63 0
789 62 -63 0
-790 789 65 0
-790 -789 -65 0
790 -789 65 0
790 789 -65 0
-791 68 69 0
-791 -68 -69 0
791 -68 69 0
791 68 -69 0
-792 791 71 0
-792 -791 -71 0
792 -791 71 0
792 791 -71 0
-793 74 75 0
-793 -74 -75 0
793 -74 75 0
793 74 -75 0
-794 793 77 0
-794 -793 -77 0
794 -793 77 0
794 793 -77 0
-795 80 81 0
-795 -80 -81 0
795 -80 81 0
795 80 -81 0
-796 795 83 0
-796 -795 -83 0
796 -795 83 0
796 795 -83 0
-797 790 0
-797 796 0
797 -790 -796 0
-798 792 0
-798 794 0
798 -792 -794 0
-799 797 798 0
-799 -797 -798 0
799 -797 798 0
799 797 -798 0
-800 786 0
-800 796 0
800 -786 -796 0
-801 788 0
-801 794 0
801 -788 -794 0
-802 800 801 0
-802 -800 -801 0
802 -800 801 0
802 800 -801 0
-803 786 0
-803 792 0
803 -786 -792 0
-804 788 0
-804 790 0
804 -788 -790 0
-805 803 804 0
-805 -803 -804 0
805 -803 804 0
805 803 -804 0
-806 782 0
-806 796 0
806 -782 -796 0
-807 784 0
-807 792 0
807 -784 -792 0
-808 806 807 0
-808 -806 -807 0
808 -806 807 0
808 806 -807 0
-809 782 0
-809 794 0
809 -782 -794 0
-810 784 0
-810 790 0
810 -784 -790 0
-811 809 810 0
-811 -809 -810 0
811 -809 810 0
811 809 -810 0
-812 805 808 0
-812 -805 -808 0
812 -805 808 0
812 805 -808 0
-812 0
-813 786 784 0
-813 -786 -784 0
813 -786 784 0
813 786 -784 0
782 782 813 788 788 790 792 792 796 811 808 805 802 799 0
-814 31 32 0
-814 -31 -32 0
814 -31 32 0
814 31 -32 0
-815 814 33 0
-815 -814 -33 0
815 -814 33 0
815 814 -33 0
-816 815 35 0
-816 -815 -35 0
816 -815 35 0
816 815 -35 0
-817 37 38 0
-817 -37 -38 0
817 -37 38 0
817 37 -38 0
-818 817 39 0
-818 -817 -39 0
818 -817 39 0
818 817 -39 0
-819 818 41 0
-819 -818 -41 0
819 -818 41 0
819 818 -41 0
-820 43 44 0
-820 -43 -44 0
820 -43 44 0
820 43 -44 0
-821 820 45 0
-821 -820 -45 0
821 -820 45 0
821 820 -45 0
-822 821 47 0
-822 -821 -47 0
822 -821 47 0
822 821 -47 0
-823 49 50 0
-823 -49 -50 0
823 -49 50 0
823 49 -50 0
-824 823 51 0
-824 -823 -51 0
824 -823 51 0
824 823 -51 0
-825 824 53 0
-825 -824 -53 0
825 -824 53 0
825 824 -53 0
-826 61 62 0
-826 -61 -62 0
826 -61 62 0
826 61 -62 0
-827 826 63 0
-827 -826 -63 0
827 -826 63 0
827 826 -63 0
-828 827 65 0
-828 -827 -65 0
828 -827 65 0
828 827 -65 0
-829 67 68 0
-829 -67 -68 0
829 -67 68 0
829 67 -68 0
-830 829 69 0
-830 -829 -69 0
830 -829 69 0
830 829 -69 0
-831 830 71 0
-831 -830 -71 0
831 -830 71 0
831 830 -71 0
-832 73 74 0
-832 -73 -74 0
832 -73 74 0
832 73 -74 0
-833 832 75 0
-833 -832 -75 0
833 -832 75 0
833 832 -75 0
-834 833 77 0
-834 -833 -77 0
834 -833 77 0
834 833 -77 0
-835 79 80 0
-835 -79 -80 0
835 -79 80 0
835 79 -80 0
-836 835 81 0
-836 -835 -81 0
836 -835 81 0
836 835 -81 0
-837 836 83 0
-837 -836 -83 0
837 -836 83 0
837 836 -83 0
-838 828 0
-838 837 0
838 -828 -837 0
-839 831 0
-839 834 0
839 -831 -834 0
-840 838 839 0
-840 -838 -839 0
840 -838 839 0
840 838 -839 0
-841 822 0
-841 837 0
841 -822 -837 0
-842 825 0
-842 834 0
842 -825 -834 0
-843 841 842 0
-843 -841 -842 0
843 -841 842 0
843 841 -842 0
-844 822 0
-844 831 0
844 -822 -831 0
-845 825 0
-845 828 0
845 -825 -828 0
-846 844 845 0
-846 -844 -845 0
846 -844 845 0
846 844 -845 0
-847 816 0
-847 837 0
847 -816 -837 0
-848 819 0
-848 831 0
848 -819 -831 0
-849 847 848 0
-849 -847 -848 0
849 -847 848 0
849 847 -848 0
-850 816 0
-850 834 0
850 -816 -834 0
-851 819 0
-851 828 0
851 -819 -828 0
-852 850 851 0
-852 -850 -851 0
852 -850 851 0
852 850 -851 0
-853 843 846 0
-853 -843 -846 0
853 -843 846 0
853 843 -846 0
-854 853 849 0
-854 -853 -849 0
854 -853 849 0
854 853 -849 0
-854 0
-855 819 816 0
-855 -819 -816 0
855 -819 816 0
855 819 -816 0
-856 822 816 0
-856 -822 -816 0
856 -822 816 0
856 822 -816 0
-857 822 819 0
-857 -822 -819 0
857 -822 819 0
857 822 -819 0
-858 834 828 0
-858 -834 -828 0
858 -834 828 0
858 834 -828 0
-859 837 831 0
-859 -837 -831 0
859 -837 831 0
859 837 -831 0
855 856 825 857 825 825 858 859 831 837 852 849 846 843 840 0
-860 34 35 0
-860 -34 -35 0
860 -34 35 0
860 34 -35 0
-861 40 41 0
-861 -40 -41 0
861 -40 41 0
861 40 -41 0
-862 46 47 0
-862 -46 -47 0
862 -46 47 0
862 46 -47 0
-863 52 53 0
-863 -52 -53 0
863 -52 53 0
863 52 -53 0
-864 64 65 0
-864 -64 -65 0
864 -64 65 0
864 64 -65 0
-865 70 71 0
-865 -70 -71 0
865 -70 71 0
865 70 -71 0
-866 76 77 0
-866 -76 -77 0
866 -76 77 0
866 76 -77 0
-867 82 83 0
-867 -82 -83 0
867 -82 83 0
867 82 -83 0
-868 864 0
-868 867 0
868 -864 -867 0
-869 865 0
-869 866 0
869 -865 -866 0
-870 868 869 0
-870 -868 -869 0
870 -868 869 0
870 868 -869 0
-871 862 0
-871 867 0
871 -862 -867 0
-872 863 0
-872 866 0
872 -863 -866 0
-873 871 872 0
-873 -871 -872 0
873 -871 872 0
873 871 -872 0
-874 862 0
-874 865 0
874 -862 -865 0
-875 863 0
-875 864 0
875 -863 -864 0
-876 874 875 0
-876 -874 -875 0
876 -874 875 0
876 874 -875 0
-877 860 0
-877 867 0
877 -860 -867 0
-878 861 0
-878 865 0
878 -861 -865 0
-879 877 878 0
-879 -877 -878 0
879 -877 878 0
879 877 -878 0
-880 860 0
-880 866 0
880 -860 -866 0
-881 861 0
-881 864 0
881 -861 -864 0
-882 880 881 0
-882 -880 -881 0
882 -880 881 0
882 880 -881 0
-882 0
860 861 862 864 866 882 879 876 873 870 0
-883 31 34 0
-883 -31 -34 0
883 -31 34 0
883 31 -34 0
-884 883 35 0
-884 -883 -35 0
884 -883 35 0
884 883 -35 0
-885 37 40 0
-885 -37 -40 0
885 -37 40 0
885 37 -40 0
-886 885 41 0
-886 -885 -41 0
886 -885 41 0
886 885 -41 0
-887 43 46 0
-887 -43 -46 0
887 -43 46 0
887 43 -46 0
-888 887 47 0
-888 -887 -47 0
888 -887 47 0
888 887 -47 0
-889 49 52 0
-889 -49 -52 0
889 -49 52 0
889 49 -52 0
-890 889 53 0
-890 -889 -53 0
890 -889 53 0
890 889 -53 0
-891 61 64 0
-891 -61 -64 0
891 -61 64 0
891 61 -64 0
-892 891 65 0
-892 -891 -65 0
892 -891 65 0
892 891 -65 0
-893 67 70 0
-893 -67 -70 0
893 -67 70 0
893 67 -70 0
-894 893 71 0
-894 -893 -71 0
894 -893 71 0
894 893 -71 0
-895 73 76 0
-895 -73 -76 0
895 -73 76 0
895 73 -76 0
-896 895 77 0
-896 -895 -77 0
896 -895 77 0
896 895 -77 0
-897 79 82 0
-897 -79 -82 0
897 -79 82 0
897 79 -82 0
-898 897 83 0
-898 -897 -83 0
898 -897 83 0
898 897 -83 0
-899 892 0
-899 898 0
899 -892 -898 0
-900 894 0
-900 896 0
900 -894 -896 0
-901 899 900 0
-901 -899 -900 0
901 -899 900 0
901 899 -900 0
-902 888 0
-902 898 0
902 -888 -898 0
-903 890 0
-903 896 0
903 -890 -896 0
-904 902 903 0
-904 -902 -903 0
904 -902 903 0
904 902 -903 0
-905 888 0
-905 894 0
905 -888 -894 0
-906 890 0
-906 892 0
906 -890 -892 0
-907 905 906 0
-907 -905 -906 0
907 -905 906 0
907 905 -906 0
-908 884 0
-908 898 0
908 -884 -898 0
-909 886 0
-909 894 0
909 -886 -894 0
-910 908 909 0
-910 -908 -909 0
910 -908 909 0
910 908 -909 0
-911 884 0
-911 896 0
911 -884 -896 0
-912 886 0
-912 892 0
912 -886 -892 0
-913 911 912 0
-913 -911 -912 0
913 -911 912 0
913 911 -912 0
-914 904 913 0
-914 -904 -913 0
914 -904 913 0
914 904 -913 0
-914 0
-915 890 884 0
-915 -890 -884 0
915 -890 884 0
915 890 -884 0
886 888 915 886 888 896 898 892 896 913 910 907 904 901 0
-916 32 34 0
-916 -32 -34 0
916 -32 34 0
916 32 -34 0
-917 916 35 0
-917 -916 -35 0
917 -916 35 0
917 916 -35 0
-918 38 40 0
-918 -38 -40 0
918 -38 40 0
918 38 -40 0
-919 918 41 0
-919 -918 -41 0
919 -918 41 0
919 918 -41 0
-920 44 46 0
-920 -44 -46 0
920 -44 46 0
920 44 -46 0
-921 920 47 0
-921 -920 -47 0
921 -920 47 0
921 920 -47 0
-922 50 52 0
-922 -50 -52 0
922 -50 52 0
922 50 -52 0
-923 922 53 0
-923 -922 -53 0
923 -922 53 0
923 922 -53 0
-924 62 64 0
-924 -62 -64 0
924 -62 64 0
924 62 -64 0
-925 924 65 0
-925 -924 -65 0
925 -924 65 0
925 924 -65 0
-926 68 70 0
-926 -68 -70 0
926 -68 70 0
926 68 -70 0
-927 926 71 0
-927 -926 -71 0
927 -926 71 0
927 926 -71 0
-928 74 76 0
-928 -74 -76 0
928 -74 76 0
928 74 -76 0
-929 928 77 0
-929 -928 -77 0
929 -928 77 0
929 928 -77 0
-930 80 82 0
-930 -80 -82 0
930 -80 82 0
930 80 -82 0
-931 930 83 0
-931 -930 -83 0
931 -930 83 0
931 930 -83 0
-932 925 0
-932 931 0
932 -925 -931 0
-933 927 0
-933 929 0
933 -927 -929 0
-934 932 933 0
-934 -932 -933 0
934 -932 933 0
934 932 -933 0
-935 921 0
-935 931 0
935 -921 -931 0
-936 923 0
-936 929 0
936 -923 -929 0
-937 935 936 0
-937 -935 -936 0
937 -935 936 0
937 935 -936 0
-938 921 0
-938 927 0
938 -921 -927 0
-939 923 0
-939 925 0
939 -923 -925 0
-940 938 939 0
-940 -938 -939 0
940 -938 939 0
940 938 -939 0
-941 917 0
-941 931 0
941 -917 -931 0
-942 919 0
-942 927 0
942 -919 -927 0
-943 941 942 0
-943 -941 -942 0
943 -941 942 0
943 941 -942 0
-944 917 0
-944 929 0
944 -917 -929 0
-945 919 0
-945 925 0
945 -919 -925 0
-946 944 945 0
-946 -944 -945 0
946 -944 945 0
946 944 -945 0
-947 940 946 0
-947 -940 -946 0
947 -940 946 0
947 940 -946 0
-947 0
-948 923 919 0
-948 -923 -919 0
948 -923 919 0
948 923 -919 0
917 917 921 948 921 925 927 925 929 946 943 940 937 934 0
-949 31 32 0
-949 -31 -32 0
949 -31 32 0
949 31 -32 0
-950 949 34 0
-950 -949 -34 0
950 -949 34 0
950 949 -34 0
-951 950 35 0
-951 -950 -35 0
951 -950 35 0
951 950 -35 0
-952 37 38 0
-952 -37 -38 0
952 -37 38 0
952 37 -38 0
-953 952 40 0
-953 -952 -40 0
953 -952 40 0
953 952 -40 0
-954 953 41 0
-954 -953 -41 0
954 -953 41 0
954 953 -41 0
-955 43 44 0
-955 -43 -44 0
955 -43 44 0
955 43 -44 0
-956 955 46 0
-956 -955 -46 0
956 -955 46 0
956 955 -46 0
-957 956 47 0
-957 -956 -47 0
957 -956 47 0
957 956 -47 0
-958 49 50 0
-958 -49 -50 0
958 -49 50 0
958 49 -50 0
-959 958 52 0
-959 -958 -52 0
959 -958 52 0
959 958 -52 0
-960 959 53 0
-960 -959 -53 0
960 -959 53 0
960 959 -53 0
-961 61 62 0
-961 -61 -62 0
961 -61 62 0
961 61 -62 0
-962 961 64 0
-962 -961 -64 0
962 -961 64 0
962 961 -64 0
-963 962 65 0
-963 -962 -65 0
963 -962 65 0
963 962 -65 0
-964 67 68 0
-964 -67 -68 0
964 -67 68 0
964 67 -68 0
-965 964 70 0
-965 -964 -70 0
965 -964 70 0
965 964 -70 0
-966 965 71 0
-966 -965 -71 0
966 -965 71 0
966 965 -71 0
-967 73 74 0
-967 -73 -74 0
967 -73 74 0
967 73 -74 0
-968 967 76 0
-968 -967 -76 0
968 -967 76 0
968 967 -76 0
-969 968 77 0
-969 -968 -77 0
969 -968 77 0
969 968 -77 0
-970 79 80 0
-970 -79 -80 0
970 -79 80 0
970 79 -80 0
-971 970 82 0
-971 -970 -82 0
971 -970 82 0
971 970 -82 0
-972 971 83 0
-972 -971 -83 0
972 -971 83 0
972 971 -83 0
-973 963 0
-973 972 0
973 -963 -972 0
-974 966 0
-974 969 0
974 -966 -969 0
-975 973 974 0
-975 -973 -974 0
975 -973 974 0
975 973 -974 0
-976 957 0
-976 972 0
976 -957 -972 0
-977 960 0
-977 969 0
977 -960 -969 0
-978 976 977 0
-978 -976 -977 0
978 -976 977 0
978 976 -977 0
-979 957 0
-979 966 0
979 -957 -966 0
-980 960 0
-980 963 0
980 -960 -963 0
-981 979 980 0
-981 -979 -980 0
981 -979 980 0
981 979 -980 0
-982 951 0
-982 972 0
982 -951 -972 0
-983 954 0
-983 966 0
983 -954 -966 0
-984 982 983 0
-984 -982 -983 0
984 -982 983 0
984 982 -983 0
-985 951 0
-985 969 0
985 -951 -969 0
-986 954 0
-986 963 0
986 -954 -963 0
-987 985 986 0
-987 -985 -986 0
987 -985 986 0
987 985 -986 0
-988 978 981 0
-988 -978 -981 0
988 -978 981 0
988 978 -981 0
-989 988 987 0
-989 -988 -987 0
989 -988 987 0
989 988 -987 0
-989 0
-990 954 951 0
-990 -954 -951 0
990 -954 951 0
990 954 -951 0
-991 960 951 0
-991 -960 -951 0
991 -960 951 0
991 960 -951 0
-992 960 954 0
-992 -960 -954 0
992 -960 954 0
992 960 -954 0
-993 969 963 0
-993 -969 -963 0
993 -969 963 0
993 969 -963 0
-994 972 966 0
-994 -972 -966 0
994 -972 966 0
994 972 -966 0
990 957 991 957 992 957 993 994 963 969 987 984 981 978 975 0
-995 33 34 0
-995 -33 -34 0
995 -33 34 0
995 33 -34 0
-996 995 35 0
-996 -995 -35 0
996 -995 35 0
996 995 -35 0
-997 39 40 0
-997 -39 -40 0
997 -39 40 0
997 39 -40 0
-998 997 41 0
-998 -997 -41 0
998 -997 41 0
998 997 -41 0
-999 45 46 0
-999 -45 -46 0
999 -45 46 0
999 45 -46 0
-1000 999 47 0
-1000 -999 -47 0
1000 -999 47 0
1000 999 -47 0
-1001 51 52 0
-1001 -51 -52 0
1001 -51 52 0
1001 51 -52 0
-1002 1001 53 0
-1002 -1001 -53 0
1002 -1001 53 0
1002 1001 -53 0
-1003 63 64 0
-1003 -63 -64 0
1003 -63 64 0
1003 63 -64 0
-1004 1003 65 0
-1004 -1003 -65 0
1004 -1003 65 0
1004 1003 -65 0
-1005 69 70 0
-1005 -69 -70 0
1005 -69 70 0
1005 69 -70 0
-1006 1005 71 0
-1006 -1005 -71 0
1006 -1005 71 0
1006 1005 -71 0
-1007 75 76 0
-1007 -75 -76 0
1007 -75 76 0
1007 75 -76 0
-1008 1007 77 0
-1008 -1007 -77 0
1008 -1007 77 0
1008 1007 -77 0
-1009 81 82 0
-1009 -81 -82 0
1009 -81 82 0
1009 81 -82 0
-1010 1009 83 0
-1010 -1009 -83 0
1010 -1009 83 0
1010 1009 -83 0
-1011 1004 0
-1011 1010 0
1011 -1004 -1010 0
-1012 1006 0
-1012 1008 0
1012 -1006 -1008 0
-1013 1011 1012 0
-1013 -1011 -1012 0
1013 -1011 1012 0
1013 1011 -1012 0
-1014 1000 0
-1014 1010 0
1014 -1000 -1010 0
-1015 1002 0
-1015 1008 0
1015 -1002 -1008 0
-1016 1014 1015 0
-1016 -1014 -1015 0
1016 -1014 1015 0
1016 1014 -1015 0
-1017 1000 0
-1017 1006 0
1017 -1000 -1006 0
-1018 1002 0
-1018 1004 0
1018 -1002 -1004 0
-1019 1017 1018 0
-1019 -1017 -1018 0
1019 -1017 1018 0
1019 1017 -1018 0
-1020 996 0
-1020 1010 0
1020 -996 -1010 0
-1021 998 0
-1021 1006 0
1021 -998 -1006 0
-1022 1020 1021 0
-1022 -1020 -1021 0
1022 -1020 1021 0
1022 1020 -1021 0
-1023 996 0
-1023 1008 0
1023 -996 -1008 0
-1024 998 0
-1024 1004 0
1024 -998 -1004 0
-1025 1023 1024 0
-1025 -1023 -1024 0
1025 -1023 1024 0
1025 1023 -1024 0
-1026 1022 1025 0
-1026 -1022 -1025 0
1026 -1022 1025 0
1026 1022 -1025 0
-1026 0
-1027 1002 1000 0
-1027 -1002 -1000 0
1027 -1002 1000 0
1027 1002 -1000 0
-1028 1006 1004 0
-1028 -1006 -1004 0
1028 -1006 1004 0
1028 1006 -1004 0
-1029 1010 1008 0
-1029 -1010 -1008 0
1029 -1010 1008 0
1029 1010 -1008 0
996 996 998 998 1027 1028 1029 1025 1022 1019 1016 1013 0
-1030 31 33 0
-1030 -31 -33 0
1030 -31 33 0
1030 31 -33 0
-1031 1030 34 0
-1031 -1030 -34 0
1031 -1030 34 0
1031 1030 -34 0
-1032 1031 35 0
-1032 -1031 -35 0
1032 -1031 35 0
1032 1031 -35 0
-1033 37 39 0
-1033 -37 -39 0
1033 -37 39 0
1033 37 -39 0
-1034 1033 40 0
-1034 -1033 -40 0
1034 -1033 40 0
1034 1033 -40 0
-1035 1034 41 0
-1035 -1034 -41 0
1035 -1034 41 0
1035 1034 -41 0
-1036 43 45 0
-1036 -43 -45 0
1036 -43 45 0
1036 43 -45 0
-1037 1036 46 0
-1037 -1036 -46 0
1037 -1036 46 0
1037 1036 -46 0
-1038 1037 47 0
-1038 -1037 -47 0
1038 -1037 47 0
1038 1037 -47 0
-1039 49 51 0
-1039 -49 -51 0
1039 -49 51 0
1039 49 -51 0
-1040 1039 52 0
-1040 -1039 -52 0
1040 -1039 52 0
1040 1039 -52 0
-1041 1040 53 0
-1041 -1040 -53 0
1041 -1040 53 0
1041 1040 -53 0
-1042 61 63 0
-1042 -61 -63 0
1042 -61 63 0
1042 61 -63 0
-1043 1042 64 0
-1043 -1042 -64 0
1043 -1042 64 0
1043 1042 -64 0
-1044 1043 65 0
-1044 -1043 -65 0
1044 -1043 65 0
1044 1043 -65 0
-1045 67 69 0
-1045 -67 -69 0
1045 -67 69 0
1045 67 -69 0
-1046 1045 70 0
-1046 -1045 -70 0
1046 -1045 70 0
1046 1045 -70 0
-1047 1046 71 0
-1047 -1046 -71 0
1047 -1046 71 0
1047 1046 -71 0
-1048 73 75 0
-1048 -73 -75 0
1048 -73 75 0
1048 73 -75 0
-1049 1048 76 0
-1049 -1048 -76 0
1049 -1048 76 0
1049 1048 -76 0
-1050 1049 77 0
-1050 -1049 -77 0
1050 -1049 77 0
1050 1049 -77 0
-1051 79 81 0
-1051 -79 -81 0
1051 -79 81 0
1051 79 -81 0
-1052 1051 82 0
-1052 -1051 -82 0
1052 -1051 82 0
1052 1051 -82 0
-1053 1052 83 0
-1053 -1052 -83 0
1053 -1052 83 0
1053 1052 -83 0
-1054 1044 0
-1054 1053 0
1054 -1044 -1053 0
-1055 1047 0
-1055 1050 0
1055 -1047 -1050 0
-1056 1054 1055 0
-1056 -1054 -1055 0
1056 -1054 1055 0
1056 1054 -1055 0
-1057 1038 0
-1057 1053 0
1057 -1038 -1053 0
-1058 1041 0
-1058 1050 0
1058 -1041 -1050 0
-1059 1057 1058 0
-1059 -1057 -1058 0
1059 -1057 1058 0
1059 1057 -1058 0
-1060 1038 0
-1060 1047 0
1060 -1038 -1047 0
-1061 1041 0
-1061 1044 0
1061 -1041 -1044 0
-1062 1060 1061 0
-1062 -1060 -1061 0
1062 -1060 1061 0
1062 1060 -1061 0
-1063 1032 0
-1063 1053 0
1063 -1032 -1053 0
-1064 1035 0
-1064 1047 0
1064 -1035 -1047 0
-1065 1063 1064 0
-1065 -1063 -1064 0
1065 -1063 1064 0
1065 1063 -1064 0
-1066 1032 0
-1066 1050 0
1066 -1032 -1050 0
-1067 1035 0
-1067 1044 0
1067 -1035 -1044 0
-1068 1066 1067 0
-1068 -1066 -1067 0
1068 -1066 1067 0
1068 1066 -1067 0
-1069 1059 1065 0
-1069 -1059 -1065 0
1069 -1059 1065 0
1069 1059 -1065 0
-1070 1069 1068 0
-1070 -1069 -1068 0
1070 -1069 1068 0
1070 1069 -1068 0
-1070 0
-1071 1038 1032 0
-1071 -1038 -1032 0
1071 -1038 1032 0
1071 1038 -1032 0
-1072 1041 1032 0
-1072 -1041 -1032 0
1072 -1041 1032 0
1072 1041 -1032 0
-1073 1041 1038 0
-1073 -1041 -1038 0
1073 -1041 1038 0
1073 1041 -1038 0
-1074 1047 1044 0
-1074 -1047 -1044 0
1074 -1047 1044 0
1074 1047 -1044 0
-1075 1053 1050 0
-1075 -1053 -1050 0
1075 -1053 1050 0
1075 1053 -1050 0
1035 1071 1072 1035 1035 1073 1050 1053 1074 1075 1068 1065 1062 1059 1056 0
-1076 32 33 0
-1076 -32 -33 0
1076 -32 33 0
1076 32 -33 0
-1077 1076 34 0
-1077 -1076 -34 0
1077 -1076 34 0
1077 1076 -34 0
-1078 1077 35 0
-1078 -1077 -35 0
1078 -1077 35 0
1078 1077 -35 0
-1079 38 39 0
-1079 -38 -39 0
1079 -38 39 0
1079 38 -39 0
-1080 1079 40 0
-1080 -1079 -40 0
1080 -1079 40 0
1080 1079 -40 0
-1081 1080 41 0
-1081 -1080 -41 0
1081 -1080 41 0
1081 1080 -41 0
-1082 44 45 0
-1082 -44 -45 0
1082 -44 45 0
1082 44 -45 0
-1083 1082 46 0
-1083 -1082 -46 0
1083 -1082 46 0
1083 1082 -46 0
-1084 1083 47 0
-1084 -1083 -47 0
1084 -1083 47 0
1084 1083 -47 0
-1085 50 51 0
-1085 -50 -51 0
1085 -50 51 0
1085 50 -51 0
-1086 1085 52 0
-1086 -1085 -52 0
1086 -1085 52 0
1086 1085 -52 0
-1087 1086 53 0
-1087 -1086 -53 0
1087 -1086 53 0
1087 1086 -53 0
-1088 62 63 0
-1088 -62 -63 0
1088 -62 63 0
1088 62 -63 0
-1089 1088 64 0
-1089 -1088 -64 0
1089 -1088 64 0
1089 1088 -64 0
-1090 1089 65 0
-1090 -1089 -65 0
1090 -1089 65 0
1090 1089 -65 0
-1091 68 69 0
-1091 -68 -69 0
1091 -68 69 0
1091 68 -69 0
-1092 1091 70 0
-1092 -1091 -70 0
1092 -1091 70 0
1092 1091 -70 0
-1093 1092 71 0
-1093 -1092 -71 0
1093 -1092 71 0
1093 1092 -71 0
-1094 74 75 0
-1094 -74 -75 0
1094 -74 75 0
1094 74 -75 0
-1095 1094 76 0
-1095 -1094 -76 0
1095 -1094 76 0
1095 1094 -76 0
-1096 1095 77 0
-1096 -1095 -77 0
1096 -1095 77 0
1096 1095 -77 0
-1097 80 81 0
-1097 -80 -81 0
1097 -80 81 0
1097 80 -81 0
-1098 1097 82 0
-1098 -1097 -82 0
1098 -1097 82 0
1098 1097 -82 0
-1099 1098 83 0
-1099 -1098 -83 0
1099 -1098 83 0
1099 1098 -83 0
-1100 1090 0
-1100 1099 0
1100 -1090 -1099 0
-1101 1093 0
-1101 1096 0
1101 -1093 -1096 0
-1102 1100 1101 0
-1102 -1100 -1101 0
1102 -1100 1101 0
1102 1100 -1101 0
-1103 1084 0
-1103 1099 0
1103 -1084 -1099 0
-1104 1087 0
-1104 1096 0
1104 -1087 -1096 0
-1105 1103 1104 0
-1105 -1103 -1104 0
1105 -1103 1104 0
1105 1103 -1104 0
-1106 1084 0
-1106 1093 0
1106 -1084 -1093 0
-1107 1087 0
-1107 1090 0
1107 -1087 -1090 0
-1108 1106 1107 0
-1108 -1106 -1107 0
1108 -1106 1107 0
1108 1106 -1107 0
-1109 1078 0
-1109 1099 0
1109 -1078 -1099 0
-1110 1081 0
-1110 1093 0
1110 -1081 -1093 0
-1111 1109 1110 0
-1111 -1109 -1110 0
1111 -1109 1110 0
1111 1109 -1110 0
-1112 1078 0
-1112 1096 0
1112 -1078 -1096 0
-1113 1081 0
-1113 1090 0
1113 -1081 -1090 0
-1114 1112 1113 0
-1114 -1112 -1113 0
1114 -1112 1113 0
1114 1112 -1113 0
-1115 1108 1111 0
-1115 -1108 -1111 0
1115 -1108 1111 0
1115 1108 -1111 0
-1116 1115 1114 0
-1116 -1115 -1114 0
1116 -1115 1114 0
1116 1115 -1114 0
-1116 0
-1117 1084 1081 0
-1117 -1084 -1081 0
1117 -1084 1081 0
1117 1084 -1081 0
-1118 1087 1081 0
-1118 -1087 -1081 0
1118 -1087 1081 0
1118 1087 -1081 0
-1119 1087 1084 0
-1119 -1087 -1084 0
1119 -1087 1084 0
1119 1087 -1084 0
-1120 1093 1090 0
-1120 -1093 -1090 0
1120 -1093 1090 0
1120 1093 -1090 0
-1121 1099 1096 0
-1121 -1099 -1096 0
1121 -1099 1096 0
1121 1099 -1096 0
1078 1078 1078 1117 1118 1119 1090 1093 1120 1121 1114 1111 1108 1105 1102 0
-1122 31 32 0
-1122 -31 -32 0
1122 -31 32 0
1122 31 -32 0
-1123 1122 33 0
-1123 -1122 -33 0
1123 -1122 33 0
1123 1122 -33 0
-1124 1123 34 0
-1124 -1123 -34 0
1124 -1123 34 0
1124 1123 -34 0
-1125 1124 35 0
-1125 -1124 -35 0
1125 -1124 35 0
1125 1124 -35 0
-1126 37 38 0
-1126 -37 -38 0
1126 -37 38 0
1126 37 -38 0
-1127 1126 39 0
-1127 -1126 -39 0
1127 -1126 39 0
1127 1126 -39 0
-1128 1127 40 0
-1128 -1127 -40 0
1128 -1127 40 0
1128 1127 -40 0
-1129 1128 41 0
-1129 -1128 -41 0
1129 -1128 41 0
1129 1128 -41 0
-1130 43 44 0
-1130 -43 -44 0
1130 -43 44 0
1130 43 -44 0
-1131 1130 45 0
-1131 -1130 -45 0
1131 -1130 45 0
1131 1130 -45 0
-1132 1131 46 0
-1132 -1131 -46 0
1132 -1131 46 0
1132 1131 -46 0
-1133 1132 47 0
-1133 -1132 -47 0
1133 -1132 47 0
1133 1132 -47 0
-1134 49 50 0
-1134 -49 -50 0
1134 -49 50 0
1134 49 -50 0
-1135 1134 51 0
-1135 -1134 -51 0
1135 -1134 51 0
1135 1134 -51 0
-1136 1135 52 0
-1136 -1135 -52 0
1136 -1135 52 0
1136 1135 -52 0
-1137 1136 53 0
-1137 -1136 -53 0
1137 -1136 53 0
1137 1136 -53 0
-1138 61 62 0
-1138 -61 -62 0
1138 -61 62 0
1138 61 -62 0
-1139 1138 63 0
-1139 -1138 -63 0
1139 -1138 63 0
1139 1138 -63 0
-1140 1139 64 0
-1140 -1139 -64 0
1140 -1139 64 0
1140 1139 -64 0
-1141 1140 65 0
-1141 -1140 -65 0
1141 -1140 65 0
1141 1140 -65 0
-1142 67 68 0
-1142 -67 -68 0
1142 -67 68 0
1142 67 -68 0
-1143 1142 69 0
-1143 -1142 -69 0
1143 -1142 69 0
1143 1142 -69 0
-1144 1143 70 0
-1144 -1143 -70 0
1144 -1143 70 0
1144 1143 -70 0
-1145 1144 71 0
-1145 -1144 -71 0
1145 -1144 71 0
1145 1144 -71 0
-1146 73 74 0
-1146 -73 -74 0
1146 -73 74 0
1146 73 -74 0
-1147 1146 75 0
-1147 -1146 -75 0
1147 -1146 75 0
1147 1146 -75 0
-1148 1147 76 0
-1148 -1147 -76 0
1148 -1147 76 0
1148 1147 -76 0
-1149 1148 77 0
-1149 -1148 -77 0
1149 -1148 77 0
1149 1148 -77 0
-1150 79 80 0
-1150 -79 -80 0
1150 -79 80 0
1150 79 -80 0
-1151 1150 81 0
-1151 -1150 -81 0
1151 -1150 81 0
1151 1150 -81 0
-1152 1151 82 0
-1152 -1151 -82 0
1152 -1151 82 0
1152 1151 -82 0
-1153 1152 83 0
-1153 -1152 -83 0
1153 -1152 83 0
1153 1152 -83 0
-1154 1141 0
-1154 1153 0
1154 -1141 -1153 0
-1155 1145 0
-1155 1149 0
1155 -1145 -1149 0
-1156 1154 1155 0
-1156 -1154 -1155 0
1156 -1154 1155 0
1156 1154 -1155 0
-1157 1133 0
-1157 1153 0
1157 -1133 -1153 0
-1158 1137 0
-1158 1149 0
1158 -1137 -1149 0
-1159 1157 1158 0
-1159 -1157 -1158 0
1159 -1157 1158 0
1159 1157 -1158 0
-1160 1133 0
-1160 1145 0
1160 -1133 -1145 0
-1161 1137 0
-1161 1141 0
1161 -1137 -1141 0
-1162 1160 1161 0
-1162 -1160 -1161 0
1162 -1160 1161 0
1162 1160 -1161 0
-1163 1125 0
-1163 1153 0
1163 -1125 -1153 0
-1164 1129 0
-1164 1145 0
1164 -1129 -1145 0
-1165 1163 1164 0
-1165 -1163 -1164 0
1165 -1163 1164 0
1165 1163 -1164 0
-1166 1125 0
-1166 1149 0
1166 -1125 -1149 0
-1167 1129 0
-1167 1141 0
1167 -1129 -1141 0
-1168 1166 1167 0
-1168 -1166 -1167 0
1168 -1166 1167 0
1168 1166 -1167 0
-1169 1159 1162 0
-1169 -1159 -1162 0
1169 -1159 1162 0
1169 1159 -1162 0
-1170 1169 1165 0
-1170 -1169 -1165 0
1170 -1169 1165 0
1170 1169 -1165 0
-1171 1170 1168 0
-1171 -1170 -1168 0
1171 -1170 1168 0
1171 1170 -1168 0
-1171 0
-1172 1129 1125 0
-1172 -1129 -1125 0
1172 -1129 1125 0
1172 1129 -1125 0
-1173 1133 1125 0
-1173 -1133 -1125 0
1173 -1133 1125 0
1173 1133 -1125 0
-1174 1137 1125 0
-1174 -1137 -1125 0
1174 -1137 1125 0
1174 1137 -1125 0
-1175 1133 1129 0
-1175 -1133 -1129 0
1175 -1133 1129 0
1175 1133 -1129 0
-1176 1137 1129 0
-1176 -1137 -1129 0
1176 -1137 1129 0
1176 1137 -1129 0
-1177 1137 1133 0
-1177 -1137 -1133 0
1177 -1137 1133 0
1177 1137 -1133 0
-1178 1149 1141 0
-1178 -1149 -1141 0
1178 -1149 1141 0
1178 1149 -1141 0
-1179 1153 1145 0
-1179 -1153 -1145 0
1179 -1153 1145 0
1179 1153 -1145 0
-1180 1145 1141 0
-1180 -1145 -1141 0
1180 -1145 1141 0
1180 1145 -1141 0
-1181 1153 1149 0
-1181 -1153 -1149 0
1181 -1153 1149 0
1181 1153 -1149 0
1172 1173 1174 1175 1176 1177 1178 1179 1180 1181 1168 1165 1162 1159 1156 0
-1182 66 0
-1182 84 0
1182 -66 -84 0
-1183 72 0
-1183 78 0
1183 -72 -78 0
-1184 1182 1183 0
-1184 -1182 -1183 0
1184 -1182 1183 0
1184 1182 -1183 0
-1185 48 0
-1185 84 0
1185 -48 -84 0
-1186 54 0
-1186 78 0
1186 -54 -78 0
-1187 1185 1186 0
-1187 -1185 -1186 0
1187 -1185 1186 0
1187 1185 -1186 0
-1188 48 0
-1188 72 0
1188 -48 -72 0
-1189 54 0
-1189 66 0
1189 -54 -66 0
-1190 1188 1189 0
-1190 -1188 -1189 0
1190 -1188 1189 0
1190 1188 -1189 0
-1191 36 0
-1191 84 0
1191 -36 -84 0
-1192 42 0
-1192 72 0
1192 -42 -72 0
-1193 1191 1192 0
-1193 -1191 -1192 0
1193 -1191 1192 0
1193 1191 -1192 0
-1194 36 0
-1194 78 0
1194 -36 -78 0
-1195 42 0
-1195 66 0
1195 -42 -66 0
-1196 1194 1195 0
-1196 -1194 -1195 0
1196 -1194 1195 0
1196 1194 -1195 0
1196 1193 1190 1187 1184 0
-1197 31 36 0
-1197 -31 -36 0
1197 -31 36 0
1197 31 -36 0
-1198 37 42 0
-1198 -37 -42 0
1198 -37 42 0
1198 37 -42 0
-1199 43 48 0
-1199 -43 -48 0
1199 -43 48 0
1199 43 -48 0
-1200 49 54 0
-1200 -49 -54 0
1200 -49 54 0
1200 49 -54 0
-1201 61 66 0
-1201 -61 -66 0
1201 -61 66 0
1201 61 -66 0
-1202 67 72 0
-1202 -67 -72 0
1202 -67 72 0
1202 67 -72 0
-1203 73 78 0
-1203 -73 -78 0
1203 -73 78 0
1203 73 -78 0
-1204 79 84 0
-1204 -79 -84 0
1204 -79 84 0
1204 79 -84 0
-1205 1201 0
-1205 1204 0
1205 -1201 -1204 0
-1206 1202 0
-1206 1203 0
1206 -1202 -1203 0
-1207 1205 1206 0
-1207 -1205 -1206 0
1207 -1205 1206 0
1207 1205 -1206 0
-1208 1199 0
-1208 1204 0
1208 -1199 -1204 0
-1209 1200 0
-1209 1203 0
1209 -1200 -1203 0
-1210 1208 1209 0
-1210 -1208 -1209 0
1210 -1208 1209 0
1210 1208 -1209 0
-1211 1199 0
-1211 1202 0
1211 -1199 -1202 0
-1212 1200 0
-1212 1201 0
1212 -1200 -1201 0
-1213 1211 1212 0
-1213 -1211 -1212 0
1213 -1211 1212 0
1213 1211 -1212 0
-1214 1197 0
-1214 1204 0
1214 -1197 -1204 0
-1215 1198 0
-1215 1202 0
1215 -1198 -1202 0
-1216 1214 1215 0
-1216 -1214 -1215 0
1216 -1214 1215 0
1216 1214 -1215 0
-1217 1197 0
-1217 1203 0
1217 -1197 -1203 0
-1218 1198 0
-1218 1201 0
1218 -1198 -1201 0
-1219 1217 1218 0
-1219 -1217 -1218 0
1219 -1217 1218 0
1219 1217 -1218 0
-1210 0
1198 1199 1200 1203 1204 1219 1216 1213 1210 1207 0
-1220 32 36 0
-1220 -32 -36 0
1220 -32 36 0
1220 32 -36 0
-1221 38 42 0
-1221 -38 -42 0
1221 -38 42 0
1221 38 -42 0
-1222 44 48 0
-1222 -44 -48 0
1222 -44 48 0
1222 44 -48 0
-1223 50 54 0
-1223 -50 -54 0
1223 -50 54 0
1223 50 -54 0
-1224 62 66 0
-1224 -62 -66 0
1224 -62 66 0
1224 62 -66 0
-1225 68 72 0
-1225 -68 -72 0
1225 -68 72 0
1225 68 -72 0
-1226 74 78 0
-1226 -74 -78 0
1226 -74 78 0
1226 74 -78 0
-1227 80 84 0
-1227 -80 -84 0
1227 -80 84 0
1227 80 -84 0
-1228 1224 0
-1228 1227 0
1228 -1224 -1227 0
-1229 1225 0
-1229 1226 0
1229 -1225 -1226 0
-1230 1228 1229 0
-1230 -1228 -1229 0
1230 -1228 1229 0
1230 1228 -1229 0
-1231 1222 0
-1231 1227 0
1231 -1222 -1227 0
-1232 1223 0
-1232 1226 0
1232 -1223 -1226 0
-1233 1231 1232 0
-1233 -1231 -1232 0
1233 -1231 1232 0
1233 1231 -1232 0
-1234 1222 0
-1234 1225 0
1234 -1222 -1225 0
-1235 1223 0
-1235 1224 0
1235 -1223 -1224 0
-1236 1234 1235 0
-1236 -1234 -1235 0
1236 -1234 1235 0
1236 1234 -1235 0
-1237 1220 0
-1237 1227 0
1237 -1220 -1227 0
-1238 1221 0
-1238 1225 0
1238 -1221 -1225 0
-1239 1237 1238 0
-1239 -1237 -1238 0
1239 -1237 1238 0
1239 1237 -1238 0
-1240 1220 0
-1240 1226 0
1240 -1220 -1226 0
-1241 1221 0
-1241 1224 0
1241 -1221 -1224 0
-1242 1240 1241 0
-1242 -1240 -1241 0
1242 -1240 1241 0
1242 1240 -1241 0
-1236 0
1220 1222 1223 1224 1225 1242 1239 1236 1233 1230 0
-1243 31 32 0
-1243 -31 -32 0
1243 -31 32 0
1243 31 -32 0
-1244 1243 36 0
-1244 -1243 -36 0
1244 -1243 36 0
1244 1243 -36 0
-1245 37 38 0
-1245 -37 -38 0
1245 -37 38 0
1245 37 -38 0
-1246 1245 42 0
-1246 -1245 -42 0
1246 -1245 42 0
1246 1245 -42 0
-1247 43 44 0
-1247 -43 -44 0
1247 -43 44 0
1247 43 -44 0
-1248 1247 48 0
-1248 -1247 -48 0
1248 -1247 48 0
1248 1247 -48 0
-1249 49 50 0
-1249 -49 -50 0
1249 -49 50 0
1249 49 -50 0
-1250 1249 54 0
-1250 -1249 -54 0
1250 -1249 54 0
1250 1249 -54 0
-1251 61 62 0
-1251 -61 -62 0
1251 -61 62 0
1251 61 -62 0
-1252 1251 66 0
-1252 -1251 -66 0
1252 -1251 66 0
1252 1251 -66 0
-1253 67 68 0
-1253 -67 -68 0
1253 -67 68 0
1253 67 -68 0
-1254 1253 72 0
-1254 -1253 -72 0
1254 -1253 72 0
1254 1253 -72 0
-1255 73 74 0
-1255 -73 -74 0
1255 -73 74 0
1255 73 -74 0
-1256 1255 78 0
-1256 -1255 -78 0
1256 -1255 78 0
1256 1255 -78 0
-1257 79 80 0
-1257 -79 -80 0
1257 -79 80 0
1257 79 -80 0
-1258 1257 84 0
-1258 -1257 -84 0
1258 -1257 84 0
1258 1257 -84 0
-1259 1252 0
-1259 1258 0
1259 -1252 -1258 0
-1260 1254 0
-1260 1256 0
1260 -1254 -1256 0
-1261 1259 1260 0
-1261 -1259 -1260 0
1261 -1259 1260 0
1261 1259 -1260 0
-1262 1248 0
-1262 1258 0
1262 -1248 -1258 0
-1263 1250 0
-1263 1256 0
1263 -1250 -1256 0
-1264 1262 1263 0
-1264 -1262 -1263 0
1264 -1262 1263 0
1264 1262 -1263 0
-1265 1248 0
-1265 1254 0
1265 -1248 -1254 0
-1266 1250 0
-1266 1252 0
1266 -1250 -1252 0
-1267 1265 1266 0
-1267 -1265 -1266 0
1267 -1265 1266 0
1267 1265 -1266 0
-1268 1244 0
-1268 1258 0
1268 -1244 -1258 0
-1269 1246 0
-1269 1254 0
1269 -1246 -1254 0
-1270 1268 1269 0
-1270 -1268 -1269 0
1270 -1268 1269 0
1270 1268 -1269 0
-1271 1244 0
-1271 1256 0
1271 -1244 -1256 0
-1272 1246 0
-1272 1252 0
1272 -1246 -1252 0
-1273 1271 1272 0
-1273 -1271 -1272 0
1273 -1271 1272 0
1273 1271 -1272 0
-1274 1264 1267 0
-1274 -1264 -1267 0
1274 -1264 1267 0
1274 1264 -1267 0
-1274 0
-1275 1246 1244 0
-1275 -1246 -1244 0
1275 -1246 1244 0
1275 1246 -1244 0
-1276 1256 1252 0
-1276 -1256 -1252 0
1276 -1256 1252 0
1276 1256 -1252 0
-1277 1258 1254 0
-1277 -1258 -1254 0
1277 -1258 1254 0
1277 1258 -1254 0
1275 1248 1250 1248 1250 1276 1277 1273 1270 1267 1264 1261 0
-1278 33 36 0
-1278 -33 -36 0
1278 -33 36 0
1278 33 -36 0
-1279 39 42 0
-1279 -39 -42 0
1279 -39 42 0
1279 39 -42 0
-1280 45 48 0
-1280 -45 -48 0
1280 -45 48 0
1280 45 -48 0
-1281 51 54 0
-1281 -51 -54 0
1281 -51 54 0
1281 51 -54 0
-1282 63 66 0
-1282 -63 -66 0
1282 -63 66 0
1282 63 -66 0
-1283 69 72 0
-1283 -69 -72 0
1283 -69 72 0
1283 69 -72 0
-1284 75 78 0
-1284 -75 -78 0
1284 -75 78 0
1284 75 -78 0
-1285 81 84 0
-1285 -81 -84 0
1285 -81 84 0
1285 81 -84 0
-1286 1282 0
-1286 1285 0
1286 -1282 -1285 0
-1287 1283 0
-1287 1284 0
1287 -1283 -1284 0
-1288 1286 1287 0
-1288 -1286 -1287 0
1288 -1286 1287 0
1288 1286 -1287 0
-1289 1280 0
-1289 1285 0
1289 -1280 -1285 0
-1290 1281 0
-1290 1284 0
1290 -1281 -1284 0
-1291 1289 1290 0
-1291 -1289 -1290 0
1291 -1289 1290 0
1291 1289 -1290 0
-1292 1280 0
-1292 1283 0
1292 -1280 -1283 0
-1293 1281 0
-1293 1282 0
1293 -1281 -1282 0
-1294 1292 1293 0
-1294 -1292 -1293 0
1294 -1292 1293 0
1294 1292 -1293 0
-1295 1278 0
-1295 1285 0
1295 -1278 -1285 0
-1296 1279 0
-1296 1283 0
1296 -1279 -1283 0
-1297 1295 1296 0
-1297 -1295 -1296 0
1297 -1295 1296 0
1297 1295 -1296 0
-1298 1278 0
-1298 1284 0
1298 -1278 -1284 0
-1299 1279 0
-1299 1282 0
1299 -1279 -1282 0
-1300 1298 1299 0
-1300 -1298 -1299 0
1300 -1298 1299 0
1300 1298 -1299 0
-1297 0
1278 1279 1281 1283 1285 1300 1297 1294 1291 1288 0
-1301 31 33 0
-1301 -31 -33 0
1301 -31 33 0
1301 31 -33 0
-1302 1301 36 0
-1302 -1301 -36 0
1302 -1301 36 0
1302 1301 -36 0
-1303 37 39 0
-1303 -37 -39 0
1303 -37 39 0
1303 37 -39 0
-1304 1303 42 0
-1304 -1303 -42 0
1304 -1303 42 0
1304 1303 -42 0
-1305 43 45 0
-1305 -43 -45 0
1305 -43 45 0
1305 43 -45 0
-1306 1305 48 0
-1306 -1305 -48 0
1306 -1305 48 0
1306 1305 -48 0
-1307 49 51 0
-1307 -49 -51 0
1307 -49 51 0
1307 49 -51 0
-1308 1307 54 0
-1308 -1307 -54 0
1308 -1307 54 0
1308 1307 -54 0
-1309 61 63 0
-1309 -61 -63 0
1309 -61 63 0
1309 61 -63 0
-1310 1309 66 0
-1310 -1309 -66 0
1310 -1309 66 0
1310 1309 -66 0
-1311 67 69 0
-1311 -67 -69 0
1311 -67 69 0
1311 67 -69 0
-1312 1311 72 0
-1312 -1311 -72 0
1312 -1311 72 0
1312 1311 -72 0
-1313 73 75 0
-1313 -73 -75 0
1313 -73 75 0
1313 73 -75 0
-1314 1313 78 0
-1314 -1313 -78 0
1314 -1313 78 0
1314 1313 -78 0
-1315 79 81 0
-1315 -79 -81 0
1315 -79 81 0
1315 79 -81 0
-1316 1315 84 0
-1316 -1315 -84 0
1316 -1315 84 0
1316 1315 -84 0
-1317 1310 0
-1317 1316 0
1317 -1310 -1316 0
-1318 1312 0
-1318 1314 0
1318 -1312 -1314 0
-1319 1317 1318 0
-1319 -1317 -1318 0
1319 -1317 1318 0
1319 1317 -1318 0
-1320 1306 0
-1320 1316 0
1320 -1306 -1316 0
-1321 1308 0
-1321 1314 0
1321 -1308 -1314 0
-1322 1320 1321 0
-1322 -1320 -1321 0
1322 -1320 1321 0
1322 1320 -1321 0
-1323 1306 0
-1323 1312 0
1323 -1306 -1312 0
-1324 1308 0
-1324 1310 0
1324 -1308 -1310 0
-1325 1323 1324 0
-1325 -1323 -1324 0
1325 -1323 1324 0
1325 1323 -1324 0
-1326 1302 0
-1326 1316 0
1326 -1302 -1316 0
-1327 1304 0
-1327 1312 0
1327 -1304 -1312 0
-1328 1326 1327 0
-1328 -1326 -1327 0
1328 -1326 1327 0
1328 1326 -1327 0
-1329 1302 0
-1329 1314 0
1329 -1302 -1314 0
-1330 1304 0
-1330 1310 0
1330 -1304 -1310 0
-1331 1329 1330 0
-1331 -1329 -1330 0
1331 -1329 1330 0
1331 1329 -1330 0
-1332 1322 1328 0
-1332 -1322 -1328 0
1332 -1322 1328 0
1332 1322 -1328 0
-1332 0
-1333 1306 1302 0
-1333 -1306 -1302 0
1333 -1306 1302 0
1333 1306 -1302 0
1304 1333 1308 1304 1308 1314 1316 1312 1316 1331 1328 1325 1322 1319 0
-1334 32 33 0
-1334 -32 -33 0
1334 -32 33 0
1334 32 -33 0
-1335 1334 36 0
-1335 -1334 -36 0
1335 -1334 36 0
1335 1334 -36 0
-1336 38 39 0
-1336 -38 -39 0
1336 -38 39 0
1336 38 -39 0
-1337 1336 42 0
-1337 -1336 -42 0
1337 -1336 42 0
1337 1336 -42 0
-1338 44 45 0
-1338 -44 -45 0
1338 -44 45 0
1338 44 -45 0
-1339 1338 48 0
-1339 -1338 -48 0
1339 -1338 48 0
1339 1338 -48 0
-1340 50 51 0
-1340 -50 -51 0
1340 -50 51 0
1340 50 -51 0
-1341 1340 54 0
-1341 -1340 -54 0
1341 -1340 54 0
1341 1340 -54 0
-1342 62 63 0
-1342 -62 -63 0
1342 -62 63 0
1342 62 -63 0
-1343 1342 66 0
-1343 -1342 -66 0
1343 -1342 66 0
1343 1342 -66 0
-1344 68 69 0
-1344 -68 -69 0
1344 -68 69 0
1344 68 -69 0
-1345 1344 72 0
-1345 -1344 -72 0
1345 -1344 72 0
1345 1344 -72 0
-1346 74 75 0
-1346 -74 -75 0
1346 -74 75 0
1346 74 -75 0
-1347 1346 78 0
-1347 -1346 -78 0
1347 -1346 78 0
1347 1346 -78 0
-1348 80 81 0
-1348 -80 -81 0
1348 -80 81 0
1348 80 -81 0
-1349 1348 84 0
-1349 -1348 -84 0
1349 -1348 84 0
1349 1348 -84 0
-1350 1343 0
-1350 1349 0
1350 -1343 -1349 0
-1351 1345 0
-1351 1347 0
1351 -1345 -1347 0
-1352 1350 1351 0
-1352 -1350 -1351 0
1352 -1350 1351 0
1352 1350 -1351 0
-1353 1339 0
-1353 1349 0
1353 -1339 -1349 0
-1354 1341 0
-1354 1347 0
1354 -1341 -1347 0
-1355 1353 1354 0
-1355 -1353 -1354 0
1355 -1353 1354 0
1355 1353 -1354 0
-1356 1339 0
-1356 1345 0
1356 -1339 -1345 0
-1357 1341 0
-1357 1343 0
1357 -1341 -1343 0
-1358 1356 1357 0
-1358 -1356 -1357 0
1358 -1356 1357 0
1358 1356 -1357 0
-1359 1335 0
-1359 1349 0
1359 -1335 -1349 0
-1360 1337 0
-1360 1345 0
1360 -1337 -1345 0
-1361 1359 1360 0
-1361 -1359 -1360 0
1361 -1359 1360 0
1361 1359 -1360 0
-1362 1335 0
-1362 1347 0
1362 -1335 -1347 0
-1363 1337 0
-1363 1343 0
1363 -1337 -1343 0
-1364 1362 1363 0
-1364 -1362 -1363 0
1364 -1362 1363 0
1364 1362 -1363 0
-1365 1358 1361 0
-1365 -1358 -1361 0
1365 -1358 1361 0
1365 1358 -1361 0
-1365 0
-1366 1339 1337 0
-1366 -1339 -1337 0
1366 -1339 1337 0
1366 1339 -1337 0
1335 1335 1366 1341 1341 1343 1345 1345 1349 1364 1361 1358 1355 1352 0
-1367 31 32 0
-1367 -31 -32 0
1367 -31 32 0
1367 31 -32 0
-1368 1367 33 0
-1368 -1367 -33 0
1368 -1367 33 0
1368 1367 -33 0
-1369 1368 36 0
-1369 -1368 -36 0
1369 -1368 36 0
1369 1368 -36 0
-1370 37 38 0
-1370 -37 -38 0
1370 -37 38 0
1370 37 -38 0
-1371 1370 39 0
-1371 -1370 -39 0
1371 -1370 39 0
1371 1370 -39 0
-1372 1371 42 0
-1372 -1371 -42 0
1372 -1371 42 0
1372 1371 -42 0
-1373 43 44 0
-1373 -43 -44 0
1373 -43 44 0
1373 43 -44 0
-1374 1373 45 0
-1374 -1373 -45 0
1374 -1373 45 0
1374 1373 -45 0
-1375 1374 48 0
-1375 -1374 -48 0
1375 -1374 48 0
1375 1374 -48 0
-1376 49 50 0
-1376 -49 -50 0
1376 -49 50 0
1376 49 -50 0
-1377 1376 51 0
-1377 -1376 -51 0
1377 -1376 51 0
1377 1376 -51 0
-1378 1377 54 0
-1378 -1377 -54 0
1378 -1377 54 0
1378 1377 -54 0
-1379 61 62 0
-1379 -61 -62 0
1379 -61 62 0
1379 61 -62 0
-1380 1379 63 0
-1380 -1379 -63 0
1380 -1379 63 0
1380 1379 -63 0
-1381 1380 66 0
-1381 -1380 -66 0
1381 -1380 66 0
1381 1380 -66 0
-1382 67 68 0
-1382 -67 -68 0
1382 -67 68 0
1382 67 -68 0
-1383 1382 69 0
-1383 -1382 -69 0
1383 -1382 69 0
1383 1382 -69 0
-1384 1383 72 0
-1384 -1383 -72 0
1384 -1383 72 0
1384 1383 -72 0
-1385 73 74 0
-1385 -73 -74 0
1385 -73 74 0
1385 73 -74 0
-1386 1385 75 0
-1386 -1385 -75 0
1386 -1385 75 0
1386 1385 -75 0
-1387 1386 78 0
-1387 -1386 -78 0
1387 -1386 78 0
1387 1386 -78 0
-1388 79 80 0
-1388 -79 -80 0
1388 -79 80 0
1388 79 -80 0
-1389 1388 81 0
-1389 -1388 -81 0
1389 -1388 81 0
1389 1388 -81 0
-1390 1389 84 0
-1390 -1389 -84 0
1390 -1389 84 0
1390 1389 -84 0
-1391 1381 0
-1391 1390 0
1391 -1381 -1390 0
-1392 1384 0
-1392 1387 0
1392 -1384 -1387 0
-1393 1391 1392 0
-1393 -1391 -1392 0
1393 -1391 1392 0
1393 1391 -1392 0
-1394 1375 0
-1394 1390 0
1394 -1375 -1390 0
-1395 1378 0
-1395 1387 0
1395 -1378 -1387 0
-1396 1394 1395 0
-1396 -1394 -1395 0
1396 -1394 1395 0
1396 1394 -1395 0
-1397 1375 0
-1397 1384 0
1397 -1375 -1384 0
-1398 1378 0
-1398 1381 0
1398 -1378 -1381 0
-1399 1397 1398 0
-1399 -1397 -1398 0
1399 -1397 1398 0
1399 1397 -1398 0
-1400 1369 0
-1400 1390 0
1400 -1369 -1390 0
-1401 1372 0
-1401 1384 0
1401 -1372 -1384 0
-1402 1400 1401 0
-1402 -1400 -1401 0
1402 -1400 1401 0
1402 1400 -1401 0
-1403 1369 0
-1403 1387 0
1403 -1369 -1387 0
-1404 1372 0
-1404 1381 0
1404 -1372 -1381 0
-1405 1403 1404 0
-1405 -1403 -1404 0
1405 -1403 1404 0
1405 1403 -1404 0
-1406 1396 1399 0
-1406 -1396 -1399 0
1406 -1396 1399 0
1406 1396 -1399 0
-1407 1406 1402 0
-1407 -1406 -1402 0
1407 -1406 1402 0
1407 1406 -1402 0
-1407 0
-1408 1372 1369 0
-1408 -1372 -1369 0
1408 -1372 1369 0
1408 1372 -1369 0
-1409 1375 1369 0
-1409 -1375 -1369 0
1409 -1375 1369 0
1409 1375 -1369 0
-1410 1375 1372 0
-1410 -1375 -1372 0
1410 -1375 1372 0
1410 1375 -1372 0
-1411 1387 1381 0
-1411 -1387 -1381 0
1411 -1387 1381 0
1411 1387 -1381 0
-1412 1390 1384 0
-1412 -1390 -1384 0
1412 -1390 1384 0
1412 1390 -1384 0
1408 1409 1378 1410 1378 1378 1411 1412 1384 1390 1405 1402 1399 1396 1393 0
-1413 34 36 0
-1413 -34 -36 0
1413 -34 36 0
1413 34 -36 0
-1414 40 42 0
-1414 -40 -42 0
1414 -40 42 0
1414 40 -42 0
-1415 46 48 0
-1415 -46 -48 0
1415 -46 48 0
1415 46 -48 0
-1416 52 54 0
-1416 -52 -54 0
1416 -52 54 0
1416 52 -54 0
-1417 64 66 0
-1417 -64 -66 0
1417 -64 66 0
1417 64 -66 0
-1418 70 72 0
-1418 -70 -72 0
1418 -70 72 0
1418 70 -72 0
-1419 76 78 0
-1419 -76 -78 0
1419 -76 78 0
1419 76 -78 0
-1420 82 84 0
-1420 -82 -84 0
1420 -82 84 0
1420 82 -84 0
-1421 1417 0
-1421 1420 0
1421 -1417 -1420 0
-1422 1418 0
-1422 1419 0
1422 -1418 -1419 0
-1423 1421 1422 0
-1423 -1421 -1422 0
1423 -1421 1422 0
1423 1421 -1422 0
-1424 1415 0
-1424 1420 0
1424 -1415 -1420 0
-1425 1416 0
-1425 1419 0
1425 -1416 -1419 0
-1426 1424 1425 0
-1426 -1424 -1425 0
1426 -1424 1425 0
1426 1424 -1425 0
-1427 1415 0
-1427 1418 0
1427 -1415 -1418 0
-1428 1416 0
-1428 1417 0
1428 -1416 -1417 0
-1429 1427 1428 0
-1429 -1427 -1428 0
1429 -1427 1428 0
1429 1427 -1428 0
-1430 1413 0
-1430 1420 0
1430 -1413 -1420 0
-1431 1414 0
-1431 1418 0
1431 -1414 -1418 0
-1432 1430 1431 0
-1432 -1430 -1431 0
1432 -1430 1431 0
1432 1430 -1431 0
-1433 1413 0
-1433 1419 0
1433 -1413 -1419 0
-1434 1414 0
-1434 1417 0
1434 -1414 -1417 0
-1435 1433 1434 0
-1435 -1433 -1434 0
1435 -1433 1434 0
1435 1433 -1434 0
-1435 0
1413 1414 1415 1417 1419 1435 1432 1429 1426 1423 0
-1436 31 34 0
-1436 -31 -34 0
1436 -31 34 0
1436 31 -34 0
-1437 1436 36 0
-1437 -1436 -36 0
1437 -1436 36 0
1437 1436 -36 0
-1438 37 40 0
-1438 -37 -40 0
1438 -37 40 0
1438 37 -40 0
-1439 1438 42 0
-1439 -1438 -42 0
1439 -1438 42 0
1439 1438 -42 0
-1440 43 46 0
-1440 -43 -46 0
1440 -43 46 0
1440 43 -46 0
-1441 1440 48 0
-1441 -1440 -48 0
1441 -1440 48 0
1441 1440 -48 0
-1442 49 52 0
-1442 -49 -52 0
1442 -49 52 0
1442 49 -52 0
-1443 1442 54 0
-1443 -1442 -54 0
1443 -1442 54 0
1443 1442 -54 0
-1444 61 64 0
-1444 -61 -64 0
1444 -61 64 0
1444 61 -64 0
-1445 1444 66 0
-1445 -1444 -66 0
1445 -1444 66 0
1445 1444 -66 0
-1446 67 70 0
-1446 -67 -70 0
1446 -67 70 0
1446 67 -70 0
-1447 1446 72 0
-1447 -1446 -72 0
1447 -1446 72 0
1447 1446 -72 0
-1448 73 76 0
-1448 -73 -76 0
1448 -73 76 0
1448 73 -76 0
-1449 1448 78 0
-1449 -1448 -78 0
1449 -1448 78 0
1449 1448 -78 0
-1450 79 82 0
-1450 -79 -82 0
1450 -79 82 0
1450 79 -82 0
-1451 1450 84 0
-1451 -1450 -84 0
1451 -1450 84 0
1451 1450 -84 0
-1452 1445 0
-1452 1451 0
1452 -1445 -1451 0
-1453 1447 0
-1453 1449 0
1453 -1447 -1449 0
-1454 1452 1453 0
-1454 -1452 -1453 0
1454 -1452 1453 0
1454 1452 -1453 0
-1455 1441 0
-1455 1451 0
1455 -1441 -1451 0
-1456 1443 0
-1456 1449 0
1456 -1443 -1449 0
-1457 1455 1456 0
-1457 -1455 -1456 0
1457 -1455 1456 0
1457 1455 -1456 0
-1458 1441 0
-1458 1447 0
1458 -1441 -1447 0
-1459 1443 0
-1459 1445 0
1459 -1443 -1445 0
-1460 1458 1459 0
-1460 -1458 -1459 0
1460 -1458 1459 0
1460 1458 -1459 0
-1461 1437 0
-1461 1451 0
1461 -1437 -1451 0
-1462 1439 0
-1462 1447 0
1462 -1439 -1447 0
-1463 1461 1462 0
-1463 -1461 -1462 0
1463 -1461 1462 0
1463 1461 -1462 0
-1464 1437 0
-1464 1449 0
1464 -1437 -1449 0
-1465 1439 0
-1465 1445 0
1465 -1439 -1445 0
-1466 1464 1465 0
-1466 -1464 -1465 0
1466 -1464 1465 0
1466 1464 -1465 0
-1467 1457 1466 0
-1467 -1457 -1466 0
1467 -1457 1466 0
1467 1457 -1466 0
-1467 0
-1468 1443 1437 0
-1468 -1443 -1437 0
1468 -1443 1437 0
1468 1443 -1437 0
1439 1441 1468 1439 1441 1449 1451 1445 1449 1466 1463 1460 1457 1454 0
-1469 32 34 0
-1469 -32 -34 0
1469 -32 34 0
1469 32 -34 0
-1470 1469 36 0
-1470 -1469 -36 0
1470 -1469 36 0
1470 1469 -36 0
-1471 38 40 0
-1471 -38 -40 0
1471 -38 40 0
1471 38 -40 0
-1472 1471 42 0
-1472 -1471 -42 0
1472 -1471 42 0
1472 1471 -42 0
-1473 44 46 0
-1473 -44 -46 0
1473 -44 46 0
1473 44 -46 0
-1474 1473 48 0
-1474 -1473 -48 0
1474 -1473 48 0
1474 1473 -48 0
-1475 50 52 0
-1475 -50 -52 0
1475 -50 52 0
1475 50 -52 0
-1476 1475 54 0
-1476 -1475 -54 0
1476 -1475 54 0
1476 1475 -54 0
-1477 62 64 0
-1477 -62 -64 0
1477 -62 64 0
1477 62 -64 0
-1478 1477 66 0
-1478 -1477 -66 0
1478 -1477 66 0
1478 1477 -66 0
-1479 68 70 0
-1479 -68 -70 0
1479 -68 70 0
1479 68 -70 0
-1480 1479 72 0
-1480 -1479 -72 0
1480 -1479 72 0
1480 1479 -72 0
-1481 74 76 0
-1481 -74 -76 0
1481 -74 76 0
1481 74 -76 0
-1482 1481 78 0
-1482 -1481 -78 0
1482 -1481 78 0
1482 1481 -78 0
-1483 80 82 0
-1483 -80 -82 0
1483 -80 82 0
1483 80 -82 0
-1484 1483 84 0
-1484 -1483 -84 0
1484 -1483 84 0
1484 1483 -84 0
-1485 1478 0
-1485 1484 0
1485 -1478 -1484 0
-1486 1480 0
-1486 1482 0
1486 -1480 -1482 0
-1487 1485 1486 0
-1487 -1485 -1486 0
1487 -1485 1486 0
1487 1485 -1486 0
-1488 1474 0
-1488 1484 0
1488 -1474 -1484 0
-1489 1476 0
-1489 1482 0
1489 -1476 -1482 0
-1490 1488 1489 0
-1490 -1488 -1489 0
1490 -1488 1489 0
1490 1488 -1489 0
-1491 1474 0
-1491 1480 0
1491 -1474 -1480 0
-1492 1476 0
-1492 1478 0
1492 -1476 -1478 0
-1493 1491 1492 0
-1493 -1491 -1492 0
1493 -1491 1492 0
1493 1491 -1492 0
-1494 1470 0
-1494 1484 0
1494 -1470 -1484 0
-1495 1472 0
-1495 1480 0
1495 -1472 -1480 0
-1496 1494 1495 0
-1496 -1494 -1495 0
1496 -1494 1495 0
1496 1494 -1495 0
-1497 1470 0
-1497 1482 0
1497 -1470 -1482 0
-1498 1472 0
-1498 1478 0
1498 -1472 -1478 0
-1499 1497 1498 0
-1499 -1497 -1498 0
1499 -1497 1498 0
1499 1497 -1498 0
-1500 1493 1499 0
-1500 -1493 -1499 0
1500 -1493 1499 0
1500 1493 -1499 0
-1500 0
-1501 1476 1472 0
-1501 -1476 -1472 0
1501 -1476 1472 0
1501 1476 -1472 0
1470 1470 1474 1501 1474 1478 1480 1478 1482 1499 1496 1493 1490 1487 0
-1502 31 32 0
-1502 -31 -32 0
1502 -31 32 0
1502 31 -32 0
-1503 1502 34 0
-1503 -1502 -34 0
1503 -1502 34 0
1503 1502 -34 0
-1504 1503 36 0
-1504 -1503 -36 0
1504 -1503 36 0
1504 1503 -36 0
-1505 37 38 0
-1505 -37 -38 0
1505 -37 38 0
1505 37 -38 0
-1506 1505 40 0
-1506 -1505 -40 0
1506 -1505 40 0
1506 1505 -40 0
-1507 1506 42 0
-1507 -1506 -42 0
1507 -1506 42 0
1507 1506 -42 0
-1508 43 44 0
-1508 -43 -44 0
1508 -43 44 0
1508 43 -44 0
-1509 1508 46 0
-1509 -1508 -46 0
1509 -1508 46 0
1509 1508 -46 0
-1510 1509 48 0
-1510 -1509 -48 0
1510 -1509 48 0
1510 1509 -48 0
-1511 49 50 0
-1511 -49 -50 0
1511 -49 50 0
1511 49 -50 0
-1512 1511 52 0
-1512 -1511 -52 0
1512 -1511 52 0
1512 1511 -52 0
-1513 1512 54 0
-1513 -1512 -54 0
1513 -1512 54 0
1513 1512 -54 0
-1514 61 62 0
-1514 -61 -62 0
1514 -61 62 0
1514 61 -62 0
-1515 1514 64 0
-1515 -1514 -64 0
1515 -1514 64 0
1515 1514 -64 0
-1516 1515 66 0
-1516 -1515 -66 0
1516 -1515 66 0
1516 1515 -66 0
-1517 67 68 0
-1517 -67 -68 0
1517 -67 68 0
1517 67 -68 0
-1518 1517 70 0
-1518 -1517 -70 0
1518 -1517 70 0
1518 1517 -70 0
-1519 1518 72 0
-1519 -1518 -72 0
1519 -1518 72 0
1519 1518 -72 0
-1520 73 74 0
-1520 -73 -74 0
1520 -73 74 0
1520 73 -74 0
-1521 1520 76 0
-1521 -1520 -76 0
1521 -1520 76 0
1521 1520 -76 0
-1522 1521 78 0
-1522 -1521 -78 0
1522 -1521 78 0
1522 1521 -78 0
-1523 79 80 0
-1523 -79 -80 0
1523 -79 80 0
1523 79 -80 0
-1524 1523 82 0
-1524 -1523 -82 0
1524 -1523 82 0
1524 1523 -82 0
-1525 1524 84 0
-1525 -1524 -84 0
1525 -1524 84 0
1525 1524 -84 0
-1526 1516 0
-1526 1525 0
1526 -1516 -1525 0
-1527 1519 0
-1527 1522 0
1527 -1519 -1522 0
-1528 1526 1527 0
-1528 -1526 -1527 0
1528 -1526 1527 0
1528 1526 -1527 0
-1529 1510 0
-1529 1525 0
1529 -1510 -1525 0
-1530 1513 0
-1530 1522 0
1530 -1513 -1522 0
-1531 1529 1530 0
-1531 -1529 -1530 0
1531 -1529 1530 0
1531 1529 -1530 0
-1532 1510 0
-1532 1519 0
1532 -1510 -1519 0
-1533 1513 0
-1533 1516 0
1533 -1513 -1516 0
-1534 1532 1533 0
-1534 -1532 -1533 0
1534 -1532 1533 0
1534 1532 -1533 0
-1535 1504 0
-1535 1525 0
1535 -1504 -1525 0
-1536 1507 0
-1536 1519 0
1536 -1507 -1519 0
-1537 1535 1536 0
-1537 -1535 -1536 0
1537 -1535 1536 0
1537 1535 -1536 0
-1538 1504 0
-1538 1522 0
1538 -1504 -1522 0
-1539 1507 0
-1539 1516 0
1539 -1507 -1516 0
-1540 1538 1539 0
-1540 -1538 -1539 0
1540 -1538 1539 0
1540 1538 -1539 0
-1541 1531 1534 0
-1541 -1531 -1534 0
1541 -1531 1534 0
1541 1531 -1534 0
-1542 1541 1540 0
-1542 -1541 -1540 0
1542 -1541 1540 0
1542 1541 -1540 0
-1542 0
-1543 1507 1504 0
-1543 -1507 -1504 0
1543 -1507 1504 0
1543 1507 -1504 0
-1544 1513 1504 0
-1544 -1513 -1504 0
1544 -1513 1504 0
1544 1513 -1504 0
-1545 1513 1507 0
-1545 -1513 -1507 0
1545 -1513 1507 0
1545 1513 -1507 0
-1546 1522 1516 0
-1546 -1522 -1516 0
1546 -1522 1516 0
1546 1522 -1516 0
-1547 1525 1519 0
-1547 -1525 -1519 0
1547 -1525 1519 0
1547 1525 -1519 0
1543 1510 1544 1510 1545 1510 1546 1547 1516 1522 1540 1537 1534 1531 1528 0
-1548 33 34 0
-1548 -33 -34 0
1548 -33 34 0
1548 33 -34 0
-1549 1548 36 0
-1549 -1548 -36 0
1549 -1548 36 0
1549 1548 -36 0
-1550 39 40 0
-1550 -39 -40 0
1550 -39 40 0
1550 39 -40 0
-1551 1550 42 0
-1551 -1550 -42 0
1551 -1550 42 0
1551 1550 -42 0
-1552 45 46 0
-1552 -45 -46 0
1552 -45 46 0
1552 45 -46 0
-1553 1552 48 0
-1553 -1552 -48 0
1553 -1552 48 0
1553 1552 -48 0
-1554 51 52 0
-1554 -51 -52 0
1554 -51 52 0
1554 51 -52 0
-1555 1554 54 0
-1555 -1554 -54 0
1555 -1554 54 0
1555 1554 -54 0
-1556 63 64 0
-1556 -63 -64 0
1556 -63 64 0
1556 63 -64 0
-1557 1556 66 0
-1557 -1556 -66 0
1557 -1556 66 0
1557 1556 -66 0
-1558 69 70 0
-1558 -69 -70 0
1558 -69 70 0
1558 69 -70 0
-1559 1558 72 0
-1559 -1558 -72 0
1559 -1558 72 0
1559 1558 -72 0
-1560 75 76 0
-1560 -75 -76 0
1560 -75 76 0
1560 75 -76 0
-1561 1560 78 0
-1561 -1560 -78 0
1561 -1560 78 0
1561 1560 -78 0
-1562 81 82 0
-1562 -81 -82 0
1562 -81 82 0
1562 81 -82 0
-1563 1562 84 0
-1563 -1562 -84 0
1563 -1562 84 0
1563 1562 -84 0
-1564 1557 0
-1564 1563 0
1564 -1557 -1563 0
-1565 1559 0
-1565 1561 0
1565 -1559 -1561 0
-1566 1564 1565 0
-1566 -1564 -1565 0
1566 -1564 1565 0
1566 1564 -1565 0
-1567 1553 0
-1567 1563 0
1567 -1553 -1563 0
-1568 1555 0
-1568 1561 0
1568 -1555 -1561 0
-1569 1567 1568 0
-1569 -1567 -1568 0
1569 -1567 1568 0
1569 1567 -1568 0
-1570 1553 0
-1570 1559 0
1570 -1553 -1559 0
-1571 1555 0
-1571 1557 0
1571 -1555 -1557 0
-1572 1570 1571 0
-1572 -1570 -1571 0
1572 -1570 1571 0
1572 1570 -1571 0
-1573 1549 0
-1573 1563 0
1573 -1549 -1563 0
-1574 1551 0
-1574 1559 0
1574 -1551 -1559 0
-1575 1573 1574 0
-1575 -1573 -1574 0
1575 -1573 1574 0
1575 1573 -1574 0
-1576 1549 0
-1576 1561 0
1576 -1549 -1561 0
-1577 1551 0
-1577 1557 0
1577 -1551 -1557 0
-1578 1576 1577 0
-1578 -1576 -1577 0
1578 -1576 1577 0
1578 1576 -1577 0
-1579 1575 1578 0
-1579 -1575 -1578 0
1579 -1575 1578 0
1579 1575 -1578 0
-1579 0
-1580 1555 1553 0
-1580 -1555 -1553 0
1580 -1555 1553 0
1580 1555 -1553 0
-1581 1559 1557 0
-1581 -1559 -1557 0
1581 -1559 1557 0
1581 1559 -1557 0
-1582 1563 1561 0
-1582 -1563 -1561 0
1582 -1563 1561 0
1582 1563 -1561 0
1549 1549 1551 1551 1580 1581 1582 1578 1575 1572 1569 1566 0
-1583 31 33 0
-1583 -31 -33 0
1583 -31 33 0
1583 31 -33 0
-1584 1583 34 0
-1584 -1583 -34 0
1584 -1583 34 0
1584 1583 -34 0
-1585 1584 36 0
-1585 -1584 -36 0
1585 -1584 36 0
1585 1584 -36 0
-1586 37 39 0
-1586 -37 -39 0
1586 -37 39 0
1586 37 -39 0
-1587 1586 40 0
-1587 -1586 -40 0
1587 -1586 40 0
1587 1586 -40 0
-1588 1587 42 0
-1588 -1587 -42 0
1588 -1587 42 0
1588 1587 -42 0
-1589 43 45 0
-1589 -43 -45 0
1589 -43 45 0
1589 43 -45 0
-1590 1589 46 0
-1590 -1589 -46 0
1590 -1589 46 0
1590 1589 -46 0
-1591 1590 48 0
-1591 -1590 -48 0
1591 -1590 48 0
1591 1590 -48 0
-1592 49 51 0
-1592 -49 -51 0
1592 -49 51 0
1592 49 -51 0
-1593 1592 52 0
-1593 -1592 -52 0
1593 -1592 52 0
1593 1592 -52 0
-1594 1593 54 0
-1594 -1593 -54 0
1594 -1593 54 0
1594 1593 -54 0
-1595 61 63 0
-1595 -61 -63 0
1595 -61 63 0
1595 61 -63 0
-1596 1595 64 0
-1596 -1595 -64 0
1596 -1595 64 0
1596 1595 -64 0
-1597 1596 66 0
-1597 -1596 -66 0
1597 -1596 66 0
1597 1596 -66 0
-1598 67 69 0
-1598 -67 -69 0
1598 -67 69 0
1598 67 -69 0
-1599 1598 70 0
-1599 -1598 -70 0
1599 -1598 70 0
1599 1598 -70 0
-1600 1599 72 0
-1600 -1599 -72 0
1600 -1599 72 0
1600 1599 -72 0
-1601 73 75 0
-1601 -73 -75 0
1601 -73 75 0
1601 73 -75 0
-1602 1601 76 0
-1602 -1601 -76 0
1602 -1601 76 0
1602 1601 -76 0
-1603 1602 78 0
-1603 -1602 -78 0
1603 -1602 78 0
1603 1602 -78 0
-1604 79 81 0
-1604 -79 -81 0
1604 -79 81 0
1604 79 -81 0
-1605 1604 82 0
-1605 -1604 -82 0
1605 -1604 82 0
1605 1604 -82 0
-1606 1605 84 0
-1606 -1605 -84 0
1606 -1605 84 0
1606 1605 -84 0
-1607 1597 0
-1607 1606 0
1607 -1597 -1606 0
-1608 1600 0
-1608 1603 0
1608 -1600 -1603 0
-1609 1607 1608 0
-1609 -1607 -1608 0
1609 -1607 1608 0
1609 1607 -1608 0
-1610 1591 0
-1610 1606 0
1610 -1591 -1606 0
-1611 1594 0
-1611 1603 0
1611 -1594 -1603 0
-1612 1610 1611 0
-1612 -1610 -1611 0
1612 -1610 1611 0
1612 1610 -1611 0
-1613 1591 0
-1613 1600 0
1613 -1591 -1600 0
-1614 1594 0
-1614 1597 0
1614 -1594 -1597 0
-1615 1613 1614 0
-1615 -1613 -1614 0
1615 -1613 1614 0
1615 1613 -1614 0
-1616 1585 0
-1616 1606 0
1616 -1585 -1606 0
-1617 1588 0
-1617 1600 0
1617 -1588 -1600 0
-1618 1616 1617 0
-1618 -1616 -1617 0
1618 -1616 1617 0
1618 1616 -1617 0
-1619 1585 0
-1619 1603 0
1619 -1585 -1603 0
-1620 1588 0
-1620 1597 0
1620 -1588 -1597 0
-1621 1619 1620 0
-1621 -1619 -1620 0
1621 -1619 1620 0
1621 1619 -1620 0
-1622 1612 1618 0
-1622 -1612 -1618 0
1622 -1612 1618 0
1622 1612 -1618 0
-1623 1622 1621 0
-1623 -1622 -1621 0
1623 -1622 1621 0
1623 1622 -1621 0
-1623 0
-1624 1591 1585 0
-1624 -1591 -1585 0
1624 -1591 1585 0
1624 1591 -1585 0
-1625 1594 1585 0
-1625 -1594 -1585 0
1625 -1594 1585 0
1625 1594 -1585 0
-1626 1594 1591 0
-1626 -1594 -1591 0
1626 -1594 1591 0
1626 1594 -1591 0
-1627 1600 1597 0
-1627 -1600 -1597 0
1627 -1600 1597 0
1627 1600 -1597 0
-1628 1606 1603 0
-1628 -1606 -1603 0
1628 -1606 1603 0
1628 1606 -1603 0
1588 1624 1625 1588 1588 1626 1603 1606 1627 1628 1621 1618 1615 1612 1609 0
-1629 32 33 0
-1629 -32 -33 0
1629 -32 33 0
1629 32 -33 0
-1630 1629 34 0
-1630 -1629 -34 0
1630 -1629 34 0
1630 1629 -34 0
-1631 1630 36 0
-1631 -1630 -36 0
1631 -1630 36 0
1631 1630 -36 0
-1632 38 39 0
-1632 -38 -39 0
1632 -38 39 0
1632 38 -39 0
-1633 1632 40 0
-1633 -1632 -40 0
1633 -1632 40 0
1633 1632 -40 0
-1634 1633 42 0
-1634 -1633 -42 0
1634 -1633 42 0
1634 1633 -42 0
-1635 44 45 0
-1635 -44 -45 0
1635 -44 45 0
1635 44 -45 0
-1636 1635 46 0
-1636 -1635 -46 0
1636 -1635 46 0
1636 1635 -46 0
-1637 1636 48 0
-1637 -1636 -48 0
1637 -1636 48 0
1637 1636 -48 0
-1638 50 51 0
-1638 -50 -51 0
1638 -50 51 0
1638 50 -51 0
-1639 1638 52 0
-1639 -1638 -52 0
1639 -1638 52 0
1639 1638 -52 0
-1640 1639 54 0
-1640 -1639 -54 0
1640 -1639 54 0
1640 1639 -54 0
-1641 62 63 0
-1641 -62 -63 0
1641 -62 63 0
1641 62 -63 0
-1642 1641 64 0
-1642 -1641 -64 0
1642 -1641 64 0
1642 1641 -64 0
-1643 1642 66 0
-1643 -1642 -66 0
1643 -1642 66 0
1643 1642 -66 0
-1644 68 69 0
-1644 -68 -69 0
1644 -68 69 0
1644 68 -69 0
-1645 1644 70 0
-1645 -1644 -70 0
1645 -1644 70 0
1645 1644 -70 0
-1646 1645 72 0
-1646 -1645 -72 0
1646 -1645 72 0
1646 1645 -72 0
-1647 74 75 0
-1647 -74 -75 0
1647 -74 75 0
1647 74 -75 0
-1648 1647 76 0
-1648 -1647 -76 0
1648 -1647 76 0
1648 1647 -76 0
-1649 1648 78 0
-1649 -1648 -78 0
1649 -1648 78 0
1649 1648 -78 0
-1650 80 81 0
-1650 -80 -81 0
1650 -80 81 0
1650 80 -81 0
-1651 1650 82 0
-1651 -1650 -82 0
1651 -1650 82 0
1651 1650 -82 0
-1652 1651 84 0
-1652 -1651 -84 0
1652 -1651 84 0
1652 1651 -84 0
-1653 1643 0
-1653 1652 0
1653 -1643 -1652 0
-1654 1646 0
-1654 1649 0
1654 -1646 -1649 0
-1655 1653 1654 0
-1655 -1653 -1654 0
1655 -1653 1654 0
1655 1653 -1654 0
-1656 1637 0
-1656 1652 0
1656 -1637 -1652 0
-1657 1640 0
-1657 1649 0
1657 -1640 -1649 0
-1658 1656 1657 0
-1658 -1656 -1657 0
1658 -1656 1657 0
1658 1656 -1657 0
-1659 1637 0
-1659 1646 0
1659 -1637 -1646 0
-1660 1640 0
-1660 1643 0
1660 -1640 -1643 0
-1661 1659 1660 0
-1661 -1659 -1660 0
1661 -1659 1660 0
1661 1659 -1660 0
-1662 1631 0
-1662 1652 0
1662 -1631 -1652 0
-1663 1634 0
-1663 1646 0
1663 -1634 -1646 0
-1664 1662 1663 0
-1664 -1662 -1663 0
1664 -1662 1663 0
1664 1662 -1663 0
-1665 1631 0
-1665 1649 0
1665 -1631 -1649 0
-1666 1634 0
-1666 1643 0
1666 -1634 -1643 0
-1667 1665 1666 0
-1667 -1665 -1666 0
1667 -1665 1666 0
1667 1665 -1666 0
-1668 1661 1664 0
-1668 -1661 -1664 0
1668 -1661 1664 0
1668 1661 -1664 0
-1669 1668 1667 0
-1669 -1668 -1667 0
1669 -1668 1667 0
1669 1668 -1667 0
-1669 0
-1670 1637 1634 0
-1670 -1637 -1634 0
1670 -1637 1634 0
1670 1637 -1634 0
-1671 1640 1634 0
-1671 -1640 -1634 0
1671 -1640 1634 0
1671 1640 -1634 0
-1672 1640 1637 0
-1672 -1640 -1637 0
1672 -1640 1637 0
1672 1640 -1637 0
-1673 1646 1643 0
-1673 -1646 -1643 0
1673 -1646 1643 0
1673 1646 -1643 0
-1674 1652 1649 0
-1674 -1652 -1649 0
1674 -1652 1649 0
1674 1652 -1649 0
1631 1631 1631 1670 1671 1672 1643 1646 1673 1674 1667 1664 1661 1658 1655 0
-1675 31 32 0
-1675 -31 -32 0
1675 -31 32 0
1675 31 -32 0
-1676 1675 33 0
-1676 -1675 -33 0
1676 -1675 33 0
1676 1675 -33 0
-1677 1676 34 0
-1677 -1676 -34 0
1677 -1676 34 0
1677 1676 -34 0
-1678 1677 36 0
-1678 -1677 -36 0
1678 -1677 36 0
1678 1677 -36 0
-1679 37 38 0
-1679 -37 -38 0
1679 -37 38 0
1679 37 -38 0
-1680 1679 39 0
-1680 -1679 -39 0
1680 -1679 39 0
1680 1679 -39 0
-1681 1680 40 0
-1681 -1680 -40 0
1681 -1680 40 0
1681 1680 -40 0
-1682 1681 42 0
-1682 -1681 -42 0
1682 -1681 42 0
1682 1681 -42 0
-1683 43 44 0
-1683 -43 -44 0
1683 -43 44 0
1683 43 -44 0
-1684 1683 45 0
-1684 -1683 -45 0
1684 -1683 45 0
1684 1683 -45 0
-1685 1684 46 0
-1685 -1684 -46 0
1685 -1684 46 0
1685 1684 -46 0
-1686 1685 48 0
-1686 -1685 -48 0
1686 -1685 48 0
1686 1685 -48 0
-1687 49 50 0
-1687 -49 -50 0
1687 -49 50 0
1687 49 -50 0
-1688 1687 51 0
-1688 -1687 -51 0
1688 -1687 51 0
1688 1687 -51 0
-1689 1688 52 0
-1689 -1688 -52 0
1689 -1688 52 0
1689 1688 -52 0
-1690 1689 54 0
-1690 -1689 -54 0
1690 -1689 54 0
1690 1689 -54 0
-1691 61 62 0
-1691 -61 -62 0
1691 -61 62 0
1691 61 -62 0
-1692 1691 63 0
-1692 -1691 -63 0
1692 -1691 63 0
1692 1691 -63 0
-1693 1692 64 0
-1693 -1692 -64 0
1693 -1692 64 0
1693 1692 -64 0
-1694 1693 66 0
-1694 -1693 -66 0
1694 -1693 66 0
1694 1693 -66 0
-1695 67 68 0
-1695 -67 -68 0
1695 -67 68 0
1695 67 -68 0
-1696 1695 69 0
-1696 -1695 -69 0
1696 -1695 69 0
1696 1695 -69 0
-1697 1696 70 0
-1697 -1696 -70 0
1697 -1696 70 0
1697 1696 -70 0
-1698 1697 72 0
-1698 -1697 -72 0
1698 -1697 72 0
1698 1697 -72 0
-1699 73 74 0
-1699 -73 -74 0
1699 -73 74 0
1699 73 -74 0
-1700 1699 75 0
-1700 -1699 -75 0
1700 -1699 75 0
1700 1699 -75 0
-1701 1700 76 0
-1701 -1700 -76 0
1701 -1700 76 0
1701 1700 -76 0
-1702 1701 78 0
-1702 -1701 -78 0
1702 -1701 78 0
1702 1701 -78 0
-1703 79 80 0
-1703 -79 -80 0
1703 -79 80 0
1703 79 -80 0
-1704 1703 81 0
-1704 -1703 -81 0
1704 -1703 81 0
1704 1703 -81 0
-1705 1704 82 0
-1705 -1704 -82 0
1705 -1704 82 0
1705 1704 -82 0
-1706 1705 84 0
-1706 -1705 -84 0
1706 -1705 84 0
1706 1705 -84 0
-1707 1694 0
-1707 1706 0
1707 -1694 -1706 0
-1708 1698 0
-1708 1702 0
1708 -1698 -1702 0
-1709 1707 1708 0
-1709 -1707 -1708 0
1709 -1707 1708 0
1709 1707 -1708 0
-1710 1686 0
-1710 1706 0
1710 -1686 -1706 0
-1711 1690 0
-1711 1702 0
1711 -1690 -1702 0
-1712 1710 1711 0
-1712 -1710 -1711 0
1712 -1710 1711 0
1712 1710 -1711 0
-1713 1686 0
-1713 1698 0
1713 -1686 -1698 0
-1714 1690 0
-1714 1694 0
1714 -1690 -1694 0
-1715 1713 1714 0
-1715 -1713 -1714 0
1715 -1713 1714 0
1715 1713 -1714 0
-1716 1678 0
-1716 1706 0
1716 -1678 -1706 0
-1717 1682 0
-1717 1698 0
1717 -1682 -1698 0
-1718 1716 1717 0
-1718 -1716 -1717 0
1718 -1716 1717 0
1718 1716 -1717 0
-1719 1678 0
-1719 1702 0
1719 -1678 -1702 0
-1720 1682 0
-1720 1694 0
1720 -1682 -1694 0
-1721 1719 1720 0
-1721 -1719 -1720 0
1721 -1719 1720 0
1721 1719 -1720 0
-1722 1712 1715 0
-1722 -1712 -1715 0
1722 -1712 1715 0
1722 1712 -1715 0
-1723 1722 1718 0
-1723 -1722 -1718 0
1723 -1722 1718 0
1723 1722 -1718 0
-1724 1723 1721 0
-1724 -1723 -1721 0
1724 -1723 1721 0
1724 1723 -1721 0
-1724 0
-1725 1682 1678 0
-1725 -1682 -1678 0
1725 -1682 1678 0
1725 1682 -1678 0
-1726 1686 1678 0
-1726 -1686 -1678 0
1726 -1686 1678 0
1726 1686 -1678 0
-1727 1690 1678 0
-1727 -1690 -1678 0
1727 -1690 1678 0
1727 1690 -1678 0
-1728 1686 1682 0
-1728 -1686 -1682 0
1728 -1686 1682 0
1728 1686 -1682 0
-1729 1690 1682 0
-1729 -1690 -1682 0
1729 -1690 1682 0
1729 1690 -1682 0
-1730 1690 1686 0
-1730 -1690 -1686 0
1730 -1690 1686 0
1730 1690 -1686 0
-1731 1702 1694 0
-1731 -1702 -1694 0
1731 -1702 1694 0
1731 1702 -1694 0
-1732 1706 1698 0
-1732 -1706 -1698 0
1732 -1706 1698 0
1732 1706 -1698 0
-1733 1698 1694 0
-1733 -1698 -1694 0
1733 -1698 1694 0
1733 1698 -1694 0
-1734 1706 1702 0
-1734 -1706 -1702 0
1734 -1706 1702 0
1734 1706 -1702 0
1725 1726 1727 1728 1729 1730 1731 1732 1733 1734 1721 1718 1715 1712 1709 0
-1735 35 36 0
-1735 -35 -36 0
1735 -35 36 0
1735 35 -36 0
-1736 41 42 0
-1736 -41 -42 0
1736 -41 42 0
1736 41 -42 0
-1737 47 48 0
-1737 -47 -48 0
1737 -47 48 0
1737 47 -48 0
-1738 53 54 0
-1738 -53 -54 0
1738 -53 54 0
1738 53 -54 0
-1739 65 66 0
-1739 -65 -66 0
1739 -65 66 0
1739 65 -66 0
-1740 71 72 0
-1740 -71 -72 0
1740 -71 72 0
1740 71 -72 0
-1741 77 78 0
-1741 -77 -78 0
1741 -77 78 0
1741 77 -78 0
-1742 83 84 0
-1742 -83 -84 0
1742 -83 84 0
1742 83 -84 0
-1743 1739 0
-1743 1742 0
1743 -1739 -1742 0
-1744 1740 0
-1744 1741 0
1744 -1740 -1741 0
-1745 1743 1744 0
-1745 -1743 -1744 0
1745 -1743 1744 0
1745 1743 -1744 0
-1746 1737 0
-1746 1742 0
1746 -1737 -1742 0
-1747 1738 0
-1747 1741 0
1747 -1738 -1741 0
-1748 1746 1747 0
-1748 -1746 -1747 0
1748 -1746 1747 0
1748 1746 -1747 0
-1749 1737 0
-1749 1740 0
1749 -1737 -1740 0
-1750 1738 0
-1750 1739 0
1750 -1738 -1739 0
-1751 1749 1750 0
-1751 -1749 -1750 0
1751 -1749 1750 0
1751 1749 -1750 0
-1752 1735 0
-1752 1742 0
1752 -1735 -1742 0
-1753 1736 0
-1753 1740 0
1753 -1736 -1740 0
-1754 1752 1753 0
-1754 -1752 -1753 0
1754 -1752 1753 0
1754 1752 -1753 0
-1755 1735 0
-1755 1741 0
1755 -1735 -1741 0
-1756 1736 0
-1756 1739 0
1756 -1736 -1739 0
-1757 1755 1756 0
-1757 -1755 -1756 0
1757 -1755 1756 0
1757 1755 -1756 0
1757 1754 1751 1748 1745 0
-1758 31 35 0
-1758 -31 -35 0
1758 -31 35 0
1758 31 -35 0
-1759 1758 36 0
-1759 -1758 -36 0
1759 -1758 36 0
1759 1758 -36 0
-1760 37 41 0
-1760 -37 -41 0
1760 -37 41 0
1760 37 -41 0
-1761 1760 42 0
-1761 -1760 -42 0
1761 -1760 42 0
1761 1760 -42 0
-1762 43 47 0
-1762 -43 -47 0
1762 -43 47 0
1762 43 -47 0
-1763 1762 48 0
-1763 -1762 -48 0
1763 -1762 48 0
1763 1762 -48 0
-1764 49 53 0
-1764 -49 -53 0
1764 -49 53 0
1764 49 -53 0
-1765 1764 54 0
-1765 -1764 -54 0
1765 -1764 54 0
1765 1764 -54 0
-1766 61 65 0
-1766 -61 -65 0
1766 -61 65 0
1766 61 -65 0
-1767 1766 66 0
-1767 -1766 -66 0
1767 -1766 66 0
1767 1766 -66 0
-1768 67 71 0
-1768 -67 -71 0
1768 -67 71 0
1768 67 -71 0
-1769 1768 72 0
-1769 -1768 -72 0
1769 -1768 72 0
1769 1768 -72 0
-1770 73 77 0
-1770 -73 -77 0
1770 -73 77 0
1770 73 -77 0
-1771 1770 78 0
-1771 -1770 -78 0
1771 -1770 78 0
1771 1770 -78 0
-1772 79 83 0
-1772 -79 -83 0
1772 -79 83 0
1772 79 -83 0
-1773 1772 84 0
-1773 -1772 -84 0
1773 -1772 84 0
1773 1772 -84 0
-1774 1767 0
-1774 1773 0
1774 -1767 -1773 0
-1775 1769 0
-1775 1771 0
1775 -1769 -1771 0
-1776 1774 1775 0
-1776 -1774 -1775 0
1776 -1774 1775 0
1776 1774 -1775 0
-1777 1763 0
-1777 1773 0
1777 -1763 -1773 0
-1778 1765 0
-1778 1771 0
1778 -1765 -1771 0
-1779 1777 1778 0
-1779 -1777 -1778 0
1779 -1777 1778 0
1779 1777 -1778 0
-1780 1763 0
-1780 1769 0
1780 -1763 -1769 0
-1781 1765 0
-1781 1767 0
1781 -1765 -1767 0
-1782 1780 1781 0
-1782 -1780 -1781 0
1782 -1780 1781 0
1782 1780 -1781 0
-1783 1759 0
-1783 1773 0
1783 -1759 -1773 0
-1784 1761 0
-1784 1769 0
1784 -1761 -1769 0
-1785 1783 1784 0
-1785 -1783 -1784 0
1785 -1783 1784 0
1785 1783 -1784 0
-1786 1759 0
-1786 1771 0
1786 -1759 -1771 0
-1787 1761 0
-1787 1767 0
1787 -1761 -1767 0
-1788 1786 1787 0
-1788 -1786 -1787 0
1788 -1786 1787 0
1788 1786 -1787 0
-1779 0
1761 1763 1765 1771 1773 1788 1785 1782 1779 1776 0
-1789 32 35 0
-1789 -32 -35 0
1789 -32 35 0
1789 32 -35 0
-1790 1789 36 0
-1790 -1789 -36 0
1790 -1789 36 0
1790 1789 -36 0
-1791 38 41 0
-1791 -38 -41 0
1791 -38 41 0
1791 38 -41 0
-1792 1791 42 0
-1792 -1791 -42 0
1792 -1791 42 0
1792 1791 -42 0
-1793 44 47 0
-1793 -44 -47 0
1793 -44 47 0
1793 44 -47 0
-1794 1793 48 0
-1794 -1793 -48 0
1794 -1793 48 0
1794 1793 -48 0
-1795 50 53 0
-1795 -50 -53 0
1795 -50 53 0
1795 50 -53 0
-1796 1795 54 0
-1796 -1795 -54 0
1796 -1795 54 0
1796 1795 -54 0
-1797 62 65 0
-1797 -62 -65 0
1797 -62 65 0
1797 62 -65 0
-1798 1797 66 0
-1798 -1797 -66 0
1798 -1797 66 0
1798 1797 -66 0
-1799 68 71 0
-1799 -68 -71 0
1799 -68 71 0
1799 68 -71 0
-1800 1799 72 0
-1800 -1799 -72 0
1800 -1799 72 0
1800 1799 -72 0
-1801 74 77 0
-1801 -74 -77 0
1801 -74 77 0
1801 74 -77 0
-1802 1801 78 0
-1802 -1801 -78 0
1802 -1801 78 0
1802 1801 -78 0
-1803 80 83 0
-1803 -80 -83 0
1803 -80 83 0
1803 80 -83 0
-1804 1803 84 0
-1804 -1803 -84 0
1804 -1803 84 0
1804 1803 -84 0
-1805 1798 0
-1805 1804 0
1805 -1798 -1804 0
-1806 1800 0
-1806 1802 0
1806 -1800 -1802 0
-1807 1805 1806 0
-1807 -1805 -1806 0
1807 -1805 1806 0
1807 1805 -1806 0
-1808 1794 0
-1808 1804 0
1808 -1794 -1804 0
-1809 1796 0
-1809 1802 0
1809 -1796 -1802 0
-1810 1808 1809 0
-1810 -1808 -1809 0
1810 -1808 1809 0
1810 1808 -1809 0
-1811 1794 0
-1811 1800 0
1811 -1794 -1800 0
-1812 1796 0
-1812 1798 0
1812 -1796 -1798 0
-1813 1811 1812 0
-1813 -1811 -1812 0
1813 -1811 1812 0
1813 1811 -1812 0
-1814 1790 0
-1814 1804 0
1814 -1790 -1804 0
-1815 1792 0
-1815 1800 0
1815 -1792 -1800 0
-1816 1814 1815 0
-1816 -1814 -1815 0
1816 -1814 1815 0
1816 1814 -1815 0
-1817 1790 0
-1817 1802 0
1817 -1790 -1802 0
-1818 1792 0
-1818 1798 0
1818 -1792 -1798 0
-1819 1817 1818 0
-1819 -1817 -1818 0
1819 -1817 1818 0
1819 1817 -1818 0
-1813 0
1790 1794 1796 1798 1800 1819 1816 1813 1810 1807 0
-1820 31 32 0
-1820 -31 -32 0
1820 -31 32 0
1820 31 -32 0
-1821 1820 35 0
-1821 -1820 -35 0
1821 -1820 35 0
1821 1820 -35 0
-1822 1821 36 0
-1822 -1821 -36 0
1822 -1821 36 0
1822 1821 -36 0
-1823 37 38 0
-1823 -37 -38 0
1823 -37 38 0
1823 37 -38 0
-1824 1823 41 0
-1824 -1823 -41 0
1824 -1823 41 0
1824 1823 -41 0
-1825 1824 42 0
-1825 -1824 -42 0
1825 -1824 42 0
1825 1824 -42 0
-1826 43 44 0
-1826 -43 -44 0
1826 -43 44 0
1826 43 -44 0
-1827 1826 47 0
-1827 -1826 -47 0
1827 -1826 47 0
1827 1826 -47 0
-1828 1827 48 0
-1828 -1827 -48 0
1828 -1827 48 0
1828 1827 -48 0
-1829 49 50 0
-1829 -49 -50 0
1829 -49 50 0
1829 49 -50 0
-1830 1829 53 0
-1830 -1829 -53 0
1830 -1829 53 0
1830 1829 -53 0
-1831 1830 54 0
-1831 -1830 -54 0
1831 -1830 54 0
1831 1830 -54 0
-1832 61 62 0
-1832 -61 -62 0
1832 -61 62 0
1832 61 -62 0
-1833 1832 65 0
-1833 -1832 -65 0
1833 -1832 65 0
1833 1832 -65 0
-1834 1833 66 0
-1834 -1833 -66 0
1834 -1833 66 0
1834 1833 -66 0
-1835 67 68 0
-1835 -67 -68 0
1835 -67 68 0
1835 67 -68 0
-1836 1835 71 0
-1836 -1835 -71 0
1836 -1835 71 0
1836 1835 -71 0
-1837 1836 72 0
-1837 -1836 -72 0
1837 -1836 72 0
1837 1836 -72 0
-1838 73 74 0
-1838 -73 -74 0
1838 -73 74 0
1838 73 -74 0
-1839 1838 77 0
-1839 -1838 -77 0
1839 -1838 77 0
1839 1838 -77 0
-1840 1839 78 0
-1840 -1839 -78 0
1840 -1839 78 0
1840 1839 -78 0
-1841 79 80 0
-1841 -79 -80 0
1841 -79 80 0
1841 79 -80 0
-1842 1841 83 0
-1842 -1841 -83 0
1842 -1841 83 0
1842 1841 -83 0
-1843 1842 84 0
-1843 -1842 -84 0
1843 -1842 84 0
1843 1842 -84 0
-1844 1834 0
-1844 1843 0
1844 -1834 -1843 0
-1845 1837 0
-1845 1840 0
1845 -1837 -1840 0
-1846 1844 1845 0
-1846 -1844 -1845 0
1846 -1844 1845 0
1846 1844 -1845 0
-1847 1828 0
-1847 1843 0
1847 -1828 -1843 0
-1848 1831 0
-1848 1840 0
1848 -1831 -1840 0
-1849 1847 1848 0
-1849 -1847 -1848 0
1849 -1847 1848 0
1849 1847 -1848 0
-1850 1828 0
-1850 1837 0
1850 -1828 -1837 0
-1851 1831 0
-1851 1834 0
1851 -1831 -1834 0
-1852 1850 1851 0
-1852 -1850 -1851 0
1852 -1850 1851 0
1852 1850 -1851 0
-1853 1822 0
-1853 1843 0
1853 -1822 -1843 0
-1854 1825 0
-1854 1837 0
1854 -1825 -1837 0
-1855 1853 1854 0
-1855 -1853 -1854 0
1855 -1853 1854 0
1855 1853 -1854 0
-1856 1822 0
-1856 1840 0
1856 -1822 -1840 0
-1857 1825 0
-1857 1834 0
1857 -1825 -1834 0
-1858 1856 1857 0
-1858 -1856 -1857 0
1858 -1856 1857 0
1858 1856 -1857 0
-1859 1849 1852 0
-1859 -1849 -1852 0
1859 -1849 1852 0
1859 1849 -1852 0
-1859 0
-1860 1825 1822 0
-1860 -1825 -1822 0
1860 -1825 1822 0
1860 1825 -1822 0
-1861 1840 1834 0
-1861 -1840 -1834 0
1861 -1840 1834 0
1861 1840 -1834 0
-1862 1843 1837 0
-1862 -1843 -1837 0
1862 -1843 1837 0
1862 1843 -1837 0
1860 1828 1831 1828 1831 1861 1862 1858 1855 1852 1849 1846 0
-1863 33 35 0
-1863 -33 -35 0
1863 -33 35 0
1863 33 -35 0
-1864 1863 36 0
-1864 -1863 -36 0
1864 -1863 36 0
1864 1863 -36 0
-1865 39 41 0
-1865 -39 -41 0
1865 -39 41 0
1865 39 -41 0
-1866 1865 42 0
-1866 -1865 -42 0
1866 -1865 42 0
1866 1865 -42 0
-1867 45 47 0
-1867 -45 -47 0
1867 -45 47 0
1867 45 -47 0
-1868 1867 48 0
-1868 -1867 -48 0
1868 -1867 48 0
1868 1867 -48 0
-1869 51 53 0
-1869 -51 -53 0
1869 -51 53 0
1869 51 -53 0
-1870 1869 54 0
-1870 -1869 -54 0
1870 -1869 54 0
1870 1869 -54 0
-1871 63 65 0
-1871 -63 -65 0
1871 -63 65 0
1871 63 -65 0
-1872 1871 66 0
-1872 -1871 -66 0
1872 -1871 66 0
1872 1871 -66 0
-1873 69 71 0
-1873 -69 -71 0
1873 -69 71 0
1873 69 -71 0
-1874 1873 72 0
-1874 -1873 -72 0
1874 -1873 72 0
1874 1873 -72 0
-1875 75 77 0
-1875 -75 -77 0
1875 -75 77 0
1875 75 -77 0
-1876 1875 78 0
-1876 -1875 -78 0
1876 -1875 78 0
1876 1875 -78 0
-1877 81 83 0
-1877 -81 -83 0
1877 -81 83 0
1877 81 -83 0
-1878 1877 84 0
-1878 -1877 -84 0
1878 -1877 84 0
1878 1877 -84 0
-1879 1872 0
-1879 1878 0
1879 -1872 -1878 0
-1880 1874 0
-1880 1876 0
1880 -1874 -1876 0
-1881 1879 1880 0
-1881 -1879 -1880 0
1881 -1879 1880 0
1881 1879 -1880 0
-1882 1868 0
-1882 1878 0
1882 -1868 -1878 0
-1883 1870 0
-1883 1876 0
1883 -1870 -1876 0
-1884 1882 1883 0
-1884 -1882 -1883 0
1884 -1882 1883 0
1884 1882 -1883 0
-1885 1868 0
-1885 1874 0
1885 -1868 -1874 0
-1886 1870 0
-1886 1872 0
1886 -1870 -1872 0
-1887 1885 1886 0
-1887 -1885 -1886 0
1887 -1885 1886 0
1887 1885 -1886 0
-1888 1864 0
-1888 1878 0
1888 -1864 -1878 0
-1889 1866 0
-1889 1874 0
1889 -1866 -1874 0
-1890 1888 1889 0
-1890 -1888 -1889 0
1890 -1888 1889 0
1890 1888 -1889 0
-1891 1864 0
-1891 1876 0
1891 -1864 -1876 0
-1892 1866 0
-1892 1872 0
1892 -1866 -1872 0
-1893 1891 1892 0
-1893 -1891 -1892 0
1893 -1891 1892 0
1893 1891 -1892 0
-1890 0
1864 1866 1870 1874 1878 1893 1890 1887 1884 1881 0
-1894 31 33 0
-1894 -31 -33 0
1894 -31 33 0
1894 31 -33 0
-1895 1894 35 0
-1895 -1894 -35 0
1895 -1894 35 0
1895 1894 -35 0
-1896 1895 36 0
-1896 -1895 -36 0
1896 -1895 36 0
1896 1895 -36 0
-1897 37 39 0
-1897 -37 -39 0
1897 -37 39 0
1897 37 -39 0
-1898 1897 41 0
-1898 -1897 -41 0
1898 -1897 41 0
1898 1897 -41 0
-1899 1898 42 0
-1899 -1898 -42 0
1899 -1898 42 0
1899 1898 -42 0
-1900 43 45 0
-1900 -43 -45 0
1900 -43 45 0
1900 43 -45 0
-1901 1900 47 0
-1901 -1900 -47 0
1901 -1900 47 0
1901 1900 -47 0
-1902 1901 48 0
-1902 -1901 -48 0
1902 -1901 48 0
1902 1901 -48 0
-1903 49 51 0
-1903 -49 -51 0
1903 -49 51 0
1903 49 -51 0
-1904 1903 53 0
-1904 -1903 -53 0
1904 -1903 53 0
1904 1903 -53 0
-1905 1904 54 0
-1905 -1904 -54 0
1905 -1904 54 0
1905 1904 -54 0
-1906 61 63 0
-1906 -61 -63 0
1906 -61 63 0
1906 61 -63 0
-1907 1906 65 0
-1907 -1906 -65 0
1907 -1906 65 0
1907 1906 -65 0
-1908 1907 66 0
-1908 -1907 -66 0
1908 -1907 66 0
1908 1907 -66 0
-1909 67 69 0
-1909 -67 -69 0
1909 -67 69 0
1909 67 -69 0
-1910 1909 71 0
-1910 -1909 -71 0
1910 -1909 71 0
1910 1909 -71 0
-1911 1910 72 0
-1911 -1910 -72 0
1911 -1910 72 0
1911 1910 -72 0
-1912 73 75 0
-1912 -73 -75 0
1912 -73 75 0
1912 73 -75 0
-1913 1912 77 0
-1913 -1912 -77 0
1913 -1912 77 0
1913 1912 -77 0
-1914 1913 78 0
-1914 -1913 -78 0
1914 -1913 78 0
1914 1913 -78 0
-1915 79 81 0
-1915 -79 -81 0
1915 -79 81 0
1915 79 -81 0
-1916 1915 83 0
-1916 -1915 -83 0
1916 -1915 83 0
1916 1915 -83 0
-1917 1916 84 0
-1917 -1916 -84 0
1917 -1916 84 0
1917 1916 -84 0
-1918 1908 0
-1918 1917 0
1918 -1908 -1917 0
-1919 1911 0
-1919 1914 0
1919 -1911 -1914 0
-1920 1918 1919 0
-1920 -1918 -1919 0
1920 -1918 1919 0
1920 1918 -1919 0
-1921 1902 0
-1921 1917 0
1921 -1902 -1917 0
-1922 1905 0
-1922 1914 0
1922 -1905 -1914 0
-1923 1921 1922 0
-1923 -1921 -1922 0
1923 -1921 1922 0
1923 1921 -1922 0
-1924 1902 0
-1924 1911 0
1924 -1902 -1911 0
-1925 1905 0
-1925 1908 0
1925 -1905 -1908 0
-1926 1924 1925 0
-1926 -1924 -1925 0
1926 -1924 1925 0
1926 1924 -1925 0
-1927 1896 0
-1927 1917 0
1927 -1896 -1917 0
-1928 1899 0
-1928 1911 0
1928 -1899 -1911 0
-1929 1927 1928 0
-1929 -1927 -1928 0
1929 -1927 1928 0
1929 1927 -1928 0
-1930 1896 0
-1930 1914 0
1930 -1896 -1914 0
-1931 1899 0
-1931 1908 0
1931 -1899 -1908 0
-1932 1930 1931 0
-1932 -1930 -1931 0
1932 -1930 1931 0
1932 1930 -1931 0
-1933 1923 1929 0
-1933 -1923 -1929 0
1933 -1923 1929 0
1933 1923 -1929 0
-1933 0
-1934 1902 1896 0
-1934 -1902 -1896 0
1934 -1902 1896 0
1934 1902 -1896 0
1899 1934 1905 1899 1905 1914 1917 1911 1917 1932 1929 1926 1923 1920 0
-1935 32 33 0
-1935 -32 -33 0
1935 -32 33 0
1935 32 -33 0
-1936 1935 35 0
-1936 -1935 -35 0
1936 -1935 35 0
1936 1935 -35 0
-1937 1936 36 0
-1937 -1936 -36 0
1937 -1936 36 0
1937 1936 -36 0
-1938 38 39 0
-1938 -38 -39 0
1938 -38 39 0
1938 38 -39 0
-1939 1938 41 0
-1939 -1938 -41 0
1939 -1938 41 0
1939 1938 -41 0
-1940 1939 42 0
-1940 -1939 -42 0
1940 -1939 42 0
1940 1939 -42 0
-1941 44 45 0
-1941 -44 -45 0
1941 -44 45 0
1941 44 -45 0
-1942 1941 47 0
-1942 -1941 -47 0
1942 -1941 47 0
1942 1941 -47 0
-1943 1942 48 0
-1943 -1942 -48 0
1943 -1942 48 0
1943 1942 -48 0
-1944 50 51 0
-1944 -50 -51 0
1944 -50 51 0
1944 50 -51 0
-1945 1944 53 0
-1945 -1944 -53 0
1945 -1944 53 0
1945 1944 -53 0
-1946 1945 54 0
-1946 -1945 -54 0
1946 -1945 54 0
1946 1945 -54 0
-1947 62 63 0
-1947 -62 -63 0
1947 -62 63 0
1947 62 -63 0
-1948 1947 65 0
-1948 -1947 -65 0
1948 -1947 65 0
1948 1947 -65 0
-1949 1948 66 0
-1949 -1948 -66 0
1949 -1948 66 0
1949 1948 -66 0
-1950 68 69 0
-1950 -68 -69 0
1950 -68 69 0
1950 68 -69 0
-1951 1950 71 0
-1951 -1950 -71 0
1951 -1950 71 0
1951 1950 -71 0
-1952 1951 72 0
-1952 -1951 -72 0
1952 -1951 72 0
1952 1951 -72 0
-1953 74 75 0
-1953 -74 -75 0
1953 -74 75 0
1953 74 -75 0
-1954 1953 77 0
-1954 -1953 -77 0
1954 -1953 77 0
1954 1953 -77 0
-1955 1954 78 0
-1955 -1954 -78 0
1955 -1954 78 0
1955 1954 -78 0
-1956 80 81 0
-1956 -80 -81 0
1956 -80 81 0
1956 80 -81 0
-1957 1956 83 0
-1957 -1956 -83 0
1957 -1956 83 0
1957 1956 -83 0
-1958 1957 84 0
-1958 -1957 -84 0
1958 -1957 84 0
1958 1957 -84 0
-1959 1949 0
-1959 1958 0
1959 -1949 -1958 0
-1960 1952 0
-1960 1955 0
1960 -1952 -1955 0
-1961 1959 1960 0
-1961 -1959 -1960 0
1961 -1959 1960 0
1961 1959 -1960 0
-1962 1943 0
-1962 1958 0
1962 -1943 -1958 0
-1963 1946 0
-1963 1955 0
1963 -1946 -1955 0
-1964 1962 1963 0
-1964 -1962 -1963 0
1964 -1962 1963 0
1964 1962 -1963 0
-1965 1943 0
-1965 1952 0
1965 -1943 -1952 0
-1966 1946 0
-1966 1949 0
1966 -1946 -1949 0
-1967 1965 1966 0
-1967 -1965 -1966 0
1967 -1965 1966 0
1967 1965 -1966 0
-1968 1937 0
-1968 1958 0
1968 -1937 -1958 0
-1969 1940 0
-1969 1952 0
1969 -1940 -1952 0
-1970 1968 1969 0
-1970 -1968 -1969 0
1970 -1968 1969 0
1970 1968 -1969 0
-1971 1937 0
-1971 1955 0
1971 -1937 -1955 0
-1972 1940 0
-1972 1949 0
1972 -1940 -1949 0
-1973 1971 1972 0
-1973 -1971 -1972 0
1973 -1971 1972 0
1973 1971 -1972 0
-1974 1967 1970 0
-1974 -1967 -1970 0
1974 -1967 1970 0
1974 1967 -1970 0
-1974 0
-1975 1943 1940 0
-1975 -1943 -1940 0
1975 -1943 1940 0
1975 1943 -1940 0
1937 1937 1975 1946 1946 1949 1952 1952 1958 1973 1970 1967 1964 1961 0
-1976 31 32 0
-1976 -31 -32 0
1976 -31 32 0
1976 31 -32 0
-1977 1976 33 0
-1977 -1976 -33 0
1977 -1976 33 0
1977 1976 -33 0
-1978 1977 35 0
-1978 -1977 -35 0
1978 -1977 35 0
1978 1977 -35 0
-1979 1978 36 0
-1979 -1978 -36 0
1979 -1978 36 0
1979 1978 -36 0
-1980 37 38 0
-1980 -37 -38 0
1980 -37 38 0
1980 37 -38 0
-1981 1980 39 0
-1981 -1980 -39 0
1981 -1980 39 0
1981 1980 -39 0
-1982 1981 41 0
-1982 -1981 -41 0
1982 -1981 41 0
1982 1981 -41 0
-1983 1982 42 0
-1983 -1982 -42 0
1983 -1982 42 0
1983 1982 -42 0
-1984 43 44 0
-1984 -43 -44 0
1984 -43 44 0
1984 43 -44 0
-1985 1984 45 0
-1985 -1984 -45 0
1985 -1984 45 0
1985 1984 -45 0
-1986 1985 47 0
-1986 -1985 -47 0
1986 -1985 47 0
1986 1985 -47 0
-1987 1986 48 0
-1987 -1986 -48 0
1987 -1986 48 0
1987 1986 -48 0
-1988 49 50 0
-1988 -49 -50 0
1988 -49 50 0
1988 49 -50 0
-1989 1988 51 0
-1989 -1988 -51 0
1989 -1988 51 0
1989 1988 -51 0
-1990 1989 53 0
-1990 -1989 -53 0
1990 -1989 53 0
1990 1989 -53 0
-1991 1990 54 0
-1991 -1990 -54 0
1991 -1990 54 0
1991 1990 -54 0
-1992 61 62 0
-1992 -61 -62 0
1992 -61 62 0
1992 61 -62 0
-1993 1992 63 0
-1993 -1992 -63 0
1993 -1992 63 0
1993 1992 -63 0
-1994 1993 65 0
-1994 -1993 -65 0
1994 -1993 65 0
1994 1993 -65 0
-1995 1994 66 0
-1995 -1994 -66 0
1995 -1994 66 0
1995 1994 -66 0
-1996 67 68 0
-1996 -67 -68 0
1996 -67 68 0
1996 67 -68 0
-1997 1996 69 0
-1997 -1996 -69 0
1997 -1996 69 0
1997 1996 -69 0
-1998 1997 71 0
-1998 -1997 -71 0
1998 -1997 71 0
1998 1997 -71 0
-1999 1998 72 0
-1999 -1998 -72 0
1999 -1998 72 0
1999 1998 -72 0
-2000 73 74 0
-2000 -73 -74 0
2000 -73 74 0
2000 73 -74 0
-2001 2000 75 0
-2001 -2000 -75 0
2001 -2000 75 0
2001 2000 -75 0
-2002 2001 77 0
-2002 -2001 -77 0
2002 -2001 77 0
2002 2001 -77 0
-2003 2002 78 0
-2003 -2002 -78 0
2003 -2002 78 0
2003 2002 -78 0
-2004 79 80 0
-2004 -79 -80 0
2004 -79 80 0
2004 79 -80 0
-2005 2004 81 0
-2005 -2004 -81 0
2005 -2004 81 0
2005 2004 -81 0
-2006 2005 83 0
-2006 -2005 -83 0
2006 -2005 83 0
2006 2005 -83 0
-2007 2006 84 0
-2007 -2006 -84 0
2007 -2006 84 0
2007 2006 -84 0
-2008 1995 0
-2008 2007 0
2008 -1995 -2007 0
-2009 1999 0
-2009 2003 0
2009 -1999 -2003 0
-2010 2008 2009 0
-2010 -2008 -2009 0
2010 -2008 2009 0
2010 2008 -2009 0
-2011 1987 0
-2011 2007 0
2011 -1987 -2007 0
-2012 1991 0
-2012 2003 0
2012 -1991 -2003 0
-2013 2011 2012 0
-2013 -2011 -2012 0
2013 -2011 2012 0
2013 2011 -2012 0
-2014 1987 0
-2014 1999 0
2014 -1987 -1999 0
-2015 1991 0
-2015 1995 0
2015 -1991 -1995 0
-2016 2014 2015 0
-2016 -2014 -2015 0
2016 -2014 2015 0
2016 2014 -2015 0
-2017 1979 0
-2017 2007 0
2017 -1979 -2007 0
-2018 1983 0
-2018 1999 0
2018 -1983 -1999 0
-2019 2017 2018 0
-2019 -2017 -2018 0
2019 -2017 2018 0
2019 2017 -2018 0
-2020 1979 0
-2020 2003 0
2020 -1979 -2003 0
-2021 1983 0
-2021 1995 0
2021 -1983 -1995 0
-2022 2020 2021 0
-2022 -2020 -2021 0
2022 -2020 2021 0
2022 2020 -2021 0
-2023 2013 2016 0
-2023 -2013 -2016 0
2023 -2013 2016 0
2023 2013 -2016 0
-2024 2023 2019 0
-2024 -2023 -2019 0
2024 -2023 2019 0
2024 2023 -2019 0
-2024 0
-2025 1983 1979 0
-2025 -1983 -1979 0
2025 -1983 1979 0
2025 1983 -1979 0
-2026 1987 1979 0
-2026 -1987 -1979 0
2026 -1987 1979 0
2026 1987 -1979 0
-2027 1987 1983 0
-2027 -1987 -1983 0
2027 -1987 1983 0
2027 1987 -1983 0
-2028 2003 1995 0
-2028 -2003 -1995 0
2028 -2003 1995 0
2028 2003 -1995 0
-2029 2007 1999 0
-2029 -2007 -1999 0
2029 -2007 1999 0
2029 2007 -1999 0
2025 2026 1991 2027 1991 1991 2028 2029 1999 2007 2022 2019 2016 2013 2010 0
-2030 34 35 0
-2030 -34 -35 0
2030 -34 35 0
2030 34 -35 0
-2031 2030 36 0
-2031 -2030 -36 0
2031 -2030 36 0
2031 2030 -36 0
-2032 40 41 0
-2032 -40 -41 0
2032 -40 41 0
2032 40 -41 0
-2033 2032 42 0
-2033 -2032 -42 0
2033 -2032 42 0
2033 2032 -42 0
-2034 46 47 0
-2034 -46 -47 0
2034 -46 47 0
2034 46 -47 0
-2035 2034 48 0
-2035 -2034 -48 0
2035 -2034 48 0
2035 2034 -48 0
-2036 52 53 0
-2036 -52 -53 0
2036 -52 53 0
2036 52 -53 0
-2037 2036 54 0
-2037 -2036 -54 0
2037 -2036 54 0
2037 2036 -54 0
-2038 64 65 0
-2038 -64 -65 0
2038 -64 65 0
2038 64 -65 0
-2039 2038 66 0
-2039 -2038 -66 0
2039 -2038 66 0
2039 2038 -66 0
-2040 70 71 0
-2040 -70 -71 0
2040 -70 71 0
2040 70 -71 0
-2041 2040 72 0
-2041 -2040 -72 0
2041 -2040 72 0
2041 2040 -72 0
-2042 76 77 0
-2042 -76 -77 0
2042 -76 77 0
2042 76 -77 0
-2043 2042 78 0
-2043 -2042 -78 0
2043 -2042 78 0
2043 2042 -78 0
-2044 82 83 0
-2044 -82 -83 0
2044 -82 83 0
2044 82 -83 0
-2045 2044 84 0
-2045 -2044 -84 0
2045 -2044 84 0
2045 2044 -84 0
-2046 2039 0
-2046 2045 0
2046 -2039 -2045 0
-2047 2041 0
-2047 2043 0
2047 -2041 -2043 0
-2048 2046 2047 0
-2048 -2046 -2047 0
2048 -2046 2047 0
2048 2046 -2047 0
-2049 2035 0
-2049 2045 0
2049 -2035 -2045 0
-2050 2037 0
-2050 2043 0
2050 -2037 -2043 0
-2051 2049 2050 0
-2051 -2049 -2050 0
2051 -2049 2050 0
2051 2049 -2050 0
-2052 2035 0
-2052 2041 0
2052 -2035 -2041 0
-2053 2037 0
-2053 2039 0
2053 -2037 -2039 0
-2054 2052 2053 0
-2054 -2052 -2053 0
2054 -2052 2053 0
2054 2052 -2053 0
-2055 2031 0
-2055 2045 0
2055 -2031 -2045 0
-2056 2033 0
-2056 2041 0
2056 -2033 -2041 0
-2057 2055 2056 0
-2057 -2055 -2056 0
2057 -2055 2056 0
2057 2055 -2056 0
-2058 2031 0
-2058 2043 0
2058 -2031 -2043 0
-2059 2033 0
-2059 2039 0
2059 -2033 -2039 0
-2060 2058 2059 0
-2060 -2058 -2059 0
2060 -2058 2059 0
2060 2058 -2059 0
-2060 0
2031 2033 2035 2039 2043 2060 2057 2054 2051 2048 0
-2061 31 34 0
-2061 -31 -34 0
2061 -31 34 0
2061 31 -34 0
-2062 2061 35 0
-2062 -2061 -35 0
2062 -2061 35 0
2062 2061 -35 0
-2063 2062 36 0
-2063 -2062 -36 0
2063 -2062 36 0
2063 2062 -36 0
-2064 37 40 0
-2064 -37 -40 0
2064 -37 40 0
2064 37 -40 0
-2065 2064 41 0
-2065 -2064 -41 0
2065 -2064 41 0
2065 2064 -41 0
-2066 2065 42 0
-2066 -2065 -42 0
2066 -2065 42 0
2066 2065 -42 0
-2067 43 46 0
-2067 -43 -46 0
2067 -43 46 0
2067 43 -46 0
-2068 2067 47 0
-2068 -2067 -47 0
2068 -2067 47 0
2068 2067 -47 0
-2069 2068 48 0
-2069 -2068 -48 0
2069 -2068 48 0
2069 2068 -48 0
-2070 49 52 0
-2070 -49 -52 0
2070 -49 52 0
2070 49 -52 0
-2071 2070 53 0
-2071 -2070 -53 0
2071 -2070 53 0
2071 2070 -53 0
-2072 2071 54 0
-2072 -2071 -54 0
2072 -2071 54 0
2072 2071 -54 0
-2073 61 64 0
-2073 -61 -64 0
2073 -61 64 0
2073 61 -64 0
-2074 2073 65 0
-2074 -2073 -65 0
2074 -2073 65 0
2074 2073 -65 0
-2075 2074 66 0
-2075 -2074 -66 0
2075 -2074 66 0
2075 2074 -66 0
-2076 67 70 0
-2076 -67 -70 0
2076 -67 70 0
2076 67 -70 0
-2077 2076 71 0
-2077 -2076 -71 0
2077 -2076 71 0
2077 2076 -71 0
-2078 2077 72 0
-2078 -2077 -72 0
2078 -2077 72 0
2078 2077 -72 0
-2079 73 76 0
-2079 -73 -76 0
2079 -73 76 0
2079 73 -76 0
-2080 2079 77 0
-2080 -2079 -77 0
2080 -2079 77 0
2080 2079 -77 0
-2081 2080 78 0
-2081 -2080 -78 0
2081 -2080 78 0
2081 2080 -78 0
-2082 79 82 0
-2082 -79 -82 0
2082 -79 82 0
2082 79 -82 0
-2083 2082 83 0
-2083 -2082 -83 0
2083 -2082 83 0
2083 2082 -83 0
-2084 2083 84 0
-2084 -2083 -84 0
2084 -2083 84 0
2084 2083 -84 0
-2085 2075 0
-2085 2084 0
2085 -2075 -2084 0
-2086 2078 0
-2086 2081 0
2086 -2078 -2081 0
-2087 2085 2086 0
-2087 -2085 -2086 0
2087 -2085 2086 0
2087 2085 -2086 0
-2088 2069 0
-2088 2084 0
2088 -2069 -2084 0
-2089 2072 0
-2089 2081 0
2089 -2072 -2081 0
-2090 2088 2089 0
-2090 -2088 -2089 0
2090 -2088 2089 0
2090 2088 -2089 0
-2091 2069 0
-2091 2078 0
2091 -2069 -2078 0
-2092 2072 0
-2092 2075 0
2092 -2072 -2075 0
-2093 2091 2092 0
-2093 -2091 -2092 0
2093 -2091 2092 0
2093 2091 -2092 0
-2094 2063 0
-2094 2084 0
2094 -2063 -2084 0
-2095 2066 0
-2095 2078 0
2095 -2066 -2078 0
-2096 2094 2095 0
-2096 -2094 -2095 0
2096 -2094 2095 0
2096 2094 -2095 0
-2097 2063 0
-2097 2081 0
2097 -2063 -2081 0
-2098 2066 0
-2098 2075 0
2098 -2066 -2075 0
-2099 2097 2098 0
-2099 -2097 -2098 0
2099 -2097 2098 0
2099 2097 -2098 0
-2100 2090 2099 0
-2100 -2090 -2099 0
2100 -2090 2099 0
2100 2090 -2099 0
-2100 0
-2101 2072 2063 0
-2101 -2072 -2063 0
2101 -2072 2063 0
2101 2072 -2063 0
2066 2069 2101 2066 2069 2081 2084 2075 2081 2099 2096 2093 2090 2087 0
-2102 32 34 0
-2102 -32 -34 0
2102 -32 34 0
2102 32 -34 0
-2103 2102 35 0
-2103 -2102 -35 0
2103 -2102 35 0
2103 2102 -35 0
-2104 2103 36 0
-2104 -2103 -36 0
2104 -2103 36 0
2104 2103 -36 0
-2105 38 40 0
-2105 -38 -40 0
2105 -38 40 0
2105 38 -40 0
-2106 2105 41 0
-2106 -2105 -41 0
2106 -2105 41 0
2106 2105 -41 0
-2107 2106 42 0
-2107 -2106 -42 0
2107 -2106 42 0
2107 2106 -42 0
-2108 44 46 0
-2108 -44 -46 0
2108 -44 46 0
2108 44 -46 0
-2109 2108 47 0
-2109 -2108 -47 0
2109 -2108 47 0
2109 2108 -47 0
-2110 2109 48 0
-2110 -2109 -48 0
2110 -2109 48 0
2110 2109 -48 0
-2111 50 52 0
-2111 -50 -52 0
2111 -50 52 0
2111 50 -52 0
-2112 2111 53 0
-2112 -2111 -53 0
2112 -2111 53 0
2112 2111 -53 0
-2113 2112 54 0
-2113 -2112 -54 0
2113 -2112 54 0
2113 2112 -54 0
-2114 62 64 0
-2114 -62 -64 0
2114 -62 64 0
2114 62 -64 0
-2115 2114 65 0
-2115 -2114 -65 0
2115 -2114 65 0
2115 2114 -65 0
-2116 2115 66 0
-2116 -2115 -66 0
2116 -2115 66 0
2116 2115 -66 0
-2117 68 70 0
-2117 -68 -70 0
2117 -68 70 0
2117 68 -70 0
-2118 2117 71 0
-2118 -2117 -71 0
2118 -2117 71 0
2118 2117 -71 0
-2119 2118 72 0
-2119 -2118 -72 0
2119 -2118 72 0
2119 2118 -72 0
-2120 74 76 0
-2120 -74 -76 0
2120 -74 76 0
2120 74 -76 0
-2121 2120 77 0
-2121 -2120 -77 0
2121 -2120 77 0
2121 2120 -77 0
-2122 2121 78 0
-2122 -2121 -78 0
2122 -2121 78 0
2122 2121 -78 0
-2123 80 82 0
-2123 -80 -82 0
2123 -80 82 0
2123 80 -82 0
-2124 2123 83 0
-2124 -2123 -83 0
2124 -2123 83 0
2124 2123 -83 0
-2125 2124 84 0
-2125 -2124 -84 0
2125 -2124 84 0
2125 2124 -84 0
-2126 2116 0
-2126 2125 0
2126 -2116 -2125 0
-2127 2119 0
-2127 2122 0
2127 -2119 -2122 0
-2128 2126 2127 0
-2128 -2126 -2127 0
2128 -2126 2127 0
2128 2126 -2127 0
-2129 2110 0
-2129 2125 0
2129 -2110 -2125 0
-2130 2113 0
-2130 2122 0
2130 -2113 -2122 0
-2131 2129 2130 0
-2131 -2129 -2130 0
2131 -2129 2130 0
2131 2129 -2130 0
-2132 2110 0
-2132 2119 0
2132 -2110 -2119 0
-2133 2113 0
-2133 2116 0
2133 -2113 -2116 0
-2134 2132 2133 0
-2134 -2132 -2133 0
2134 -2132 2133 0
2134 2132 -2133 0
-2135 2104 0
-2135 2125 0
2135 -2104 -2125 0
-2136 2107 0
-2136 2119 0
2136 -2107 -2119 0
-2137 2135 2136 0
-2137 -2135 -2136 0
2137 -2135 2136 0
2137 2135 -2136 0
-2138 2104 0
-2138 2122 0
2138 -2104 -2122 0
-2139 2107 0
-2139 2116 0
2139 -2107 -2116 0
-2140 2138 2139 0
-2140 -2138 -2139 0
2140 -2138 2139 0
2140 2138 -2139 0
-2141 2134 2140 0
-2141 -2134 -2140 0
2141 -2134 2140 0
2141 2134 -2140 0
-2141 0
-2142 2113 2107 0
-2142 -2113 -2107 0
2142 -2113 2107 0
2142 2113 -2107 0
2104 2104 2110 2142 2110 2116 2119 2116 2122 2140 2137 2134 2131 2128 0
-2143 31 32 0
-2143 -31 -32 0
2143 -31 32 0
2143 31 -32 0
-2144 2143 34 0
-2144 -2143 -34 0
2144 -2143 34 0
2144 2143 -34 0
-2145 2144 35 0
-2145 -2144 -35 0
2145 -2144 35 0
2145 2144 -35 0
-2146 2145 36 0
-2146 -2145 -36 0
2146 -2145 36 0
2146 2145 -36 0
-2147 37 38 0
-2147 -37 -38 0
2147 -37 38 0
2147 37 -38 0
-2148 2147 40 0
-2148 -2147 -40 0
2148 -2147 40 0
2148 2147 -40 0
-2149 2148 41 0
-2149 -2148 -41 0
2149 -2148 41 0
2149 2148 -41 0
-2150 2149 42 0
-2150 -2149 -42 0
2150 -2149 42 0
2150 2149 -42 0
-2151 43 44 0
-2151 -43 -44 0
2151 -43 44 0
2151 43 -44 0
-2152 2151 46 0
-2152 -2151 -46 0
2152 -2151 46 0
2152 2151 -46 0
-2153 2152 47 0
-2153 -2152 -47 0
2153 -2152 47 0
2153 2152 -47 0
-2154 2153 48 0
-2154 -2153 -48 0
2154 -2153 48 0
2154 2153 -48 0
-2155 49 50 0
-2155 -49 -50 0
2155 -49 50 0
2155 49 -50 0
-2156 2155 52 0
-2156 -2155 -52 0
2156 -2155 52 0
2156 2155 -52 0
-2157 2156 53 0
-2157 -2156 -53 0
2157 -2156 53 0
2157 2156 -53 0
-2158 2157 54 0
-2158 -2157 -54 0
2158 -2157 54 0
2158 2157 -54 0
-2159 61 62 0
-2159 -61 -62 0
2159 -61 62 0
2159 61 -62 0
-2160 2159 64 0
-2160 -2159 -64 0
2160 -2159 64 0
2160 2159 -64 0
-2161 2160 65 0
-2161 -2160 -65 0
2161 -2160 65 0
2161 2160 -65 0
-2162 2161 66 0
-2162 -2161 -66 0
2162 -2161 66 0
2162 2161 -66 0
-2163 67 68 0
-2163 -67 -68 0
2163 -67 68 0
2163 67 -68 0
-2164 2163 70 0
-2164 -2163 -70 0
2164 -2163 70 0
2164 2163 -70 0
-2165 2164 71 0
-2165 -2164 -71 0
2165 -2164 71 0
2165 2164 -71 0
-2166 2165 72 0
-2166 -2165 -72 0
2166 -2165 72 0
2166 2165 -72 0
-2167 73 74 0
-2167 -73 -74 0
2167 -73 74 0
2167 73 -74 0
-2168 2167 76 0
-2168 -2167 -76 0
2168 -2167 76 0
2168 2167 -76 0
-2169 2168 77 0
-2169 -2168 -77 0
2169 -2168 77 0
2169 2168 -77 0
-2170 2169 78 0
-2170 -2169 -78 0
2170 -2169 78 0
2170 2169 -78 0
-2171 79 80 0
-2171 -79 -80 0
2171 -79 80 0
2171 79 -80 0
-2172 2171 82 0
-2172 -2171 -82 0
2172 -2171 82 0
2172 2171 -82 0
-2173 2172 83 0
-2173 -2172 -83 0
2173 -2172 83 0
2173 2172 -83 0
-2174 2173 84 0
-2174 -2173 -84 0
2174 -2173 84 0
2174 2173 -84 0
-2175 2162 0
-2175 2174 0
2175 -2162 -2174 0
-2176 2166 0
-2176 2170 0
2176 -2166 -2170 0
-2177 2175 2176 0
-2177 -2175 -2176 0
2177 -2175 2176 0
2177 2175 -2176 0
-2178 2154 0
-2178 2174 0
2178 -2154 -2174 0
-2179 2158 0
-2179 2170 0
2179 -2158 -2170 0
-2180 2178 2179 0
-2180 -2178 -2179 0
2180 -2178 2179 0
2180 2178 -2179 0
-2181 2154 0
-2181 2166 0
2181 -2154 -2166 0
-2182 2158 0
-2182 2162 0
2182 -2158 -2162 0
-2183 2181 2182 0
-2183 -2181 -2182 0
2183 -2181 2182 0
2183 2181 -2182 0
-2184 2146 0
-2184 2174 0
2184 -2146 -2174 0
-2185 2150 0
-2185 2166 0
2185 -2150 -2166 0
-2186 2184 2185 0
-2186 -2184 -2185 0
2186 -2184 2185 0
2186 2184 -2185 0
-2187 2146 0
-2187 2170 0
2187 -2146 -2170 0
-2188 2150 0
-2188 2162 0
2188 -2150 -2162 0
-2189 2187 2188 0
-2189 -2187 -2188 0
2189 -2187 2188 0
2189 2187 -2188 0
-2190 2180 2183 0
-2190 -2180 -2183 0
2190 -2180 2183 0
2190 2180 -2183 0
-2191 2190 2189 0
-2191 -2190 -2189 0
2191 -2190 2189 0
2191 2190 -2189 0
-2191 0
-2192 2150 2146 0
-2192 -2150 -2146 0
2192 -2150 2146 0
2192 2150 -2146 0
-2193 2158 2146 0
-2193 -2158 -2146 0
2193 -2158 2146 0
2193 2158 -2146 0
-2194 2158 2150 0
-2194 -2158 -2150 0
2194 -2158 2150 0
2194 2158 -2150 0
-2195 2170 2162 0
-2195 -2170 -2162 0
2195 -2170 2162 0
2195 2170 -2162 0
-2196 2174 2166 0
-2196 -2174 -2166 0
2196 -2174 2166 0
2196 2174 -2166 0
2192 2154 2193 2154 2194 2154 2195 2196 2162 2170 2189 2186 2183 2180 2177 0
-2197 33 34 0
-2197 -33 -34 0
2197 -33 34 0
2197 33 -34 0
-2198 2197 35 0
-2198 -2197 -35 0
2198 -2197 35 0
2198 2197 -35 0
-2199 2198 36 0
-2199 -2198 -36 0
2199 -2198 36 0
2199 2198 -36 0
-2200 39 40 0
-2200 -39 -40 0
2200 -39 40 0
2200 39 -40 0
-2201 2200 41 0
-2201 -2200 -41 0
2201 -2200 41 0
2201 2200 -41 0
-2202 2201 42 0
-2202 -2201 -42 0
2202 -2201 42 0
2202 2201 -42 0
-2203 45 46 0
-2203 -45 -46 0
2203 -45 46 0
2203 45 -46 0
-2204 2203 47 0
-2204 -2203 -47 0
2204 -2203 47 0
2204 2203 -47 0
-2205 2204 48 0
-2205 -2204 -48 0
2205 -2204 48 0
2205 2204 -48 0
-2206 51 52 0
-2206 -51 -52 0
2206 -51 52 0
2206 51 -52 0
-2207 2206 53 0
-2207 -2206 -53 0
2207 -2206 53 0
2207 2206 -53 0
-2208 2207 54 0
-2208 -2207 -54 0
2208 -2207 54 0
2208 2207 -54 0
-2209 63 64 0
-2209 -63 -64 0
2209 -63 64 0
2209 63 -64 0
-2210 2209 65 0
-2210 -2209 -65 0
2210 -2209 65 0
2210 2209 -65 0
-2211 2210 66 0
-2211 -2210 -66 0
2211 -2210 66 0
2211 2210 -66 0
-2212 69 70 0
-2212 -69 -70 0
2212 -69 70 0
2212 69 -70 0
-2213 2212 71 0
-2213 -2212 -71 0
2213 -2212 71 0
2213 2212 -71 0
-2214 2213 72 0
-2214 -2213 -72 0
2214 -2213 72 0
2214 2213 -72 0
-2215 75 76 0
-2215 -75 -76 0
2215 -75 76 0
2215 75 -76 0
-2216 2215 77 0
-2216 -2215 -77 0
2216 -2215 77 0
2216 2215 -77 0
-2217 2216 78 0
-2217 -2216 -78 0
2217 -2216 78 0
2217 2216 -78 0
-2218 81 82 0
-2218 -81 -82 0
2218 -81 82 0
2218 81 -82 0
-2219 2218 83 0
-2219 -2218 -83 0
2219 -2218 83 0
2219 2218 -83 0
-2220 2219 84 0
-2220 -2219 -84 0
2220 -2219 84 0
2220 2219 -84 0
-2221 2211 0
-2221 2220 0
2221 -2211 -2220 0
-2222 2214 0
-2222 2217 0
2222 -2214 -2217 0
-2223 2221 2222 0
-2223 -2221 -2222 0
2223 -2221 2222 0
2223 2221 -2222 0
-2224 2205 0
-2224 2220 0
2224 -2205 -2220 0
-2225 2208 0
-2225 2217 0
2225 -2208 -2217 0
-2226 2224 2225 0
-2226 -2224 -2225 0
2226 -2224 2225 0
2226 2224 -2225 0
-2227 2205 0
-2227 2214 0
2227 -2205 -2214 0
-2228 2208 0
-2228 2211 0
2228 -2208 -2211 0
-2229 2227 2228 0
-2229 -2227 -2228 0
2229 -2227 2228 0
2229 2227 -2228 0
-2230 2199 0
-2230 2220 0
2230 -2199 -2220 0
-2231 2202 0
-2231 2214 0
2231 -2202 -2214 0
-2232 2230 2231 0
-2232 -2230 -2231 0
2232 -2230 2231 0
2232 2230 -2231 0
-2233 2199 0
-2233 2217 0
2233 -2199 -2217 0
-2234 2202 0
-2234 2211 0
2234 -2202 -2211 0
-2235 2233 2234 0
-2235 -2233 -2234 0
2235 -2233 2234 0
2235 2233 -2234 0
-2236 2232 2235 0
-2236 -2232 -2235 0
2236 -2232 2235 0
2236 2232 -2235 0
-2236 0
-2237 2208 2205 0
-2237 -2208 -2205 0
2237 -2208 2205 0
2237 2208 -2205 0
-2238 2214 2211 0
-2238 -2214 -2211 0
2238 -2214 2211 0
2238 2214 -2211 0
-2239 2220 2217 0
-2239 -2220 -2217 0
2239 -2220 2217 0
2239 2220 -2217 0
2199 2199 2202 2202 2237 2238 2239 2235 2232 2229 2226 2223 0
-2240 31 33 0
-2240 -31 -33 0
2240 -31 33 0
2240 31 -33 0
-2241 2240 34 0
-2241 -2240 -34 0
2241 -2240 34 0
2241 2240 -34 0
-2242 2241 35 0
-2242 -2241 -35 0
2242 -2241 35 0
2242 2241 -35 0
-2243 2242 36 0
-2243 -2242 -36 0
2243 -2242 36 0
2243 2242 -36 0
-2244 37 39 0
-2244 -37 -39 0
2244 -37 39 0
2244 37 -39 0
-2245 2244 40 0
-2245 -2244 -40 0
2245 -2244 40 0
2245 2244 -40 0
-2246 2245 41 0
-2246 -2245 -41 0
2246 -2245 41 0
2246 2245 -41 0
-2247 2246 42 0
-2247 -2246 -42 0
2247 -2246 42 0
2247 2246 -42 0
-2248 43 45 0
-2248 -43 -45 0
2248 -43 45 0
2248 43 -45 0
-2249 2248 46 0
-2249 -2248 -46 0
2249 -2248 46 0
2249 2248 -46 0
-2250 2249 47 0
-2250 -2249 -47 0
2250 -2249 47 0
2250 2249 -47 0
-2251 2250 48 0
-2251 -2250 -48 0
2251 -2250 48 0
2251 2250 -48 0
-2252 49 51 0
-2252 -49 -51 0
2252 -49 51 0
2252 49 -51 0
-2253 2252 52 0
-2253 -2252 -52 0
2253 -2252 52 0
2253 2252 -52 0
-2254 2253 53 0
-2254 -2253 -53 0
2254 -2253 53 0
2254 2253 -53 0
-2255 2254 54 0
-2255 -2254 -54 0
2255 -2254 54 0
2255 2254 -54 0
-2256 61 63 0
-2256 -61 -63 0
2256 -61 63 0
2256 61 -63 0
-2257 2256 64 0
-2257 -2256 -64 0
2257 -2256 64 0
2257 2256 -64 0
-2258 2257 65 0
-2258 -2257 -65 0
2258 -2257 65 0
2258 2257 -65 0
-2259 2258 66 0
-2259 -2258 -66 0
2259 -2258 66 0
2259 2258 -66 0
-2260 67 69 0
-2260 -67 -69 0
2260 -67 69 0
2260 67 -69 0
-2261 2260 70 0
-2261 -2260 -70 0
2261 -2260 70 0
2261 2260 -70 0
-2262 2261 71 0
-2262 -2261 -71 0
2262 -2261 71 0
2262 2261 -71 0
-2263 2262 72 0
-2263 -2262 -72 0
2263 -2262 72 0
2263 2262 -72 0
-2264 73 75 0
-2264 -73 -75 0
2264 -73 75 0
2264 73 -75 0
-2265 2264 76 0
-2265 -2264 -76 0
2265 -2264 76 0
2265 2264 -76 0
-2266 2265 77 0
-2266 -2265 -77 0
2266 -2265 77 0
2266 2265 -77 0
-2267 2266 78 0
-2267 -2266 -78 0
2267 -2266 78 0
2267 2266 -78 0
-2268 79 81 0
-2268 -79 -81 0
2268 -79 81 0
2268 79 -81 0
-2269 2268 82 0
-2269 -2268 -82 0
2269 -2268 82 0
2269 2268 -82 0
-2270 2269 83 0
-2270 -2269 -83 0
2270 -2269 83 0
2270 2269 -83 0
-2271 2270 84 0
-2271 -2270 -84 0
2271 -2270 84 0
2271 2270 -84 0
-2272 2259 0
-2272 2271 0
2272 -2259 -2271 0
-2273 2263 0
-2273 2267 0
2273 -2263 -2267 0
-2274 2272 2273 0
-2274 -2272 -2273 0
2274 -2272 2273 0
2274 2272 -2273 0
-2275 2251 0
-2275 2271 0
2275 -2251 -2271 0
-2276 2255 0
-2276 2267 0
2276 -2255 -2267 0
-2277 2275 2276 0
-2277 -2275 -2276 0
2277 -2275 2276 0
2277 2275 -2276 0
-2278 2251 0
-2278 2263 0
2278 -2251 -2263 0
-2279 2255 0
-2279 2259 0
2279 -2255 -2259 0
-2280 2278 2279 0
-2280 -2278 -2279 0
2280 -2278 2279 0
2280 2278 -2279 0
-2281 2243 0
-2281 2271 0
2281 -2243 -2271 0
-2282 2247 0
-2282 2263 0
2282 -2247 -2263 0
-2283 2281 2282 0
-2283 -2281 -2282 0
2283 -2281 2282 0
2283 2281 -2282 0
-2284 2243 0
-2284 2267 0
2284 -2243 -2267 0
-2285 2247 0
-2285 2259 0
2285 -2247 -2259 0
-2286 2284 2285 0
-2286 -2284 -2285 0
2286 -2284 2285 0
2286 2284 -2285 0
-2287 2277 2283 0
-2287 -2277 -2283 0
2287 -2277 2283 0
2287 2277 -2283 0
-2288 2287 2286 0
-2288 -2287 -2286 0
2288 -2287 2286 0
2288 2287 -2286 0
-2288 0
-2289 2251 2243 0
-2289 -2251 -2243 0
2289 -2251 2243 0
2289 2251 -2243 0
-2290 2255 2243 0
-2290 -2255 -2243 0
2290 -2255 2243 0
2290 2255 -2243 0
-2291 2255 2251 0
-2291 -2255 -2251 0
2291 -2255 2251 0
2291 2255 -2251 0
-2292 2263 2259 0
-2292 -2263 -2259 0
2292 -2263 2259 0
2292 2263 -2259 0
-2293 2271 2267 0
-2293 -2271 -2267 0
2293 -2271 2267 0
2293 2271 -2267 0
2247 2289 2290 2247 2247 2291 2267 2271 2292 2293 2286 2283 2280 2277 2274 0
-2294 32 33 0
-2294 -32 -33 0
2294 -32 33 0
2294 32 -33 0
-2295 2294 34 0
-2295 -2294 -34 0
2295 -2294 34 0
2295 2294 -34 0
-2296 2295 35 0
-2296 -2295 -35 0
2296 -2295 35 0
2296 2295 -35 0
-2297 2296 36 0
-2297 -2296 -36 0
2297 -2296 36 0
2297 2296 -36 0
-2298 38 39 0
-2298 -38 -39 0
2298 -38 39 0
2298 38 -39 0
-2299 2298 40 0
-2299 -2298 -40 0
2299 -2298 40 0
2299 2298 -40 0
-2300 2299 41 0
-2300 -2299 -41 0
2300 -2299 41 0
2300 2299 -41 0
-2301 2300 42 0
-2301 -2300 -42 0
2301 -2300 42 0
2301 2300 -42 0
-2302 44 45 0
-2302 -44 -45 0
2302 -44 45 0
2302 44 -45 0
-2303 2302 46 0
-2303 -2302 -46 0
2303 -2302 46 0
2303 2302 -46 0
-2304 2303 47 0
-2304 -2303 -47 0
2304 -2303 47 0
2304 2303 -47 0
-2305 2304 48 0
-2305 -2304 -48 0
2305 -2304 48 0
2305 2304 -48 0
-2306 50 51 0
-2306 -50 -51 0
2306 -50 51 0
2306 50 -51 0
-2307 2306 52 0
-2307 -2306 -52 0
2307 -2306 52 0
2307 2306 -52 0
-2308 2307 53 0
-2308 -2307 -53 0
2308 -2307 53 0
2308 2307 -53 0
-2309 2308 54 0
-2309 -2308 -54 0
2309 -2308 54 0
2309 2308 -54 0
-2310 62 63 0
-2310 -62 -63 0
2310 -62 63 0
2310 62 -63 0
-2311 2310 64 0
-2311 -2310 -64 0
2311 -2310 64 0
2311 2310 -64 0
-2312 2311 65 0
-2312 -2311 -65 0
2312 -2311 65 0
2312 2311 -65 0
-2313 2312 66 0
-2313 -2312 -66 0
2313 -2312 66 0
2313 2312 -66 0
-2314 68 69 0
-2314 -68 -69 0
2314 -68 69 0
2314 68 -69 0
-2315 2314 70 0
-2315 -2314 -70 0
2315 -2314 70 0
2315 2314 -70 0
-2316 2315 71 0
-2316 -2315 -71 0
2316 -2315 71 0
2316 2315 -71 0
-2317 2316 72 0
-2317 -2316 -72 0
2317 -2316 72 0
2317 2316 -72 0
-2318 74 75 0
-2318 -74 -75 0
2318 -74 75 0
2318 74 -75 0
-2319 2318 76 0
-2319 -2318 -76 0
2319 -2318 76 0
2319 2318 -76 0
-2320 2319 77 0
-2320 -2319 -77 0
2320 -2319 77 0
2320 2319 -77 0
-2321 2320 78 0
-2321 -2320 -78 0
2321 -2320 78 0
2321 2320 -78 0
-2322 80 81 0
-2322 -80 -81 0
2322 -80 81 0
2322 80 -81 0
-2323 2322 82 0
-2323 -2322 -82 0
2323 -2322 82 0
2323 2322 -82 0
-2324 2323 83 0
-2324 -2323 -83 0
2324 -2323 83 0
2324 2323 -83 0
-2325 2324 84 0
-2325 -2324 -84 0
2325 -2324 84 0
2325 2324 -84 0
-2326 2313 0
-2326 2325 0
2326 -2313 -2325 0
-2327 2317 0
-2327 2321 0
2327 -2317 -2321 0
-2328 2326 2327 0
-2328 -2326 -2327 0
2328 -2326 2327 0
2328 2326 -2327 0
-2329 2305 0
-2329 2325 0
2329 -2305 -2325 0
-2330 2309 0
-2330 2321 0
2330 -2309 -2321 0
-2331 2329 2330 0
-2331 -2329 -2330 0
2331 -2329 2330 0
2331 2329 -2330 0
-2332 2305 0
-2332 2317 0
2332 -2305 -2317 0
-2333 2309 0
-2333 2313 0
2333 -2309 -2313 0
-2334 2332 2333 0
-2334 -2332 -2333 0
2334 -2332 2333 0
2334 2332 -2333 0
-2335 2297 0
-2335 2325 0
2335 -2297 -2325 0
-2336 2301 0
-2336 2317 0
2336 -2301 -2317 0
-2337 2335 2336 0
-2337 -2335 -2336 0
2337 -2335 2336 0
2337 2335 -2336 0
-2338 2297 0
-2338 2321 0
2338 -2297 -2321 0
-2339 2301 0
-2339 2313 0
2339 -2301 -2313 0
-2340 2338 2339 0
-2340 -2338 -2339 0
2340 -2338 2339 0
2340 2338 -2339 0
-2341 2334 2337 0
-2341 -2334 -2337 0
2341 -2334 2337 0
2341 2334 -2337 0
-2342 2341 2340 0
-2342 -2341 -2340 0
2342 -2341 2340 0
2342 2341 -2340 0
-2342 0
-2343 2305 2301 0
-2343 -2305 -2301 0
2343 -2305 2301 0
2343 2305 -2301 0
-2344 2309 2301 0
-2344 -2309 -2301 0
2344 -2309 2301 0
2344 2309 -2301 0
-2345 2309 2305 0
-2345 -2309 -2305 0
2345 -2309 2305 0
2345 2309 -2305 0
-2346 2317 2313 0
-2346 -2317 -2313 0
2346 -2317 2313 0
2346 2317 -2313 0
-2347 2325 2321 0
-2347 -2325 -2321 0
2347 -2325 2321 0
2347 2325 -2321 0
2297 2297 2297 2343 2344 2345 2313 2317 2346 2347 2340 2337 2334 2331 2328 0
-2348 31 32 0
-2348 -31 -32 0
2348 -31 32 0
2348 31 -32 0
-2349 2348 33 0
-2349 -2348 -33 0
2349 -2348 33 0
2349 2348 -33 0
-2350 2349 34 0
-2350 -2349 -34 0
2350 -2349 34 0
2350 2349 -34 0
-2351 2350 35 0
-2351 -2350 -35 0
2351 -2350 35 0
2351 2350 -35 0
-2352 2351 36 0
-2352 -2351 -36 0
2352 -2351 36 0
2352 2351 -36 0
-2353 37 38 0
-2353 -37 -38 0
2353 -37 38 0
2353 37 -38 0
-2354 2353 39 0
-2354 -2353 -39 0
2354 -2353 39 0
2354 2353 -39 0
-2355 2354 40 0
-2355 -2354 -40 0
2355 -2354 40 0
2355 2354 -40 0
-2356 2355 41 0
-2356 -2355 -41 0
2356 -2355 41 0
2356 2355 -41 0
-2357 2356 42 0
-2357 -2356 -42 0
2357 -2356 42 0
2357 2356 -42 0
-2358 43 44 0
-2358 -43 -44 0
2358 -43 44 0
2358 43 -44 0
-2359 2358 45 0
-2359 -2358 -45 0
2359 -2358 45 0
2359 2358 -45 0
-2360 2359 46 0
-2360 -2359 -46 0
2360 -2359 46 0
2360 2359 -46 0
-2361 2360 47 0
-2361 -2360 -47 0
2361 -2360 47 0
2361 2360 -47 0
-2362 2361 48 0
-2362 -2361 -48 0
2362 -2361 48 0
2362 2361 -48 0
-2363 49 50 0
-2363 -49 -50 0
2363 -49 50 0
2363 49 -50 0
-2364 2363 51 0
-2364 -2363 -51 0
2364 -2363 51 0
2364 2363 -51 0
-2365 2364 52 0
-2365 -2364 -52 0
2365 -2364 52 0
2365 2364 -52 0
-2366 2365 53 0
-2366 -2365 -53 0
2366 -2365 53 0
2366 2365 -53 0
-2367 2366 54 0
-2367 -2366 -54 0
2367 -2366 54 0
2367 2366 -54 0
-2368 61 62 0
-2368 -61 -62 0
2368 -61 62 0
2368 61 -62 0
-2369 2368 63 0
-2369 -2368 -63 0
2369 -2368 63 0
2369 2368 -63 0
-2370 2369 64 0
-2370 -2369 -64 0
2370 -2369 64 0
2370 2369 -64 0
-2371 2370 65 0
-2371 -2370 -65 0
2371 -2370 65 0
2371 2370 -65 0
-2372 2371 66 0
-2372 -2371 -66 0
2372 -2371 66 0
2372 2371 -66 0
-2373 67 68 0
-2373 -67 -68 0
2373 -67 68 0
2373 67 -68 0
-2374 2373 69 0
-2374 -2373 -69 0
2374 -2373 69 0
2374 2373 -69 0
-2375 2374 70 0
-2375 -2374 -70 0
2375 -2374 70 0
2375 2374 -70 0
-2376 2375 71 0
-2376 -2375 -71 0
2376 -2375 71 0
2376 2375 -71 0
-2377 2376 72 0
-2377 -2376 -72 0
2377 -2376 72 0
2377 2376 -72 0
-2378 73 74 0
-2378 -73 -74 0
2378 -73 74 0
2378 73 -74 0
-2379 2378 75 0
-2379 -2378 -75 0
2379 -2378 75 0
2379 2378 -75 0
-2380 2379 76 0
-2380 -2379 -76 0
2380 -2379 76 0
2380 2379 -76 0
-2381 2380 77 0
-2381 -2380 -77 0
2381 -2380 77 0
2381 2380 -77 0
-2382 2381 78 0
-2382 -2381 -78 0
2382 -2381 78 0
2382 2381 -78 0
-2383 79 80 0
-2383 -79 -80 0
2383 -79 80 0
2383 79 -80 0
-2384 2383 81 0
-2384 -2383 -81 0
2384 -2383 81 0
2384 2383 -81 0
-2385 2384 82 0
-2385 -2384 -82 0
2385 -2384 82 0
2385 2384 -82 0
-2386 2385 83 0
-2386 -2385 -83 0
2386 -2385 83 0
2386 2385 -83 0
-2387 2386 84 0
-2387 -2386 -84 0
2387 -2386 84 0
2387 2386 -84 0
-2388 2372 0
-2388 2387 0
2388 -2372 -2387 0
-2389 2377 0
-2389 2382 0
2389 -2377 -2382 0
-2390 2388 2389 0
-2390 -2388 -2389 0
2390 -2388 2389 0
2390 2388 -2389 0
-2391 2362 0
-2391 2387 0
2391 -2362 -2387 0
-2392 2367 0
-2392 2382 0
2392 -2367 -2382 0
-2393 2391 2392 0
-2393 -2391 -2392 0
2393 -2391 2392 0
2393 2391 -2392 0
-2394 2362 0
-2394 2377 0
2394 -2362 -2377 0
-2395 2367 0
-2395 2372 0
2395 -2367 -2372 0
-2396 2394 2395 0
-2396 -2394 -2395 0
2396 -2394 2395 0
2396 2394 -2395 0
-2397 2352 0
-2397 2387 0
2397 -2352 -2387 0
-2398 2357 0
-2398 2377 0
2398 -2357 -2377 0
-2399 2397 2398 0
-2399 -2397 -2398 0
2399 -2397 2398 0
2399 2397 -2398 0
-2400 2352 0
-2400 2382 0
2400 -2352 -2382 0
-2401 2357 0
-2401 2372 0
2401 -2357 -2372 0
-2402 2400 2401 0
-2402 -2400 -2401 0
2402 -2400 2401 0
2402 2400 -2401 0
-2403 2393 2396 0
-2403 -2393 -2396 0
2403 -2393 2396 0
2403 2393 -2396 0
-2404 2403 2399 0
-2404 -2403 -2399 0
2404 -2403 2399 0
2404 2403 -2399 0
-2405 2404 2402 0
-2405 -2404 -2402 0
2405 -2404 2402 0
2405 2404 -2402 0
-2405 0
-2406 2357 2352 0
-2406 -2357 -2352 0
2406 -2357 2352 0
2406 2357 -2352 0
-2407 2362 2352 0
-2407 -2362 -2352 0
2407 -2362 2352 0
2407 2362 -2352 0
-2408 2367 2352 0
-2408 -2367 -2352 0
2408 -2367 2352 0
2408 2367 -2352 0
-2409 2362 2357 0
-2409 -2362 -2357 0
2409 -2362 2357 0
2409 2362 -2357 0
-2410 2367 2357 0
-2410 -2367 -2357 0
2410 -2367 2357 0
2410 2367 -2357 0
-2411 2367 2362 0
-2411 -2367 -2362 0
2411 -2367 2362 0
2411 2367 -2362 0
-2412 2382 2372 0
-2412 -2382 -2372 0
2412 -2382 2372 0
2412 2382 -2372 0
-2413 2387 2377 0
-2413 -2387 -2377 0
2413 -2387 2377 0
2413 2387 -2377 0
-2414 2377 2372 0
-2414 -2377 -2372 0
2414 -2377 2372 0
2414 2377 -2372 0
-2415 2387 2382 0
-2415 -2387 -2382 0
2415 -2387 2382 0
2415 2387 -2382 0
2406 2407 2408 2409 2410 2411 2412 2413 2414 2415 2402 2399 2396 2393 2390 0
2416 2417 2418 2419 2420 2421 0
-2416 0
-2417 0
-2418 0
-2419 0
2422 2423 2424 2425 2426 2427 0
-2422 0
-2423 0
-2424 0
-2425 0
-2428 2416 2422 0
-2428 -2416 -2422 0
2428 -2416 2422 0
2428 2416 -2422 0
-2429 2417 2423 0
-2429 -2417 -2423 0
2429 -2417 2423 0
2429 2417 -2423 0
-2430 2418 2424 0
-2430 -2418 -2424 0
2430 -2418 2424 0
2430 2418 -2424 0
-2431 2419 2425 0
-2431 -2419 -2425 0
2431 -2419 2425 0
2431 2419 -2425 0
-2432 2420 2426 0
-2432 -2420 -2426 0
2432 -2420 2426 0
2432 2420 -2426 0
-2433 2421 2427 0
-2433 -2421 -2427 0
2433 -2421 2427 0
2433 2421 -2427 0
2428 2429 2430 2431 2432 2433 0
2420 2426 0
2434 2435 2436 2437 2438 2439 0
-2440 2434 0
-2440 31 0
2440 -2434 -31 0
-2441 2435 0
-2441 32 0
2441 -2435 -32 0
-2442 2436 0
-2442 33 0
2442 -2436 -33 0
-2443 2437 0
-2443 34 0
2443 -2437 -34 0
-2444 2438 0
-2444 35 0
2444 -2438 -35 0
-2445 2439 0
-2445 36 0
2445 -2439 -36 0
-2446 2440 2441 0
-2446 -2440 -2441 0
2446 -2440 2441 0
2446 2440 -2441 0
-2447 2446 2442 0
-2447 -2446 -2442 0
2447 -2446 2442 0
2447 2446 -2442 0
-2448 2447 2443 0
-2448 -2447 -2443 0
2448 -2447 2443 0
2448 2447 -2443 0
-2449 2448 2444 0
-2449 -2448 -2444 0
2449 -2448 2444 0
2449 2448 -2444 0
-2450 2449 2445 0
-2450 -2449 -2445 0
2450 -2449 2445 0
2450 2449 -2445 0
-2450 0
-2451 2434 0
-2451 37 0
2451 -2434 -37 0
-2452 2435 0
-2452 38 0
2452 -2435 -38 0
-2453 2436 0
-2453 39 0
2453 -2436 -39 0
-2454 2437 0
-2454 40 0
2454 -2437 -40 0
-2455 2438 0
-2455 41 0
2455 -2438 -41 0
-2456 2439 0
-2456 42 0
2456 -2439 -42 0
-2457 2451 2452 0
-2457 -2451 -2452 0
2457 -2451 2452 0
2457 2451 -2452 0
-2458 2457 2453 0
-2458 -2457 -2453 0
2458 -2457 2453 0
2458 2457 -2453 0
-2459 2458 2454 0
-2459 -2458 -2454 0
2459 -2458 2454 0
2459 2458 -2454 0
-2460 2459 2455 0
-2460 -2459 -2455 0
2460 -2459 2455 0
2460 2459 -2455 0
-2461 2460 2456 0
-2461 -2460 -2456 0
2461 -2460 2456 0
2461 2460 -2456 0
-2461 0
-2462 2434 0
-2462 43 0
2462 -2434 -43 0
-2463 2435 0
-2463 44 0
2463 -2435 -44 0
-2464 2436 0
-2464 45 0
2464 -2436 -45 0
-2465 2437 0
-2465 46 0
2465 -2437 -46 0
-2466 2438 0
-2466 47 0
2466 -2438 -47 0
-2467 2439 0
-2467 48 0
2467 -2439 -48 0
-2468 2462 2463 0
-2468 -2462 -2463 0
2468 -2462 2463 0
2468 2462 -2463 0
-2469 2468 2464 0
-2469 -2468 -2464 0
2469 -2468 2464 0
2469 2468 -2464 0
-2470 2469 2465 0
-2470 -2469 -2465 0
2470 -2469 2465 0
2470 2469 -2465 0
-2471 2470 2466 0
-2471 -2470 -2466 0
2471 -2470 2466 0
2471 2470 -2466 0
-2472 2471 2467 0
-2472 -2471 -2467 0
2472 -2471 2467 0
2472 2471 -2467 0
-2472 0
-2473 2434 0
-2473 49 0
2473 -2434 -49 0
-2474 2435 0
-2474 50 0
2474 -2435 -50 0
-2475 2436 0
-2475 51 0
2475 -2436 -51 0
-2476 2437 0
-2476 52 0
2476 -2437 -52 0
-2477 2438 0
-2477 53 0
2477 -2438 -53 0
-2478 2439 0
-2478 54 0
2478 -2439 -54 0
-2479 2473 2474 0
-2479 -2473 -2474 0
2479 -2473 2474 0
2479 2473 -2474 0
-2480 2479 2475 0
-2480 -2479 -2475 0
2480 -2479 2475 0
2480 2479 -2475 0
-2481 2480 2476 0
-2481 -2480 -2476 0
2481 -2480 2476 0
2481 2480 -2476 0
-2482 2481 2477 0
-2482 -2481 -2477 0
2482 -2481 2477 0
2482 2481 -2477 0
-2483 2482 2478 0
-2483 -2482 -2478 0
2483 -2482 2478 0
2483 2482 -2478 0
-2483 0
-2484 2434 0
-2484 97 0
2484 -2434 -97 0
-2485 2435 0
-2485 98 0
2485 -2435 -98 0
-2486 2436 0
-2486 99 0
2486 -2436 -99 0
-2487 2437 0
-2487 100 0
2487 -2437 -100 0
-2488 2439 0
-2488 102 0
2488 -2439 -102 0
-2489 2484 2485 0
-2489 -2484 -2485 0
2489 -2484 2485 0
2489 2484 -2485 0
-2490 2489 2486 0
-2490 -2489 -2486 0
2490 -2489 2486 0
2490 2489 -2486 0
-2491 2490 2487 0
-2491 -2490 -2487 0
2491 -2490 2487 0
2491 2490 -2487 0
-2492 2491 2488 0
-2492 -2491 -2488 0
2492 -2491 2488 0
2492 2491 -2488 0
2493 2494 2495 2496 2497 2498 0
-2499 2493 0
-2499 31 0
2499 -2493 -31 0
-2500 2494 0
-2500 32 0
2500 -2494 -32 0
-2501 2495 0
-2501 33 0
2501 -2495 -33 0
-2502 2496 0
-2502 34 0
2502 -2496 -34 0
-2503 2497 0
-2503 35 0
2503 -2497 -35 0
-2504 2498 0
-2504 36 0
2504 -2498 -36 0
-2505 2499 2500 0
-2505 -2499 -2500 0
2505 -2499 2500 0
2505 2499 -2500 0
-2506 2505 2501 0
-2506 -2505 -2501 0
2506 -2505 2501 0
2506 2505 -2501 0
-2507 2506 2502 0
-2507 -2506 -2502 0
2507 -2506 2502 0
2507 2506 -2502 0
-2508 2507 2503 0
-2508 -2507 -2503 0
2508 -2507 2503 0
2508 2507 -2503 0
-2509 2508 2504 0
-2509 -2508 -2504 0
2509 -2508 2504 0
2509 2508 -2504 0
-2509 0
-2510 2493 0
-2510 37 0
2510 -2493 -37 0
-2511 2494 0
-2511 38 0
2511 -2494 -38 0
-2512 2495 0
-2512 39 0
2512 -2495 -39 0
-2513 2496 0
-2513 40 0
2513 -2496 -40 0
-2514 2497 0
-2514 41 0
2514 -2497 -41 0
-2515 2498 0
-2515 42 0
2515 -2498 -42 0
-2516 2510 2511 0
-2516 -2510 -2511 0
2516 -2510 2511 0
2516 2510 -2511 0
-2517 2516 2512 0
-2517 -2516 -2512 0
2517 -2516 2512 0
2517 2516 -2512 0
-2518 2517 2513 0
-2518 -2517 -2513 0
2518 -2517 2513 0
2518 2517 -2513 0
-2519 2518 2514 0
-2519 -2518 -2514 0
2519 -2518 2514 0
2519 2518 -2514 0
-2520 2519 2515 0
-2520 -2519 -2515 0
2520 -2519 2515 0
2520 2519 -2515 0
-2520 0
-2521 2493 0
-2521 43 0
2521 -2493 -43 0
-2522 2494 0
-2522 44 0
2522 -2494 -44 0
-2523 2495 0
-2523 45 0
2523 -2495 -45 0
-2524 2496 0
-2524 46 0
2524 -2496 -46 0
-2525 2497 0
-2525 47 0
2525 -2497 -47 0
-2526 2498 0
-2526 48 0
2526 -2498 -48 0
-2527 2521 2522 0
-2527 -2521 -2522 0
2527 -2521 2522 0
2527 2521 -2522 0
-2528 2527 2523 0
-2528 -2527 -2523 0
2528 -2527 2523 0
2528 2527 -2523 0
-2529 2528 2524 0
-2529 -2528 -2524 0
2529 -2528 2524 0
2529 2528 -2524 0
-2530 2529 2525 0
-2530 -2529 -2525 0
2530 -2529 2525 0
2530 2529 -2525 0
-2531 2530 2526 0
-2531 -2530 -2526 0
2531 -2530 2526 0
2531 2530 -2526 0
-2531 0
-2532 2493 0
-2532 49 0
2532 -2493 -49 0
-2533 2494 0
-2533 50 0
2533 -2494 -50 0
-2534 2495 0
-2534 51 0
2534 -2495 -51 0
-2535 2496 0
-2535 52 0
2535 -2496 -52 0
-2536 2497 0
-2536 53 0
2536 -2497 -53 0
-2537 2498 0
-2537 54 0
2537 -2498 -54 0
-2538 2532 2533 0
-2538 -2532 -2533 0
2538 -2532 2533 0
2538 2532 -2533 0
-2539 2538 2534 0
-2539 -2538 -2534 0
2539 -2538 2534 0
2539 2538 -2534 0
-2540 2539 2535 0
-2540 -2539 -2535 0
2540 -2539 2535 0
2540 2539 -2535 0
-2541 2540 2536 0
-2541 -2540 -2536 0
2541 -2540 2536 0
2541 2540 -2536 0
-2542 2541 2537 0
-2542 -2541 -2537 0
2542 -2541 2537 0
2542 2541 -2537 0
-2542 0
-2543 2493 0
-2543 97 0
2543 -2493 -97 0
-2544 2494 0
-2544 98 0
2544 -2494 -98 0
-2545 2495 0
-2545 99 0
2545 -2495 -99 0
-2546 2496 0
-2546 100 0
2546 -2496 -100 0
-2547 2498 0
-2547 102 0
2547 -2498 -102 0
-2548 2543 2544 0
-2548 -2543 -2544 0
2548 -2543 2544 0
2548 2543 -2544 0
-2549 2548 2545 0
-2549 -2548 -2545 0
2549 -2548 2545 0
2549 2548 -2545 0
-2550 2549 2546 0
-2550 -2549 -2546 0
2550 -2549 2546 0
2550 2549 -2546 0
-2551 2550 2547 0
-2551 -2550 -2547 0
2551 -2550 2547 0
2551 2550 -2547 0
-2552 2434 2493 0
-2552 -2434 -2493 0
2552 -2434 2493 0
2552 2434 -2493 0
-2553 2435 2494 0
-2553 -2435 -2494 0
2553 -2435 2494 0
2553 2435 -2494 0
-2554 2436 2495 0
-2554 -2436 -2495 0
2554 -2436 2495 0
2554 2436 -2495 0
-2555 2437 2496 0
-2555 -2437 -2496 0
2555 -2437 2496 0
2555 2437 -2496 0
-2556 2438 2497 0
-2556 -2438 -2497 0
2556 -2438 2497 0
2556 2438 -2497 0
-2557 2439 2498 0
-2557 -2439 -2498 0
2557 -2439 2498 0
2557 2439 -2498 0
2552 2553 2554 2555 2556 2557 0
2492 2551 0
2558 2559 2560 2561 2562 2563 0
-2564 2558 0
-2564 -31 0
2564 -2558 31 0
-2565 2559 0
-2565 32 0
2565 -2559 -32 0
-2566 2560 0
-2566 33 0
2566 -2560 -33 0
-2567 2561 0
-2567 34 0
2567 -2561 -34 0
-2568 2562 0
-2568 35 0
2568 -2562 -35 0
-2569 2563 0
-2569 36 0
2569 -2563 -36 0
-2570 2564 2565 0
-2570 -2564 -2565 0
2570 -2564 2565 0
2570 2564 -2565 0
-2571 2570 2566 0
-2571 -2570 -2566 0
2571 -2570 2566 0
2571 2570 -2566 0
-2572 2571 2567 0
-2572 -2571 -2567 0
2572 -2571 2567 0
2572 2571 -2567 0
-2573 2572 2568 0
-2573 -2572 -2568 0
2573 -2572 2568 0
2573 2572 -2568 0
-2574 2573 2569 0
-2574 -2573 -2569 0
2574 -2573 2569 0
2574 2573 -2569 0
-2574 0
-2575 2558 0
-2575 37 0
2575 -2558 -37 0
-2576 2559 0
-2576 -38 0
2576 -2559 38 0
-2577 2560 0
-2577 39 0
2577 -2560 -39 0
-2578 2561 0
-2578 40 0
2578 -2561 -40 0
-2579 2562 0
-2579 41 0
2579 -2562 -41 0
-2580 2563 0
-2580 42 0
2580 -2563 -42 0
-2581 2575 2576 0
-2581 -2575 -2576 0
2581 -2575 2576 0
2581 2575 -2576 0
-2582 2581 2577 0
-2582 -2581 -2577 0
2582 -2581 2577 0
2582 2581 -2577 0
-2583 2582 2578 0
-2583 -2582 -2578 0
2583 -2582 2578 0
2583 2582 -2578 0
-2584 2583 2579 0
-2584 -2583 -2579 0
2584 -2583 2579 0
2584 2583 -2579 0
-2585 2584 2580 0
-2585 -2584 -2580 0
2585 -2584 2580 0
2585 2584 -2580 0
-2585 0
-2586 2558 0
-2586 43 0
2586 -2558 -43 0
-2587 2559 0
-2587 44 0
2587 -2559 -44 0
-2588 2560 0
-2588 -45 0
2588 -2560 45 0
-2589 2561 0
-2589 46 0
2589 -2561 -46 0
-2590 2562 0
-2590 47 0
2590 -2562 -47 0
-2591 2563 0
-2591 48 0
2591 -2563 -48 0
-2592 2586 2587 0
-2592 -2586 -2587 0
2592 -2586 2587 0
2592 2586 -2587 0
-2593 2592 2588 0
-2593 -2592 -2588 0
2593 -2592 2588 0
2593 2592 -2588 0
-2594 2593 2589 0
-2594 -2593 -2589 0
2594 -2593 2589 0
2594 2593 -2589 0
-2595 2594 2590 0
-2595 -2594 -2590 0
2595 -2594 2590 0
2595 2594 -2590 0
-2596 2595 2591 0
-2596 -2595 -2591 0
2596 -2595 2591 0
2596 2595 -2591 0
-2596 0
-2597 2558 0
-2597 49 0
2597 -2558 -49 0
-2598 2559 0
-2598 50 0
2598 -2559 -50 0
-2599 2560 0
-2599 51 0
2599 -2560 -51 0
-2600 2561 0
-2600 -52 0
2600 -2561 52 0
-2601 2562 0
-2601 53 0
2601 -2562 -53 0
-2602 2563 0
-2602 54 0
2602 -2563 -54 0
-2603 2597 2598 0
-2603 -2597 -2598 0
2603 -2597 2598 0
2603 2597 -2598 0
-2604 2603 2599 0
-2604 -2603 -2599 0
2604 -2603 2599 0
2604 2603 -2599 0
-2605 2604 2600 0
-2605 -2604 -2600 0
2605 -2604 2600 0
2605 2604 -2600 0
-2606 2605 2601 0
-2606 -2605 -2601 0
2606 -2605 2601 0
2606 2605 -2601 0
-2607 2606 2602 0
-2607 -2606 -2602 0
2607 -2606 2602 0
2607 2606 -2602 0
-2607 0
-2608 2558 0
-2608 97 0
2608 -2558 -97 0
-2609 2559 0
-2609 98 0
2609 -2559 -98 0
-2610 2560 0
-2610 99 0
2610 -2560 -99 0
-2611 2561 0
-2611 100 0
2611 -2561 -100 0
-2612 2563 0
-2612 102 0
2612 -2563 -102 0
-2613 2608 2609 0
-2613 -2608 -2609 0
2613 -2608 2609 0
2613 2608 -2609 0
-2614 2613 2610 0
-2614 -2613 -2610 0
2614 -2613 2610 0
2614 2613 -2610 0
-2615 2614 2611 0
-2615 -2614 -2611 0
2615 -2614 2611 0
2615 2614 -2611 0
-2616 2615 2562 0
-2616 -2615 -2562 0
2616 -2615 2562 0
2616 2615 -2562 0
-2617 2616 2612 0
-2617 -2616 -2612 0
2617 -2616 2612 0
2617 2616 -2612 0
2618 2619 2620 2621 2622 2623 0
-2624 2618 0
-2624 -31 0
2624 -2618 31 0
-2625 2619 0
-2625 32 0
2625 -2619 -32 0
-2626 2620 0
-2626 33 0
2626 -2620 -33 0
-2627 2621 0
-2627 34 0
2627 -2621 -34 0
-2628 2622 0
-2628 35 0
2628 -2622 -35 0
-2629 2623 0
-2629 36 0
2629 -2623 -36 0
-2630 2624 2625 0
-2630 -2624 -2625 0
2630 -2624 2625 0
2630 2624 -2625 0
-2631 2630 2626 0
-2631 -2630 -2626 0
2631 -2630 2626 0
2631 2630 -2626 0
-2632 2631 2627 0
-2632 -2631 -2627 0
2632 -2631 2627 0
2632 2631 -2627 0
-2633 2632 2628 0
-2633 -2632 -2628 0
2633 -2632 2628 0
2633 2632 -2628 0
-2634 2633 2629 0
-2634 -2633 -2629 0
2634 -2633 2629 0
2634 2633 -2629 0
-2634 0
-2635 2618 0
-2635 37 0
2635 -2618 -37 0
-2636 2619 0
-2636 -38 0
2636 -2619 38 0
-2637 2620 0
-2637 39 0
2637 -2620 -39 0
-2638 2621 0
-2638 40 0
2638 -2621 -40 0
-2639 2622 0
-2639 41 0
2639 -2622 -41 0
-2640 2623 0
-2640 42 0
2640 -2623 -42 0
-2641 2635 2636 0
-2641 -2635 -2636 0
2641 -2635 2636 0
2641 2635 -2636 0
-2642 2641 2637 0
-2642 -2641 -2637 0
2642 -2641 2637 0
2642 2641 -2637 0
-2643 2642 2638 0
-2643 -2642 -2638 0
2643 -2642 2638 0
2643 2642 -2638 0
-2644 2643 2639 0
-2644 -2643 -2639 0
2644 -2643 2639 0
2644 2643 -2639 0
-2645 2644 2640 0
-2645 -2644 -2640 0
2645 -2644 2640 0
2645 2644 -2640 0
-2645 0
-2646 2618 0
-2646 43 0
2646 -2618 -43 0
-2647 2619 0
-2647 44 0
2647 -2619 -44 0
-2648 2620 0
-2648 -45 0
2648 -2620 45 0
-2649 2621 0
-2649 46 0
2649 -2621 -46 0
-2650 2622 0
-2650 47 0
2650 -2622 -47 0
-2651 2623 0
-2651 48 0
2651 -2623 -48 0
-2652 2646 2647 0
-2652 -2646 -2647 0
2652 -2646 2647 0
2652 2646 -2647 0
-2653 2652 2648 0
-2653 -2652 -2648 0
2653 -2652 2648 0
2653 2652 -2648 0
-2654 2653 2649 0
-2654 -2653 -2649 0
2654 -2653 2649 0
2654 2653 -2649 0
-2655 2654 2650 0
-2655 -2654 -2650 0
2655 -2654 2650 0
2655 2654 -2650 0
-2656 2655 2651 0
-2656 -2655 -2651 0
2656 -2655 2651 0
2656 2655 -2651 0
-2656 0
-2657 2618 0
-2657 49 0
2657 -2618 -49 0
-2658 2619 0
-2658 50 0
2658 -2619 -50 0
-2659 2620 0
-2659 51 0
2659 -2620 -51 0
-2660 2621 0
-2660 -52 0
2660 -2621 52 0
-2661 2622 0
-2661 53 0
2661 -2622 -53 0
-2662 2623 0
-2662 54 0
2662 -2623 -54 0
-2663 2657 2658 0
-2663 -2657 -2658 0
2663 -2657 2658 0
2663 2657 -2658 0
-2664 2663 2659 0
-2664 -2663 -2659 0
2664 -2663 2659 0
2664 2663 -2659 0
-2665 2664 2660 0
-2665 -2664 -2660 0
2665 -2664 2660 0
2665 2664 -2660 0
-2666 2665 2661 0
-2666 -2665 -2661 0
2666 -2665 2661 0
2666 2665 -2661 0
-2667 2666 2662 0
-2667 -2666 -2662 0
2667 -2666 2662 0
2667 2666 -2662 0
-2667 0
-2668 2618 0
-2668 97 0
2668 -2618 -97 0
-2669 2619 0
-2669 98 0
2669 -2619 -98 0
-2670 2620 0
-2670 99 0
2670 -2620 -99 0
-2671 2621 0
-2671 100 0
2671 -2621 -100 0
-2672 2623 0
-2672 102 0
2672 -2623 -102 0
-2673 2668 2669 0
-2673 -2668 -2669 0
2673 -2668 2669 0
2673 2668 -2669 0
-2674 2673 2670 0
-2674 -2673 -2670 0
2674 -2673 2670 0
2674 2673 -2670 0
-2675 2674 2671 0
-2675 -2674 -2671 0
2675 -2674 2671 0
2675 2674 -2671 0
-2676 2675 2622 0
-2676 -2675 -2622 0
2676 -2675 2622 0
2676 2675 -2622 0
-2677 2676 2672 0
-2677 -2676 -2672 0
2677 -2676 2672 0
2677 2676 -2672 0
-2678 2558 2618 0
-2678 -2558 -2618 0
2678 -2558 2618 0
2678 2558 -2618 0
-2679 2559 2619 0
-2679 -2559 -2619 0
2679 -2559 2619 0
2679 2559 -2619 0
-2680 2560 2620 0
-2680 -2560 -2620 0
2680 -2560 2620 0
2680 2560 -2620 0
-2681 2561 2621 0
-2681 -2561 -2621 0
2681 -2561 2621 0
2681 2561 -2621 0
-2682 2562 2622 0
-2682 -2562 -2622 0
2682 -2562 2622 0
2682 2562 -2622 0
-2683 2563 2623 0
-2683 -2563 -2623 0
2683 -2563 2623 0
2683 2563 -2623 0
2678 2679 2680 2681 2682 2683 0
2617 2677 0
2684 2685 2686 2687 2688 2689 0
-2684 0
-2690 2684 0
-2690 31 0
2690 -2684 -31 0
-2691 2685 0
-2691 32 0
2691 -2685 -32 0
-2692 2686 0
-2692 33 0
2692 -2686 -33 0
-2693 2687 0
-2693 34 0
2693 -2687 -34 0
-2694 2688 0
-2694 35 0
2694 -2688 -35 0
-2695 2689 0
-2695 36 0
2695 -2689 -36 0
-2696 2690 2691 0
-2696 -2690 -2691 0
2696 -2690 2691 0
2696 2690 -2691 0
-2697 2696 2692 0
-2697 -2696 -2692 0
2697 -2696 2692 0
2697 2696 -2692 0
-2698 2697 2693 0
-2698 -2697 -2693 0
2698 -2697 2693 0
2698 2697 -2693 0
-2699 2698 2694 0
-2699 -2698 -2694 0
2699 -2698 2694 0
2699 2698 -2694 0
-2700 2699 2695 0
-2700 -2699 -2695 0
2700 -2699 2695 0
2700 2699 -2695 0
-2700 0
-2701 2684 0
-2701 61 0
2701 -2684 -61 0
-2702 2685 0
-2702 62 0
2702 -2685 -62 0
-2703 2686 0
-2703 63 0
2703 -2686 -63 0
-2704 2687 0
-2704 64 0
2704 -2687 -64 0
-2705 2688 0
-2705 65 0
2705 -2688 -65 0
-2706 2689 0
-2706 66 0
2706 -2689 -66 0
-2707 2701 2702 0
-2707 -2701 -2702 0
2707 -2701 2702 0
2707 2701 -2702 0
-2708 2707 2703 0
-2708 -2707 -2703 0
2708 -2707 2703 0
2708 2707 -2703 0
-2709 2708 2704 0
-2709 -2708 -2704 0
2709 -2708 2704 0
2709 2708 -2704 0
-2710 2709 2705 0
-2710 -2709 -2705 0
2710 -2709 2705 0
2710 2709 -2705 0
-2711 2710 2706 0
-2711 -2710 -2706 0
2711 -2710 2706 0
2711 2710 -2706 0
-2711 0
-2712 2684 0
-2712 67 0
2712 -2684 -67 0
-2713 2685 0
-2713 68 0
2713 -2685 -68 0
-2714 2686 0
-2714 69 0
2714 -2686 -69 0
-2715 2687 0
-2715 70 0
2715 -2687 -70 0
-2716 2688 0
-2716 71 0
2716 -2688 -71 0
-2717 2689 0
-2717 72 0
2717 -2689 -72 0
-2718 2712 2713 0
-2718 -2712 -2713 0
2718 -2712 2713 0
2718 2712 -2713 0
-2719 2718 2714 0
-2719 -2718 -2714 0
2719 -2718 2714 0
2719 2718 -2714 0
-2720 2719 2715 0
-2720 -2719 -2715 0
2720 -2719 2715 0
2720 2719 -2715 0
-2721 2720 2716 0
-2721 -2720 -2716 0
2721 -2720 2716 0
2721 2720 -2716 0
-2722 2721 2717 0
-2722 -2721 -2717 0
2722 -2721 2717 0
2722 2721 -2717 0
-2722 0
-2723 2684 0
-2723 103 0
2723 -2684 -103 0
-2724 2685 0
-2724 104 0
2724 -2685 -104 0
-2725 2686 0
-2725 105 0
2725 -2686 -105 0
-2726 2687 0
-2726 106 0
2726 -2687 -106 0
-2727 2688 0
-2727 107 0
2727 -2688 -107 0
-2728 2689 0
-2728 108 0
2728 -2689 -108 0
-2729 2723 2724 0
-2729 -2723 -2724 0
2729 -2723 2724 0
2729 2723 -2724 0
-2730 2729 2725 0
-2730 -2729 -2725 0
2730 -2729 2725 0
2730 2729 -2725 0
-2731 2730 2726 0
-2731 -2730 -2726 0
2731 -2730 2726 0
2731 2730 -2726 0
-2732 2731 2727 0
-2732 -2731 -2727 0
2732 -2731 2727 0
2732 2731 -2727 0
-2733 2732 2728 0
-2733 -2732 -2728 0
2733 -2732 2728 0
2733 2732 -2728 0
2734 2735 2736 2737 2738 2739 0
-2734 0
-2740 2734 0
-2740 31 0
2740 -2734 -31 0
-2741 2735 0
-2741 32 0
2741 -2735 -32 0
-2742 2736 0
-2742 33 0
2742 -2736 -33 0
-2743 2737 0
-2743 34 0
2743 -2737 -34 0
-2744 2738 0
-2744 35 0
2744 -2738 -35 0
-2745 2739 0
-2745 36 0
2745 -2739 -36 0
-2746 2740 2741 0
-2746 -2740 -2741 0
2746 -2740 2741 0
2746 2740 -2741 0
-2747 2746 2742 0
-2747 -2746 -2742 0
2747 -2746 2742 0
2747 2746 -2742 0
-2748 2747 2743 0
-2748 -2747 -2743 0
2748 -2747 2743 0
2748 2747 -2743 0
-2749 2748 2744 0
-2749 -2748 -2744 0
2749 -2748 2744 0
2749 2748 -2744 0
-2750 2749 2745 0
-2750 -2749 -2745 0
2750 -2749 2745 0
2750 2749 -2745 0
-2750 0
-2751 2734 0
-2751 61 0
2751 -2734 -61 0
-2752 2735 0
-2752 62 0
2752 -2735 -62 0
-2753 2736 0
-2753 63 0
2753 -2736 -63 0
-2754 2737 0
-2754 64 0
2754 -2737 -64 0
-2755 2738 0
-2755 65 0
2755 -2738 -65 0
-2756 2739 0
-2756 66 0
2756 -2739 -66 0
-2757 2751 2752 0
-2757 -2751 -2752 0
2757 -2751 2752 0
2757 2751 -2752 0
-2758 2757 2753 0
-2758 -2757 -2753 0
2758 -2757 2753 0
2758 2757 -2753 0
-2759 2758 2754 0
-2759 -2758 -2754 0
2759 -2758 2754 0
2759 2758 -2754 0
-2760 2759 2755 0
-2760 -2759 -2755 0
2760 -2759 2755 0
2760 2759 -2755 0
-2761 2760 2756 0
-2761 -2760 -2756 0
2761 -2760 2756 0
2761 2760 -2756 0
-2761 0
-2762 2734 0
-2762 67 0
2762 -2734 -67 0
-2763 2735 0
-2763 68 0
2763 -2735 -68 0
-2764 2736 0
-2764 69 0
2764 -2736 -69 0
-2765 2737 0
-2765 70 0
2765 -2737 -70 0
-2766 2738 0
-2766 71 0
2766 -2738 -71 0
-2767 2739 0
-2767 72 0
2767 -2739 -72 0
-2768 2762 2763 0
-2768 -2762 -2763 0
2768 -2762 2763 0
2768 2762 -2763 0
-2769 2768 2764 0
-2769 -2768 -2764 0
2769 -2768 2764 0
2769 2768 -2764 0
-2770 2769 2765 0
-2770 -2769 -2765 0
2770 -2769 2765 0
2770 2769 -2765 0
-2771 2770 2766 0
-2771 -2770 -2766 0
2771 -2770 2766 0
2771 2770 -2766 0
-2772 2771 2767 0
-2772 -2771 -2767 0
2772 -2771 2767 0
2772 2771 -2767 0
-2772 0
-2773 2734 0
-2773 103 0
2773 -2734 -103 0
-2774 2735 0
-2774 104 0
2774 -2735 -104 0
-2775 2736 0
-2775 105 0
2775 -2736 -105 0
-2776 2737 0
-2776 106 0
2776 -2737 -106 0
-2777 2738 0
-2777 107 0
2777 -2738 -107 0
-2778 2739 0
-2778 108 0
2778 -2739 -108 0
-2779 2773 2774 0
-2779 -2773 -2774 0
2779 -2773 2774 0
2779 2773 -2774 0
-2780 2779 2775 0
-2780 -2779 -2775 0
2780 -2779 2775 0
2780 2779 -2775 0
-2781 2780 2776 0
-2781 -2780 -2776 0
2781 -2780 2776 0
2781 2780 -2776 0
-2782 2781 2777 0
-2782 -2781 -2777 0
2782 -2781 2777 0
2782 2781 -2777 0
-2783 2782 2778 0
-2783 -2782 -2778 0
2783 -2782 2778 0
2783 2782 -2778 0
-2784 2684 2734 0
-2784 -2684 -2734 0
2784 -2684 2734 0
2784 2684 -2734 0
-2785 2685 2735 0
-2785 -2685 -2735 0
2785 -2685 2735 0
2785 2685 -2735 0
-2786 2686 2736 0
-2786 -2686 -2736 0
2786 -2686 2736 0
2786 2686 -2736 0
-2787 2687 2737 0
-2787 -2687 -2737 0
2787 -2687 2737 0
2787 2687 -2737 0
-2788 2688 2738 0
-2788 -2688 -2738 0
2788 -2688 2738 0
2788 2688 -2738 0
-2789 2689 2739 0
-2789 -2689 -2739 0
2789 -2689 2739 0
2789 2689 -2739 0
2784 2785 2786 2787 2788 2789 0
2733 2783 0
2790 2791 2792 2793 2794 2795 0
-2790 0
-2796 2790 0
-2796 31 0
2796 -2790 -31 0
-2797 2791 0
-2797 32 0
2797 -2791 -32 0
-2798 2792 0
-2798 33 0
2798 -2792 -33 0
-2799 2793 0
-2799 34 0
2799 -2793 -34 0
-2800 2794 0
-2800 35 0
2800 -2794 -35 0
-2801 2795 0
-2801 36 0
2801 -2795 -36 0
-2802 2796 2797 0
-2802 -2796 -2797 0
2802 -2796 2797 0
2802 2796 -2797 0
-2803 2802 2798 0
-2803 -2802 -2798 0
2803 -2802 2798 0
2803 2802 -2798 0
-2804 2803 2799 0
-2804 -2803 -2799 0
2804 -2803 2799 0
2804 2803 -2799 0
-2805 2804 2800 0
-2805 -2804 -2800 0
2805 -2804 2800 0
2805 2804 -2800 0
-2806 2805 2801 0
-2806 -2805 -2801 0
2806 -2805 2801 0
2806 2805 -2801 0
-2806 0
-2790 0
-2791 0
-2807 2790 0
-2807 61 0
2807 -2790 -61 0
-2808 2791 0
-2808 62 0
2808 -2791 -62 0
-2809 2792 0
-2809 -63 0
2809 -2792 63 0
-2810 2793 0
-2810 64 0
2810 -2793 -64 0
-2811 2794 0
-2811 65 0
2811 -2794 -65 0
-2812 2795 0
-2812 66 0
2812 -2795 -66 0
-2813 2807 2808 0
-2813 -2807 -2808 0
2813 -2807 2808 0
2813 2807 -2808 0
-2814 2813 2809 0
-2814 -2813 -2809 0
2814 -2813 2809 0
2814 2813 -2809 0
-2815 2814 2810 0
-2815 -2814 -2810 0
2815 -2814 2810 0
2815 2814 -2810 0
-2816 2815 2811 0
-2816 -2815 -2811 0
2816 -2815 2811 0
2816 2815 -2811 0
-2817 2816 2812 0
-2817 -2816 -2812 0
2817 -2816 2812 0
2817 2816 -2812 0
-2817 0
-2818 2790 0
-2818 67 0
2818 -2790 -67 0
-2819 2791 0
-2819 68 0
2819 -2791 -68 0
-2820 2792 0
-2820 69 0
2820 -2792 -69 0
-2821 2793 0
-2821 -70 0
2821 -2793 70 0
-2822 2794 0
-2822 71 0
2822 -2794 -71 0
-2823 2795 0
-2823 72 0
2823 -2795 -72 0
-2824 2818 2819 0
-2824 -2818 -2819 0
2824 -2818 2819 0
2824 2818 -2819 0
-2825 2824 2820 0
-2825 -2824 -2820 0
2825 -2824 2820 0
2825 2824 -2820 0
-2826 2825 2821 0
-2826 -2825 -2821 0
2826 -2825 2821 0
2826 2825 -2821 0
-2827 2826 2822 0
-2827 -2826 -2822 0
2827 -2826 2822 0
2827 2826 -2822 0
-2828 2827 2823 0
-2828 -2827 -2823 0
2828 -2827 2823 0
2828 2827 -2823 0
-2828 0
-2829 2790 0
-2829 -103 0
2829 -2790 103 0
-2830 2791 0
-2830 104 0
2830 -2791 -104 0
-2831 2792 0
-2831 105 0
2831 -2792 -105 0
-2832 2793 0
-2832 106 0
2832 -2793 -106 0
-2833 2794 0
-2833 -107 0
2833 -2794 107 0
-2834 2795 0
-2834 108 0
2834 -2795 -108 0
-2835 2829 2830 0
-2835 -2829 -2830 0
2835 -2829 2830 0
2835 2829 -2830 0
-2836 2835 2831 0
-2836 -2835 -2831 0
2836 -2835 2831 0
2836 2835 -2831 0
-2837 2836 2832 0
-2837 -2836 -2832 0
2837 -2836 2832 0
2837 2836 -2832 0
-2838 2837 2833 0
-2838 -2837 -2833 0
2838 -2837 2833 0
2838 2837 -2833 0
-2839 2838 2834 0
-2839 -2838 -2834 0
2839 -2838 2834 0
2839 2838 -2834 0
2840 2841 2842 2843 2844 2845 0
-2840 0
-2846 2840 0
-2846 31 0
2846 -2840 -31 0
-2847 2841 0
-2847 32 0
2847 -2841 -32 0
-2848 2842 0
-2848 33 0
2848 -2842 -33 0
-2849 2843 0
-2849 34 0
2849 -2843 -34 0
-2850 2844 0
-2850 35 0
2850 -2844 -35 0
-2851 2845 0
-2851 36 0
2851 -2845 -36 0
-2852 2846 2847 0
-2852 -2846 -2847 0
2852 -2846 2847 0
2852 2846 -2847 0
-2853 2852 2848 0
-2853 -2852 -2848 0
2853 -2852 2848 0
2853 2852 -2848 0
-2854 2853 2849 0
-2854 -2853 -2849 0
2854 -2853 2849 0
2854 2853 -2849 0
-2855 2854 2850 0
-2855 -2854 -2850 0
2855 -2854 2850 0
2855 2854 -2850 0
-2856 2855 2851 0
-2856 -2855 -2851 0
2856 -2855 2851 0
2856 2855 -2851 0
-2856 0
-2840 0
-2841 0
-2857 2840 0
-2857 61 0
2857 -2840 -61 0
-2858 2841 0
-2858 62 0
2858 -2841 -62 0
-2859 2842 0
-2859 -63 0
2859 -2842 63 0
-2860 2843 0
-2860 64 0
2860 -2843 -64 0
-2861 2844 0
-2861 65 0
2861 -2844 -65 0
-2862 2845 0
-2862 66 0
2862 -2845 -66 0
-2863 2857 2858 0
-2863 -2857 -2858 0
2863 -2857 2858 0
2863 2857 -2858 0
-2864 2863 2859 0
-2864 -2863 -2859 0
2864 -2863 2859 0
2864 2863 -2859 0
-2865 2864 2860 0
-2865 -2864 -2860 0
2865 -2864 2860 0
2865 2864 -2860 0
-2866 2865 2861 0
-2866 -2865 -2861 0
2866 -2865 2861 0
2866 2865 -2861 0
-2867 2866 2862 0
-2867 -2866 -2862 0
2867 -2866 2862 0
2867 2866 -2862 0
-2867 0
-2868 2840 0
-2868 67 0
2868 -2840 -67 0
-2869 2841 0
-2869 68 0
2869 -2841 -68 0
-2870 2842 0
-2870 69 0
2870 -2842 -69 0
-2871 2843 0
-2871 -70 0
2871 -2843 70 0
-2872 2844 0
-2872 71 0
2872 -2844 -71 0
-2873 2845 0
-2873 72 0
2873 -2845 -72 0
-2874 2868 2869 0
-2874 -2868 -2869 0
2874 -2868 2869 0
2874 2868 -2869 0
-2875 2874 2870 0
-2875 -2874 -2870 0
2875 -2874 2870 0
2875 2874 -2870 0
-2876 2875 2871 0
-2876 -2875 -2871 0
2876 -2875 2871 0
2876 2875 -2871 0
-2877 2876 2872 0
-2877 -2876 -2872 0
2877 -2876 2872 0
2877 2876 -2872 0
-2878 2877 2873 0
-2878 -2877 -2873 0
2878 -2877 2873 0
2878 2877 -2873 0
-2878 0
-2879 2840 0
-2879 -103 0
2879 -2840 103 0
-2880 2841 0
-2880 104 0
2880 -2841 -104 0
-2881 2842 0
-2881 105 0
2881 -2842 -105 0
-2882 2843 0
-2882 106 0
2882 -2843 -106 0
-2883 2844 0
-2883 -107 0
2883 -2844 107 0
-2884 2845 0
-2884 108 0
2884 -2845 -108 0
-2885 2879 2880 0
-2885 -2879 -2880 0
2885 -2879 2880 0
2885 2879 -2880 0
-2886 2885 2881 0
-2886 -2885 -2881 0
2886 -2885 2881 0
2886 2885 -2881 0
-2887 2886 2882 0
-2887 -2886 -2882 0
2887 -2886 2882 0
2887 2886 -2882 0
-2888 2887 2883 0
-2888 -2887 -2883 0
2888 -2887 2883 0
2888 2887 -2883 0
-2889 2888 2884 0
-2889 -2888 -2884 0
2889 -2888 2884 0
2889 2888 -2884 0
-2890 2790 2840 0
-2890 -2790 -2840 0
2890 -2790 2840 0
2890 2790 -2840 0
-2891 2791 2841 0
-2891 -2791 -2841 0
2891 -2791 2841 0
2891 2791 -2841 0
-2892 2792 2842 0
-2892 -2792 -2842 0
2892 -2792 2842 0
2892 2792 -2842 0
-2893 2793 2843 0
-2893 -2793 -2843 0
2893 -2793 2843 0
2893 2793 -2843 0
-2894 2794 2844 0
-2894 -2794 -2844 0
2894 -2794 2844 0
2894 2794 -2844 0
-2895 2795 2845 0
-2895 -2795 -2845 0
2895 -2795 2845 0
2895 2795 -2845 0
2890 2891 2892 2893 2894 2895 0
2839 2889 0
-2896 43 61 0
-2896 -43 -61 0
2896 -43 61 0
2896 43 -61 0
-2897 49 67 0
-2897 -49 -67 0
2897 -49 67 0
2897 49 -67 0
-2898 44 62 0
-2898 -44 -62 0
2898 -44 62 0
2898 44 -62 0
-2899 50 68 0
-2899 -50 -68 0
2899 -50 68 0
2899 50 -68 0
-2900 45 63 0
-2900 -45 -63 0
2900 -45 63 0
2900 45 -63 0
-2901 51 69 0
-2901 -51 -69 0
2901 -51 69 0
2901 51 -69 0
-2902 46 64 0
-2902 -46 -64 0
2902 -46 64 0
2902 46 -64 0
-2903 52 70 0
-2903 -52 -70 0
2903 -52 70 0
2903 52 -70 0
-2904 47 65 0
-2904 -47 -65 0
2904 -47 65 0
2904 47 -65 0
-2905 53 71 0
-2905 -53 -71 0
2905 -53 71 0
2905 53 -71 0
-2906 48 66 0
-2906 -48 -66 0
2906 -48 66 0
2906 48 -66 0
-2907 54 72 0
-2907 -54 -72 0
2907 -54 72 0
2907 54 -72 0
-2908 97 103 0
-2908 -97 -103 0
2908 -97 103 0
2908 97 -103 0
-2909 2908 31 0
-2909 -2908 -31 0
2909 -2908 31 0
2909 2908 -31 0
-2910 98 104 0
-2910 -98 -104 0
2910 -98 104 0
2910 98 -104 0
-2911 2910 32 0
-2911 -2910 -32 0
2911 -2910 32 0
2911 2910 -32 0
-2912 99 105 0
-2912 -99 -105 0
2912 -99 105 0
2912 99 -105 0
-2913 2912 33 0
-2913 -2912 -33 0
2913 -2912 33 0
2913 2912 -33 0
-2914 100 106 0
-2914 -100 -106 0
2914 -100 106 0
2914 100 -106 0
-2915 2914 34 0
-2915 -2914 -34 0
2915 -2914 34 0
2915 2914 -34 0
-2916 107 35 0
-2916 -107 -35 0
2916 -107 35 0
2916 107 -35 0
-2917 102 108 0
-2917 -102 -108 0
2917 -102 108 0
2917 102 -108 0
-2918 2917 36 0
-2918 -2917 -36 0
2918 -2917 36 0
2918 2917 -36 0
2919 2920 2921 2922 2923 2924 0
-2919 0
-2925 2919 0
-2925 31 0
2925 -2919 -31 0
-2926 2920 0
-2926 32 0
2926 -2920 -32 0
-2927 2921 0
-2927 33 0
2927 -2921 -33 0
-2928 2922 0
-2928 34 0
2928 -2922 -34 0
-2929 2923 0
-2929 35 0
2929 -2923 -35 0
-2930 2924 0
-2930 36 0
2930 -2924 -36 0
-2931 2925 2926 0
-2931 -2925 -2926 0
2931 -2925 2926 0
2931 2925 -2926 0
-2932 2931 2927 0
-2932 -2931 -2927 0
2932 -2931 2927 0
2932 2931 -2927 0
-2933 2932 2928 0
-2933 -2932 -2928 0
2933 -2932 2928 0
2933 2932 -2928 0
-2934 2933 2929 0
-2934 -2933 -2929 0
2934 -2933 2929 0
2934 2933 -2929 0
-2935 2934 2930 0
-2935 -2934 -2930 0
2935 -2934 2930 0
2935 2934 -2930 0
-2935 0
-2936 2919 0
-2936 31 0
2936 -2919 -31 0
-2937 2920 0
-2937 32 0
2937 -2920 -32 0
-2938 2921 0
-2938 33 0
2938 -2921 -33 0
-2939 2922 0
-2939 34 0
2939 -2922 -34 0
-2940 2923 0
-2940 35 0
2940 -2923 -35 0
-2941 2924 0
-2941 36 0
2941 -2924 -36 0
-2942 2936 2937 0
-2942 -2936 -2937 0
2942 -2936 2937 0
2942 2936 -2937 0
-2943 2942 2938 0
-2943 -2942 -2938 0
2943 -2942 2938 0
2943 2942 -2938 0
-2944 2943 2939 0
-2944 -2943 -2939 0
2944 -2943 2939 0
2944 2943 -2939 0
-2945 2944 2940 0
-2945 -2944 -2940 0
2945 -2944 2940 0
2945 2944 -2940 0
-2946 2945 2941 0
-2946 -2945 -2941 0
2946 -2945 2941 0
2946 2945 -2941 0
-2946 0
-2947 2919 0
-2947 37 0
2947 -2919 -37 0
-2948 2920 0
-2948 38 0
2948 -2920 -38 0
-2949 2921 0
-2949 39 0
2949 -2921 -39 0
-2950 2922 0
-2950 40 0
2950 -2922 -40 0
-2951 2923 0
-2951 41 0
2951 -2923 -41 0
-2952 2924 0
-2952 42 0
2952 -2924 -42 0
-2953 2947 2948 0
-2953 -2947 -2948 0
2953 -2947 2948 0
2953 2947 -2948 0
-2954 2953 2949 0
-2954 -2953 -2949 0
2954 -2953 2949 0
2954 2953 -2949 0
-2955 2954 2950 0
-2955 -2954 -2950 0
2955 -2954 2950 0
2955 2954 -2950 0
-2956 2955 2951 0
-2956 -2955 -2951 0
2956 -2955 2951 0
2956 2955 -2951 0
-2957 2956 2952 0
-2957 -2956 -2952 0
2957 -2956 2952 0
2957 2956 -2952 0
-2957 0
-2958 2919 0
-2958 2896 0
2958 -2919 -2896 0
-2959 2920 0
-2959 2898 0
2959 -2920 -2898 0
-2960 2921 0
-2960 2900 0
2960 -2921 -2900 0
-2961 2922 0
-2961 2902 0
2961 -2922 -2902 0
-2962 2923 0
-2962 2904 0
2962 -2923 -2904 0
-2963 2924 0
-2963 2906 0
2963 -2924 -2906 0
-2964 2958 2959 0
-2964 -2958 -2959 0
2964 -2958 2959 0
2964 2958 -2959 0
-2965 2964 2960 0
-2965 -2964 -2960 0
2965 -2964 2960 0
2965 2964 -2960 0
-2966 2965 2961 0
-2966 -2965 -2961 0
2966 -2965 2961 0
2966 2965 -2961 0
-2967 2966 2962 0
-2967 -2966 -2962 0
2967 -2966 2962 0
2967 2966 -2962 0
-2968 2967 2963 0
-2968 -2967 -2963 0
2968 -2967 2963 0
2968 2967 -2963 0
-2968 0
-2969 2919 0
-2969 2897 0
2969 -2919 -2897 0
-2970 2920 0
-2970 2899 0
2970 -2920 -2899 0
-2971 2921 0
-2971 2901 0
2971 -2921 -2901 0
-2972 2922 0
-2972 2903 0
2972 -2922 -2903 0
-2973 2923 0
-2973 2905 0
2973 -2923 -2905 0
-2974 2924 0
-2974 2907 0
2974 -2924 -2907 0
-2975 2969 2970 0
-2975 -2969 -2970 0
2975 -2969 2970 0
2975 2969 -2970 0
-2976 2975 2971 0
-2976 -2975 -2971 0
2976 -2975 2971 0
2976 2975 -2971 0
-2977 2976 2972 0
-2977 -2976 -2972 0
2977 -2976 2972 0
2977 2976 -2972 0
-2978 2977 2973 0
-2978 -2977 -2973 0
2978 -2977 2973 0
2978 2977 -2973 0
-2979 2978 2974 0
-2979 -2978 -2974 0
2979 -2978 2974 0
2979 2978 -2974 0
-2979 0
-2980 2919 0
-2980 2909 0
2980 -2919 -2909 0
-2981 2920 0
-2981 2911 0
2981 -2920 -2911 0
-2982 2921 0
-2982 2913 0
2982 -2921 -2913 0
-2983 2922 0
-2983 2915 0
2983 -2922 -2915 0
-2984 2923 0
-2984 2916 0
2984 -2923 -2916 0
-2985 2924 0
-2985 2918 0
2985 -2924 -2918 0
-2986 2980 2981 0
-2986 -2980 -2981 0
2986 -2980 2981 0
2986 2980 -2981 0
-2987 2986 2982 0
-2987 -2986 -2982 0
2987 -2986 2982 0
2987 2986 -2982 0
-2988 2987 2983 0
-2988 -2987 -2983 0
2988 -2987 2983 0
2988 2987 -2983 0
-2989 2988 2984 0
-2989 -2988 -2984 0
2989 -2988 2984 0
2989 2988 -2984 0
-2990 2989 2985 0
-2990 -2989 -2985 0
2990 -2989 2985 0
2990 2989 -2985 0
2991 2992 2993 2994 2995 2996 0
-2991 0
-2997 2991 0
-2997 31 0
2997 -2991 -31 0
-2998 2992 0
-2998 32 0
2998 -2992 -32 0
-2999 2993 0
-2999 33 0
2999 -2993 -33 0
-3000 2994 0
-3000 34 0
3000 -2994 -34 0
-3001 2995 0
-3001 35 0
3001 -2995 -35 0
-3002 2996 0
-3002 36 0
3002 -2996 -36 0
-3003 2997 2998 0
-3003 -2997 -2998 0
3003 -2997 2998 0
3003 2997 -2998 0
-3004 3003 2999 0
-3004 -3003 -2999 0
3004 -3003 2999 0
3004 3003 -2999 0
-3005 3004 3000 0
-3005 -3004 -3000 0
3005 -3004 3000 0
3005 3004 -3000 0
-3006 3005 3001 0
-3006 -3005 -3001 0
3006 -3005 3001 0
3006 3005 -3001 0
-3007 3006 3002 0
-3007 -3006 -3002 0
3007 -3006 3002 0
3007 3006 -3002 0
-3007 0
-3008 2991 0
-3008 31 0
3008 -2991 -31 0
-3009 2992 0
-3009 32 0
3009 -2992 -32 0
-3010 2993 0
-3010 33 0
3010 -2993 -33 0
-3011 2994 0
-3011 34 0
3011 -2994 -34 0
-3012 2995 0
-3012 35 0
3012 -2995 -35 0
-3013 2996 0
-3013 36 0
3013 -2996 -36 0
-3014 3008 3009 0
-3014 -3008 -3009 0
3014 -3008 3009 0
3014 3008 -3009 0
-3015 3014 3010 0
-3015 -3014 -3010 0
3015 -3014 3010 0
3015 3014 -3010 0
-3016 3015 3011 0
-3016 -3015 -3011 0
3016 -3015 3011 0
3016 3015 -3011 0
-3017 3016 3012 0
-3017 -3016 -3012 0
3017 -3016 3012 0
3017 3016 -3012 0
-3018 3017 3013 0
-3018 -3017 -3013 0
3018 -3017 3013 0
3018 3017 -3013 0
-3018 0
-3019 2991 0
-3019 37 0
3019 -2991 -37 0
-3020 2992 0
-3020 38 0
3020 -2992 -38 0
-3021 2993 0
-3021 39 0
3021 -2993 -39 0
-3022 2994 0
-3022 40 0
3022 -2994 -40 0
-3023 2995 0
-3023 41 0
3023 -2995 -41 0
-3024 2996 0
-3024 42 0
3024 -2996 -42 0
-3025 3019 3020 0
-3025 -3019 -3020 0
3025 -3019 3020 0
3025 3019 -3020 0
-3026 3025 3021 0
-3026 -3025 -3021 0
3026 -3025 3021 0
3026 3025 -3021 0
-3027 3026 3022 0
-3027 -3026 -3022 0
3027 -3026 3022 0
3027 3026 -3022 0
-3028 3027 3023 0
-3028 -3027 -3023 0
3028 -3027 3023 0
3028 3027 -3023 0
-3029 3028 3024 0
-3029 -3028 -3024 0
3029 -3028 3024 0
3029 3028 -3024 0
-3029 0
-3030 2991 0
-3030 2896 0
3030 -2991 -2896 0
-3031 2992 0
-3031 2898 0
3031 -2992 -2898 0
-3032 2993 0
-3032 2900 0
3032 -2993 -2900 0
-3033 2994 0
-3033 2902 0
3033 -2994 -2902 0
-3034 2995 0
-3034 2904 0
3034 -2995 -2904 0
-3035 2996 0
-3035 2906 0
3035 -2996 -2906 0
-3036 3030 3031 0
-3036 -3030 -3031 0
3036 -3030 3031 0
3036 3030 -3031 0
-3037 3036 3032 0
-3037 -3036 -3032 0
3037 -3036 3032 0
3037 3036 -3032 0
-3038 3037 3033 0
-3038 -3037 -3033 0
3038 -3037 3033 0
3038 3037 -3033 0
-3039 3038 3034 0
-3039 -3038 -3034 0
3039 -3038 3034 0
3039 3038 -3034 0
-3040 3039 3035 0
-3040 -3039 -3035 0
3040 -3039 3035 0
3040 3039 -3035 0
-3040 0
-3041 2991 0
-3041 2897 0
3041 -2991 -2897 0
-3042 2992 0
-3042 2899 0
3042 -2992 -2899 0
-3043 2993 0
-3043 2901 0
3043 -2993 -2901 0
-3044 2994 0
-3044 2903 0
3044 -2994 -2903 0
-3045 2995 0
-3045 2905 0
3045 -2995 -2905 0
-3046 2996 0
-3046 2907 0
3046 -2996 -2907 0
-3047 3041 3042 0
-3047 -3041 -3042 0
3047 -3041 3042 0
3047 3041 -3042 0
-3048 3047 3043 0
-3048 -3047 -3043 0
3048 -3047 3043 0
3048 3047 -3043 0
-3049 3048 3044 0
-3049 -3048 -3044 0
3049 -3048 3044 0
3049 3048 -3044 0
-3050 3049 3045 0
-3050 -3049 -3045 0
3050 -3049 3045 0
3050 3049 -3045 0
-3051 3050 3046 0
-3051 -3050 -3046 0
3051 -3050 3046 0
3051 3050 -3046 0
-3051 0
-3052 2991 0
-3052 2909 0
3052 -2991 -2909 0
-3053 2992 0
-3053 2911 0
3053 -2992 -2911 0
-3054 2993 0
-3054 2913 0
3054 -2993 -2913 0
-3055 2994 0
-3055 2915 0
3055 -2994 -2915 0
-3056 2995 0
-3056 2916 0
3056 -2995 -2916 0
-3057 2996 0
-3057 2918 0
3057 -2996 -2918 0
-3058 3052 3053 0
-3058 -3052 -3053 0
3058 -3052 3053 0
3058 3052 -3053 0
-3059 3058 3054 0
-3059 -3058 -3054 0
3059 -3058 3054 0
3059 3058 -3054 0
-3060 3059 3055 0
-3060 -3059 -3055 0
3060 -3059 3055 0
3060 3059 -3055 0
-3061 3060 3056 0
-3061 -3060 -3056 0
3061 -3060 3056 0
3061 3060 -3056 0
-3062 3061 3057 0
-3062 -3061 -3057 0
3062 -3061 3057 0
3062 3061 -3057 0
-3063 2919 2991 0
-3063 -2919 -2991 0
3063 -2919 2991 0
3063 2919 -2991 0
-3064 2920 2992 0
-3064 -2920 -2992 0
3064 -2920 2992 0
3064 2920 -2992 0
-3065 2921 2993 0
-3065 -2921 -2993 0
3065 -2921 2993 0
3065 2921 -2993 0
-3066 2922 2994 0
-3066 -2922 -2994 0
3066 -2922 2994 0
3066 2922 -2994 0
-3067 2923 2995 0
-3067 -2923 -2995 0
3067 -2923 2995 0
3067 2923 -2995 0
-3068 2924 2996 0
-3068 -2924 -2996 0
3068 -2924 2996 0
3068 2924 -2996 0
3063 3064 3065 3066 3067 3068 0
2990 3062 0
-3069 43 61 0
-3069 -43 -61 0
3069 -43 61 0
3069 43 -61 0
-3070 49 67 0
-3070 -49 -67 0
3070 -49 67 0
3070 49 -67 0
-3071 44 62 0
-3071 -44 -62 0
3071 -44 62 0
3071 44 -62 0
-3072 50 68 0
-3072 -50 -68 0
3072 -50 68 0
3072 50 -68 0
-3073 -45 63 0
-3073 45 -63 0
3073 45 63 0
3073 -45 -63 0
-3074 51 69 0
-3074 -51 -69 0
3074 -51 69 0
3074 51 -69 0
-3075 46 64 0
-3075 -46 -64 0
3075 -46 64 0
3075 46 -64 0
-3076 -52 70 0
-3076 52 -70 0
3076 52 70 0
3076 -52 -70 0
-3077 47 65 0
-3077 -47 -65 0
3077 -47 65 0
3077 47 -65 0
-3078 53 71 0
-3078 -53 -71 0
3078 -53 71 0
3078 53 -71 0
-3079 48 66 0
-3079 -48 -66 0
3079 -48 66 0
3079 48 -66 0
-3080 54 72 0
-3080 -54 -72 0
3080 -54 72 0
3080 54 -72 0
-3081 97 103 0
-3081 -97 -103 0
3081 -97 103 0
3081 97 -103 0
-3082 -3081 31 0
-3082 3081 -31 0
3082 3081 31 0
3082 -3081 -31 0
-3083 98 104 0
-3083 -98 -104 0
3083 -98 104 0
3083 98 -104 0
-3084 3083 32 0
-3084 -3083 -32 0
3084 -3083 32 0
3084 3083 -32 0
-3085 99 105 0
-3085 -99 -105 0
3085 -99 105 0
3085 99 -105 0
-3086 3085 33 0
-3086 -3085 -33 0
3086 -3085 33 0
3086 3085 -33 0
-3087 100 106 0
-3087 -100 -106 0
3087 -100 106 0
3087 100 -106 0
-3088 3087 34 0
-3088 -3087 -34 0
3088 -3087 34 0
3088 3087 -34 0
-3089 -107 35 0
-3089 107 -35 0
3089 107 35 0
3089 -107 -35 0
-3090 102 108 0
-3090 -102 -108 0
3090 -102 108 0
3090 102 -108 0
-3091 3090 36 0
-3091 -3090 -36 0
3091 -3090 36 0
3091 3090 -36 0
3092 3093 3094 3095 3096 3097 0
-3092 0
-3098 3092 0
-3098 31 0
3098 -3092 -31 0
-3099 3093 0
-3099 32 0
3099 -3093 -32 0
-3100 3094 0
-3100 33 0
3100 -3094 -33 0
-3101 3095 0
-3101 34 0
3101 -3095 -34 0
-3102 3096 0
-3102 35 0
3102 -3096 -35 0
-3103 3097 0
-3103 36 0
3103 -3097 -36 0
-3104 3098 3099 0
-3104 -3098 -3099 0
3104 -3098 3099 0
3104 3098 -3099 0
-3105 3104 3100 0
-3105 -3104 -3100 0
3105 -3104 3100 0
3105 3104 -3100 0
-3106 3105 3101 0
-3106 -3105 -3101 0
3106 -3105 3101 0
3106 3105 -3101 0
-3107 3106 3102 0
-3107 -3106 -3102 0
3107 -3106 3102 0
3107 3106 -3102 0
-3108 3107 3103 0
-3108 -3107 -3103 0
3108 -3107 3103 0
3108 3107 -3103 0
-3108 0
-3109 3092 0
-3109 -31 0
3109 -3092 31 0
-3110 3093 0
-3110 32 0
3110 -3093 -32 0
-3111 3094 0
-3111 33 0
3111 -3094 -33 0
-3112 3095 0
-3112 34 0
3112 -3095 -34 0
-3113 3096 0
-3113 35 0
3113 -3096 -35 0
-3114 3097 0
-3114 36 0
3114 -3097 -36 0
-3115 3109 3110 0
-3115 -3109 -3110 0
3115 -3109 3110 0
3115 3109 -3110 0
-3116 3115 3111 0
-3116 -3115 -3111 0
3116 -3115 3111 0
3116 3115 -3111 0
-3117 3116 3112 0
-3117 -3116 -3112 0
3117 -3116 3112 0
3117 3116 -3112 0
-3118 3117 3113 0
-3118 -3117 -3113 0
3118 -3117 3113 0
3118 3117 -3113 0
-3119 3118 3114 0
-3119 -3118 -3114 0
3119 -3118 3114 0
3119 3118 -3114 0
-3119 0
-3120 3092 0
-3120 37 0
3120 -3092 -37 0
-3121 3093 0
-3121 -38 0
3121 -3093 38 0
-3122 3094 0
-3122 39 0
3122 -3094 -39 0
-3123 3095 0
-3123 40 0
3123 -3095 -40 0
-3124 3096 0
-3124 41 0
3124 -3096 -41 0
-3125 3097 0
-3125 42 0
3125 -3097 -42 0
-3126 3120 3121 0
-3126 -3120 -3121 0
3126 -3120 3121 0
3126 3120 -3121 0
-3127 3126 3122 0
-3127 -3126 -3122 0
3127 -3126 3122 0
3127 3126 -3122 0
-3128 3127 3123 0
-3128 -3127 -3123 0
3128 -3127 3123 0
3128 3127 -3123 0
-3129 3128 3124 0
-3129 -3128 -3124 0
3129 -3128 3124 0
3129 3128 -3124 0
-3130 3129 3125 0
-3130 -3129 -3125 0
3130 -3129 3125 0
3130 3129 -3125 0
-3130 0
-3131 3092 0
-3131 3069 0
3131 -3092 -3069 0
-3132 3093 0
-3132 3071 0
3132 -3093 -3071 0
-3133 3094 0
-3133 3073 0
3133 -3094 -3073 0
-3134 3095 0
-3134 3075 0
3134 -3095 -3075 0
-3135 3096 0
-3135 3077 0
3135 -3096 -3077 0
-3136 3097 0
-3136 3079 0
3136 -3097 -3079 0
-3137 3131 3132 0
-3137 -3131 -3132 0
3137 -3131 3132 0
3137 3131 -3132 0
-3138 3137 3133 0
-3138 -3137 -3133 0
3138 -3137 3133 0
3138 3137 -3133 0
-3139 3138 3134 0
-3139 -3138 -3134 0
3139 -3138 3134 0
3139 3138 -3134 0
-3140 3139 3135 0
-3140 -3139 -3135 0
3140 -3139 3135 0
3140 3139 -3135 0
-3141 3140 3136 0
-3141 -3140 -3136 0
3141 -3140 3136 0
3141 3140 -3136 0
-3141 0
-3142 3092 0
-3142 3070 0
3142 -3092 -3070 0
-3143 3093 0
-3143 3072 0
3143 -3093 -3072 0
-3144 3094 0
-3144 3074 0
3144 -3094 -3074 0
-3145 3095 0
-3145 3076 0
3145 -3095 -3076 0
-3146 3096 0
-3146 3078 0
3146 -3096 -3078 0
-3147 3097 0
-3147 3080 0
3147 -3097 -3080 0
-3148 3142 3143 0
-3148 -3142 -3143 0
3148 -3142 3143 0
3148 3142 -3143 0
-3149 3148 3144 0
-3149 -3148 -3144 0
3149 -3148 3144 0
3149 3148 -3144 0
-3150 3149 3145 0
-3150 -3149 -3145 0
3150 -3149 3145 0
3150 3149 -3145 0
-3151 3150 3146 0
-3151 -3150 -3146 0
3151 -3150 3146 0
3151 3150 -3146 0
-3152 3151 3147 0
-3152 -3151 -3147 0
3152 -3151 3147 0
3152 3151 -3147 0
-3152 0
-3153 3092 0
-3153 3082 0
3153 -3092 -3082 0
-3154 3093 0
-3154 3084 0
3154 -3093 -3084 0
-3155 3094 0
-3155 3086 0
3155 -3094 -3086 0
-3156 3095 0
-3156 3088 0
3156 -3095 -3088 0
-3157 3096 0
-3157 3089 0
3157 -3096 -3089 0
-3158 3097 0
-3158 3091 0
3158 -3097 -3091 0
-3159 3153 3154 0
-3159 -3153 -3154 0
3159 -3153 3154 0
3159 3153 -3154 0
-3160 3159 3155 0
-3160 -3159 -3155 0
3160 -3159 3155 0
3160 3159 -3155 0
-3161 3160 3156 0
-3161 -3160 -3156 0
3161 -3160 3156 0
3161 3160 -3156 0
-3162 3161 3157 0
-3162 -3161 -3157 0
3162 -3161 3157 0
3162 3161 -3157 0
-3163 3162 3158 0
-3163 -3162 -3158 0
3163 -3162 3158 0
3163 3162 -3158 0
3164 3165 3166 3167 3168 3169 0
-3164 0
-3170 3164 0
-3170 31 0
3170 -3164 -31 0
-3171 3165 0
-3171 32 0
3171 -3165 -32 0
-3172 3166 0
-3172 33 0
3172 -3166 -33 0
-3173 3167 0
-3173 34 0
3173 -3167 -34 0
-3174 3168 0
-3174 35 0
3174 -3168 -35 0
-3175 3169 0
-3175 36 0
3175 -3169 -36 0
-3176 3170 3171 0
-3176 -3170 -3171 0
3176 -3170 3171 0
3176 3170 -3171 0
-3177 3176 3172 0
-3177 -3176 -3172 0
3177 -3176 3172 0
3177 3176 -3172 0
-3178 3177 3173 0
-3178 -3177 -3173 0
3178 -3177 3173 0
3178 3177 -3173 0
-3179 3178 3174 0
-3179 -3178 -3174 0
3179 -3178 3174 0
3179 3178 -3174 0
-3180 3179 3175 0
-3180 -3179 -3175 0
3180 -3179 3175 0
3180 3179 -3175 0
-3180 0
-3181 3164 0
-3181 -31 0
3181 -3164 31 0
-3182 3165 0
-3182 32 0
3182 -3165 -32 0
-3183 3166 0
-3183 33 0
3183 -3166 -33 0
-3184 3167 0
-3184 34 0
3184 -3167 -34 0
-3185 3168 0
-3185 35 0
3185 -3168 -35 0
-3186 3169 0
-3186 36 0
3186 -3169 -36 0
-3187 3181 3182 0
-3187 -3181 -3182 0
3187 -3181 3182 0
3187 3181 -3182 0
-3188 3187 3183 0
-3188 -3187 -3183 0
3188 -3187 3183 0
3188 3187 -3183 0
-3189 3188 3184 0
-3189 -3188 -3184 0
3189 -3188 3184 0
3189 3188 -3184 0
-3190 3189 3185 0
-3190 -3189 -3185 0
3190 -3189 3185 0
3190 3189 -3185 0
-3191 3190 3186 0
-3191 -3190 -3186 0
3191 -3190 3186 0
3191 3190 -3186 0
-3191 0
-3192 3164 0
-3192 37 0
3192 -3164 -37 0
-3193 3165 0
-3193 -38 0
3193 -3165 38 0
-3194 3166 0
-3194 39 0
3194 -3166 -39 0
-3195 3167 0
-3195 40 0
3195 -3167 -40 0
-3196 3168 0
-3196 41 0
3196 -3168 -41 0
-3197 3169 0
-3197 42 0
3197 -3169 -42 0
-3198 3192 3193 0
-3198 -3192 -3193 0
3198 -3192 3193 0
3198 3192 -3193 0
-3199 3198 3194 0
-3199 -3198 -3194 0
3199 -3198 3194 0
3199 3198 -3194 0
-3200 3199 3195 0
-3200 -3199 -3195 0
3200 -3199 3195 0
3200 3199 -3195 0
-3201 3200 3196 0
-3201 -3200 -3196 0
3201 -3200 3196 0
3201 3200 -3196 0
-3202 3201 3197 0
-3202 -3201 -3197 0
3202 -3201 3197 0
3202 3201 -3197 0
-3202 0
-3203 3164 0
-3203 3069 0
3203 -3164 -3069 0
-3204 3165 0
-3204 3071 0
3204 -3165 -3071 0
-3205 3166 0
-3205 3073 0
3205 -3166 -3073 0
-3206 3167 0
-3206 3075 0
3206 -3167 -3075 0
-3207 3168 0
-3207 3077 0
3207 -3168 -3077 0
-3208 3169 0
-3208 3079 0
3208 -3169 -3079 0
-3209 3203 3204 0
-3209 -3203 -3204 0
3209 -3203 3204 0
3209 3203 -3204 0
-3210 3209 3205 0
-3210 -3209 -3205 0
3210 -3209 3205 0
3210 3209 -3205 0
-3211 3210 3206 0
-3211 -3210 -3206 0
3211 -3210 3206 0
3211 3210 -3206 0
-3212 3211 3207 0
-3212 -3211 -3207 0
3212 -3211 3207 0
3212 3211 -3207 0
-3213 3212 3208 0
-3213 -3212 -3208 0
3213 -3212 3208 0
3213 3212 -3208 0
-3213 0
-3214 3164 0
-3214 3070 0
3214 -3164 -3070 0
-3215 3165 0
-3215 3072 0
3215 -3165 -3072 0
-3216 3166 0
-3216 3074 0
3216 -3166 -3074 0
-3217 3167 0
-3217 3076 0
3217 -3167 -3076 0
-3218 3168 0
-3218 3078 0
3218 -3168 -3078 0
-3219 3169 0
-3219 3080 0
3219 -3169 -3080 0
-3220 3214 3215 0
-3220 -3214 -3215 0
3220 -3214 3215 0
3220 3214 -3215 0
-3221 3220 3216 0
-3221 -3220 -3216 0
3221 -3220 3216 0
3221 3220 -3216 0
-3222 3221 3217 0
-3222 -3221 -3217 0
3222 -3221 3217 0
3222 3221 -3217 0
-3223 3222 3218 0
-3223 -3222 -3218 0
3223 -3222 3218 0
3223 3222 -3218 0
-3224 3223 3219 0
-3224 -3223 -3219 0
3224 -3223 3219 0
3224 3223 -3219 0
-3224 0
-3225 3164 0
-3225 3082 0
3225 -3164 -3082 0
-3226 3165 0
-3226 3084 0
3226 -3165 -3084 0
-3227 3166 0
-3227 3086 0
3227 -3166 -3086 0
-3228 3167 0
-3228 3088 0
3228 -3167 -3088 0
-3229 3168 0
-3229 3089 0
3229 -3168 -3089 0
-3230 3169 0
-3230 3091 0
3230 -3169 -3091 0
-3231 3225 3226 0
-3231 -3225 -3226 0
3231 -3225 3226 0
3231 3225 -3226 0
-3232 3231 3227 0
-3232 -3231 -3227 0
3232 -3231 3227 0
3232 3231 -3227 0
-3233 3232 3228 0
-3233 -3232 -3228 0
3233 -3232 3228 0
3233 3232 -3228 0
-3234 3233 3229 0
-3234 -3233 -3229 0
3234 -3233 3229 0
3234 3233 -3229 0
-3235 3234 3230 0
-3235 -3234 -3230 0
3235 -3234 3230 0
3235 3234 -3230 0
-3236 3092 3164 0
-3236 -3092 -3164 0
3236 -3092 3164 0
3236 3092 -3164 0
-3237 3093 3165 0
-3237 -3093 -3165 0
3237 -3093 3165 0
3237 3093 -3165 0
-3238 3094 3166 0
-3238 -3094 -3166 0
3238 -3094 3166 0
3238 3094 -3166 0
-3239 3095 3167 0
-3239 -3095 -3167 0
3239 -3095 3167 0
3239 3095 -3167 0
-3240 3096 3168 0
-3240 -3096 -3168 0
3240 -3096 3168 0
3240 3096 -3168 0
-3241 3097 3169 0
-3241 -3097 -3169 0
3241 -3097 3169 0
3241 3097 -3169 0
3236 3237 3238 3239 3240 3241 0
3163 3235 0
3242 3243 3244 3245 3246 3247 0
-3243 0
-3248 3242 0
-3248 37 0
3248 -3242 -37 0
-3249 3243 0
-3249 38 0
3249 -3243 -38 0
-3250 3244 0
-3250 39 0
3250 -3244 -39 0
-3251 3245 0
-3251 40 0
3251 -3245 -40 0
-3252 3246 0
-3252 41 0
3252 -3246 -41 0
-3253 3247 0
-3253 42 0
3253 -3247 -42 0
-3254 3248 3249 0
-3254 -3248 -3249 0
3254 -3248 3249 0
3254 3248 -3249 0
-3255 3254 3250 0
-3255 -3254 -3250 0
3255 -3254 3250 0
3255 3254 -3250 0
-3256 3255 3251 0
-3256 -3255 -3251 0
3256 -3255 3251 0
3256 3255 -3251 0
-3257 3256 3252 0
-3257 -3256 -3252 0
3257 -3256 3252 0
3257 3256 -3252 0
-3258 3257 3253 0
-3258 -3257 -3253 0
3258 -3257 3253 0
3258 3257 -3253 0
-3258 0
-3259 3242 0
-3259 73 0
3259 -3242 -73 0
-3260 3243 0
-3260 74 0
3260 -3243 -74 0
-3261 3244 0
-3261 75 0
3261 -3244 -75 0
-3262 3245 0
-3262 76 0
3262 -3245 -76 0
-3263 3246 0
-3263 77 0
3263 -3246 -77 0
-3264 3247 0
-3264 78 0
3264 -3247 -78 0
-3265 3259 3260 0
-3265 -3259 -3260 0
3265 -3259 3260 0
3265 3259 -3260 0
-3266 3265 3261 0
-3266 -3265 -3261 0
3266 -3265 3261 0
3266 3265 -3261 0
-3267 3266 3262 0
-3267 -3266 -3262 0
3267 -3266 3262 0
3267 3266 -3262 0
-3268 3267 3263 0
-3268 -3267 -3263 0
3268 -3267 3263 0
3268 3267 -3263 0
-3269 3268 3264 0
-3269 -3268 -3264 0
3269 -3268 3264 0
3269 3268 -3264 0
-3269 0
-3270 3242 0
-3270 79 0
3270 -3242 -79 0
-3271 3243 0
-3271 80 0
3271 -3243 -80 0
-3272 3244 0
-3272 81 0
3272 -3244 -81 0
-3273 3245 0
-3273 82 0
3273 -3245 -82 0
-3274 3246 0
-3274 83 0
3274 -3246 -83 0
-3275 3247 0
-3275 84 0
3275 -3247 -84 0
-3276 3270 3271 0
-3276 -3270 -3271 0
3276 -3270 3271 0
3276 3270 -3271 0
-3277 3276 3272 0
-3277 -3276 -3272 0
3277 -3276 3272 0
3277 3276 -3272 0
-3278 3277 3273 0
-3278 -3277 -3273 0
3278 -3277 3273 0
3278 3277 -3273 0
-3279 3278 3274 0
-3279 -3278 -3274 0
3279 -3278 3274 0
3279 3278 -3274 0
-3280 3279 3275 0
-3280 -3279 -3275 0
3280 -3279 3275 0
3280 3279 -3275 0
-3280 0
-3281 3242 0
-3281 109 0
3281 -3242 -109 0
-3282 3243 0
-3282 110 0
3282 -3243 -110 0
-3283 3244 0
-3283 111 0
3283 -3244 -111 0
-3284 3245 0
-3284 112 0
3284 -3245 -112 0
-3285 3246 0
-3285 113 0
3285 -3246 -113 0
-3286 3247 0
-3286 114 0
3286 -3247 -114 0
-3287 3281 3282 0
-3287 -3281 -3282 0
3287 -3281 3282 0
3287 3281 -3282 0
-3288 3287 3283 0
-3288 -3287 -3283 0
3288 -3287 3283 0
3288 3287 -3283 0
-3289 3288 3284 0
-3289 -3288 -3284 0
3289 -3288 3284 0
3289 3288 -3284 0
-3290 3289 3285 0
-3290 -3289 -3285 0
3290 -3289 3285 0
3290 3289 -3285 0
-3291 3290 3286 0
-3291 -3290 -3286 0
3291 -3290 3286 0
3291 3290 -3286 0
3292 3293 3294 3295 3296 3297 0
-3293 0
-3298 3292 0
-3298 37 0
3298 -3292 -37 0
-3299 3293 0
-3299 38 0
3299 -3293 -38 0
-3300 3294 0
-3300 39 0
3300 -3294 -39 0
-3301 3295 0
-3301 40 0
3301 -3295 -40 0
-3302 3296 0
-3302 41 0
3302 -3296 -41 0
-3303 3297 0
-3303 42 0
3303 -3297 -42 0
-3304 3298 3299 0
-3304 -3298 -3299 0
3304 -3298 3299 0
3304 3298 -3299 0
-3305 3304 3300 0
-3305 -3304 -3300 0
3305 -3304 3300 0
3305 3304 -3300 0
-3306 3305 3301 0
-3306 -3305 -3301 0
3306 -3305 3301 0
3306 3305 -3301 0
-3307 3306 3302 0
-3307 -3306 -3302 0
3307 -3306 3302 0
3307 3306 -3302 0
-3308 3307 3303 0
-3308 -3307 -3303 0
3308 -3307 3303 0
3308 3307 -3303 0
-3308 0
-3309 3292 0
-3309 73 0
3309 -3292 -73 0
-3310 3293 0
-3310 74 0
3310 -3293 -74 0
-3311 3294 0
-3311 75 0
3311 -3294 -75 0
-3312 3295 0
-3312 76 0
3312 -3295 -76 0
-3313 3296 0
-3313 77 0
3313 -3296 -77 0
-3314 3297 0
-3314 78 0
3314 -3297 -78 0
-3315 3309 3310 0
-3315 -3309 -3310 0
3315 -3309 3310 0
3315 3309 -3310 0
-3316 3315 3311 0
-3316 -3315 -3311 0
3316 -3315 3311 0
3316 3315 -3311 0
-3317 3316 3312 0
-3317 -3316 -3312 0
3317 -3316 3312 0
3317 3316 -3312 0
-3318 3317 3313 0
-3318 -3317 -3313 0
3318 -3317 3313 0
3318 3317 -3313 0
-3319 3318 3314 0
-3319 -3318 -3314 0
3319 -3318 3314 0
3319 3318 -3314 0
-3319 0
-3320 3292 0
-3320 79 0
3320 -3292 -79 0
-3321 3293 0
-3321 80 0
3321 -3293 -80 0
-3322 3294 0
-3322 81 0
3322 -3294 -81 0
-3323 3295 0
-3323 82 0
3323 -3295 -82 0
-3324 3296 0
-3324 83 0
3324 -3296 -83 0
-3325 3297 0
-3325 84 0
3325 -3297 -84 0
-3326 3320 3321 0
-3326 -3320 -3321 0
3326 -3320 3321 0
3326 3320 -3321 0
-3327 3326 3322 0
-3327 -3326 -3322 0
3327 -3326 3322 0
3327 3326 -3322 0
-3328 3327 3323 0
-3328 -3327 -3323 0
3328 -3327 3323 0
3328 3327 -3323 0
-3329 3328 3324 0
-3329 -3328 -3324 0
3329 -3328 3324 0
3329 3328 -3324 0
-3330 3329 3325 0
-3330 -3329 -3325 0
3330 -3329 3325 0
3330 3329 -3325 0
-3330 0
-3331 3292 0
-3331 109 0
3331 -3292 -109 0
-3332 3293 0
-3332 110 0
3332 -3293 -110 0
-3333 3294 0
-3333 111 0
3333 -3294 -111 0
-3334 3295 0
-3334 112 0
3334 -3295 -112 0
-3335 3296 0
-3335 113 0
3335 -3296 -113 0
-3336 3297 0
-3336 114 0
3336 -3297 -114 0
-3337 3331 3332 0
-3337 -3331 -3332 0
3337 -3331 3332 0
3337 3331 -3332 0
-3338 3337 3333 0
-3338 -3337 -3333 0
3338 -3337 3333 0
3338 3337 -3333 0
-3339 3338 3334 0
-3339 -3338 -3334 0
3339 -3338 3334 0
3339 3338 -3334 0
-3340 3339 3335 0
-3340 -3339 -3335 0
3340 -3339 3335 0
3340 3339 -3335 0
-3341 3340 3336 0
-3341 -3340 -3336 0
3341 -3340 3336 0
3341 3340 -3336 0
-3342 3242 3292 0
-3342 -3242 -3292 0
3342 -3242 3292 0
3342 3242 -3292 0
-3343 3243 3293 0
-3343 -3243 -3293 0
3343 -3243 3293 0
3343 3243 -3293 0
-3344 3244 3294 0
-3344 -3244 -3294 0
3344 -3244 3294 0
3344 3244 -3294 0
-3345 3245 3295 0
-3345 -3245 -3295 0
3345 -3245 3295 0
3345 3245 -3295 0
-3346 3246 3296 0
-3346 -3246 -3296 0
3346 -3246 3296 0
3346 3246 -3296 0
-3347 3247 3297 0
-3347 -3247 -3297 0
3347 -3247 3297 0
3347 3247 -3297 0
3342 3343 3344 3345 3346 3347 0
3291 3341 0
3348 3349 3350 3351 3352 3353 0
-3349 0
-3354 3348 0
-3354 37 0
3354 -3348 -37 0
-3355 3349 0
-3355 38 0
3355 -3349 -38 0
-3356 3350 0
-3356 39 0
3356 -3350 -39 0
-3357 3351 0
-3357 40 0
3357 -3351 -40 0
-3358 3352 0
-3358 41 0
3358 -3352 -41 0
-3359 3353 0
-3359 42 0
3359 -3353 -42 0
-3360 3354 3355 0
-3360 -3354 -3355 0
3360 -3354 3355 0
3360 3354 -3355 0
-3361 3360 3356 0
-3361 -3360 -3356 0
3361 -3360 3356 0
3361 3360 -3356 0
-3362 3361 3357 0
-3362 -3361 -3357 0
3362 -3361 3357 0
3362 3361 -3357 0
-3363 3362 3358 0
-3363 -3362 -3358 0
3363 -3362 3358 0
3363 3362 -3358 0
-3364 3363 3359 0
-3364 -3363 -3359 0
3364 -3363 3359 0
3364 3363 -3359 0
-3364 0
-3348 0
-3349 0
-3365 3348 0
-3365 73 0
3365 -3348 -73 0
-3366 3349 0
-3366 74 0
3366 -3349 -74 0
-3367 3350 0
-3367 -75 0
3367 -3350 75 0
-3368 3351 0
-3368 76 0
3368 -3351 -76 0
-3369 3352 0
-3369 77 0
3369 -3352 -77 0
-3370 3353 0
-3370 78 0
3370 -3353 -78 0
-3371 3365 3366 0
-3371 -3365 -3366 0
3371 -3365 3366 0
3371 3365 -3366 0
-3372 3371 3367 0
-3372 -3371 -3367 0
3372 -3371 3367 0
3372 3371 -3367 0
-3373 3372 3368 0
-3373 -3372 -3368 0
3373 -3372 3368 0
3373 3372 -3368 0
-3374 3373 3369 0
-3374 -3373 -3369 0
3374 -3373 3369 0
3374 3373 -3369 0
-3375 3374 3370 0
-3375 -3374 -3370 0
3375 -3374 3370 0
3375 3374 -3370 0
-3375 0
-3376 3348 0
-3376 79 0
3376 -3348 -79 0
-3377 3349 0
-3377 80 0
3377 -3349 -80 0
-3378 3350 0
-3378 81 0
3378 -3350 -81 0
-3379 3351 0
-3379 -82 0
3379 -3351 82 0
-3380 3352 0
-3380 83 0
3380 -3352 -83 0
-3381 3353 0
-3381 84 0
3381 -3353 -84 0
-3382 3376 3377 0
-3382 -3376 -3377 0
3382 -3376 3377 0
3382 3376 -3377 0
-3383 3382 3378 0
-3383 -3382 -3378 0
3383 -3382 3378 0
3383 3382 -3378 0
-3384 3383 3379 0
-3384 -3383 -3379 0
3384 -3383 3379 0
3384 3383 -3379 0
-3385 3384 3380 0
-3385 -3384 -3380 0
3385 -3384 3380 0
3385 3384 -3380 0
-3386 3385 3381 0
-3386 -3385 -3381 0
3386 -3385 3381 0
3386 3385 -3381 0
-3386 0
-3387 3348 0
-3387 109 0
3387 -3348 -109 0
-3388 3349 0
-3388 -110 0
3388 -3349 110 0
-3389 3350 0
-3389 111 0
3389 -3350 -111 0
-3390 3351 0
-3390 112 0
3390 -3351 -112 0
-3391 3352 0
-3391 -113 0
3391 -3352 113 0
-3392 3353 0
-3392 114 0
3392 -3353 -114 0
-3393 3387 3388 0
-3393 -3387 -3388 0
3393 -3387 3388 0
3393 3387 -3388 0
-3394 3393 3389 0
-3394 -3393 -3389 0
3394 -3393 3389 0
3394 3393 -3389 0
-3395 3394 3390 0
-3395 -3394 -3390 0
3395 -3394 3390 0
3395 3394 -3390 0
-3396 3395 3391 0
-3396 -3395 -3391 0
3396 -3395 3391 0
3396 3395 -3391 0
-3397 3396 3392 0
-3397 -3396 -3392 0
3397 -3396 3392 0
3397 3396 -3392 0
3398 3399 3400 3401 3402 3403 0
-3399 0
-3404 3398 0
-3404 37 0
3404 -3398 -37 0
-3405 3399 0
-3405 38 0
3405 -3399 -38 0
-3406 3400 0
-3406 39 0
3406 -3400 -39 0
-3407 3401 0
-3407 40 0
3407 -3401 -40 0
-3408 3402 0
-3408 41 0
3408 -3402 -41 0
-3409 3403 0
-3409 42 0
3409 -3403 -42 0
-3410 3404 3405 0
-3410 -3404 -3405 0
3410 -3404 3405 0
3410 3404 -3405 0
-3411 3410 3406 0
-3411 -3410 -3406 0
3411 -3410 3406 0
3411 3410 -3406 0
-3412 3411 3407 0
-3412 -3411 -3407 0
3412 -3411 3407 0
3412 3411 -3407 0
-3413 3412 3408 0
-3413 -3412 -3408 0
3413 -3412 3408 0
3413 3412 -3408 0
-3414 3413 3409 0
-3414 -3413 -3409 0
3414 -3413 3409 0
3414 3413 -3409 0
-3414 0
-3398 0
-3399 0
-3415 3398 0
-3415 73 0
3415 -3398 -73 0
-3416 3399 0
-3416 74 0
3416 -3399 -74 0
-3417 3400 0
-3417 -75 0
3417 -3400 75 0
-3418 3401 0
-3418 76 0
3418 -3401 -76 0
-3419 3402 0
-3419 77 0
3419 -3402 -77 0
-3420 3403 0
-3420 78 0
3420 -3403 -78 0
-3421 3415 3416 0
-3421 -3415 -3416 0
3421 -3415 3416 0
3421 3415 -3416 0
-3422 3421 3417 0
-3422 -3421 -3417 0
3422 -3421 3417 0
3422 3421 -3417 0
-3423 3422 3418 0
-3423 -3422 -3418 0
3423 -3422 3418 0
3423 3422 -3418 0
-3424 3423 3419 0
-3424 -3423 -3419 0
3424 -3423 3419 0
3424 3423 -3419 0
-3425 3424 3420 0
-3425 -3424 -3420 0
3425 -3424 3420 0
3425 3424 -3420 0
-3425 0
-3426 3398 0
-3426 79 0
3426 -3398 -79 0
-3427 3399 0
-3427 80 0
3427 -3399 -80 0
-3428 3400 0
-3428 81 0
3428 -3400 -81 0
-3429 3401 0
-3429 -82 0
3429 -3401 82 0
-3430 3402 0
-3430 83 0
3430 -3402 -83 0
-3431 3403 0
-3431 84 0
3431 -3403 -84 0
-3432 3426 3427 0
-3432 -3426 -3427 0
3432 -3426 3427 0
3432 3426 -3427 0
-3433 3432 3428 0
-3433 -3432 -3428 0
3433 -3432 3428 0
3433 3432 -3428 0
-3434 3433 3429 0
-3434 -3433 -3429 0
3434 -3433 3429 0
3434 3433 -3429 0
-3435 3434 3430 0
-3435 -3434 -3430 0
3435 -3434 3430 0
3435 3434 -3430 0
-3436 3435 3431 0
-3436 -3435 -3431 0
3436 -3435 3431 0
3436 3435 -3431 0
-3436 0
-3437 3398 0
-3437 109 0
3437 -3398 -109 0
-3438 3399 0
-3438 -110 0
3438 -3399 110 0
-3439 3400 0
-3439 111 0
3439 -3400 -111 0
-3440 3401 0
-3440 112 0
3440 -3401 -112 0
-3441 3402 0
-3441 -113 0
3441 -3402 113 0
-3442 3403 0
-3442 114 0
3442 -3403 -114 0
-3443 3437 3438 0
-3443 -3437 -3438 0
3443 -3437 3438 0
3443 3437 -3438 0
-3444 3443 3439 0
-3444 -3443 -3439 0
3444 -3443 3439 0
3444 3443 -3439 0
-3445 3444 3440 0
-3445 -3444 -3440 0
3445 -3444 3440 0
3445 3444 -3440 0
-3446 3445 3441 0
-3446 -3445 -3441 0
3446 -3445 3441 0
3446 3445 -3441 0
-3447 3446 3442 0
-3447 -3446 -3442 0
3447 -3446 3442 0
3447 3446 -3442 0
-3448 3348 3398 0
-3448 -3348 -3398 0
3448 -3348 3398 0
3448 3348 -3398 0
-3449 3349 3399 0
-3449 -3349 -3399 0
3449 -3349 3399 0
3449 3349 -3399 0
-3450 3350 3400 0
-3450 -3350 -3400 0
3450 -3350 3400 0
3450 3350 -3400 0
-3451 3351 3401 0
-3451 -3351 -3401 0
3451 -3351 3401 0
3451 3351 -3401 0
-3452 3352 3402 0
-3452 -3352 -3402 0
3452 -3352 3402 0
3452 3352 -3402 0
-3453 3353 3403 0
-3453 -3353 -3403 0
3453 -3353 3403 0
3453 3353 -3403 0
3448 3449 3450 3451 3452 3453 0
3397 3447 0
-3454 43 73 0
-3454 -43 -73 0
3454 -43 73 0
3454 43 -73 0
-3455 49 79 0
-3455 -49 -79 0
3455 -49 79 0
3455 49 -79 0
-3456 44 74 0
-3456 -44 -74 0
3456 -44 74 0
3456 44 -74 0
-3457 50 80 0
-3457 -50 -80 0
3457 -50 80 0
3457 50 -80 0
-3458 45 75 0
-3458 -45 -75 0
3458 -45 75 0
3458 45 -75 0
-3459 51 81 0
-3459 -51 -81 0
3459 -51 81 0
3459 51 -81 0
-3460 46 76 0
-3460 -46 -76 0
3460 -46 76 0
3460 46 -76 0
-3461 52 82 0
-3461 -52 -82 0
3461 -52 82 0
3461 52 -82 0
-3462 47 77 0
-3462 -47 -77 0
3462 -47 77 0
3462 47 -77 0
-3463 53 83 0
-3463 -53 -83 0
3463 -53 83 0
3463 53 -83 0
-3464 48 78 0
-3464 -48 -78 0
3464 -48 78 0
3464 48 -78 0
-3465 54 84 0
-3465 -54 -84 0
3465 -54 84 0
3465 54 -84 0
-3466 97 109 0
-3466 -97 -109 0
3466 -97 109 0
3466 97 -109 0
-3467 3466 37 0
-3467 -3466 -37 0
3467 -3466 37 0
3467 3466 -37 0
-3468 98 110 0
-3468 -98 -110 0
3468 -98 110 0
3468 98 -110 0
-3469 3468 38 0
-3469 -3468 -38 0
3469 -3468 38 0
3469 3468 -38 0
-3470 99 111 0
-3470 -99 -111 0
3470 -99 111 0
3470 99 -111 0
-3471 3470 39 0
-3471 -3470 -39 0
3471 -3470 39 0
3471 3470 -39 0
-3472 100 112 0
-3472 -100 -112 0
3472 -100 112 0
3472 100 -112 0
-3473 3472 40 0
-3473 -3472 -40 0
3473 -3472 40 0
3473 3472 -40 0
-3474 113 41 0
-3474 -113 -41 0
3474 -113 41 0
3474 113 -41 0
-3475 102 114 0
-3475 -102 -114 0
3475 -102 114 0
3475 102 -114 0
-3476 3475 42 0
-3476 -3475 -42 0
3476 -3475 42 0
3476 3475 -42 0
3477 3478 3479 3480 3481 3482 0
-3478 0
-3483 3477 0
-3483 37 0
3483 -3477 -37 0
-3484 3478 0
-3484 38 0
3484 -3478 -38 0
-3485 3479 0
-3485 39 0
3485 -3479 -39 0
-3486 3480 0
-3486 40 0
3486 -3480 -40 0
-3487 3481 0
-3487 41 0
3487 -3481 -41 0
-3488 3482 0
-3488 42 0
3488 -3482 -42 0
-3489 3483 3484 0
-3489 -3483 -3484 0
3489 -3483 3484 0
3489 3483 -3484 0
-3490 3489 3485 0
-3490 -3489 -3485 0
3490 -3489 3485 0
3490 3489 -3485 0
-3491 3490 3486 0
-3491 -3490 -3486 0
3491 -3490 3486 0
3491 3490 -3486 0
-3492 3491 3487 0
-3492 -3491 -3487 0
3492 -3491 3487 0
3492 3491 -3487 0
-3493 3492 3488 0
-3493 -3492 -3488 0
3493 -3492 3488 0
3493 3492 -3488 0
-3493 0
-3494 3477 0
-3494 31 0
3494 -3477 -31 0
-3495 3478 0
-3495 32 0
3495 -3478 -32 0
-3496 3479 0
-3496 33 0
3496 -3479 -33 0
-3497 3480 0
-3497 34 0
3497 -3480 -34 0
-3498 3481 0
-3498 35 0
3498 -3481 -35 0
-3499 3482 0
-3499 36 0
3499 -3482 -36 0
-3500 3494 3495 0
-3500 -3494 -3495 0
3500 -3494 3495 0
3500 3494 -3495 0
-3501 3500 3496 0
-3501 -3500 -3496 0
3501 -3500 3496 0
3501 3500 -3496 0
-3502 3501 3497 0
-3502 -3501 -3497 0
3502 -3501 3497 0
3502 3501 -3497 0
-3503 3502 3498 0
-3503 -3502 -3498 0
3503 -3502 3498 0
3503 3502 -3498 0
-3504 3503 3499 0
-3504 -3503 -3499 0
3504 -3503 3499 0
3504 3503 -3499 0
-3504 0
-3505 3477 0
-3505 37 0
3505 -3477 -37 0
-3506 3478 0
-3506 38 0
3506 -3478 -38 0
-3507 3479 0
-3507 39 0
3507 -3479 -39 0
-3508 3480 0
-3508 40 0
3508 -3480 -40 0
-3509 3481 0
-3509 41 0
3509 -3481 -41 0
-3510 3482 0
-3510 42 0
3510 -3482 -42 0
-3511 3505 3506 0
-3511 -3505 -3506 0
3511 -3505 3506 0
3511 3505 -3506 0
-3512 3511 3507 0
-3512 -3511 -3507 0
3512 -3511 3507 0
3512 3511 -3507 0
-3513 3512 3508 0
-3513 -3512 -3508 0
3513 -3512 3508 0
3513 3512 -3508 0
-3514 3513 3509 0
-3514 -3513 -3509 0
3514 -3513 3509 0
3514 3513 -3509 0
-3515 3514 3510 0
-3515 -3514 -3510 0
3515 -3514 3510 0
3515 3514 -3510 0
-3515 0
-3516 3477 0
-3516 3454 0
3516 -3477 -3454 0
-3517 3478 0
-3517 3456 0
3517 -3478 -3456 0
-3518 3479 0
-3518 3458 0
3518 -3479 -3458 0
-3519 3480 0
-3519 3460 0
3519 -3480 -3460 0
-3520 3481 0
-3520 3462 0
3520 -3481 -3462 0
-3521 3482 0
-3521 3464 0
3521 -3482 -3464 0
-3522 3516 3517 0
-3522 -3516 -3517 0
3522 -3516 3517 0
3522 3516 -3517 0
-3523 3522 3518 0
-3523 -3522 -3518 0
3523 -3522 3518 0
3523 3522 -3518 0
-3524 3523 3519 0
-3524 -3523 -3519 0
3524 -3523 3519 0
3524 3523 -3519 0
-3525 3524 3520 0
-3525 -3524 -3520 0
3525 -3524 3520 0
3525 3524 -3520 0
-3526 3525 3521 0
-3526 -3525 -3521 0
3526 -3525 3521 0
3526 3525 -3521 0
-3526 0
-3527 3477 0
-3527 3455 0
3527 -3477 -3455 0
-3528 3478 0
-3528 3457 0
3528 -3478 -3457 0
-3529 3479 0
-3529 3459 0
3529 -3479 -3459 0
-3530 3480 0
-3530 3461 0
3530 -3480 -3461 0
-3531 3481 0
-3531 3463 0
3531 -3481 -3463 0
-3532 3482 0
-3532 3465 0
3532 -3482 -3465 0
-3533 3527 3528 0
-3533 -3527 -3528 0
3533 -3527 3528 0
3533 3527 -3528 0
-3534 3533 3529 0
-3534 -3533 -3529 0
3534 -3533 3529 0
3534 3533 -3529 0
-3535 3534 3530 0
-3535 -3534 -3530 0
3535 -3534 3530 0
3535 3534 -3530 0
-3536 3535 3531 0
-3536 -3535 -3531 0
3536 -3535 3531 0
3536 3535 -3531 0
-3537 3536 3532 0
-3537 -3536 -3532 0
3537 -3536 3532 0
3537 3536 -3532 0
-3537 0
-3538 3477 0
-3538 3467 0
3538 -3477 -3467 0
-3539 3478 0
-3539 3469 0
3539 -3478 -3469 0
-3540 3479 0
-3540 3471 0
3540 -3479 -3471 0
-3541 3480 0
-3541 3473 0
3541 -3480 -3473 0
-3542 3481 0
-3542 3474 0
3542 -3481 -3474 0
-3543 3482 0
-3543 3476 0
3543 -3482 -3476 0
-3544 3538 3539 0
-3544 -3538 -3539 0
3544 -3538 3539 0
3544 3538 -3539 0
-3545 3544 3540 0
-3545 -3544 -3540 0
3545 -3544 3540 0
3545 3544 -3540 0
-3546 3545 3541 0
-3546 -3545 -3541 0
3546 -3545 3541 0
3546 3545 -3541 0
-3547 3546 3542 0
-3547 -3546 -3542 0
3547 -3546 3542 0
3547 3546 -3542 0
-3548 3547 3543 0
-3548 -3547 -3543 0
3548 -3547 3543 0
3548 3547 -3543 0
3549 3550 3551 3552 3553 3554 0
-3550 0
-3555 3549 0
-3555 37 0
3555 -3549 -37 0
-3556 3550 0
-3556 38 0
3556 -3550 -38 0
-3557 3551 0
-3557 39 0
3557 -3551 -39 0
-3558 3552 0
-3558 40 0
3558 -3552 -40 0
-3559 3553 0
-3559 41 0
3559 -3553 -41 0
-3560 3554 0
-3560 42 0
3560 -3554 -42 0
-3561 3555 3556 0
-3561 -3555 -3556 0
3561 -3555 3556 0
3561 3555 -3556 0
-3562 3561 3557 0
-3562 -3561 -3557 0
3562 -3561 3557 0
3562 3561 -3557 0
-3563 3562 3558 0
-3563 -3562 -3558 0
3563 -3562 3558 0
3563 3562 -3558 0
-3564 3563 3559 0
-3564 -3563 -3559 0
3564 -3563 3559 0
3564 3563 -3559 0
-3565 3564 3560 0
-3565 -3564 -3560 0
3565 -3564 3560 0
3565 3564 -3560 0
-3565 0
-3566 3549 0
-3566 31 0
3566 -3549 -31 0
-3567 3550 0
-3567 32 0
3567 -3550 -32 0
-3568 3551 0
-3568 33 0
3568 -3551 -33 0
-3569 3552 0
-3569 34 0
3569 -3552 -34 0
-3570 3553 0
-3570 35 0
3570 -3553 -35 0
-3571 3554 0
-3571 36 0
3571 -3554 -36 0
-3572 3566 3567 0
-3572 -3566 -3567 0
3572 -3566 3567 0
3572 3566 -3567 0
-3573 3572 3568 0
-3573 -3572 -3568 0
3573 -3572 3568 0
3573 3572 -3568 0
-3574 3573 3569 0
-3574 -3573 -3569 0
3574 -3573 3569 0
3574 3573 -3569 0
-3575 3574 3570 0
-3575 -3574 -3570 0
3575 -3574 3570 0
3575 3574 -3570 0
-3576 3575 3571 0
-3576 -3575 -3571 0
3576 -3575 3571 0
3576 3575 -3571 0
-3576 0
-3577 3549 0
-3577 37 0
3577 -3549 -37 0
-3578 3550 0
-3578 38 0
3578 -3550 -38 0
-3579 3551 0
-3579 39 0
3579 -3551 -39 0
-3580 3552 0
-3580 40 0
3580 -3552 -40 0
-3581 3553 0
-3581 41 0
3581 -3553 -41 0
-3582 3554 0
-3582 42 0
3582 -3554 -42 0
-3583 3577 3578 0
-3583 -3577 -3578 0
3583 -3577 3578 0
3583 3577 -3578 0
-3584 3583 3579 0
-3584 -3583 -3579 0
3584 -3583 3579 0
3584 3583 -3579 0
-3585 3584 3580 0
-3585 -3584 -3580 0
3585 -3584 3580 0
3585 3584 -3580 0
-3586 3585 3581 0
-3586 -3585 -3581 0
3586 -3585 3581 0
3586 3585 -3581 0
-3587 3586 3582 0
-3587 -3586 -3582 0
3587 -3586 3582 0
3587 3586 -3582 0
-3587 0
-3588 3549 0
-3588 3454 0
3588 -3549 -3454 0
-3589 3550 0
-3589 3456 0
3589 -3550 -3456 0
-3590 3551 0
-3590 3458 0
3590 -3551 -3458 0
-3591 3552 0
-3591 3460 0
3591 -3552 -3460 0
-3592 3553 0
-3592 3462 0
3592 -3553 -3462 0
-3593 3554 0
-3593 3464 0
3593 -3554 -3464 0
-3594 3588 3589 0
-3594 -3588 -3589 0
3594 -3588 3589 0
3594 3588 -3589 0
-3595 3594 3590 0
-3595 -3594 -3590 0
3595 -3594 3590 0
3595 3594 -3590 0
-3596 3595 3591 0
-3596 -3595 -3591 0
3596 -3595 3591 0
3596 3595 -3591 0
-3597 3596 3592 0
-3597 -3596 -3592 0
3597 -3596 3592 0
3597 3596 -3592 0
-3598 3597 3593 0
-3598 -3597 -3593 0
3598 -3597 3593 0
3598 3597 -3593 0
-3598 0
-3599 3549 0
-3599 3455 0
3599 -3549 -3455 0
-3600 3550 0
-3600 3457 0
3600 -3550 -3457 0
-3601 3551 0
-3601 3459 0
3601 -3551 -3459 0
-3602 3552 0
-3602 3461 0
3602 -3552 -3461 0
-3603 3553 0
-3603 3463 0
3603 -3553 -3463 0
-3604 3554 0
-3604 3465 0
3604 -3554 -3465 0
-3605 3599 3600 0
-3605 -3599 -3600 0
3605 -3599 3600 0
3605 3599 -3600 0
-3606 3605 3601 0
-3606 -3605 -3601 0
3606 -3605 3601 0
3606 3605 -3601 0
-3607 3606 3602 0
-3607 -3606 -3602 0
3607 -3606 3602 0
3607 3606 -3602 0
-3608 3607 3603 0
-3608 -3607 -3603 0
3608 -3607 3603 0
3608 3607 -3603 0
-3609 3608 3604 0
-3609 -3608 -3604 0
3609 -3608 3604 0
3609 3608 -3604 0
-3609 0
-3610 3549 0
-3610 3467 0
3610 -3549 -3467 0
-3611 3550 0
-3611 3469 0
3611 -3550 -3469 0
-3612 3551 0
-3612 3471 0
3612 -3551 -3471 0
-3613 3552 0
-3613 3473 0
3613 -3552 -3473 0
-3614 3553 0
-3614 3474 0
3614 -3553 -3474 0
-3615 3554 0
-3615 3476 0
3615 -3554 -3476 0
-3616 3610 3611 0
-3616 -3610 -3611 0
3616 -3610 3611 0
3616 3610 -3611 0
-3617 3616 3612 0
-3617 -3616 -3612 0
3617 -3616 3612 0
3617 3616 -3612 0
-3618 3617 3613 0
-3618 -3617 -3613 0
3618 -3617 3613 0
3618 3617 -3613 0
-3619 3618 3614 0
-3619 -3618 -3614 0
3619 -3618 3614 0
3619 3618 -3614 0
-3620 3619 3615 0
-3620 -3619 -3615 0
3620 -3619 3615 0
3620 3619 -3615 0
-3621 3477 3549 0
-3621 -3477 -3549 0
3621 -3477 3549 0
3621 3477 -3549 0
-3622 3478 3550 0
-3622 -3478 -3550 0
3622 -3478 3550 0
3622 3478 -3550 0
-3623 3479 3551 0
-3623 -3479 -3551 0
3623 -3479 3551 0
3623 3479 -3551 0
-3624 3480 3552 0
-3624 -3480 -3552 0
3624 -3480 3552 0
3624 3480 -3552 0
-3625 3481 3553 0
-3625 -3481 -3553 0
3625 -3481 3553 0
3625 3481 -3553 0
-3626 3482 3554 0
-3626 -3482 -3554 0
3626 -3482 3554 0
3626 3482 -3554 0
3621 3622 3623 3624 3625 3626 0
3548 3620 0
-3627 43 73 0
-3627 -43 -73 0
3627 -43 73 0
3627 43 -73 0
-3628 49 79 0
-3628 -49 -79 0
3628 -49 79 0
3628 49 -79 0
-3629 44 74 0
-3629 -44 -74 0
3629 -44 74 0
3629 44 -74 0
-3630 50 80 0
-3630 -50 -80 0
3630 -50 80 0
3630 50 -80 0
-3631 -45 75 0
-3631 45 -75 0
3631 45 75 0
3631 -45 -75 0
-3632 51 81 0
-3632 -51 -81 0
3632 -51 81 0
3632 51 -81 0
-3633 46 76 0
-3633 -46 -76 0
3633 -46 76 0
3633 46 -76 0
-3634 -52 82 0
-3634 52 -82 0
3634 52 82 0
3634 -52 -82 0
-3635 47 77 0
-3635 -47 -77 0
3635 -47 77 0
3635 47 -77 0
-3636 53 83 0
-3636 -53 -83 0
3636 -53 83 0
3636 53 -83 0
-3637 48 78 0
-3637 -48 -78 0
3637 -48 78 0
3637 48 -78 0
-3638 54 84 0
-3638 -54 -84 0
3638 -54 84 0
3638 54 -84 0
-3639 97 109 0
-3639 -97 -109 0
3639 -97 109 0
3639 97 -109 0
-3640 3639 37 0
-3640 -3639 -37 0
3640 -3639 37 0
3640 3639 -37 0
-3641 98 110 0
-3641 -98 -110 0
3641 -98 110 0
3641 98 -110 0
-3642 -3641 38 0
-3642 3641 -38 0
3642 3641 38 0
3642 -3641 -38 0
-3643 99 111 0
-3643 -99 -111 0
3643 -99 111 0
3643 99 -111 0
-3644 3643 39 0
-3644 -3643 -39 0
3644 -3643 39 0
3644 3643 -39 0
-3645 100 112 0
-3645 -100 -112 0
3645 -100 112 0
3645 100 -112 0
-3646 3645 40 0
-3646 -3645 -40 0
3646 -3645 40 0
3646 3645 -40 0
-3647 -113 41 0
-3647 113 -41 0
3647 113 41 0
3647 -113 -41 0
-3648 102 114 0
-3648 -102 -114 0
3648 -102 114 0
3648 102 -114 0
-3649 3648 42 0
-3649 -3648 -42 0
3649 -3648 42 0
3649 3648 -42 0
3650 3651 3652 3653 3654 3655 0
-3651 0
-3656 3650 0
-3656 37 0
3656 -3650 -37 0
-3657 3651 0
-3657 38 0
3657 -3651 -38 0
-3658 3652 0
-3658 39 0
3658 -3652 -39 0
-3659 3653 0
-3659 40 0
3659 -3653 -40 0
-3660 3654 0
-3660 41 0
3660 -3654 -41 0
-3661 3655 0
-3661 42 0
3661 -3655 -42 0
-3662 3656 3657 0
-3662 -3656 -3657 0
3662 -3656 3657 0
3662 3656 -3657 0
-3663 3662 3658 0
-3663 -3662 -3658 0
3663 -3662 3658 0
3663 3662 -3658 0
-3664 3663 3659 0
-3664 -3663 -3659 0
3664 -3663 3659 0
3664 3663 -3659 0
-3665 3664 3660 0
-3665 -3664 -3660 0
3665 -3664 3660 0
3665 3664 -3660 0
-3666 3665 3661 0
-3666 -3665 -3661 0
3666 -3665 3661 0
3666 3665 -3661 0
-3666 0
-3667 3650 0
-3667 -31 0
3667 -3650 31 0
-3668 3651 0
-3668 32 0
3668 -3651 -32 0
-3669 3652 0
-3669 33 0
3669 -3652 -33 0
-3670 3653 0
-3670 34 0
3670 -3653 -34 0
-3671 3654 0
-3671 35 0
3671 -3654 -35 0
-3672 3655 0
-3672 36 0
3672 -3655 -36 0
-3673 3667 3668 0
-3673 -3667 -3668 0
3673 -3667 3668 0
3673 3667 -3668 0
-3674 3673 3669 0
-3674 -3673 -3669 0
3674 -3673 3669 0
3674 3673 -3669 0
-3675 3674 3670 0
-3675 -3674 -3670 0
3675 -3674 3670 0
3675 3674 -3670 0
-3676 3675 3671 0
-3676 -3675 -3671 0
3676 -3675 3671 0
3676 3675 -3671 0
-3677 3676 3672 0
-3677 -3676 -3672 0
3677 -3676 3672 0
3677 3676 -3672 0
-3677 0
-3678 3650 0
-3678 37 0
3678 -3650 -37 0
-3679 3651 0
-3679 -38 0
3679 -3651 38 0
-3680 3652 0
-3680 39 0
3680 -3652 -39 0
-3681 3653 0
-3681 40 0
3681 -3653 -40 0
-3682 3654 0
-3682 41 0
3682 -3654 -41 0
-3683 3655 0
-3683 42 0
3683 -3655 -42 0
-3684 3678 3679 0
-3684 -3678 -3679 0
3684 -3678 3679 0
3684 3678 -3679 0
-3685 3684 3680 0
-3685 -3684 -3680 0
3685 -3684 3680 0
3685 3684 -3680 0
-3686 3685 3681 0
-3686 -3685 -3681 0
3686 -3685 3681 0
3686 3685 -3681 0
-3687 3686 3682 0
-3687 -3686 -3682 0
3687 -3686 3682 0
3687 3686 -3682 0
-3688 3687 3683 0
-3688 -3687 -3683 0
3688 -3687 3683 0
3688 3687 -3683 0
-3688 0
-3689 3650 0
-3689 3627 0
3689 -3650 -3627 0
-3690 3651 0
-3690 3629 0
3690 -3651 -3629 0
-3691 3652 0
-3691 3631 0
3691 -3652 -3631 0
-3692 3653 0
-3692 3633 0
3692 -3653 -3633 0
-3693 3654 0
-3693 3635 0
3693 -3654 -3635 0
-3694 3655 0
-3694 3637 0
3694 -3655 -3637 0
-3695 3689 3690 0
-3695 -3689 -3690 0
3695 -3689 3690 0
3695 3689 -3690 0
-3696 3695 3691 0
-3696 -3695 -3691 0
3696 -3695 3691 0
3696 3695 -3691 0
-3697 3696 3692 0
-3697 -3696 -3692 0
3697 -3696 3692 0
3697 3696 -3692 0
-3698 3697 3693 0
-3698 -3697 -3693 0
3698 -3697 3693 0
3698 3697 -3693 0
-3699 3698 3694 0
-3699 -3698 -3694 0
3699 -3698 3694 0
3699 3698 -3694 0
-3699 0
-3700 3650 0
-3700 3628 0
3700 -3650 -3628 0
-3701 3651 0
-3701 3630 0
3701 -3651 -3630 0
-3702 3652 0
-3702 3632 0
3702 -3652 -3632 0
-3703 3653 0
-3703 3634 0
3703 -3653 -3634 0
-3704 3654 0
-3704 3636 0
3704 -3654 -3636 0
-3705 3655 0
-3705 3638 0
3705 -3655 -3638 0
-3706 3700 3701 0
-3706 -3700 -3701 0
3706 -3700 3701 0
3706 3700 -3701 0
-3707 3706 3702 0
-3707 -3706 -3702 0
3707 -3706 3702 0
3707 3706 -3702 0
-3708 3707 3703 0
-3708 -3707 -3703 0
3708 -3707 3703 0
3708 3707 -3703 0
-3709 3708 3704 0
-3709 -3708 -3704 0
3709 -3708 3704 0
3709 3708 -3704 0
-3710 3709 3705 0
-3710 -3709 -3705 0
3710 -3709 3705 0
3710 3709 -3705 0
-3710 0
-3711 3650 0
-3711 3640 0
3711 -3650 -3640 0
-3712 3651 0
-3712 3642 0
3712 -3651 -3642 0
-3713 3652 0
-3713 3644 0
3713 -3652 -3644 0
-3714 3653 0
-3714 3646 0
3714 -3653 -3646 0
-3715 3654 0
-3715 3647 0
3715 -3654 -3647 0
-3716 3655 0
-3716 3649 0
3716 -3655 -3649 0
-3717 3711 3712 0
-3717 -3711 -3712 0
3717 -3711 3712 0
3717 3711 -3712 0
-3718 3717 3713 0
-3718 -3717 -3713 0
3718 -3717 3713 0
3718 3717 -3713 0
-3719 3718 3714 0
-3719 -3718 -3714 0
3719 -3718 3714 0
3719 3718 -3714 0
-3720 3719 3715 0
-3720 -3719 -3715 0
3720 -3719 3715 0
3720 3719 -3715 0
-3721 3720 3716 0
-3721 -3720 -3716 0
3721 -3720 3716 0
3721 3720 -3716 0
3722 3723 3724 3725 3726 3727 0
-3723 0
-3728 3722 0
-3728 37 0
3728 -3722 -37 0
-3729 3723 0
-3729 38 0
3729 -3723 -38 0
-3730 3724 0
-3730 39 0
3730 -3724 -39 0
-3731 3725 0
-3731 40 0
3731 -3725 -40 0
-3732 3726 0
-3732 41 0
3732 -3726 -41 0
-3733 3727 0
-3733 42 0
3733 -3727 -42 0
-3734 3728 3729 0
-3734 -3728 -3729 0
3734 -3728 3729 0
3734 3728 -3729 0
-3735 3734 3730 0
-3735 -3734 -3730 0
3735 -3734 3730 0
3735 3734 -3730 0
-3736 3735 3731 0
-3736 -3735 -3731 0
3736 -3735 3731 0
3736 3735 -3731 0
-3737 3736 3732 0
-3737 -3736 -3732 0
3737 -3736 3732 0
3737 3736 -3732 0
-3738 3737 3733 0
-3738 -3737 -3733 0
3738 -3737 3733 0
3738 3737 -3733 0
-3738 0
-3739 3722 0
-3739 -31 0
3739 -3722 31 0
-3740 3723 0
-3740 32 0
3740 -3723 -32 0
-3741 3724 0
-3741 33 0
3741 -3724 -33 0
-3742 3725 0
-3742 34 0
3742 -3725 -34 0
-3743 3726 0
-3743 35 0
3743 -3726 -35 0
-3744 3727 0
-3744 36 0
3744 -3727 -36 0
-3745 3739 3740 0
-3745 -3739 -3740 0
3745 -3739 3740 0
3745 3739 -3740 0
-3746 3745 3741 0
-3746 -3745 -3741 0
3746 -3745 3741 0
3746 3745 -3741 0
-3747 3746 3742 0
-3747 -3746 -3742 0
3747 -3746 3742 0
3747 3746 -3742 0
-3748 3747 3743 0
-3748 -3747 -3743 0
3748 -3747 3743 0
3748 3747 -3743 0
-3749 3748 3744 0
-3749 -3748 -3744 0
3749 -3748 3744 0
3749 3748 -3744 0
-3749 0
-3750 3722 0
-3750 37 0
3750 -3722 -37 0
-3751 3723 0
-3751 -38 0
3751 -3723 38 0
-3752 3724 0
-3752 39 0
3752 -3724 -39 0
-3753 3725 0
-3753 40 0
3753 -3725 -40 0
-3754 3726 0
-3754 41 0
3754 -3726 -41 0
-3755 3727 0
-3755 42 0
3755 -3727 -42 0
-3756 3750 3751 0
-3756 -3750 -3751 0
3756 -3750 3751 0
3756 3750 -3751 0
-3757 3756 3752 0
-3757 -3756 -3752 0
3757 -3756 3752 0
3757 3756 -3752 0
-3758 3757 3753 0
-3758 -3757 -3753 0
3758 -3757 3753 0
3758 3757 -3753 0
-3759 3758 3754 0
-3759 -3758 -3754 0
3759 -3758 3754 0
3759 3758 -3754 0
-3760 3759 3755 0
-3760 -3759 -3755 0
3760 -3759 3755 0
3760 3759 -3755 0
-3760 0
-3761 3722 0
-3761 3627 0
3761 -3722 -3627 0
-3762 3723 0
-3762 3629 0
3762 -3723 -3629 0
-3763 3724 0
-3763 3631 0
3763 -3724 -3631 0
-3764 3725 0
-3764 3633 0
3764 -3725 -3633 0
-3765 3726 0
-3765 3635 0
3765 -3726 -3635 0
-3766 3727 0
-3766 3637 0
3766 -3727 -3637 0
-3767 3761 3762 0
-3767 -3761 -3762 0
3767 -3761 3762 0
3767 3761 -3762 0
-3768 3767 3763 0
-3768 -3767 -3763 0
3768 -3767 3763 0
3768 3767 -3763 0
-3769 3768 3764 0
-3769 -3768 -3764 0
3769 -3768 3764 0
3769 3768 -3764 0
-3770 3769 3765 0
-3770 -3769 -3765 0
3770 -3769 3765 0
3770 3769 -3765 0
-3771 3770 3766 0
-3771 -3770 -3766 0
3771 -3770 3766 0
3771 3770 -3766 0
-3771 0
-3772 3722 0
-3772 3628 0
3772 -3722 -3628 0
-3773 3723 0
-3773 3630 0
3773 -3723 -3630 0
-3774 3724 0
-3774 3632 0
3774 -3724 -3632 0
-3775 3725 0
-3775 3634 0
3775 -3725 -3634 0
-3776 3726 0
-3776 3636 0
3776 -3726 -3636 0
-3777 3727 0
-3777 3638 0
3777 -3727 -3638 0
-3778 3772 3773 0
-3778 -3772 -3773 0
3778 -3772 3773 0
3778 3772 -3773 0
-3779 3778 3774 0
-3779 -3778 -3774 0
3779 -3778 3774 0
3779 3778 -3774 0
-3780 3779 3775 0
-3780 -3779 -3775 0
3780 -3779 3775 0
3780 3779 -3775 0
-3781 3780 3776 0
-3781 -3780 -3776 0
3781 -3780 3776 0
3781 3780 -3776 0
-3782 3781 3777 0
-3782 -3781 -3777 0
3782 -3781 3777 0
3782 3781 -3777 0
-3782 0
-3783 3722 0
-3783 3640 0
3783 -3722 -3640 0
-3784 3723 0
-3784 3642 0
3784 -3723 -3642 0
-3785 3724 0
-3785 3644 0
3785 -3724 -3644 0
-3786 3725 0
-3786 3646 0
3786 -3725 -3646 0
-3787 3726 0
-3787 3647 0
3787 -3726 -3647 0
-3788 3727 0
-3788 3649 0
3788 -3727 -3649 0
-3789 3783 3784 0
-3789 -3783 -3784 0
3789 -3783 3784 0
3789 3783 -3784 0
-3790 3789 3785 0
-3790 -3789 -3785 0
3790 -3789 3785 0
3790 3789 -3785 0
-3791 3790 3786 0
-3791 -3790 -3786 0
3791 -3790 3786 0
3791 3790 -3786 0
-3792 3791 3787 0
-3792 -3791 -3787 0
3792 -3791 3787 0
3792 3791 -3787 0
-3793 3792 3788 0
-3793 -3792 -3788 0
3793 -3792 3788 0
3793 3792 -3788 0
-3794 3650 3722 0
-3794 -3650 -3722 0
3794 -3650 3722 0
3794 3650 -3722 0
-3795 3651 3723 0
-3795 -3651 -3723 0
3795 -3651 3723 0
3795 3651 -3723 0
-3796 3652 3724 0
-3796 -3652 -3724 0
3796 -3652 3724 0
3796 3652 -3724 0
-3797 3653 3725 0
-3797 -3653 -3725 0
3797 -3653 3725 0
3797 3653 -3725 0
-3798 3654 3726 0
-3798 -3654 -3726 0
3798 -3654 3726 0
3798 3654 -3726 0
-3799 3655 3727 0
-3799 -3655 -3727 0
3799 -3655 3727 0
3799 3655 -3727 0
3794 3795 3796 3797 3798 3799 0
3721 3793 0
-3800 31 37 0
-3800 -31 -37 0
3800 -31 37 0
3800 31 -37 0
-3801 61 73 0
-3801 -61 -73 0
3801 -61 73 0
3801 61 -73 0
-3802 67 79 0
-3802 -67 -79 0
3802 -67 79 0
3802 67 -79 0
-3803 32 38 0
-3803 -32 -38 0
3803 -32 38 0
3803 32 -38 0
-3804 62 74 0
-3804 -62 -74 0
3804 -62 74 0
3804 62 -74 0
-3805 68 80 0
-3805 -68 -80 0
3805 -68 80 0
3805 68 -80 0
-3806 33 39 0
-3806 -33 -39 0
3806 -33 39 0
3806 33 -39 0
-3807 63 75 0
-3807 -63 -75 0
3807 -63 75 0
3807 63 -75 0
-3808 69 81 0
-3808 -69 -81 0
3808 -69 81 0
3808 69 -81 0
-3809 34 40 0
-3809 -34 -40 0
3809 -34 40 0
3809 34 -40 0
-3810 64 76 0
-3810 -64 -76 0
3810 -64 76 0
3810 64 -76 0
-3811 70 82 0
-3811 -70 -82 0
3811 -70 82 0
3811 70 -82 0
-3812 35 41 0
-3812 -35 -41 0
3812 -35 41 0
3812 35 -41 0
-3813 65 77 0
-3813 -65 -77 0
3813 -65 77 0
3813 65 -77 0
-3814 71 83 0
-3814 -71 -83 0
3814 -71 83 0
3814 71 -83 0
-3815 36 42 0
-3815 -36 -42 0
3815 -36 42 0
3815 36 -42 0
-3816 66 78 0
-3816 -66 -78 0
3816 -66 78 0
3816 66 -78 0
-3817 72 84 0
-3817 -72 -84 0
3817 -72 84 0
3817 72 -84 0
-3818 103 109 0
-3818 -103 -109 0
3818 -103 109 0
3818 103 -109 0
-3819 104 110 0
-3819 -104 -110 0
3819 -104 110 0
3819 104 -110 0
-3820 105 111 0
-3820 -105 -111 0
3820 -105 111 0
3820 105 -111 0
-3821 106 112 0
-3821 -106 -112 0
3821 -106 112 0
3821 106 -112 0
-3822 107 113 0
-3822 -107 -113 0
3822 -107 113 0
3822 107 -113 0
-3823 108 114 0
-3823 -108 -114 0
3823 -108 114 0
3823 108 -114 0
3824 3825 3826 3827 3828 3829 0
-3830 3824 3825 0
-3830 -3824 -3825 0
3830 -3824 3825 0
3830 3824 -3825 0
-3830 0
-3831 3824 0
-3831 3800 0
3831 -3824 -3800 0
-3832 3825 0
-3832 3803 0
3832 -3825 -3803 0
-3833 3826 0
-3833 3806 0
3833 -3826 -3806 0
-3834 3827 0
-3834 3809 0
3834 -3827 -3809 0
-3835 3828 0
-3835 3812 0
3835 -3828 -3812 0
-3836 3829 0
-3836 3815 0
3836 -3829 -3815 0
-3837 3831 3832 0
-3837 -3831 -3832 0
3837 -3831 3832 0
3837 3831 -3832 0
-3838 3837 3833 0
-3838 -3837 -3833 0
3838 -3837 3833 0
3838 3837 -3833 0
-3839 3838 3834 0
-3839 -3838 -3834 0
3839 -3838 3834 0
3839 3838 -3834 0
-3840 3839 3835 0
-3840 -3839 -3835 0
3840 -3839 3835 0
3840 3839 -3835 0
-3841 3840 3836 0
-3841 -3840 -3836 0
3841 -3840 3836 0
3841 3840 -3836 0
-3841 0
-3842 3824 0
-3842 3801 0
3842 -3824 -3801 0
-3843 3825 0
-3843 3804 0
3843 -3825 -3804 0
-3844 3826 0
-3844 3807 0
3844 -3826 -3807 0
-3845 3827 0
-3845 3810 0
3845 -3827 -3810 0
-3846 3828 0
-3846 3813 0
3846 -3828 -3813 0
-3847 3829 0
-3847 3816 0
3847 -3829 -3816 0
-3848 3842 3843 0
-3848 -3842 -3843 0
3848 -3842 3843 0
3848 3842 -3843 0
-3849 3848 3844 0
-3849 -3848 -3844 0
3849 -3848 3844 0
3849 3848 -3844 0
-3850 3849 3845 0
-3850 -3849 -3845 0
3850 -3849 3845 0
3850 3849 -3845 0
-3851 3850 3846 0
-3851 -3850 -3846 0
3851 -3850 3846 0
3851 3850 -3846 0
-3852 3851 3847 0
-3852 -3851 -3847 0
3852 -3851 3847 0
3852 3851 -3847 0
-3852 0
-3853 3824 0
-3853 3802 0
3853 -3824 -3802 0
-3854 3825 0
-3854 3805 0
3854 -3825 -3805 0
-3855 3826 0
-3855 3808 0
3855 -3826 -3808 0
-3856 3827 0
-3856 3811 0
3856 -3827 -3811 0
-3857 3828 0
-3857 3814 0
3857 -3828 -3814 0
-3858 3829 0
-3858 3817 0
3858 -3829 -3817 0
-3859 3853 3854 0
-3859 -3853 -3854 0
3859 -3853 3854 0
3859 3853 -3854 0
-3860 3859 3855 0
-3860 -3859 -3855 0
3860 -3859 3855 0
3860 3859 -3855 0
-3861 3860 3856 0
-3861 -3860 -3856 0
3861 -3860 3856 0
3861 3860 -3856 0
-3862 3861 3857 0
-3862 -3861 -3857 0
3862 -3861 3857 0
3862 3861 -3857 0
-3863 3862 3858 0
-3863 -3862 -3858 0
3863 -3862 3858 0
3863 3862 -3858 0
-3863 0
-3864 3824 0
-3864 3818 0
3864 -3824 -3818 0
-3865 3825 0
-3865 3819 0
3865 -3825 -3819 0
-3866 3826 0
-3866 3820 0
3866 -3826 -3820 0
-3867 3827 0
-3867 3821 0
3867 -3827 -3821 0
-3868 3828 0
-3868 3822 0
3868 -3828 -3822 0
-3869 3829 0
-3869 3823 0
3869 -3829 -3823 0
-3870 3864 3865 0
-3870 -3864 -3865 0
3870 -3864 3865 0
3870 3864 -3865 0
-3871 3870 3866 0
-3871 -3870 -3866 0
3871 -3870 3866 0
3871 3870 -3866 0
-3872 3871 3867 0
-3872 -3871 -3867 0
3872 -3871 3867 0
3872 3871 -3867 0
-3873 3872 3868 0
-3873 -3872 -3868 0
3873 -3872 3868 0
3873 3872 -3868 0
-3874 3873 3869 0
-3874 -3873 -3869 0
3874 -3873 3869 0
3874 3873 -3869 0
3875 3876 3877 3878 3879 3880 0
-3881 3875 3876 0
-3881 -3875 -3876 0
3881 -3875 3876 0
3881 3875 -3876 0
-3881 0
-3882 3875 0
-3882 3800 0
3882 -3875 -3800 0
-3883 3876 0
-3883 3803 0
3883 -3876 -3803 0
-3884 3877 0
-3884 3806 0
3884 -3877 -3806 0
-3885 3878 0
-3885 3809 0
3885 -3878 -3809 0
-3886 3879 0
-3886 3812 0
3886 -3879 -3812 0
-3887 3880 0
-3887 3815 0
3887 -3880 -3815 0
-3888 3882 3883 0
-3888 -3882 -3883 0
3888 -3882 3883 0
3888 3882 -3883 0
-3889 3888 3884 0
-3889 -3888 -3884 0
3889 -3888 3884 0
3889 3888 -3884 0
-3890 3889 3885 0
-3890 -3889 -3885 0
3890 -3889 3885 0
3890 3889 -3885 0
-3891 3890 3886 0
-3891 -3890 -3886 0
3891 -3890 3886 0
3891 3890 -3886 0
-3892 3891 3887 0
-3892 -3891 -3887 0
3892 -3891 3887 0
3892 3891 -3887 0
-3892 0
-3893 3875 0
-3893 3801 0
3893 -3875 -3801 0
-3894 3876 0
-3894 3804 0
3894 -3876 -3804 0
-3895 3877 0
-3895 3807 0
3895 -3877 -3807 0
-3896 3878 0
-3896 3810 0
3896 -3878 -3810 0
-3897 3879 0
-3897 3813 0
3897 -3879 -3813 0
-3898 3880 0
-3898 3816 0
3898 -3880 -3816 0
-3899 3893 3894 0
-3899 -3893 -3894 0
3899 -3893 3894 0
3899 3893 -3894 0
-3900 3899 3895 0
-3900 -3899 -3895 0
3900 -3899 3895 0
3900 3899 -3895 0
-3901 3900 3896 0
-3901 -3900 -3896 0
3901 -3900 3896 0
3901 3900 -3896 0
-3902 3901 3897 0
-3902 -3901 -3897 0
3902 -3901 3897 0
3902 3901 -3897 0
-3903 3902 3898 0
-3903 -3902 -3898 0
3903 -3902 3898 0
3903 3902 -3898 0
-3903 0
-3904 3875 0
-3904 3802 0
3904 -3875 -3802 0
-3905 3876 0
-3905 3805 0
3905 -3876 -3805 0
-3906 3877 0
-3906 3808 0
3906 -3877 -3808 0
-3907 3878 0
-3907 3811 0
3907 -3878 -3811 0
-3908 3879 0
-3908 3814 0
3908 -3879 -3814 0
-3909 3880 0
-3909 3817 0
3909 -3880 -3817 0
-3910 3904 3905 0
-3910 -3904 -3905 0
3910 -3904 3905 0
3910 3904 -3905 0
-3911 3910 3906 0
-3911 -3910 -3906 0
3911 -3910 3906 0
3911 3910 -3906 0
-3912 3911 3907 0
-3912 -3911 -3907 0
3912 -3911 3907 0
3912 3911 -3907 0
-3913 3912 3908 0
-3913 -3912 -3908 0
3913 -3912 3908 0
3913 3912 -3908 0
-3914 3913 3909 0
-3914 -3913 -3909 0
3914 -3913 3909 0
3914 3913 -3909 0
-3914 0
-3915 3875 0
-3915 3818 0
3915 -3875 -3818 0
-3916 3876 0
-3916 3819 0
3916 -3876 -3819 0
-3917 3877 0
-3917 3820 0
3917 -3877 -3820 0
-3918 3878 0
-3918 3821 0
3918 -3878 -3821 0
-3919 3879 0
-3919 3822 0
3919 -3879 -3822 0
-3920 3880 0
-3920 3823 0
3920 -3880 -3823 0
-3921 3915 3916 0
-3921 -3915 -3916 0
3921 -3915 3916 0
3921 3915 -3916 0
-3922 3921 3917 0
-3922 -3921 -3917 0
3922 -3921 3917 0
3922 3921 -3917 0
-3923 3922 3918 0
-3923 -3922 -3918 0
3923 -3922 3918 0
3923 3922 -3918 0
-3924 3923 3919 0
-3924 -3923 -3919 0
3924 -3923 3919 0
3924 3923 -3919 0
-3925 3924 3920 0
-3925 -3924 -3920 0
3925 -3924 3920 0
3925 3924 -3920 0
-3926 3824 3875 0
-3926 -3824 -3875 0
3926 -3824 3875 0
3926 3824 -3875 0
-3927 3825 3876 0
-3927 -3825 -3876 0
3927 -3825 3876 0
3927 3825 -3876 0
-3928 3826 3877 0
-3928 -3826 -3877 0
3928 -3826 3877 0
3928 3826 -3877 0
-3929 3827 3878 0
-3929 -3827 -3878 0
3929 -3827 3878 0
3929 3827 -3878 0
-3930 3828 3879 0
-3930 -3828 -3879 0
3930 -3828 3879 0
3930 3828 -3879 0
-3931 3829 3880 0
-3931 -3829 -3880 0
3931 -3829 3880 0
3931 3829 -3880 0
3926 3927 3928 3929 3930 3931 0
3874 3925 0
-3932 31 37 0
-3932 -31 -37 0
3932 -31 37 0
3932 31 -37 0
-3933 61 73 0
-3933 -61 -73 0
3933 -61 73 0
3933 61 -73 0
-3934 67 79 0
-3934 -67 -79 0
3934 -67 79 0
3934 67 -79 0
-3935 32 38 0
-3935 -32 -38 0
3935 -32 38 0
3935 32 -38 0
-3936 62 74 0
-3936 -62 -74 0
3936 -62 74 0
3936 62 -74 0
-3937 68 80 0
-3937 -68 -80 0
3937 -68 80 0
3937 68 -80 0
-3938 33 39 0
-3938 -33 -39 0
3938 -33 39 0
3938 33 -39 0
-3939 -63 75 0
-3939 63 -75 0
3939 63 75 0
3939 -63 -75 0
-3940 69 81 0
-3940 -69 -81 0
3940 -69 81 0
3940 69 -81 0
-3941 34 40 0
-3941 -34 -40 0
3941 -34 40 0
3941 34 -40 0
-3942 64 76 0
-3942 -64 -76 0
3942 -64 76 0
3942 64 -76 0
-3943 -70 82 0
-3943 70 -82 0
3943 70 82 0
3943 -70 -82 0
-3944 35 41 0
-3944 -35 -41 0
3944 -35 41 0
3944 35 -41 0
-3945 65 77 0
-3945 -65 -77 0
3945 -65 77 0
3945 65 -77 0
-3946 71 83 0
-3946 -71 -83 0
3946 -71 83 0
3946 71 -83 0
-3947 36 42 0
-3947 -36 -42 0
3947 -36 42 0
3947 36 -42 0
-3948 66 78 0
-3948 -66 -78 0
3948 -66 78 0
3948 66 -78 0
-3949 72 84 0
-3949 -72 -84 0
3949 -72 84 0
3949 72 -84 0
-3950 103 109 0
-3950 -103 -109 0
3950 -103 109 0
3950 103 -109 0
-3951 104 110 0
-3951 -104 -110 0
3951 -104 110 0
3951 104 -110 0
-3952 105 111 0
-3952 -105 -111 0
3952 -105 111 0
3952 105 -111 0
-3953 106 112 0
-3953 -106 -112 0
3953 -106 112 0
3953 106 -112 0
-3954 -107 113 0
-3954 107 -113 0
3954 107 113 0
3954 -107 -113 0
-3955 108 114 0
-3955 -108 -114 0
3955 -108 114 0
3955 108 -114 0
3956 3957 3958 3959 3960 3961 0
-3962 3956 3957 0
-3962 -3956 -3957 0
3962 -3956 3957 0
3962 3956 -3957 0
-3962 0
-3963 3956 0
-3963 3932 0
3963 -3956 -3932 0
-3964 3957 0
-3964 3935 0
3964 -3957 -3935 0
-3965 3958 0
-3965 3938 0
3965 -3958 -3938 0
-3966 3959 0
-3966 3941 0
3966 -3959 -3941 0
-3967 3960 0
-3967 3944 0
3967 -3960 -3944 0
-3968 3961 0
-3968 3947 0
3968 -3961 -3947 0
-3969 3963 3964 0
-3969 -3963 -3964 0
3969 -3963 3964 0
3969 3963 -3964 0
-3970 3969 3965 0
-3970 -3969 -3965 0
3970 -3969 3965 0
3970 3969 -3965 0
-3971 3970 3966 0
-3971 -3970 -3966 0
3971 -3970 3966 0
3971 3970 -3966 0
-3972 3971 3967 0
-3972 -3971 -3967 0
3972 -3971 3967 0
3972 3971 -3967 0
-3973 3972 3968 0
-3973 -3972 -3968 0
3973 -3972 3968 0
3973 3972 -3968 0
-3973 0
-3956 0
-3957 0
-3974 3956 0
-3974 3933 0
3974 -3956 -3933 0
-3975 3957 0
-3975 3936 0
3975 -3957 -3936 0
-3976 3958 0
-3976 3939 0
3976 -3958 -3939 0
-3977 3959 0
-3977 3942 0
3977 -3959 -3942 0
-3978 3960 0
-3978 3945 0
3978 -3960 -3945 0
-3979 3961 0
-3979 3948 0
3979 -3961 -3948 0
-3980 3974 3975 0
-3980 -3974 -3975 0
3980 -3974 3975 0
3980 3974 -3975 0
-3981 3980 3976 0
-3981 -3980 -3976 0
3981 -3980 3976 0
3981 3980 -3976 0
-3982 3981 3977 0
-3982 -3981 -3977 0
3982 -3981 3977 0
3982 3981 -3977 0
-3983 3982 3978 0
-3983 -3982 -3978 0
3983 -3982 3978 0
3983 3982 -3978 0
-3984 3983 3979 0
-3984 -3983 -3979 0
3984 -3983 3979 0
3984 3983 -3979 0
-3984 0
-3985 3956 0
-3985 3934 0
3985 -3956 -3934 0
-3986 3957 0
-3986 3937 0
3986 -3957 -3937 0
-3987 3958 0
-3987 3940 0
3987 -3958 -3940 0
-3988 3959 0
-3988 3943 0
3988 -3959 -3943 0
-3989 3960 0
-3989 3946 0
3989 -3960 -3946 0
-3990 3961 0
-3990 3949 0
3990 -3961 -3949 0
-3991 3985 3986 0
-3991 -3985 -3986 0
3991 -3985 3986 0
3991 3985 -3986 0
-3992 3991 3987 0
-3992 -3991 -3987 0
3992 -3991 3987 0
3992 3991 -3987 0
-3993 3992 3988 0
-3993 -3992 -3988 0
3993 -3992 3988 0
3993 3992 -3988 0
-3994 3993 3989 0
-3994 -3993 -3989 0
3994 -3993 3989 0
3994 3993 -3989 0
-3995 3994 3990 0
-3995 -3994 -3990 0
3995 -3994 3990 0
3995 3994 -3990 0
-3995 0
-3996 3956 0
-3996 -3950 0
3996 -3956 3950 0
-3997 3957 0
-3997 -3951 0
3997 -3957 3951 0
-3998 3958 0
-3998 3952 0
3998 -3958 -3952 0
-3999 3959 0
-3999 3953 0
3999 -3959 -3953 0
-4000 3960 0
-4000 3954 0
4000 -3960 -3954 0
-4001 3961 0
-4001 3955 0
4001 -3961 -3955 0
-4002 3996 3997 0
-4002 -3996 -3997 0
4002 -3996 3997 0
4002 3996 -3997 0
-4003 4002 3998 0
-4003 -4002 -3998 0
4003 -4002 3998 0
4003 4002 -3998 0
-4004 4003 3999 0
-4004 -4003 -3999 0
4004 -4003 3999 0
4004 4003 -3999 0
-4005 4004 4000 0
-4005 -4004 -4000 0
4005 -4004 4000 0
4005 4004 -4000 0
-4006 4005 4001 0
-4006 -4005 -4001 0
4006 -4005 4001 0
4006 4005 -4001 0
4007 4008 4009 4010 4011 4012 0
-4013 4007 4008 0
-4013 -4007 -4008 0
4013 -4007 4008 0
4013 4007 -4008 0
-4013 0
-4014 4007 0
-4014 3932 0
4014 -4007 -3932 0
-4015 4008 0
-4015 3935 0
4015 -4008 -3935 0
-4016 4009 0
-4016 3938 0
4016 -4009 -3938 0
-4017 4010 0
-4017 3941 0
4017 -4010 -3941 0
-4018 4011 0
-4018 3944 0
4018 -4011 -3944 0
-4019 4012 0
-4019 3947 0
4019 -4012 -3947 0
-4020 4014 4015 0
-4020 -4014 -4015 0
4020 -4014 4015 0
4020 4014 -4015 0
-4021 4020 4016 0
-4021 -4020 -4016 0
4021 -4020 4016 0
4021 4020 -4016 0
-4022 4021 4017 0
-4022 -4021 -4017 0
4022 -4021 4017 0
4022 4021 -4017 0
-4023 4022 4018 0
-4023 -4022 -4018 0
4023 -4022 4018 0
4023 4022 -4018 0
-4024 4023 4019 0
-4024 -4023 -4019 0
4024 -4023 4019 0
4024 4023 -4019 0
-4024 0
-4007 0
-4008 0
-4025 4007 0
-4025 3933 0
4025 -4007 -3933 0
-4026 4008 0
-4026 3936 0
4026 -4008 -3936 0
-4027 4009 0
-4027 3939 0
4027 -4009 -3939 0
-4028 4010 0
-4028 3942 0
4028 -4010 -3942 0
-4029 4011 0
-4029 3945 0
4029 -4011 -3945 0
-4030 4012 0
-4030 3948 0
4030 -4012 -3948 0
-4031 4025 4026 0
-4031 -4025 -4026 0
4031 -4025 4026 0
4031 4025 -4026 0
-4032 4031 4027 0
-4032 -4031 -4027 0
4032 -4031 4027 0
4032 4031 -4027 0
-4033 4032 4028 0
-4033 -4032 -4028 0
4033 -4032 4028 0
4033 4032 -4028 0
-4034 4033 4029 0
-4034 -4033 -4029 0
4034 -4033 4029 0
4034 4033 -4029 0
-4035 4034 4030 0
-4035 -4034 -4030 0
4035 -4034 4030 0
4035 4034 -4030 0
-4035 0
-4036 4007 0
-4036 3934 0
4036 -4007 -3934 0
-4037 4008 0
-4037 3937 0
4037 -4008 -3937 0
-4038 4009 0
-4038 3940 0
4038 -4009 -3940 0
-4039 4010 0
-4039 3943 0
4039 -4010 -3943 0
-4040 4011 0
-4040 3946 0
4040 -4011 -3946 0
-4041 4012 0
-4041 3949 0
4041 -4012 -3949 0
-4042 4036 4037 0
-4042 -4036 -4037 0
4042 -4036 4037 0
4042 4036 -4037 0
-4043 4042 4038 0
-4043 -4042 -4038 0
4043 -4042 4038 0
4043 4042 -4038 0
-4044 4043 4039 0
-4044 -4043 -4039 0
4044 -4043 4039 0
4044 4043 -4039 0
-4045 4044 4040 0
-4045 -4044 -4040 0
4045 -4044 4040 0
4045 4044 -4040 0
-4046 4045 4041 0
-4046 -4045 -4041 0
4046 -4045 4041 0
4046 4045 -4041 0
-4046 0
-4047 4007 0
-4047 -3950 0
4047 -4007 3950 0
-4048 4008 0
-4048 -3951 0
4048 -4008 3951 0
-4049 4009 0
-4049 3952 0
4049 -4009 -3952 0
-4050 4010 0
-4050 3953 0
4050 -4010 -3953 0
-4051 4011 0
-4051 3954 0
4051 -4011 -3954 0
-4052 4012 0
-4052 3955 0
4052 -4012 -3955 0
-4053 4047 4048 0
-4053 -4047 -4048 0
4053 -4047 4048 0
4053 4047 -4048 0
-4054 4053 4049 0
-4054 -4053 -4049 0
4054 -4053 4049 0
4054 4053 -4049 0
-4055 4054 4050 0
-4055 -4054 -4050 0
4055 -4054 4050 0
4055 4054 -4050 0
-4056 4055 4051 0
-4056 -4055 -4051 0
4056 -4055 4051 0
4056 4055 -4051 0
-4057 4056 4052 0
-4057 -4056 -4052 0
4057 -4056 4052 0
4057 4056 -4052 0
-4058 3956 4007 0
-4058 -3956 -4007 0
4058 -3956 4007 0
4058 3956 -4007 0
-4059 3957 4008 0
-4059 -3957 -4008 0
4059 -3957 4008 0
4059 3957 -4008 0
-4060 3958 4009 0
-4060 -3958 -4009 0
4060 -3958 4009 0
4060 3958 -4009 0
-4061 3959 4010 0
-4061 -3959 -4010 0
4061 -3959 4010 0
4061 3959 -4010 0
-4062 3960 4011 0
-4062 -3960 -4011 0
4062 -3960 4011 0
4062 3960 -4011 0
-4063 3961 4012 0
-4063 -3961 -4012 0
4063 -3961 4012 0
4063 3961 -4012 0
4058 4059 4060 4061 4062 4063 0
4006 4057 0
-4064 31 37 0
-4064 -31 -37 0
4064 -31 37 0
4064 31 -37 0
-4065 43 61 0
-4065 -43 -61 0
4065 -43 61 0
4065 43 -61 0
-4066 4065 73 0
-4066 -4065 -73 0
4066 -4065 73 0
4066 4065 -73 0
-4067 49 67 0
-4067 -49 -67 0
4067 -49 67 0
4067 49 -67 0
-4068 4067 79 0
-4068 -4067 -79 0
4068 -4067 79 0
4068 4067 -79 0
-4069 32 38 0
-4069 -32 -38 0
4069 -32 38 0
4069 32 -38 0
-4070 44 62 0
-4070 -44 -62 0
4070 -44 62 0
4070 44 -62 0
-4071 4070 74 0
-4071 -4070 -74 0
4071 -4070 74 0
4071 4070 -74 0
-4072 50 68 0
-4072 -50 -68 0
4072 -50 68 0
4072 50 -68 0
-4073 4072 80 0
-4073 -4072 -80 0
4073 -4072 80 0
4073 4072 -80 0
-4074 33 39 0
-4074 -33 -39 0
4074 -33 39 0
4074 33 -39 0
-4075 45 63 0
-4075 -45 -63 0
4075 -45 63 0
4075 45 -63 0
-4076 4075 75 0
-4076 -4075 -75 0
4076 -4075 75 0
4076 4075 -75 0
-4077 51 69 0
-4077 -51 -69 0
4077 -51 69 0
4077 51 -69 0
-4078 4077 81 0
-4078 -4077 -81 0
4078 -4077 81 0
4078 4077 -81 0
-4079 34 40 0
-4079 -34 -40 0
4079 -34 40 0
4079 34 -40 0
-4080 46 64 0
-4080 -46 -64 0
4080 -46 64 0
4080 46 -64 0
-4081 4080 76 0
-4081 -4080 -76 0
4081 -4080 76 0
4081 4080 -76 0
-4082 52 70 0
-4082 -52 -70 0
4082 -52 70 0
4082 52 -70 0
-4083 4082 82 0
-4083 -4082 -82 0
4083 -4082 82 0
4083 4082 -82 0
-4084 35 41 0
-4084 -35 -41 0
4084 -35 41 0
4084 35 -41 0
-4085 47 65 0
-4085 -47 -65 0
4085 -47 65 0
4085 47 -65 0
-4086 4085 77 0
-4086 -4085 -77 0
4086 -4085 77 0
4086 4085 -77 0
-4087 53 71 0
-4087 -53 -71 0
4087 -53 71 0
4087 53 -71 0
-4088 4087 83 0
-4088 -4087 -83 0
4088 -4087 83 0
4088 4087 -83 0
-4089 36 42 0
-4089 -36 -42 0
4089 -36 42 0
4089 36 -42 0
-4090 48 66 0
-4090 -48 -66 0
4090 -48 66 0
4090 48 -66 0
-4091 4090 78 0
-4091 -4090 -78 0
4091 -4090 78 0
4091 4090 -78 0
-4092 54 72 0
-4092 -54 -72 0
4092 -54 72 0
4092 54 -72 0
-4093 4092 84 0
-4093 -4092 -84 0
4093 -4092 84 0
4093 4092 -84 0
-4094 97 103 0
-4094 -97 -103 0
4094 -97 103 0
4094 97 -103 0
-4095 4094 109 0
-4095 -4094 -109 0
4095 -4094 109 0
4095 4094 -109 0
-4096 4095 31 0
-4096 -4095 -31 0
4096 -4095 31 0
4096 4095 -31 0
-4097 4096 37 0
-4097 -4096 -37 0
4097 -4096 37 0
4097 4096 -37 0
-4098 98 104 0
-4098 -98 -104 0
4098 -98 104 0
4098 98 -104 0
-4099 4098 110 0
-4099 -4098 -110 0
4099 -4098 110 0
4099 4098 -110 0
-4100 4099 32 0
-4100 -4099 -32 0
4100 -4099 32 0
4100 4099 -32 0
-4101 4100 38 0
-4101 -4100 -38 0
4101 -4100 38 0
4101 4100 -38 0
-4102 99 105 0
-4102 -99 -105 0
4102 -99 105 0
4102 99 -105 0
-4103 4102 111 0
-4103 -4102 -111 0
4103 -4102 111 0
4103 4102 -111 0
-4104 4103 33 0
-4104 -4103 -33 0
4104 -4103 33 0
4104 4103 -33 0
-4105 4104 39 0
-4105 -4104 -39 0
4105 -4104 39 0
4105 4104 -39 0
-4106 100 106 0
-4106 -100 -106 0
4106 -100 106 0
4106 100 -106 0
-4107 4106 112 0
-4107 -4106 -112 0
4107 -4106 112 0
4107 4106 -112 0
-4108 4107 34 0
-4108 -4107 -34 0
4108 -4107 34 0
4108 4107 -34 0
-4109 4108 40 0
-4109 -4108 -40 0
4109 -4108 40 0
4109 4108 -40 0
-4110 107 113 0
-4110 -107 -113 0
4110 -107 113 0
4110 107 -113 0
-4111 4110 35 0
-4111 -4110 -35 0
4111 -4110 35 0
4111 4110 -35 0
-4112 4111 41 0
-4112 -4111 -41 0
4112 -4111 41 0
4112 4111 -41 0
-4113 102 108 0
-4113 -102 -108 0
4113 -102 108 0
4113 102 -108 0
-4114 4113 114 0
-4114 -4113 -114 0
4114 -4113 114 0
4114 4113 -114 0
-4115 4114 36 0
-4115 -4114 -36 0
4115 -4114 36 0
4115 4114 -36 0
-4116 4115 42 0
-4116 -4115 -42 0
4116 -4115 42 0
4116 4115 -42 0
4117 4118 4119 4120 4121 4122 0
-4123 4117 4118 0
-4123 -4117 -4118 0
4123 -4117 4118 0
4123 4117 -4118 0
-4123 0
-4124 4117 0
-4124 4064 0
4124 -4117 -4064 0
-4125 4118 0
-4125 4069 0
4125 -4118 -4069 0
-4126 4119 0
-4126 4074 0
4126 -4119 -4074 0
-4127 4120 0
-4127 4079 0
4127 -4120 -4079 0
-4128 4121 0
-4128 4084 0
4128 -4121 -4084 0
-4129 4122 0
-4129 4089 0
4129 -4122 -4089 0
-4130 4124 4125 0
-4130 -4124 -4125 0
4130 -4124 4125 0
4130 4124 -4125 0
-4131 4130 4126 0
-4131 -4130 -4126 0
4131 -4130 4126 0
4131 4130 -4126 0
-4132 4131 4127 0
-4132 -4131 -4127 0
4132 -4131 4127 0
4132 4131 -4127 0
-4133 4132 4128 0
-4133 -4132 -4128 0
4133 -4132 4128 0
4133 4132 -4128 0
-4134 4133 4129 0
-4134 -4133 -4129 0
4134 -4133 4129 0
4134 4133 -4129 0
-4134 0
-4135 4117 0
-4135 31 0
4135 -4117 -31 0
-4136 4118 0
-4136 32 0
4136 -4118 -32 0
-4137 4119 0
-4137 33 0
4137 -4119 -33 0
-4138 4120 0
-4138 34 0
4138 -4120 -34 0
-4139 4121 0
-4139 35 0
4139 -4121 -35 0
-4140 4122 0
-4140 36 0
4140 -4122 -36 0
-4141 4135 4136 0
-4141 -4135 -4136 0
4141 -4135 4136 0
4141 4135 -4136 0
-4142 4141 4137 0
-4142 -4141 -4137 0
4142 -4141 4137 0
4142 4141 -4137 0
-4143 4142 4138 0
-4143 -4142 -4138 0
4143 -4142 4138 0
4143 4142 -4138 0
-4144 4143 4139 0
-4144 -4143 -4139 0
4144 -4143 4139 0
4144 4143 -4139 0
-4145 4144 4140 0
-4145 -4144 -4140 0
4145 -4144 4140 0
4145 4144 -4140 0
-4145 0
-4146 4117 0
-4146 37 0
4146 -4117 -37 0
-4147 4118 0
-4147 38 0
4147 -4118 -38 0
-4148 4119 0
-4148 39 0
4148 -4119 -39 0
-4149 4120 0
-4149 40 0
4149 -4120 -40 0
-4150 4121 0
-4150 41 0
4150 -4121 -41 0
-4151 4122 0
-4151 42 0
4151 -4122 -42 0
-4152 4146 4147 0
-4152 -4146 -4147 0
4152 -4146 4147 0
4152 4146 -4147 0
-4153 4152 4148 0
-4153 -4152 -4148 0
4153 -4152 4148 0
4153 4152 -4148 0
-4154 4153 4149 0
-4154 -4153 -4149 0
4154 -4153 4149 0
4154 4153 -4149 0
-4155 4154 4150 0
-4155 -4154 -4150 0
4155 -4154 4150 0
4155 4154 -4150 0
-4156 4155 4151 0
-4156 -4155 -4151 0
4156 -4155 4151 0
4156 4155 -4151 0
-4156 0
-4157 4117 0
-4157 4066 0
4157 -4117 -4066 0
-4158 4118 0
-4158 4071 0
4158 -4118 -4071 0
-4159 4119 0
-4159 4076 0
4159 -4119 -4076 0
-4160 4120 0
-4160 4081 0
4160 -4120 -4081 0
-4161 4121 0
-4161 4086 0
4161 -4121 -4086 0
-4162 4122 0
-4162 4091 0
4162 -4122 -4091 0
-4163 4157 4158 0
-4163 -4157 -4158 0
4163 -4157 4158 0
4163 4157 -4158 0
-4164 4163 4159 0
-4164 -4163 -4159 0
4164 -4163 4159 0
4164 4163 -4159 0
-4165 4164 4160 0
-4165 -4164 -4160 0
4165 -4164 4160 0
4165 4164 -4160 0
-4166 4165 4161 0
-4166 -4165 -4161 0
4166 -4165 4161 0
4166 4165 -4161 0
-4167 4166 4162 0
-4167 -4166 -4162 0
4167 -4166 4162 0
4167 4166 -4162 0
-4167 0
-4168 4117 0
-4168 4068 0
4168 -4117 -4068 0
-4169 4118 0
-4169 4073 0
4169 -4118 -4073 0
-4170 4119 0
-4170 4078 0
4170 -4119 -4078 0
-4171 4120 0
-4171 4083 0
4171 -4120 -4083 0
-4172 4121 0
-4172 4088 0
4172 -4121 -4088 0
-4173 4122 0
-4173 4093 0
4173 -4122 -4093 0
-4174 4168 4169 0
-4174 -4168 -4169 0
4174 -4168 4169 0
4174 4168 -4169 0
-4175 4174 4170 0
-4175 -4174 -4170 0
4175 -4174 4170 0
4175 4174 -4170 0
-4176 4175 4171 0
-4176 -4175 -4171 0
4176 -4175 4171 0
4176 4175 -4171 0
-4177 4176 4172 0
-4177 -4176 -4172 0
4177 -4176 4172 0
4177 4176 -4172 0
-4178 4177 4173 0
-4178 -4177 -4173 0
4178 -4177 4173 0
4178 4177 -4173 0
-4178 0
-4179 4117 0
-4179 4097 0
4179 -4117 -4097 0
-4180 4118 0
-4180 4101 0
4180 -4118 -4101 0
-4181 4119 0
-4181 4105 0
4181 -4119 -4105 0
-4182 4120 0
-4182 4109 0
4182 -4120 -4109 0
-4183 4121 0
-4183 4112 0
4183 -4121 -4112 0
-4184 4122 0
-4184 4116 0
4184 -4122 -4116 0
-4185 4179 4180 0
-4185 -4179 -4180 0
4185 -4179 4180 0
4185 4179 -4180 0
-4186 4185 4181 0
-4186 -4185 -4181 0
4186 -4185 4181 0
4186 4185 -4181 0
-4187 4186 4182 0
-4187 -4186 -4182 0
4187 -4186 4182 0
4187 4186 -4182 0
-4188 4187 4183 0
-4188 -4187 -4183 0
4188 -4187 4183 0
4188 4187 -4183 0
-4189 4188 4184 0
-4189 -4188 -4184 0
4189 -4188 4184 0
4189 4188 -4184 0
4190 4191 4192 4193 4194 4195 0
-4196 4190 4191 0
-4196 -4190 -4191 0
4196 -4190 4191 0
4196 4190 -4191 0
-4196 0
-4197 4190 0
-4197 4064 0
4197 -4190 -4064 0
-4198 4191 0
-4198 4069 0
4198 -4191 -4069 0
-4199 4192 0
-4199 4074 0
4199 -4192 -4074 0
-4200 4193 0
-4200 4079 0
4200 -4193 -4079 0
-4201 4194 0
-4201 4084 0
4201 -4194 -4084 0
-4202 4195 0
-4202 4089 0
4202 -4195 -4089 0
-4203 4197 4198 0
-4203 -4197 -4198 0
4203 -4197 4198 0
4203 4197 -4198 0
-4204 4203 4199 0
-4204 -4203 -4199 0
4204 -4203 4199 0
4204 4203 -4199 0
-4205 4204 4200 0
-4205 -4204 -4200 0
4205 -4204 4200 0
4205 4204 -4200 0
-4206 4205 4201 0
-4206 -4205 -4201 0
4206 -4205 4201 0
4206 4205 -4201 0
-4207 4206 4202 0
-4207 -4206 -4202 0
4207 -4206 4202 0
4207 4206 -4202 0
-4207 0
-4208 4190 0
-4208 31 0
4208 -4190 -31 0
-4209 4191 0
-4209 32 0
4209 -4191 -32 0
-4210 4192 0
-4210 33 0
4210 -4192 -33 0
-4211 4193 0
-4211 34 0
4211 -4193 -34 0
-4212 4194 0
-4212 35 0
4212 -4194 -35 0
-4213 4195 0
-4213 36 0
4213 -4195 -36 0
-4214 4208 4209 0
-4214 -4208 -4209 0
4214 -4208 4209 0
4214 4208 -4209 0
-4215 4214 4210 0
-4215 -4214 -4210 0
4215 -4214 4210 0
4215 4214 -4210 0
-4216 4215 4211 0
-4216 -4215 -4211 0
4216 -4215 4211 0
4216 4215 -4211 0
-4217 4216 4212 0
-4217 -4216 -4212 0
4217 -4216 4212 0
4217 4216 -4212 0
-4218 4217 4213 0
-4218 -4217 -4213 0
4218 -4217 4213 0
4218 4217 -4213 0
-4218 0
-4219 4190 0
-4219 37 0
4219 -4190 -37 0
-4220 4191 0
-4220 38 0
4220 -4191 -38 0
-4221 4192 0
-4221 39 0
4221 -4192 -39 0
-4222 4193 0
-4222 40 0
4222 -4193 -40 0
-4223 4194 0
-4223 41 0
4223 -4194 -41 0
-4224 4195 0
-4224 42 0
4224 -4195 -42 0
-4225 4219 4220 0
-4225 -4219 -4220 0
4225 -4219 4220 0
4225 4219 -4220 0
-4226 4225 4221 0
-4226 -4225 -4221 0
4226 -4225 4221 0
4226 4225 -4221 0
-4227 4226 4222 0
-4227 -4226 -4222 0
4227 -4226 4222 0
4227 4226 -4222 0
-4228 4227 4223 0
-4228 -4227 -4223 0
4228 -4227 4223 0
4228 4227 -4223 0
-4229 4228 4224 0
-4229 -4228 -4224 0
4229 -4228 4224 0
4229 4228 -4224 0
-4229 0
-4230 4190 0
-4230 4066 0
4230 -4190 -4066 0
-4231 4191 0
-4231 4071 0
4231 -4191 -4071 0
-4232 4192 0
-4232 4076 0
4232 -4192 -4076 0
-4233 4193 0
-4233 4081 0
4233 -4193 -4081 0
-4234 4194 0
-4234 4086 0
4234 -4194 -4086 0
-4235 4195 0
-4235 4091 0
4235 -4195 -4091 0
-4236 4230 4231 0
-4236 -4230 -4231 0
4236 -4230 4231 0
4236 4230 -4231 0
-4237 4236 4232 0
-4237 -4236 -4232 0
4237 -4236 4232 0
4237 4236 -4232 0
-4238 4237 4233 0
-4238 -4237 -4233 0
4238 -4237 4233 0
4238 4237 -4233 0
-4239 4238 4234 0
-4239 -4238 -4234 0
4239 -4238 4234 0
4239 4238 -4234 0
-4240 4239 4235 0
-4240 -4239 -4235 0
4240 -4239 4235 0
4240 4239 -4235 0
-4240 0
-4241 4190 0
-4241 4068 0
4241 -4190 -4068 0
-4242 4191 0
-4242 4073 0
4242 -4191 -4073 0
-4243 4192 0
-4243 4078 0
4243 -4192 -4078 0
-4244 4193 0
-4244 4083 0
4244 -4193 -4083 0
-4245 4194 0
-4245 4088 0
4245 -4194 -4088 0
-4246 4195 0
-4246 4093 0
4246 -4195 -4093 0
-4247 4241 4242 0
-4247 -4241 -4242 0
4247 -4241 4242 0
4247 4241 -4242 0
-4248 4247 4243 0
-4248 -4247 -4243 0
4248 -4247 4243 0
4248 4247 -4243 0
-4249 4248 4244 0
-4249 -4248 -4244 0
4249 -4248 4244 0
4249 4248 -4244 0
-4250 4249 4245 0
-4250 -4249 -4245 0
4250 -4249 4245 0
4250 4249 -4245 0
-4251 4250 4246 0
-4251 -4250 -4246 0
4251 -4250 4246 0
4251 4250 -4246 0
-4251 0
-4252 4190 0
-4252 4097 0
4252 -4190 -4097 0
-4253 4191 0
-4253 4101 0
4253 -4191 -4101 0
-4254 4192 0
-4254 4105 0
4254 -4192 -4105 0
-4255 4193 0
-4255 4109 0
4255 -4193 -4109 0
-4256 4194 0
-4256 4112 0
4256 -4194 -4112 0
-4257 4195 0
-4257 4116 0
4257 -4195 -4116 0
-4258 4252 4253 0
-4258 -4252 -4253 0
4258 -4252 4253 0
4258 4252 -4253 0
-4259 4258 4254 0
-4259 -4258 -4254 0
4259 -4258 4254 0
4259 4258 -4254 0
-4260 4259 4255 0
-4260 -4259 -4255 0
4260 -4259 4255 0
4260 4259 -4255 0
-4261 4260 4256 0
-4261 -4260 -4256 0
4261 -4260 4256 0
4261 4260 -4256 0
-4262 4261 4257 0
-4262 -4261 -4257 0
4262 -4261 4257 0
4262 4261 -4257 0
-4263 4117 4190 0
-4263 -4117 -4190 0
4263 -4117 4190 0
4263 4117 -4190 0
-4264 4118 4191 0
-4264 -4118 -4191 0
4264 -4118 4191 0
4264 4118 -4191 0
-4265 4119 4192 0
-4265 -4119 -4192 0
4265 -4119 4192 0
4265 4119 -4192 0
-4266 4120 4193 0
-4266 -4120 -4193 0
4266 -4120 4193 0
4266 4120 -4193 0
-4267 4121 4194 0
-4267 -4121 -4194 0
4267 -4121 4194 0
4267 4121 -4194 0
-4268 4122 4195 0
-4268 -4122 -4195 0
4268 -4122 4195 0
4268 4122 -4195 0
4263 4264 4265 4266 4267 4268 0
4189 4262 0
-4269 31 37 0
-4269 -31 -37 0
4269 -31 37 0
4269 31 -37 0
-4270 43 61 0
-4270 -43 -61 0
4270 -43 61 0
4270 43 -61 0
-4271 4270 73 0
-4271 -4270 -73 0
4271 -4270 73 0
4271 4270 -73 0
-4272 49 67 0
-4272 -49 -67 0
4272 -49 67 0
4272 49 -67 0
-4273 4272 79 0
-4273 -4272 -79 0
4273 -4272 79 0
4273 4272 -79 0
-4274 32 38 0
-4274 -32 -38 0
4274 -32 38 0
4274 32 -38 0
-4275 44 62 0
-4275 -44 -62 0
4275 -44 62 0
4275 44 -62 0
-4276 4275 74 0
-4276 -4275 -74 0
4276 -4275 74 0
4276 4275 -74 0
-4277 50 68 0
-4277 -50 -68 0
4277 -50 68 0
4277 50 -68 0
-4278 4277 80 0
-4278 -4277 -80 0
4278 -4277 80 0
4278 4277 -80 0
-4279 33 39 0
-4279 -33 -39 0
4279 -33 39 0
4279 33 -39 0
-4280 -45 63 0
-4280 45 -63 0
4280 45 63 0
4280 -45 -63 0
-4281 4280 75 0
-4281 -4280 -75 0
4281 -4280 75 0
4281 4280 -75 0
-4282 51 69 0
-4282 -51 -69 0
4282 -51 69 0
4282 51 -69 0
-4283 4282 81 0
-4283 -4282 -81 0
4283 -4282 81 0
4283 4282 -81 0
-4284 34 40 0
-4284 -34 -40 0
4284 -34 40 0
4284 34 -40 0
-4285 46 64 0
-4285 -46 -64 0
4285 -46 64 0
4285 46 -64 0
-4286 4285 76 0
-4286 -4285 -76 0
4286 -4285 76 0
4286 4285 -76 0
-4287 -52 70 0
-4287 52 -70 0
4287 52 70 0
4287 -52 -70 0
-4288 4287 82 0
-4288 -4287 -82 0
4288 -4287 82 0
4288 4287 -82 0
-4289 35 41 0
-4289 -35 -41 0
4289 -35 41 0
4289 35 -41 0
-4290 47 65 0
-4290 -47 -65 0
4290 -47 65 0
4290 47 -65 0
-4291 4290 77 0
-4291 -4290 -77 0
4291 -4290 77 0
4291 4290 -77 0
-4292 53 71 0
-4292 -53 -71 0
4292 -53 71 0
4292 53 -71 0
-4293 4292 83 0
-4293 -4292 -83 0
4293 -4292 83 0
4293 4292 -83 0
-4294 36 42 0
-4294 -36 -42 0
4294 -36 42 0
4294 36 -42 0
-4295 48 66 0
-4295 -48 -66 0
4295 -48 66 0
4295 48 -66 0
-4296 4295 78 0
-4296 -4295 -78 0
4296 -4295 78 0
4296 4295 -78 0
-4297 54 72 0
-4297 -54 -72 0
4297 -54 72 0
4297 54 -72 0
-4298 4297 84 0
-4298 -4297 -84 0
4298 -4297 84 0
4298 4297 -84 0
-4299 97 103 0
-4299 -97 -103 0
4299 -97 103 0
4299 97 -103 0
-4300 4299 109 0
-4300 -4299 -109 0
4300 -4299 109 0
4300 4299 -109 0
-4301 -4300 31 0
-4301 4300 -31 0
4301 4300 31 0
4301 -4300 -31 0
-4302 4301 37 0
-4302 -4301 -37 0
4302 -4301 37 0
4302 4301 -37 0
-4303 98 104 0
-4303 -98 -104 0
4303 -98 104 0
4303 98 -104 0
-4304 4303 110 0
-4304 -4303 -110 0
4304 -4303 110 0
4304 4303 -110 0
-4305 -4304 32 0
-4305 4304 -32 0
4305 4304 32 0
4305 -4304 -32 0
-4306 4305 38 0
-4306 -4305 -38 0
4306 -4305 38 0
4306 4305 -38 0
-4307 99 105 0
-4307 -99 -105 0
4307 -99 105 0
4307 99 -105 0
-4308 4307 111 0
-4308 -4307 -111 0
4308 -4307 111 0
4308 4307 -111 0
-4309 4308 33 0
-4309 -4308 -33 0
4309 -4308 33 0
4309 4308 -33 0
-4310 4309 39 0
-4310 -4309 -39 0
4310 -4309 39 0
4310 4309 -39 0
-4311 100 106 0
-4311 -100 -106 0
4311 -100 106 0
4311 100 -106 0
-4312 4311 112 0
-4312 -4311 -112 0
4312 -4311 112 0
4312 4311 -112 0
-4313 4312 34 0
-4313 -4312 -34 0
4313 -4312 34 0
4313 4312 -34 0
-4314 4313 40 0
-4314 -4313 -40 0
4314 -4313 40 0
4314 4313 -40 0
-4315 -107 113 0
-4315 107 -113 0
4315 107 113 0
4315 -107 -113 0
-4316 4315 35 0
-4316 -4315 -35 0
4316 -4315 35 0
4316 4315 -35 0
-4317 4316 41 0
-4317 -4316 -41 0
4317 -4316 41 0
4317 4316 -41 0
-4318 102 108 0
-4318 -102 -108 0
4318 -102 108 0
4318 102 -108 0
-4319 4318 114 0
-4319 -4318 -114 0
4319 -4318 114 0
4319 4318 -114 0
-4320 4319 36 0
-4320 -4319 -36 0
4320 -4319 36 0
4320 4319 -36 0
-4321 4320 42 0
-4321 -4320 -42 0
4321 -4320 42 0
4321 4320 -42 0
4322 4323 4324 4325 4326 4327 0
-4328 4322 4323 0
-4328 -4322 -4323 0
4328 -4322 4323 0
4328 4322 -4323 0
-4328 0
-4329 4322 0
-4329 4269 0
4329 -4322 -4269 0
-4330 4323 0
-4330 4274 0
4330 -4323 -4274 0
-4331 4324 0
-4331 4279 0
4331 -4324 -4279 0
-4332 4325 0
-4332 4284 0
4332 -4325 -4284 0
-4333 4326 0
-4333 4289 0
4333 -4326 -4289 0
-4334 4327 0
-4334 4294 0
4334 -4327 -4294 0
-4335 4329 4330 0
-4335 -4329 -4330 0
4335 -4329 4330 0
4335 4329 -4330 0
-4336 4335 4331 0
-4336 -4335 -4331 0
4336 -4335 4331 0
4336 4335 -4331 0
-4337 4336 4332 0
-4337 -4336 -4332 0
4337 -4336 4332 0
4337 4336 -4332 0
-4338 4337 4333 0
-4338 -4337 -4333 0
4338 -4337 4333 0
4338 4337 -4333 0
-4339 4338 4334 0
-4339 -4338 -4334 0
4339 -4338 4334 0
4339 4338 -4334 0
-4339 0
-4340 4322 0
-4340 -31 0
4340 -4322 31 0
-4341 4323 0
-4341 32 0
4341 -4323 -32 0
-4342 4324 0
-4342 33 0
4342 -4324 -33 0
-4343 4325 0
-4343 34 0
4343 -4325 -34 0
-4344 4326 0
-4344 35 0
4344 -4326 -35 0
-4345 4327 0
-4345 36 0
4345 -4327 -36 0
-4346 4340 4341 0
-4346 -4340 -4341 0
4346 -4340 4341 0
4346 4340 -4341 0
-4347 4346 4342 0
-4347 -4346 -4342 0
4347 -4346 4342 0
4347 4346 -4342 0
-4348 4347 4343 0
-4348 -4347 -4343 0
4348 -4347 4343 0
4348 4347 -4343 0
-4349 4348 4344 0
-4349 -4348 -4344 0
4349 -4348 4344 0
4349 4348 -4344 0
-4350 4349 4345 0
-4350 -4349 -4345 0
4350 -4349 4345 0
4350 4349 -4345 0
-4350 0
-4351 4322 0
-4351 37 0
4351 -4322 -37 0
-4352 4323 0
-4352 -38 0
4352 -4323 38 0
-4353 4324 0
-4353 39 0
4353 -4324 -39 0
-4354 4325 0
-4354 40 0
4354 -4325 -40 0
-4355 4326 0
-4355 41 0
4355 -4326 -41 0
-4356 4327 0
-4356 42 0
4356 -4327 -42 0
-4357 4351 4352 0
-4357 -4351 -4352 0
4357 -4351 4352 0
4357 4351 -4352 0
-4358 4357 4353 0
-4358 -4357 -4353 0
4358 -4357 4353 0
4358 4357 -4353 0
-4359 4358 4354 0
-4359 -4358 -4354 0
4359 -4358 4354 0
4359 4358 -4354 0
-4360 4359 4355 0
-4360 -4359 -4355 0
4360 -4359 4355 0
4360 4359 -4355 0
-4361 4360 4356 0
-4361 -4360 -4356 0
4361 -4360 4356 0
4361 4360 -4356 0
-4361 0
-4362 4322 0
-4362 4271 0
4362 -4322 -4271 0
-4363 4323 0
-4363 4276 0
4363 -4323 -4276 0
-4364 4324 0
-4364 4281 0
4364 -4324 -4281 0
-4365 4325 0
-4365 4286 0
4365 -4325 -4286 0
-4366 4326 0
-4366 4291 0
4366 -4326 -4291 0
-4367 4327 0
-4367 4296 0
4367 -4327 -4296 0
-4368 4362 4363 0
-4368 -4362 -4363 0
4368 -4362 4363 0
4368 4362 -4363 0
-4369 4368 4364 0
-4369 -4368 -4364 0
4369 -4368 4364 0
4369 4368 -4364 0
-4370 4369 4365 0
-4370 -4369 -4365 0
4370 -4369 4365 0
4370 4369 -4365 0
-4371 4370 4366 0
-4371 -4370 -4366 0
4371 -4370 4366 0
4371 4370 -4366 0
-4372 4371 4367 0
-4372 -4371 -4367 0
4372 -4371 4367 0
4372 4371 -4367 0
-4372 0
-4373 4322 0
-4373 4273 0
4373 -4322 -4273 0
-4374 4323 0
-4374 4278 0
4374 -4323 -4278 0
-4375 4324 0
-4375 4283 0
4375 -4324 -4283 0
-4376 4325 0
-4376 4288 0
4376 -4325 -4288 0
-4377 4326 0
-4377 4293 0
4377 -4326 -4293 0
-4378 4327 0
-4378 4298 0
4378 -4327 -4298 0
-4379 4373 4374 0
-4379 -4373 -4374 0
4379 -4373 4374 0
4379 4373 -4374 0
-4380 4379 4375 0
-4380 -4379 -4375 0
4380 -4379 4375 0
4380 4379 -4375 0
-4381 4380 4376 0
-4381 -4380 -4376 0
4381 -4380 4376 0
4381 4380 -4376 0
-4382 4381 4377 0
-4382 -4381 -4377 0
4382 -4381 4377 0
4382 4381 -4377 0
-4383 4382 4378 0
-4383 -4382 -4378 0
4383 -4382 4378 0
4383 4382 -4378 0
-4383 0
-4384 4322 0
-4384 4302 0
4384 -4322 -4302 0
-4385 4323 0
-4385 4306 0
4385 -4323 -4306 0
-4386 4324 0
-4386 4310 0
4386 -4324 -4310 0
-4387 4325 0
-4387 4314 0
4387 -4325 -4314 0
-4388 4326 0
-4388 4317 0
4388 -4326 -4317 0
-4389 4327 0
-4389 4321 0
4389 -4327 -4321 0
-4390 4384 4385 0
-4390 -4384 -4385 0
4390 -4384 4385 0
4390 4384 -4385 0
-4391 4390 4386 0
-4391 -4390 -4386 0
4391 -4390 4386 0
4391 4390 -4386 0
-4392 4391 4387 0
-4392 -4391 -4387 0
4392 -4391 4387 0
4392 4391 -4387 0
-4393 4392 4388 0
-4393 -4392 -4388 0
4393 -4392 4388 0
4393 4392 -4388 0
-4394 4393 4389 0
-4394 -4393 -4389 0
4394 -4393 4389 0
4394 4393 -4389 0
4395 4396 4397 4398 4399 4400 0
-4401 4395 4396 0
-4401 -4395 -4396 0
4401 -4395 4396 0
4401 4395 -4396 0
-4401 0
-4402 4395 0
-4402 4269 0
4402 -4395 -4269 0
-4403 4396 0
-4403 4274 0
4403 -4396 -4274 0
-4404 4397 0
-4404 4279 0
4404 -4397 -4279 0
-4405 4398 0
-4405 4284 0
4405 -4398 -4284 0
-4406 4399 0
-4406 4289 0
4406 -4399 -4289 0
-4407 4400 0
-4407 4294 0
4407 -4400 -4294 0
-4408 4402 4403 0
-4408 -4402 -4403 0
4408 -4402 4403 0
4408 4402 -4403 0
-4409 4408 4404 0
-4409 -4408 -4404 0
4409 -4408 4404 0
4409 4408 -4404 0
-4410 4409 4405 0
-4410 -4409 -4405 0
4410 -4409 4405 0
4410 4409 -4405 0
-4411 4410 4406 0
-4411 -4410 -4406 0
4411 -4410 4406 0
4411 4410 -4406 0
-4412 4411 4407 0
-4412 -4411 -4407 0
4412 -4411 4407 0
4412 4411 -4407 0
-4412 0
-4413 4395 0
-4413 -31 0
4413 -4395 31 0
-4414 4396 0
-4414 32 0
4414 -4396 -32 0
-4415 4397 0
-4415 33 0
4415 -4397 -33 0
-4416 4398 0
-4416 34 0
4416 -4398 -34 0
-4417 4399 0
-4417 35 0
4417 -4399 -35 0
-4418 4400 0
-4418 36 0
4418 -4400 -36 0
-4419 4413 4414 0
-4419 -4413 -4414 0
4419 -4413 4414 0
4419 4413 -4414 0
-4420 4419 4415 0
-4420 -4419 -4415 0
4420 -4419 4415 0
4420 4419 -4415 0
-4421 4420 4416 0
-4421 -4420 -4416 0
4421 -4420 4416 0
4421 4420 -4416 0
-4422 4421 4417 0
-4422 -4421 -4417 0
4422 -4421 4417 0
4422 4421 -4417 0
-4423 4422 4418 0
-4423 -4422 -4418 0
4423 -4422 4418 0
4423 4422 -4418 0
-4423 0
-4424 4395 0
-4424 37 0
4424 -4395 -37 0
-4425 4396 0
-4425 -38 0
4425 -4396 38 0
-4426 4397 0
-4426 39 0
4426 -4397 -39 0
-4427 4398 0
-4427 40 0
4427 -4398 -40 0
-4428 4399 0
-4428 41 0
4428 -4399 -41 0
-4429 4400 0
-4429 42 0
4429 -4400 -42 0
-4430 4424 4425 0
-4430 -4424 -4425 0
4430 -4424 4425 0
4430 4424 -4425 0
-4431 4430 4426 0
-4431 -4430 -4426 0
4431 -4430 4426 0
4431 4430 -4426 0
-4432 4431 4427 0
-4432 -4431 -4427 0
4432 -4431 4427 0
4432 4431 -4427 0
-4433 4432 4428 0
-4433 -4432 -4428 0
4433 -4432 4428 0
4433 4432 -4428 0
-4434 4433 4429 0
-4434 -4433 -4429 0
4434 -4433 4429 0
4434 4433 -4429 0
-4434 0
-4435 4395 0
-4435 4271 0
4435 -4395 -4271 0
-4436 4396 0
-4436 4276 0
4436 -4396 -4276 0
-4437 4397 0
-4437 4281 0
4437 -4397 -4281 0
-4438 4398 0
-4438 4286 0
4438 -4398 -4286 0
-4439 4399 0
-4439 4291 0
4439 -4399 -4291 0
-4440 4400 0
-4440 4296 0
4440 -4400 -4296 0
-4441 4435 4436 0
-4441 -4435 -4436 0
4441 -4435 4436 0
4441 4435 -4436 0
-4442 4441 4437 0
-4442 -4441 -4437 0
4442 -4441 4437 0
4442 4441 -4437 0
-4443 4442 4438 0
-4443 -4442 -4438 0
4443 -4442 4438 0
4443 4442 -4438 0
-4444 4443 4439 0
-4444 -4443 -4439 0
4444 -4443 4439 0
4444 4443 -4439 0
-4445 4444 4440 0
-4445 -4444 -4440 0
4445 -4444 4440 0
4445 4444 -4440 0
-4445 0
-4446 4395 0
-4446 4273 0
4446 -4395 -4273 0
-4447 4396 0
-4447 4278 0
4447 -4396 -4278 0
-4448 4397 0
-4448 4283 0
4448 -4397 -4283 0
-4449 4398 0
-4449 4288 0
4449 -4398 -4288 0
-4450 4399 0
-4450 4293 0
4450 -4399 -4293 0
-4451 4400 0
-4451 4298 0
4451 -4400 -4298 0
-4452 4446 4447 0
-4452 -4446 -4447 0
4452 -4446 4447 0
4452 4446 -4447 0
-4453 4452 4448 0
-4453 -4452 -4448 0
4453 -4452 4448 0
4453 4452 -4448 0
-4454 4453 4449 0
-4454 -4453 -4449 0
4454 -4453 4449 0
4454 4453 -4449 0
-4455 4454 4450 0
-4455 -4454 -4450 0
4455 -4454 4450 0
4455 4454 -4450 0
-4456 4455 4451 0
-4456 -4455 -4451 0
4456 -4455 4451 0
4456 4455 -4451 0
-4456 0
-4457 4395 0
-4457 4302 0
4457 -4395 -4302 0
-4458 4396 0
-4458 4306 0
4458 -4396 -4306 0
-4459 4397 0
-4459 4310 0
4459 -4397 -4310 0
-4460 4398 0
-4460 4314 0
4460 -4398 -4314 0
-4461 4399 0
-4461 4317 0
4461 -4399 -4317 0
-4462 4400 0
-4462 4321 0
4462 -4400 -4321 0
-4463 4457 4458 0
-4463 -4457 -4458 0
4463 -4457 4458 0
4463 4457 -4458 0
-4464 4463 4459 0
-4464 -4463 -4459 0
4464 -4463 4459 0
4464 4463 -4459 0
-4465 4464 4460 0
-4465 -4464 -4460 0
4465 -4464 4460 0
4465 4464 -4460 0
-4466 4465 4461 0
-4466 -4465 -4461 0
4466 -4465 4461 0
4466 4465 -4461 0
-4467 4466 4462 0
-4467 -4466 -4462 0
4467 -4466 4462 0
4467 4466 -4462 0
-4468 4322 4395 0
-4468 -4322 -4395 0
4468 -4322 4395 0
4468 4322 -4395 0
-4469 4323 4396 0
-4469 -4323 -4396 0
4469 -4323 4396 0
4469 4323 -4396 0
-4470 4324 4397 0
-4470 -4324 -4397 0
4470 -4324 4397 0
4470 4324 -4397 0
-4471 4325 4398 0
-4471 -4325 -4398 0
4471 -4325 4398 0
4471 4325 -4398 0
-4472 4326 4399 0
-4472 -4326 -4399 0
4472 -4326 4399 0
4472 4326 -4399 0
-4473 4327 4400 0
-4473 -4327 -4400 0
4473 -4327 4400 0
4473 4327 -4400 0
4468 4469 4470 4471 4472 4473 0
4394 4467 0
4474 4475 4476 4477 4478 4479 0
-4476 0
-4480 4474 0
-4480 43 0
4480 -4474 -43 0
-4481 4475 0
-4481 44 0
4481 -4475 -44 0
-4482 4476 0
-4482 45 0
4482 -4476 -45 0
-4483 4477 0
-4483 46 0
4483 -4477 -46 0
-4484 4478 0
-4484 47 0
4484 -4478 -47 0
-4485 4479 0
-4485 48 0
4485 -4479 -48 0
-4486 4480 4481 0
-4486 -4480 -4481 0
4486 -4480 4481 0
4486 4480 -4481 0
-4487 4486 4482 0
-4487 -4486 -4482 0
4487 -4486 4482 0
4487 4486 -4482 0
-4488 4487 4483 0
-4488 -4487 -4483 0
4488 -4487 4483 0
4488 4487 -4483 0
-4489 4488 4484 0
-4489 -4488 -4484 0
4489 -4488 4484 0
4489 4488 -4484 0
-4490 4489 4485 0
-4490 -4489 -4485 0
4490 -4489 4485 0
4490 4489 -4485 0
-4490 0
-4491 4474 0
-4491 61 0
4491 -4474 -61 0
-4492 4475 0
-4492 62 0
4492 -4475 -62 0
-4493 4476 0
-4493 63 0
4493 -4476 -63 0
-4494 4477 0
-4494 64 0
4494 -4477 -64 0
-4495 4478 0
-4495 65 0
4495 -4478 -65 0
-4496 4479 0
-4496 66 0
4496 -4479 -66 0
-4497 4491 4492 0
-4497 -4491 -4492 0
4497 -4491 4492 0
4497 4491 -4492 0
-4498 4497 4493 0
-4498 -4497 -4493 0
4498 -4497 4493 0
4498 4497 -4493 0
-4499 4498 4494 0
-4499 -4498 -4494 0
4499 -4498 4494 0
4499 4498 -4494 0
-4500 4499 4495 0
-4500 -4499 -4495 0
4500 -4499 4495 0
4500 4499 -4495 0
-4501 4500 4496 0
-4501 -4500 -4496 0
4501 -4500 4496 0
4501 4500 -4496 0
-4501 0
-4502 4474 0
-4502 73 0
4502 -4474 -73 0
-4503 4475 0
-4503 74 0
4503 -4475 -74 0
-4504 4476 0
-4504 75 0
4504 -4476 -75 0
-4505 4477 0
-4505 76 0
4505 -4477 -76 0
-4506 4478 0
-4506 77 0
4506 -4478 -77 0
-4507 4479 0
-4507 78 0
4507 -4479 -78 0
-4508 4502 4503 0
-4508 -4502 -4503 0
4508 -4502 4503 0
4508 4502 -4503 0
-4509 4508 4504 0
-4509 -4508 -4504 0
4509 -4508 4504 0
4509 4508 -4504 0
-4510 4509 4505 0
-4510 -4509 -4505 0
4510 -4509 4505 0
4510 4509 -4505 0
-4511 4510 4506 0
-4511 -4510 -4506 0
4511 -4510 4506 0
4511 4510 -4506 0
-4512 4511 4507 0
-4512 -4511 -4507 0
4512 -4511 4507 0
4512 4511 -4507 0
-4512 0
-4513 4474 0
-4513 115 0
4513 -4474 -115 0
-4514 4475 0
-4514 116 0
4514 -4475 -116 0
-4515 4476 0
-4515 117 0
4515 -4476 -117 0
-4516 4477 0
-4516 118 0
4516 -4477 -118 0
-4517 4478 0
-4517 119 0
4517 -4478 -119 0
-4518 4479 0
-4518 120 0
4518 -4479 -120 0
-4519 4513 4514 0
-4519 -4513 -4514 0
4519 -4513 4514 0
4519 4513 -4514 0
-4520 4519 4515 0
-4520 -4519 -4515 0
4520 -4519 4515 0
4520 4519 -4515 0
-4521 4520 4516 0
-4521 -4520 -4516 0
4521 -4520 4516 0
4521 4520 -4516 0
-4522 4521 4517 0
-4522 -4521 -4517 0
4522 -4521 4517 0
4522 4521 -4517 0
-4523 4522 4518 0
-4523 -4522 -4518 0
4523 -4522 4518 0
4523 4522 -4518 0
4524 4525 4526 4527 4528 4529 0
-4526 0
-4530 4524 0
-4530 43 0
4530 -4524 -43 0
-4531 4525 0
-4531 44 0
4531 -4525 -44 0
-4532 4526 0
-4532 45 0
4532 -4526 -45 0
-4533 4527 0
-4533 46 0
4533 -4527 -46 0
-4534 4528 0
-4534 47 0
4534 -4528 -47 0
-4535 4529 0
-4535 48 0
4535 -4529 -48 0
-4536 4530 4531 0
-4536 -4530 -4531 0
4536 -4530 4531 0
4536 4530 -4531 0
-4537 4536 4532 0
-4537 -4536 -4532 0
4537 -4536 4532 0
4537 4536 -4532 0
-4538 4537 4533 0
-4538 -4537 -4533 0
4538 -4537 4533 0
4538 4537 -4533 0
-4539 4538 4534 0
-4539 -4538 -4534 0
4539 -4538 4534 0
4539 4538 -4534 0
-4540 4539 4535 0
-4540 -4539 -4535 0
4540 -4539 4535 0
4540 4539 -4535 0
-4540 0
-4541 4524 0
-4541 61 0
4541 -4524 -61 0
-4542 4525 0
-4542 62 0
4542 -4525 -62 0
-4543 4526 0
-4543 63 0
4543 -4526 -63 0
-4544 4527 0
-4544 64 0
4544 -4527 -64 0
-4545 4528 0
-4545 65 0
4545 -4528 -65 0
-4546 4529 0
-4546 66 0
4546 -4529 -66 0
-4547 4541 4542 0
-4547 -4541 -4542 0
4547 -4541 4542 0
4547 4541 -4542 0
-4548 4547 4543 0
-4548 -4547 -4543 0
4548 -4547 4543 0
4548 4547 -4543 0
-4549 4548 4544 0
-4549 -4548 -4544 0
4549 -4548 4544 0
4549 4548 -4544 0
-4550 4549 4545 0
-4550 -4549 -4545 0
4550 -4549 4545 0
4550 4549 -4545 0
-4551 4550 4546 0
-4551 -4550 -4546 0
4551 -4550 4546 0
4551 4550 -4546 0
-4551 0
-4552 4524 0
-4552 73 0
4552 -4524 -73 0
-4553 4525 0
-4553 74 0
4553 -4525 -74 0
-4554 4526 0
-4554 75 0
4554 -4526 -75 0
-4555 4527 0
-4555 76 0
4555 -4527 -76 0
-4556 4528 0
-4556 77 0
4556 -4528 -77 0
-4557 4529 0
-4557 78 0
4557 -4529 -78 0
-4558 4552 4553 0
-4558 -4552 -4553 0
4558 -4552 4553 0
4558 4552 -4553 0
-4559 4558 4554 0
-4559 -4558 -4554 0
4559 -4558 4554 0
4559 4558 -4554 0
-4560 4559 4555 0
-4560 -4559 -4555 0
4560 -4559 4555 0
4560 4559 -4555 0
-4561 4560 4556 0
-4561 -4560 -4556 0
4561 -4560 4556 0
4561 4560 -4556 0
-4562 4561 4557 0
-4562 -4561 -4557 0
4562 -4561 4557 0
4562 4561 -4557 0
-4562 0
-4563 4524 0
-4563 115 0
4563 -4524 -115 0
-4564 4525 0
-4564 116 0
4564 -4525 -116 0
-4565 4526 0
-4565 117 0
4565 -4526 -117 0
-4566 4527 0
-4566 118 0
4566 -4527 -118 0
-4567 4528 0
-4567 119 0
4567 -4528 -119 0
-4568 4529 0
-4568 120 0
4568 -4529 -120 0
-4569 4563 4564 0
-4569 -4563 -4564 0
4569 -4563 4564 0
4569 4563 -4564 0
-4570 4569 4565 0
-4570 -4569 -4565 0
4570 -4569 4565 0
4570 4569 -4565 0
-4571 4570 4566 0
-4571 -4570 -4566 0
4571 -4570 4566 0
4571 4570 -4566 0
-4572 4571 4567 0
-4572 -4571 -4567 0
4572 -4571 4567 0
4572 4571 -4567 0
-4573 4572 4568 0
-4573 -4572 -4568 0
4573 -4572 4568 0
4573 4572 -4568 0
-4574 4474 4524 0
-4574 -4474 -4524 0
4574 -4474 4524 0
4574 4474 -4524 0
-4575 4475 4525 0
-4575 -4475 -4525 0
4575 -4475 4525 0
4575 4475 -4525 0
-4576 4476 4526 0
-4576 -4476 -4526 0
4576 -4476 4526 0
4576 4476 -4526 0
-4577 4477 4527 0
-4577 -4477 -4527 0
4577 -4477 4527 0
4577 4477 -4527 0
-4578 4478 4528 0
-4578 -4478 -4528 0
4578 -4478 4528 0
4578 4478 -4528 0
-4579 4479 4529 0
-4579 -4479 -4529 0
4579 -4479 4529 0
4579 4479 -4529 0
4574 4575 4576 4577 4578 4579 0
4523 4573 0
4580 4581 4582 4583 4584 4585 0
-4582 0
-4586 4580 0
-4586 43 0
4586 -4580 -43 0
-4587 4581 0
-4587 44 0
4587 -4581 -44 0
-4588 4582 0
-4588 45 0
4588 -4582 -45 0
-4589 4583 0
-4589 46 0
4589 -4583 -46 0
-4590 4584 0
-4590 47 0
4590 -4584 -47 0
-4591 4585 0
-4591 48 0
4591 -4585 -48 0
-4592 4586 4587 0
-4592 -4586 -4587 0
4592 -4586 4587 0
4592 4586 -4587 0
-4593 4592 4588 0
-4593 -4592 -4588 0
4593 -4592 4588 0
4593 4592 -4588 0
-4594 4593 4589 0
-4594 -4593 -4589 0
4594 -4593 4589 0
4594 4593 -4589 0
-4595 4594 4590 0
-4595 -4594 -4590 0
4595 -4594 4590 0
4595 4594 -4590 0
-4596 4595 4591 0
-4596 -4595 -4591 0
4596 -4595 4591 0
4596 4595 -4591 0
-4596 0
-4597 4580 0
-4597 -61 0
4597 -4580 61 0
-4598 4581 0
-4598 62 0
4598 -4581 -62 0
-4599 4582 0
-4599 63 0
4599 -4582 -63 0
-4600 4583 0
-4600 64 0
4600 -4583 -64 0
-4601 4584 0
-4601 65 0
4601 -4584 -65 0
-4602 4585 0
-4602 66 0
4602 -4585 -66 0
-4603 4597 4598 0
-4603 -4597 -4598 0
4603 -4597 4598 0
4603 4597 -4598 0
-4604 4603 4599 0
-4604 -4603 -4599 0
4604 -4603 4599 0
4604 4603 -4599 0
-4605 4604 4600 0
-4605 -4604 -4600 0
4605 -4604 4600 0
4605 4604 -4600 0
-4606 4605 4601 0
-4606 -4605 -4601 0
4606 -4605 4601 0
4606 4605 -4601 0
-4607 4606 4602 0
-4607 -4606 -4602 0
4607 -4606 4602 0
4607 4606 -4602 0
-4607 0
-4608 4580 0
-4608 73 0
4608 -4580 -73 0
-4609 4581 0
-4609 -74 0
4609 -4581 74 0
-4610 4582 0
-4610 75 0
4610 -4582 -75 0
-4611 4583 0
-4611 76 0
4611 -4583 -76 0
-4612 4584 0
-4612 77 0
4612 -4584 -77 0
-4613 4585 0
-4613 78 0
4613 -4585 -78 0
-4614 4608 4609 0
-4614 -4608 -4609 0
4614 -4608 4609 0
4614 4608 -4609 0
-4615 4614 4610 0
-4615 -4614 -4610 0
4615 -4614 4610 0
4615 4614 -4610 0
-4616 4615 4611 0
-4616 -4615 -4611 0
4616 -4615 4611 0
4616 4615 -4611 0
-4617 4616 4612 0
-4617 -4616 -4612 0
4617 -4616 4612 0
4617 4616 -4612 0
-4618 4617 4613 0
-4618 -4617 -4613 0
4618 -4617 4613 0
4618 4617 -4613 0
-4618 0
-4582 0
-4583 0
-4619 4580 0
-4619 115 0
4619 -4580 -115 0
-4620 4581 0
-4620 116 0
4620 -4581 -116 0
-4621 4582 0
-4621 -117 0
4621 -4582 117 0
-4622 4583 0
-4622 118 0
4622 -4583 -118 0
-4623 4584 0
-4623 -119 0
4623 -4584 119 0
-4624 4585 0
-4624 120 0
4624 -4585 -120 0
-4625 4619 4620 0
-4625 -4619 -4620 0
4625 -4619 4620 0
4625 4619 -4620 0
-4626 4625 4621 0
-4626 -4625 -4621 0
4626 -4625 4621 0
4626 4625 -4621 0
-4627 4626 4622 0
-4627 -4626 -4622 0
4627 -4626 4622 0
4627 4626 -4622 0
-4628 4627 4623 0
-4628 -4627 -4623 0
4628 -4627 4623 0
4628 4627 -4623 0
-4629 4628 4624 0
-4629 -4628 -4624 0
4629 -4628 4624 0
4629 4628 -4624 0
4630 4631 4632 4633 4634 4635 0
-4632 0
-4636 4630 0
-4636 43 0
4636 -4630 -43 0
-4637 4631 0
-4637 44 0
4637 -4631 -44 0
-4638 4632 0
-4638 45 0
4638 -4632 -45 0
-4639 4633 0
-4639 46 0
4639 -4633 -46 0
-4640 4634 0
-4640 47 0
4640 -4634 -47 0
-4641 4635 0
-4641 48 0
4641 -4635 -48 0
-4642 4636 4637 0
-4642 -4636 -4637 0
4642 -4636 4637 0
4642 4636 -4637 0
-4643 4642 4638 0
-4643 -4642 -4638 0
4643 -4642 4638 0
4643 4642 -4638 0
-4644 4643 4639 0
-4644 -4643 -4639 0
4644 -4643 4639 0
4644 4643 -4639 0
-4645 4644 4640 0
-4645 -4644 -4640 0
4645 -4644 4640 0
4645 4644 -4640 0
-4646 4645 4641 0
-4646 -4645 -4641 0
4646 -4645 4641 0
4646 4645 -4641 0
-4646 0
-4647 4630 0
-4647 -61 0
4647 -4630 61 0
-4648 4631 0
-4648 62 0
4648 -4631 -62 0
-4649 4632 0
-4649 63 0
4649 -4632 -63 0
-4650 4633 0
-4650 64 0
4650 -4633 -64 0
-4651 4634 0
-4651 65 0
4651 -4634 -65 0
-4652 4635 0
-4652 66 0
4652 -4635 -66 0
-4653 4647 4648 0
-4653 -4647 -4648 0
4653 -4647 4648 0
4653 4647 -4648 0
-4654 4653 4649 0
-4654 -4653 -4649 0
4654 -4653 4649 0
4654 4653 -4649 0
-4655 4654 4650 0
-4655 -4654 -4650 0
4655 -4654 4650 0
4655 4654 -4650 0
-4656 4655 4651 0
-4656 -4655 -4651 0
4656 -4655 4651 0
4656 4655 -4651 0
-4657 4656 4652 0
-4657 -4656 -4652 0
4657 -4656 4652 0
4657 4656 -4652 0
-4657 0
-4658 4630 0
-4658 73 0
4658 -4630 -73 0
-4659 4631 0
-4659 -74 0
4659 -4631 74 0
-4660 4632 0
-4660 75 0
4660 -4632 -75 0
-4661 4633 0
-4661 76 0
4661 -4633 -76 0
-4662 4634 0
-4662 77 0
4662 -4634 -77 0
-4663 4635 0
-4663 78 0
4663 -4635 -78 0
-4664 4658 4659 0
-4664 -4658 -4659 0
4664 -4658 4659 0
4664 4658 -4659 0
-4665 4664 4660 0
-4665 -4664 -4660 0
4665 -4664 4660 0
4665 4664 -4660 0
-4666 4665 4661 0
-4666 -4665 -4661 0
4666 -4665 4661 0
4666 4665 -4661 0
-4667 4666 4662 0
-4667 -4666 -4662 0
4667 -4666 4662 0
4667 4666 -4662 0
-4668 4667 4663 0
-4668 -4667 -4663 0
4668 -4667 4663 0
4668 4667 -4663 0
-4668 0
-4632 0
-4633 0
-4669 4630 0
-4669 115 0
4669 -4630 -115 0
-4670 4631 0
-4670 116 0
4670 -4631 -116 0
-4671 4632 0
-4671 -117 0
4671 -4632 117 0
-4672 4633 0
-4672 118 0
4672 -4633 -118 0
-4673 4634 0
-4673 -119 0
4673 -4634 119 0
-4674 4635 0
-4674 120 0
4674 -4635 -120 0
-4675 4669 4670 0
-4675 -4669 -4670 0
4675 -4669 4670 0
4675 4669 -4670 0
-4676 4675 4671 0
-4676 -4675 -4671 0
4676 -4675 4671 0
4676 4675 -4671 0
-4677 4676 4672 0
-4677 -4676 -4672 0
4677 -4676 4672 0
4677 4676 -4672 0
-4678 4677 4673 0
-4678 -4677 -4673 0
4678 -4677 4673 0
4678 4677 -4673 0
-4679 4678 4674 0
-4679 -4678 -4674 0
4679 -4678 4674 0
4679 4678 -4674 0
-4680 4580 4630 0
-4680 -4580 -4630 0
4680 -4580 4630 0
4680 4580 -4630 0
-4681 4581 4631 0
-4681 -4581 -4631 0
4681 -4581 4631 0
4681 4581 -4631 0
-4682 4582 4632 0
-4682 -4582 -4632 0
4682 -4582 4632 0
4682 4582 -4632 0
-4683 4583 4633 0
-4683 -4583 -4633 0
4683 -4583 4633 0
4683 4583 -4633 0
-4684 4584 4634 0
-4684 -4584 -4634 0
4684 -4584 4634 0
4684 4584 -4634 0
-4685 4585 4635 0
-4685 -4585 -4635 0
4685 -4585 4635 0
4685 4585 -4635 0
4680 4681 4682 4683 4684 4685 0
4629 4679 0
-4686 31 61 0
-4686 -31 -61 0
4686 -31 61 0
4686 31 -61 0
-4687 37 73 0
-4687 -37 -73 0
4687 -37 73 0
4687 37 -73 0
-4688 32 62 0
-4688 -32 -62 0
4688 -32 62 0
4688 32 -62 0
-4689 38 74 0
-4689 -38 -74 0
4689 -38 74 0
4689 38 -74 0
-4690 33 63 0
-4690 -33 -63 0
4690 -33 63 0
4690 33 -63 0
-4691 39 75 0
-4691 -39 -75 0
4691 -39 75 0
4691 39 -75 0
-4692 34 64 0
-4692 -34 -64 0
4692 -34 64 0
4692 34 -64 0
-4693 40 76 0
-4693 -40 -76 0
4693 -40 76 0
4693 40 -76 0
-4694 35 65 0
-4694 -35 -65 0
4694 -35 65 0
4694 35 -65 0
-4695 41 77 0
-4695 -41 -77 0
4695 -41 77 0
4695 41 -77 0
-4696 36 66 0
-4696 -36 -66 0
4696 -36 66 0
4696 36 -66 0
-4697 42 78 0
-4697 -42 -78 0
4697 -42 78 0
4697 42 -78 0
-4698 97 115 0
-4698 -97 -115 0
4698 -97 115 0
4698 97 -115 0
-4699 4698 43 0
-4699 -4698 -43 0
4699 -4698 43 0
4699 4698 -43 0
-4700 98 116 0
-4700 -98 -116 0
4700 -98 116 0
4700 98 -116 0
-4701 4700 44 0
-4701 -4700 -44 0
4701 -4700 44 0
4701 4700 -44 0
-4702 99 117 0
-4702 -99 -117 0
4702 -99 117 0
4702 99 -117 0
-4703 4702 45 0
-4703 -4702 -45 0
4703 -4702 45 0
4703 4702 -45 0
-4704 100 118 0
-4704 -100 -118 0
4704 -100 118 0
4704 100 -118 0
-4705 4704 46 0
-4705 -4704 -46 0
4705 -4704 46 0
4705 4704 -46 0
-4706 119 47 0
-4706 -119 -47 0
4706 -119 47 0
4706 119 -47 0
-4707 102 120 0
-4707 -102 -120 0
4707 -102 120 0
4707 102 -120 0
-4708 4707 48 0
-4708 -4707 -48 0
4708 -4707 48 0
4708 4707 -48 0
4709 4710 4711 4712 4713 4714 0
-4711 0
-4715 4709 0
-4715 43 0
4715 -4709 -43 0
-4716 4710 0
-4716 44 0
4716 -4710 -44 0
-4717 4711 0
-4717 45 0
4717 -4711 -45 0
-4718 4712 0
-4718 46 0
4718 -4712 -46 0
-4719 4713 0
-4719 47 0
4719 -4713 -47 0
-4720 4714 0
-4720 48 0
4720 -4714 -48 0
-4721 4715 4716 0
-4721 -4715 -4716 0
4721 -4715 4716 0
4721 4715 -4716 0
-4722 4721 4717 0
-4722 -4721 -4717 0
4722 -4721 4717 0
4722 4721 -4717 0
-4723 4722 4718 0
-4723 -4722 -4718 0
4723 -4722 4718 0
4723 4722 -4718 0
-4724 4723 4719 0
-4724 -4723 -4719 0
4724 -4723 4719 0
4724 4723 -4719 0
-4725 4724 4720 0
-4725 -4724 -4720 0
4725 -4724 4720 0
4725 4724 -4720 0
-4725 0
-4726 4709 0
-4726 4686 0
4726 -4709 -4686 0
-4727 4710 0
-4727 4688 0
4727 -4710 -4688 0
-4728 4711 0
-4728 4690 0
4728 -4711 -4690 0
-4729 4712 0
-4729 4692 0
4729 -4712 -4692 0
-4730 4713 0
-4730 4694 0
4730 -4713 -4694 0
-4731 4714 0
-4731 4696 0
4731 -4714 -4696 0
-4732 4726 4727 0
-4732 -4726 -4727 0
4732 -4726 4727 0
4732 4726 -4727 0
-4733 4732 4728 0
-4733 -4732 -4728 0
4733 -4732 4728 0
4733 4732 -4728 0
-4734 4733 4729 0
-4734 -4733 -4729 0
4734 -4733 4729 0
4734 4733 -4729 0
-4735 4734 4730 0
-4735 -4734 -4730 0
4735 -4734 4730 0
4735 4734 -4730 0
-4736 4735 4731 0
-4736 -4735 -4731 0
4736 -4735 4731 0
4736 4735 -4731 0
-4736 0
-4737 4709 0
-4737 4687 0
4737 -4709 -4687 0
-4738 4710 0
-4738 4689 0
4738 -4710 -4689 0
-4739 4711 0
-4739 4691 0
4739 -4711 -4691 0
-4740 4712 0
-4740 4693 0
4740 -4712 -4693 0
-4741 4713 0
-4741 4695 0
4741 -4713 -4695 0
-4742 4714 0
-4742 4697 0
4742 -4714 -4697 0
-4743 4737 4738 0
-4743 -4737 -4738 0
4743 -4737 4738 0
4743 4737 -4738 0
-4744 4743 4739 0
-4744 -4743 -4739 0
4744 -4743 4739 0
4744 4743 -4739 0
-4745 4744 4740 0
-4745 -4744 -4740 0
4745 -4744 4740 0
4745 4744 -4740 0
-4746 4745 4741 0
-4746 -4745 -4741 0
4746 -4745 4741 0
4746 4745 -4741 0
-4747 4746 4742 0
-4747 -4746 -4742 0
4747 -4746 4742 0
4747 4746 -4742 0
-4747 0
-4748 4709 0
-4748 43 0
4748 -4709 -43 0
-4749 4710 0
-4749 44 0
4749 -4710 -44 0
-4750 4711 0
-4750 45 0
4750 -4711 -45 0
-4751 4712 0
-4751 46 0
4751 -4712 -46 0
-4752 4713 0
-4752 47 0
4752 -4713 -47 0
-4753 4714 0
-4753 48 0
4753 -4714 -48 0
-4754 4748 4749 0
-4754 -4748 -4749 0
4754 -4748 4749 0
4754 4748 -4749 0
-4755 4754 4750 0
-4755 -4754 -4750 0
4755 -4754 4750 0
4755 4754 -4750 0
-4756 4755 4751 0
-4756 -4755 -4751 0
4756 -4755 4751 0
4756 4755 -4751 0
-4757 4756 4752 0
-4757 -4756 -4752 0
4757 -4756 4752 0
4757 4756 -4752 0
-4758 4757 4753 0
-4758 -4757 -4753 0
4758 -4757 4753 0
4758 4757 -4753 0
-4758 0
-4759 4709 0
-4759 49 0
4759 -4709 -49 0
-4760 4710 0
-4760 50 0
4760 -4710 -50 0
-4761 4711 0
-4761 51 0
4761 -4711 -51 0
-4762 4712 0
-4762 52 0
4762 -4712 -52 0
-4763 4713 0
-4763 53 0
4763 -4713 -53 0
-4764 4714 0
-4764 54 0
4764 -4714 -54 0
-4765 4759 4760 0
-4765 -4759 -4760 0
4765 -4759 4760 0
4765 4759 -4760 0
-4766 4765 4761 0
-4766 -4765 -4761 0
4766 -4765 4761 0
4766 4765 -4761 0
-4767 4766 4762 0
-4767 -4766 -4762 0
4767 -4766 4762 0
4767 4766 -4762 0
-4768 4767 4763 0
-4768 -4767 -4763 0
4768 -4767 4763 0
4768 4767 -4763 0
-4769 4768 4764 0
-4769 -4768 -4764 0
4769 -4768 4764 0
4769 4768 -4764 0
-4769 0
-4770 4709 0
-4770 4699 0
4770 -4709 -4699 0
-4771 4710 0
-4771 4701 0
4771 -4710 -4701 0
-4772 4711 0
-4772 4703 0
4772 -4711 -4703 0
-4773 4712 0
-4773 4705 0
4773 -4712 -4705 0
-4774 4713 0
-4774 4706 0
4774 -4713 -4706 0
-4775 4714 0
-4775 4708 0
4775 -4714 -4708 0
-4776 4770 4771 0
-4776 -4770 -4771 0
4776 -4770 4771 0
4776 4770 -4771 0
-4777 4776 4772 0
-4777 -4776 -4772 0
4777 -4776 4772 0
4777 4776 -4772 0
-4778 4777 4773 0
-4778 -4777 -4773 0
4778 -4777 4773 0
4778 4777 -4773 0
-4779 4778 4774 0
-4779 -4778 -4774 0
4779 -4778 4774 0
4779 4778 -4774 0
-4780 4779 4775 0
-4780 -4779 -4775 0
4780 -4779 4775 0
4780 4779 -4775 0
4781 4782 4783 4784 4785 4786 0
-4783 0
-4787 4781 0
-4787 43 0
4787 -4781 -43 0
-4788 4782 0
-4788 44 0
4788 -4782 -44 0
-4789 4783 0
-4789 45 0
4789 -4783 -45 0
-4790 4784 0
-4790 46 0
4790 -4784 -46 0
-4791 4785 0
-4791 47 0
4791 -4785 -47 0
-4792 4786 0
-4792 48 0
4792 -4786 -48 0
-4793 4787 4788 0
-4793 -4787 -4788 0
4793 -4787 4788 0
4793 4787 -4788 0
-4794 4793 4789 0
-4794 -4793 -4789 0
4794 -4793 4789 0
4794 4793 -4789 0
-4795 4794 4790 0
-4795 -4794 -4790 0
4795 -4794 4790 0
4795 4794 -4790 0
-4796 4795 4791 0
-4796 -4795 -4791 0
4796 -4795 4791 0
4796 4795 -4791 0
-4797 4796 4792 0
-4797 -4796 -4792 0
4797 -4796 4792 0
4797 4796 -4792 0
-4797 0
-4798 4781 0
-4798 4686 0
4798 -4781 -4686 0
-4799 4782 0
-4799 4688 0
4799 -4782 -4688 0
-4800 4783 0
-4800 4690 0
4800 -4783 -4690 0
-4801 4784 0
-4801 4692 0
4801 -4784 -4692 0
-4802 4785 0
-4802 4694 0
4802 -4785 -4694 0
-4803 4786 0
-4803 4696 0
4803 -4786 -4696 0
-4804 4798 4799 0
-4804 -4798 -4799 0
4804 -4798 4799 0
4804 4798 -4799 0
-4805 4804 4800 0
-4805 -4804 -4800 0
4805 -4804 4800 0
4805 4804 -4800 0
-4806 4805 4801 0
-4806 -4805 -4801 0
4806 -4805 4801 0
4806 4805 -4801 0
-4807 4806 4802 0
-4807 -4806 -4802 0
4807 -4806 4802 0
4807 4806 -4802 0
-4808 4807 4803 0
-4808 -4807 -4803 0
4808 -4807 4803 0
4808 4807 -4803 0
-4808 0
-4809 4781 0
-4809 4687 0
4809 -4781 -4687 0
-4810 4782 0
-4810 4689 0
4810 -4782 -4689 0
-4811 4783 0
-4811 4691 0
4811 -4783 -4691 0
-4812 4784 0
-4812 4693 0
4812 -4784 -4693 0
-4813 4785 0
-4813 4695 0
4813 -4785 -4695 0
-4814 4786 0
-4814 4697 0
4814 -4786 -4697 0
-4815 4809 4810 0
-4815 -4809 -4810 0
4815 -4809 4810 0
4815 4809 -4810 0
-4816 4815 4811 0
-4816 -4815 -4811 0
4816 -4815 4811 0
4816 4815 -4811 0
-4817 4816 4812 0
-4817 -4816 -4812 0
4817 -4816 4812 0
4817 4816 -4812 0
-4818 4817 4813 0
-4818 -4817 -4813 0
4818 -4817 4813 0
4818 4817 -4813 0
-4819 4818 4814 0
-4819 -4818 -4814 0
4819 -4818 4814 0
4819 4818 -4814 0
-4819 0
-4820 4781 0
-4820 43 0
4820 -4781 -43 0
-4821 4782 0
-4821 44 0
4821 -4782 -44 0
-4822 4783 0
-4822 45 0
4822 -4783 -45 0
-4823 4784 0
-4823 46 0
4823 -4784 -46 0
-4824 4785 0
-4824 47 0
4824 -4785 -47 0
-4825 4786 0
-4825 48 0
4825 -4786 -48 0
-4826 4820 4821 0
-4826 -4820 -4821 0
4826 -4820 4821 0
4826 4820 -4821 0
-4827 4826 4822 0
-4827 -4826 -4822 0
4827 -4826 4822 0
4827 4826 -4822 0
-4828 4827 4823 0
-4828 -4827 -4823 0
4828 -4827 4823 0
4828 4827 -4823 0
-4829 4828 4824 0
-4829 -4828 -4824 0
4829 -4828 4824 0
4829 4828 -4824 0
-4830 4829 4825 0
-4830 -4829 -4825 0
4830 -4829 4825 0
4830 4829 -4825 0
-4830 0
-4831 4781 0
-4831 49 0
4831 -4781 -49 0
-4832 4782 0
-4832 50 0
4832 -4782 -50 0
-4833 4783 0
-4833 51 0
4833 -4783 -51 0
-4834 4784 0
-4834 52 0
4834 -4784 -52 0
-4835 4785 0
-4835 53 0
4835 -4785 -53 0
-4836 4786 0
-4836 54 0
4836 -4786 -54 0
-4837 4831 4832 0
-4837 -4831 -4832 0
4837 -4831 4832 0
4837 4831 -4832 0
-4838 4837 4833 0
-4838 -4837 -4833 0
4838 -4837 4833 0
4838 4837 -4833 0
-4839 4838 4834 0
-4839 -4838 -4834 0
4839 -4838 4834 0
4839 4838 -4834 0
-4840 4839 4835 0
-4840 -4839 -4835 0
4840 -4839 4835 0
4840 4839 -4835 0
-4841 4840 4836 0
-4841 -4840 -4836 0
4841 -4840 4836 0
4841 4840 -4836 0
-4841 0
-4842 4781 0
-4842 4699 0
4842 -4781 -4699 0
-4843 4782 0
-4843 4701 0
4843 -4782 -4701 0
-4844 4783 0
-4844 4703 0
4844 -4783 -4703 0
-4845 4784 0
-4845 4705 0
4845 -4784 -4705 0
-4846 4785 0
-4846 4706 0
4846 -4785 -4706 0
-4847 4786 0
-4847 4708 0
4847 -4786 -4708 0
-4848 4842 4843 0
-4848 -4842 -4843 0
4848 -4842 4843 0
4848 4842 -4843 0
-4849 4848 4844 0
-4849 -4848 -4844 0
4849 -4848 4844 0
4849 4848 -4844 0
-4850 4849 4845 0
-4850 -4849 -4845 0
4850 -4849 4845 0
4850 4849 -4845 0
-4851 4850 4846 0
-4851 -4850 -4846 0
4851 -4850 4846 0
4851 4850 -4846 0
-4852 4851 4847 0
-4852 -4851 -4847 0
4852 -4851 4847 0
4852 4851 -4847 0
-4853 4709 4781 0
-4853 -4709 -4781 0
4853 -4709 4781 0
4853 4709 -4781 0
-4854 4710 4782 0
-4854 -4710 -4782 0
4854 -4710 4782 0
4854 4710 -4782 0
-4855 4711 4783 0
-4855 -4711 -4783 0
4855 -4711 4783 0
4855 4711 -4783 0
-4856 4712 4784 0
-4856 -4712 -4784 0
4856 -4712 4784 0
4856 4712 -4784 0
-4857 4713 4785 0
-4857 -4713 -4785 0
4857 -4713 4785 0
4857 4713 -4785 0
-4858 4714 4786 0
-4858 -4714 -4786 0
4858 -4714 4786 0
4858 4714 -4786 0
4853 4854 4855 4856 4857 4858 0
4780 4852 0
-4859 -31 61 0
-4859 31 -61 0
4859 31 61 0
4859 -31 -61 0
-4860 37 73 0
-4860 -37 -73 0
4860 -37 73 0
4860 37 -73 0
-4861 32 62 0
-4861 -32 -62 0
4861 -32 62 0
4861 32 -62 0
-4862 -38 74 0
-4862 38 -74 0
4862 38 74 0
4862 -38 -74 0
-4863 33 63 0
-4863 -33 -63 0
4863 -33 63 0
4863 33 -63 0
-4864 39 75 0
-4864 -39 -75 0
4864 -39 75 0
4864 39 -75 0
-4865 34 64 0
-4865 -34 -64 0
4865 -34 64 0
4865 34 -64 0
-4866 40 76 0
-4866 -40 -76 0
4866 -40 76 0
4866 40 -76 0
-4867 35 65 0
-4867 -35 -65 0
4867 -35 65 0
4867 35 -65 0
-4868 41 77 0
-4868 -41 -77 0
4868 -41 77 0
4868 41 -77 0
-4869 36 66 0
-4869 -36 -66 0
4869 -36 66 0
4869 36 -66 0
-4870 42 78 0
-4870 -42 -78 0
4870 -42 78 0
4870 42 -78 0
-4871 97 115 0
-4871 -97 -115 0
4871 -97 115 0
4871 97 -115 0
-4872 4871 43 0
-4872 -4871 -43 0
4872 -4871 43 0
4872 4871 -43 0
-4873 98 116 0
-4873 -98 -116 0
4873 -98 116 0
4873 98 -116 0
-4874 4873 44 0
-4874 -4873 -44 0
4874 -4873 44 0
4874 4873 -44 0
-4875 99 117 0
-4875 -99 -117 0
4875 -99 117 0
4875 99 -117 0
-4876 -4875 45 0
-4876 4875 -45 0
4876 4875 45 0
4876 -4875 -45 0
-4877 100 118 0
-4877 -100 -118 0
4877 -100 118 0
4877 100 -118 0
-4878 4877 46 0
-4878 -4877 -46 0
4878 -4877 46 0
4878 4877 -46 0
-4879 -119 47 0
-4879 119 -47 0
4879 119 47 0
4879 -119 -47 0
-4880 102 120 0
-4880 -102 -120 0
4880 -102 120 0
4880 102 -120 0
-4881 4880 48 0
-4881 -4880 -48 0
4881 -4880 48 0
4881 4880 -48 0
4882 4883 4884 4885 4886 4887 0
-4884 0
-4888 4882 0
-4888 43 0
4888 -4882 -43 0
-4889 4883 0
-4889 44 0
4889 -4883 -44 0
-4890 4884 0
-4890 45 0
4890 -4884 -45 0
-4891 4885 0
-4891 46 0
4891 -4885 -46 0
-4892 4886 0
-4892 47 0
4892 -4886 -47 0
-4893 4887 0
-4893 48 0
4893 -4887 -48 0
-4894 4888 4889 0
-4894 -4888 -4889 0
4894 -4888 4889 0
4894 4888 -4889 0
-4895 4894 4890 0
-4895 -4894 -4890 0
4895 -4894 4890 0
4895 4894 -4890 0
-4896 4895 4891 0
-4896 -4895 -4891 0
4896 -4895 4891 0
4896 4895 -4891 0
-4897 4896 4892 0
-4897 -4896 -4892 0
4897 -4896 4892 0
4897 4896 -4892 0
-4898 4897 4893 0
-4898 -4897 -4893 0
4898 -4897 4893 0
4898 4897 -4893 0
-4898 0
-4899 4882 0
-4899 4859 0
4899 -4882 -4859 0
-4900 4883 0
-4900 4861 0
4900 -4883 -4861 0
-4901 4884 0
-4901 4863 0
4901 -4884 -4863 0
-4902 4885 0
-4902 4865 0
4902 -4885 -4865 0
-4903 4886 0
-4903 4867 0
4903 -4886 -4867 0
-4904 4887 0
-4904 4869 0
4904 -4887 -4869 0
-4905 4899 4900 0
-4905 -4899 -4900 0
4905 -4899 4900 0
4905 4899 -4900 0
-4906 4905 4901 0
-4906 -4905 -4901 0
4906 -4905 4901 0
4906 4905 -4901 0
-4907 4906 4902 0
-4907 -4906 -4902 0
4907 -4906 4902 0
4907 4906 -4902 0
-4908 4907 4903 0
-4908 -4907 -4903 0
4908 -4907 4903 0
4908 4907 -4903 0
-4909 4908 4904 0
-4909 -4908 -4904 0
4909 -4908 4904 0
4909 4908 -4904 0
-4909 0
-4910 4882 0
-4910 4860 0
4910 -4882 -4860 0
-4911 4883 0
-4911 4862 0
4911 -4883 -4862 0
-4912 4884 0
-4912 4864 0
4912 -4884 -4864 0
-4913 4885 0
-4913 4866 0
4913 -4885 -4866 0
-4914 4886 0
-4914 4868 0
4914 -4886 -4868 0
-4915 4887 0
-4915 4870 0
4915 -4887 -4870 0
-4916 4910 4911 0
-4916 -4910 -4911 0
4916 -4910 4911 0
4916 4910 -4911 0
-4917 4916 4912 0
-4917 -4916 -4912 0
4917 -4916 4912 0
4917 4916 -4912 0
-4918 4917 4913 0
-4918 -4917 -4913 0
4918 -4917 4913 0
4918 4917 -4913 0
-4919 4918 4914 0
-4919 -4918 -4914 0
4919 -4918 4914 0
4919 4918 -4914 0
-4920 4919 4915 0
-4920 -4919 -4915 0
4920 -4919 4915 0
4920 4919 -4915 0
-4920 0
-4921 4882 0
-4921 43 0
4921 -4882 -43 0
-4922 4883 0
-4922 44 0
4922 -4883 -44 0
-4923 4884 0
-4923 -45 0
4923 -4884 45 0
-4924 4885 0
-4924 46 0
4924 -4885 -46 0
-4925 4886 0
-4925 47 0
4925 -4886 -47 0
-4926 4887 0
-4926 48 0
4926 -4887 -48 0
-4927 4921 4922 0
-4927 -4921 -4922 0
4927 -4921 4922 0
4927 4921 -4922 0
-4928 4927 4923 0
-4928 -4927 -4923 0
4928 -4927 4923 0
4928 4927 -4923 0
-4929 4928 4924 0
-4929 -4928 -4924 0
4929 -4928 4924 0
4929 4928 -4924 0
-4930 4929 4925 0
-4930 -4929 -4925 0
4930 -4929 4925 0
4930 4929 -4925 0
-4931 4930 4926 0
-4931 -4930 -4926 0
4931 -4930 4926 0
4931 4930 -4926 0
-4931 0
-4932 4882 0
-4932 49 0
4932 -4882 -49 0
-4933 4883 0
-4933 50 0
4933 -4883 -50 0
-4934 4884 0
-4934 51 0
4934 -4884 -51 0
-4935 4885 0
-4935 -52 0
4935 -4885 52 0
-4936 4886 0
-4936 53 0
4936 -4886 -53 0
-4937 4887 0
-4937 54 0
4937 -4887 -54 0
-4938 4932 4933 0
-4938 -4932 -4933 0
4938 -4932 4933 0
4938 4932 -4933 0
-4939 4938 4934 0
-4939 -4938 -4934 0
4939 -4938 4934 0
4939 4938 -4934 0
-4940 4939 4935 0
-4940 -4939 -4935 0
4940 -4939 4935 0
4940 4939 -4935 0
-4941 4940 4936 0
-4941 -4940 -4936 0
4941 -4940 4936 0
4941 4940 -4936 0
-4942 4941 4937 0
-4942 -4941 -4937 0
4942 -4941 4937 0
4942 4941 -4937 0
-4942 0
-4943 4882 0
-4943 4872 0
4943 -4882 -4872 0
-4944 4883 0
-4944 4874 0
4944 -4883 -4874 0
-4945 4884 0
-4945 4876 0
4945 -4884 -4876 0
-4946 4885 0
-4946 4878 0
4946 -4885 -4878 0
-4947 4886 0
-4947 4879 0
4947 -4886 -4879 0
-4948 4887 0
-4948 4881 0
4948 -4887 -4881 0
-4949 4943 4944 0
-4949 -4943 -4944 0
4949 -4943 4944 0
4949 4943 -4944 0
-4950 4949 4945 0
-4950 -4949 -4945 0
4950 -4949 4945 0
4950 4949 -4945 0
-4951 4950 4946 0
-4951 -4950 -4946 0
4951 -4950 4946 0
4951 4950 -4946 0
-4952 4951 4947 0
-4952 -4951 -4947 0
4952 -4951 4947 0
4952 4951 -4947 0
-4953 4952 4948 0
-4953 -4952 -4948 0
4953 -4952 4948 0
4953 4952 -4948 0
4954 4955 4956 4957 4958 4959 0
-4956 0
-4960 4954 0
-4960 43 0
4960 -4954 -43 0
-4961 4955 0
-4961 44 0
4961 -4955 -44 0
-4962 4956 0
-4962 45 0
4962 -4956 -45 0
-4963 4957 0
-4963 46 0
4963 -4957 -46 0
-4964 4958 0
-4964 47 0
4964 -4958 -47 0
-4965 4959 0
-4965 48 0
4965 -4959 -48 0
-4966 4960 4961 0
-4966 -4960 -4961 0
4966 -4960 4961 0
4966 4960 -4961 0
-4967 4966 4962 0
-4967 -4966 -4962 0
4967 -4966 4962 0
4967 4966 -4962 0
-4968 4967 4963 0
-4968 -4967 -4963 0
4968 -4967 4963 0
4968 4967 -4963 0
-4969 4968 4964 0
-4969 -4968 -4964 0
4969 -4968 4964 0
4969 4968 -4964 0
-4970 4969 4965 0
-4970 -4969 -4965 0
4970 -4969 4965 0
4970 4969 -4965 0
-4970 0
-4971 4954 0
-4971 4859 0
4971 -4954 -4859 0
-4972 4955 0
-4972 4861 0
4972 -4955 -4861 0
-4973 4956 0
-4973 4863 0
4973 -4956 -4863 0
-4974 4957 0
-4974 4865 0
4974 -4957 -4865 0
-4975 4958 0
-4975 4867 0
4975 -4958 -4867 0
-4976 4959 0
-4976 4869 0
4976 -4959 -4869 0
-4977 4971 4972 0
-4977 -4971 -4972 0
4977 -4971 4972 0
4977 4971 -4972 0
-4978 4977 4973 0
-4978 -4977 -4973 0
4978 -4977 4973 0
4978 4977 -4973 0
-4979 4978 4974 0
-4979 -4978 -4974 0
4979 -4978 4974 0
4979 4978 -4974 0
-4980 4979 4975 0
-4980 -4979 -4975 0
4980 -4979 4975 0
4980 4979 -4975 0
-4981 4980 4976 0
-4981 -4980 -4976 0
4981 -4980 4976 0
4981 4980 -4976 0
-4981 0
-4982 4954 0
-4982 4860 0
4982 -4954 -4860 0
-4983 4955 0
-4983 4862 0
4983 -4955 -4862 0
-4984 4956 0
-4984 4864 0
4984 -4956 -4864 0
-4985 4957 0
-4985 4866 0
4985 -4957 -4866 0
-4986 4958 0
-4986 4868 0
4986 -4958 -4868 0
-4987 4959 0
-4987 4870 0
4987 -4959 -4870 0
-4988 4982 4983 0
-4988 -4982 -4983 0
4988 -4982 4983 0
4988 4982 -4983 0
-4989 4988 4984 0
-4989 -4988 -4984 0
4989 -4988 4984 0
4989 4988 -4984 0
-4990 4989 4985 0
-4990 -4989 -4985 0
4990 -4989 4985 0
4990 4989 -4985 0
-4991 4990 4986 0
-4991 -4990 -4986 0
4991 -4990 4986 0
4991 4990 -4986 0
-4992 4991 4987 0
-4992 -4991 -4987 0
4992 -4991 4987 0
4992 4991 -4987 0
-4992 0
-4993 4954 0
-4993 43 0
4993 -4954 -43 0
-4994 4955 0
-4994 44 0
4994 -4955 -44 0
-4995 4956 0
-4995 -45 0
4995 -4956 45 0
-4996 4957 0
-4996 46 0
4996 -4957 -46 0
-4997 4958 0
-4997 47 0
4997 -4958 -47 0
-4998 4959 0
-4998 48 0
4998 -4959 -48 0
-4999 4993 4994 0
-4999 -4993 -4994 0
4999 -4993 4994 0
4999 4993 -4994 0
-5000 4999 4995 0
-5000 -4999 -4995 0
5000 -4999 4995 0
5000 4999 -4995 0
-5001 5000 4996 0
-5001 -5000 -4996 0
5001 -5000 4996 0
5001 5000 -4996 0
-5002 5001 4997 0
-5002 -5001 -4997 0
5002 -5001 4997 0
5002 5001 -4997 0
-5003 5002 4998 0
-5003 -5002 -4998 0
5003 -5002 4998 0
5003 5002 -4998 0
-5003 0
-5004 4954 0
-5004 49 0
5004 -4954 -49 0
-5005 4955 0
-5005 50 0
5005 -4955 -50 0
-5006 4956 0
-5006 51 0
5006 -4956 -51 0
-5007 4957 0
-5007 -52 0
5007 -4957 52 0
-5008 4958 0
-5008 53 0
5008 -4958 -53 0
-5009 4959 0
-5009 54 0
5009 -4959 -54 0
-5010 5004 5005 0
-5010 -5004 -5005 0
5010 -5004 5005 0
5010 5004 -5005 0
-5011 5010 5006 0
-5011 -5010 -5006 0
5011 -5010 5006 0
5011 5010 -5006 0
-5012 5011 5007 0
-5012 -5011 -5007 0
5012 -5011 5007 0
5012 5011 -5007 0
-5013 5012 5008 0
-5013 -5012 -5008 0
5013 -5012 5008 0
5013 5012 -5008 0
-5014 5013 5009 0
-5014 -5013 -5009 0
5014 -5013 5009 0
5014 5013 -5009 0
-5014 0
-5015 4954 0
-5015 4872 0
5015 -4954 -4872 0
-5016 4955 0
-5016 4874 0
5016 -4955 -4874 0
-5017 4956 0
-5017 4876 0
5017 -4956 -4876 0
-5018 4957 0
-5018 4878 0
5018 -4957 -4878 0
-5019 4958 0
-5019 4879 0
5019 -4958 -4879 0
-5020 4959 0
-5020 4881 0
5020 -4959 -4881 0
-5021 5015 5016 0
-5021 -5015 -5016 0
5021 -5015 5016 0
5021 5015 -5016 0
-5022 5021 5017 0
-5022 -5021 -5017 0
5022 -5021 5017 0
5022 5021 -5017 0
-5023 5022 5018 0
-5023 -5022 -5018 0
5023 -5022 5018 0
5023 5022 -5018 0
-5024 5023 5019 0
-5024 -5023 -5019 0
5024 -5023 5019 0
5024 5023 -5019 0
-5025 5024 5020 0
-5025 -5024 -5020 0
5025 -5024 5020 0
5025 5024 -5020 0
-5026 4882 4954 0
-5026 -4882 -4954 0
5026 -4882 4954 0
5026 4882 -4954 0
-5027 4883 4955 0
-5027 -4883 -4955 0
5027 -4883 4955 0
5027 4883 -4955 0
-5028 4884 4956 0
-5028 -4884 -4956 0
5028 -4884 4956 0
5028 4884 -4956 0
-5029 4885 4957 0
-5029 -4885 -4957 0
5029 -4885 4957 0
5029 4885 -4957 0
-5030 4886 4958 0
-5030 -4886 -4958 0
5030 -4886 4958 0
5030 4886 -4958 0
-5031 4887 4959 0
-5031 -4887 -4959 0
5031 -4887 4959 0
5031 4887 -4959 0
5026 5027 5028 5029 5030 5031 0
4953 5025 0
-5032 31 43 0
-5032 -31 -43 0
5032 -31 43 0
5032 31 -43 0
-5033 32 44 0
-5033 -32 -44 0
5033 -32 44 0
5033 32 -44 0
-5034 33 45 0
-5034 -33 -45 0
5034 -33 45 0
5034 33 -45 0
-5035 34 46 0
-5035 -34 -46 0
5035 -34 46 0
5035 34 -46 0
-5036 35 47 0
-5036 -35 -47 0
5036 -35 47 0
5036 35 -47 0
-5037 36 48 0
-5037 -36 -48 0
5037 -36 48 0
5037 36 -48 0
-5038 103 115 0
-5038 -103 -115 0
5038 -103 115 0
5038 103 -115 0
-5039 5038 61 0
-5039 -5038 -61 0
5039 -5038 61 0
5039 5038 -61 0
-5040 104 116 0
-5040 -104 -116 0
5040 -104 116 0
5040 104 -116 0
-5041 5040 62 0
-5041 -5040 -62 0
5041 -5040 62 0
5041 5040 -62 0
-5042 105 117 0
-5042 -105 -117 0
5042 -105 117 0
5042 105 -117 0
-5043 5042 63 0
-5043 -5042 -63 0
5043 -5042 63 0
5043 5042 -63 0
-5044 106 118 0
-5044 -106 -118 0
5044 -106 118 0
5044 106 -118 0
-5045 5044 64 0
-5045 -5044 -64 0
5045 -5044 64 0
5045 5044 -64 0
-5046 107 119 0
-5046 -107 -119 0
5046 -107 119 0
5046 107 -119 0
-5047 5046 65 0
-5047 -5046 -65 0
5047 -5046 65 0
5047 5046 -65 0
-5048 108 120 0
-5048 -108 -120 0
5048 -108 120 0
5048 108 -120 0
-5049 5048 66 0
-5049 -5048 -66 0
5049 -5048 66 0
5049 5048 -66 0
5050 5051 5052 5053 5054 5055 0
-5056 5050 5052 0
-5056 -5050 -5052 0
5056 -5050 5052 0
5056 5050 -5052 0
-5056 0
-5057 5050 0
-5057 5032 0
5057 -5050 -5032 0
-5058 5051 0
-5058 5033 0
5058 -5051 -5033 0
-5059 5052 0
-5059 5034 0
5059 -5052 -5034 0
-5060 5053 0
-5060 5035 0
5060 -5053 -5035 0
-5061 5054 0
-5061 5036 0
5061 -5054 -5036 0
-5062 5055 0
-5062 5037 0
5062 -5055 -5037 0
-5063 5057 5058 0
-5063 -5057 -5058 0
5063 -5057 5058 0
5063 5057 -5058 0
-5064 5063 5059 0
-5064 -5063 -5059 0
5064 -5063 5059 0
5064 5063 -5059 0
-5065 5064 5060 0
-5065 -5064 -5060 0
5065 -5064 5060 0
5065 5064 -5060 0
-5066 5065 5061 0
-5066 -5065 -5061 0
5066 -5065 5061 0
5066 5065 -5061 0
-5067 5066 5062 0
-5067 -5066 -5062 0
5067 -5066 5062 0
5067 5066 -5062 0
-5067 0
-5068 5050 0
-5068 61 0
5068 -5050 -61 0
-5069 5051 0
-5069 62 0
5069 -5051 -62 0
-5070 5052 0
-5070 63 0
5070 -5052 -63 0
-5071 5053 0
-5071 64 0
5071 -5053 -64 0
-5072 5054 0
-5072 65 0
5072 -5054 -65 0
-5073 5055 0
-5073 66 0
5073 -5055 -66 0
-5074 5068 5069 0
-5074 -5068 -5069 0
5074 -5068 5069 0
5074 5068 -5069 0
-5075 5074 5070 0
-5075 -5074 -5070 0
5075 -5074 5070 0
5075 5074 -5070 0
-5076 5075 5071 0
-5076 -5075 -5071 0
5076 -5075 5071 0
5076 5075 -5071 0
-5077 5076 5072 0
-5077 -5076 -5072 0
5077 -5076 5072 0
5077 5076 -5072 0
-5078 5077 5073 0
-5078 -5077 -5073 0
5078 -5077 5073 0
5078 5077 -5073 0
-5078 0
-5079 5050 0
-5079 73 0
5079 -5050 -73 0
-5080 5051 0
-5080 74 0
5080 -5051 -74 0
-5081 5052 0
-5081 75 0
5081 -5052 -75 0
-5082 5053 0
-5082 76 0
5082 -5053 -76 0
-5083 5054 0
-5083 77 0
5083 -5054 -77 0
-5084 5055 0
-5084 78 0
5084 -5055 -78 0
-5085 5079 5080 0
-5085 -5079 -5080 0
5085 -5079 5080 0
5085 5079 -5080 0
-5086 5085 5081 0
-5086 -5085 -5081 0
5086 -5085 5081 0
5086 5085 -5081 0
-5087 5086 5082 0
-5087 -5086 -5082 0
5087 -5086 5082 0
5087 5086 -5082 0
-5088 5087 5083 0
-5088 -5087 -5083 0
5088 -5087 5083 0
5088 5087 -5083 0
-5089 5088 5084 0
-5089 -5088 -5084 0
5089 -5088 5084 0
5089 5088 -5084 0
-5089 0
-5090 5050 0
-5090 61 0
5090 -5050 -61 0
-5091 5051 0
-5091 62 0
5091 -5051 -62 0
-5092 5052 0
-5092 63 0
5092 -5052 -63 0
-5093 5053 0
-5093 64 0
5093 -5053 -64 0
-5094 5054 0
-5094 65 0
5094 -5054 -65 0
-5095 5055 0
-5095 66 0
5095 -5055 -66 0
-5096 5090 5091 0
-5096 -5090 -5091 0
5096 -5090 5091 0
5096 5090 -5091 0
-5097 5096 5092 0
-5097 -5096 -5092 0
5097 -5096 5092 0
5097 5096 -5092 0
-5098 5097 5093 0
-5098 -5097 -5093 0
5098 -5097 5093 0
5098 5097 -5093 0
-5099 5098 5094 0
-5099 -5098 -5094 0
5099 -5098 5094 0
5099 5098 -5094 0
-5100 5099 5095 0
-5100 -5099 -5095 0
5100 -5099 5095 0
5100 5099 -5095 0
-5100 0
-5101 5050 0
-5101 67 0
5101 -5050 -67 0
-5102 5051 0
-5102 68 0
5102 -5051 -68 0
-5103 5052 0
-5103 69 0
5103 -5052 -69 0
-5104 5053 0
-5104 70 0
5104 -5053 -70 0
-5105 5054 0
-5105 71 0
5105 -5054 -71 0
-5106 5055 0
-5106 72 0
5106 -5055 -72 0
-5107 5101 5102 0
-5107 -5101 -5102 0
5107 -5101 5102 0
5107 5101 -5102 0
-5108 5107 5103 0
-5108 -5107 -5103 0
5108 -5107 5103 0
5108 5107 -5103 0
-5109 5108 5104 0
-5109 -5108 -5104 0
5109 -5108 5104 0
5109 5108 -5104 0
-5110 5109 5105 0
-5110 -5109 -5105 0
5110 -5109 5105 0
5110 5109 -5105 0
-5111 5110 5106 0
-5111 -5110 -5106 0
5111 -5110 5106 0
5111 5110 -5106 0
-5111 0
-5112 5050 0
-5112 5039 0
5112 -5050 -5039 0
-5113 5051 0
-5113 5041 0
5113 -5051 -5041 0
-5114 5052 0
-5114 5043 0
5114 -5052 -5043 0
-5115 5053 0
-5115 5045 0
5115 -5053 -5045 0
-5116 5054 0
-5116 5047 0
5116 -5054 -5047 0
-5117 5055 0
-5117 5049 0
5117 -5055 -5049 0
-5118 5112 5113 0
-5118 -5112 -5113 0
5118 -5112 5113 0
5118 5112 -5113 0
-5119 5118 5114 0
-5119 -5118 -5114 0
5119 -5118 5114 0
5119 5118 -5114 0
-5120 5119 5115 0
-5120 -5119 -5115 0
5120 -5119 5115 0
5120 5119 -5115 0
-5121 5120 5116 0
-5121 -5120 -5116 0
5121 -5120 5116 0
5121 5120 -5116 0
-5122 5121 5117 0
-5122 -5121 -5117 0
5122 -5121 5117 0
5122 5121 -5117 0
5123 5124 5125 5126 5127 5128 0
-5129 5123 5125 0
-5129 -5123 -5125 0
5129 -5123 5125 0
5129 5123 -5125 0
-5129 0
-5130 5123 0
-5130 5032 0
5130 -5123 -5032 0
-5131 5124 0
-5131 5033 0
5131 -5124 -5033 0
-5132 5125 0
-5132 5034 0
5132 -5125 -5034 0
-5133 5126 0
-5133 5035 0
5133 -5126 -5035 0
-5134 5127 0
-5134 5036 0
5134 -5127 -5036 0
-5135 5128 0
-5135 5037 0
5135 -5128 -5037 0
-5136 5130 5131 0
-5136 -5130 -5131 0
5136 -5130 5131 0
5136 5130 -5131 0
-5137 5136 5132 0
-5137 -5136 -5132 0
5137 -5136 5132 0
5137 5136 -5132 0
-5138 5137 5133 0
-5138 -5137 -5133 0
5138 -5137 5133 0
5138 5137 -5133 0
-5139 5138 5134 0
-5139 -5138 -5134 0
5139 -5138 5134 0
5139 5138 -5134 0
-5140 5139 5135 0
-5140 -5139 -5135 0
5140 -5139 5135 0
5140 5139 -5135 0
-5140 0
-5141 5123 0
-5141 61 0
5141 -5123 -61 0
-5142 5124 0
-5142 62 0
5142 -5124 -62 0
-5143 5125 0
-5143 63 0
5143 -5125 -63 0
-5144 5126 0
-5144 64 0
5144 -5126 -64 0
-5145 5127 0
-5145 65 0
5145 -5127 -65 0
-5146 5128 0
-5146 66 0
5146 -5128 -66 0
-5147 5141 5142 0
-5147 -5141 -5142 0
5147 -5141 5142 0
5147 5141 -5142 0
-5148 5147 5143 0
-5148 -5147 -5143 0
5148 -5147 5143 0
5148 5147 -5143 0
-5149 5148 5144 0
-5149 -5148 -5144 0
5149 -5148 5144 0
5149 5148 -5144 0
-5150 5149 5145 0
-5150 -5149 -5145 0
5150 -5149 5145 0
5150 5149 -5145 0
-5151 5150 5146 0
-5151 -5150 -5146 0
5151 -5150 5146 0
5151 5150 -5146 0
-5151 0
-5152 5123 0
-5152 73 0
5152 -5123 -73 0
-5153 5124 0
-5153 74 0
5153 -5124 -74 0
-5154 5125 0
-5154 75 0
5154 -5125 -75 0
-5155 5126 0
-5155 76 0
5155 -5126 -76 0
-5156 5127 0
-5156 77 0
5156 -5127 -77 0
-5157 5128 0
-5157 78 0
5157 -5128 -78 0
-5158 5152 5153 0
-5158 -5152 -5153 0
5158 -5152 5153 0
5158 5152 -5153 0
-5159 5158 5154 0
-5159 -5158 -5154 0
5159 -5158 5154 0
5159 5158 -5154 0
-5160 5159 5155 0
-5160 -5159 -5155 0
5160 -5159 5155 0
5160 5159 -5155 0
-5161 5160 5156 0
-5161 -5160 -5156 0
5161 -5160 5156 0
5161 5160 -5156 0
-5162 5161 5157 0
-5162 -5161 -5157 0
5162 -5161 5157 0
5162 5161 -5157 0
-5162 0
-5163 5123 0
-5163 61 0
5163 -5123 -61 0
-5164 5124 0
-5164 62 0
5164 -5124 -62 0
-5165 5125 0
-5165 63 0
5165 -5125 -63 0
-5166 5126 0
-5166 64 0
5166 -5126 -64 0
-5167 5127 0
-5167 65 0
5167 -5127 -65 0
-5168 5128 0
-5168 66 0
5168 -5128 -66 0
-5169 5163 5164 0
-5169 -5163 -5164 0
5169 -5163 5164 0
5169 5163 -5164 0
-5170 5169 5165 0
-5170 -5169 -5165 0
5170 -5169 5165 0
5170 5169 -5165 0
-5171 5170 5166 0
-5171 -5170 -5166 0
5171 -5170 5166 0
5171 5170 -5166 0
-5172 5171 5167 0
-5172 -5171 -5167 0
5172 -5171 5167 0
5172 5171 -5167 0
-5173 5172 5168 0
-5173 -5172 -5168 0
5173 -5172 5168 0
5173 5172 -5168 0
-5173 0
-5174 5123 0
-5174 67 0
5174 -5123 -67 0
-5175 5124 0
-5175 68 0
5175 -5124 -68 0
-5176 5125 0
-5176 69 0
5176 -5125 -69 0
-5177 5126 0
-5177 70 0
5177 -5126 -70 0
-5178 5127 0
-5178 71 0
5178 -5127 -71 0
-5179 5128 0
-5179 72 0
5179 -5128 -72 0
-5180 5174 5175 0
-5180 -5174 -5175 0
5180 -5174 5175 0
5180 5174 -5175 0
-5181 5180 5176 0
-5181 -5180 -5176 0
5181 -5180 5176 0
5181 5180 -5176 0
-5182 5181 5177 0
-5182 -5181 -5177 0
5182 -5181 5177 0
5182 5181 -5177 0
-5183 5182 5178 0
-5183 -5182 -5178 0
5183 -5182 5178 0
5183 5182 -5178 0
-5184 5183 5179 0
-5184 -5183 -5179 0
5184 -5183 5179 0
5184 5183 -5179 0
-5184 0
-5185 5123 0
-5185 5039 0
5185 -5123 -5039 0
-5186 5124 0
-5186 5041 0
5186 -5124 -5041 0
-5187 5125 0
-5187 5043 0
5187 -5125 -5043 0
-5188 5126 0
-5188 5045 0
5188 -5126 -5045 0
-5189 5127 0
-5189 5047 0
5189 -5127 -5047 0
-5190 5128 0
-5190 5049 0
5190 -5128 -5049 0
-5191 5185 5186 0
-5191 -5185 -5186 0
5191 -5185 5186 0
5191 5185 -5186 0
-5192 5191 5187 0
-5192 -5191 -5187 0
5192 -5191 5187 0
5192 5191 -5187 0
-5193 5192 5188 0
-5193 -5192 -5188 0
5193 -5192 5188 0
5193 5192 -5188 0
-5194 5193 5189 0
-5194 -5193 -5189 0
5194 -5193 5189 0
5194 5193 -5189 0
-5195 5194 5190 0
-5195 -5194 -5190 0
5195 -5194 5190 0
5195 5194 -5190 0
-5196 5050 5123 0
-5196 -5050 -5123 0
5196 -5050 5123 0
5196 5050 -5123 0
-5197 5051 5124 0
-5197 -5051 -5124 0
5197 -5051 5124 0
5197 5051 -5124 0
-5198 5052 5125 0
-5198 -5052 -5125 0
5198 -5052 5125 0
5198 5052 -5125 0
-5199 5053 5126 0
-5199 -5053 -5126 0
5199 -5053 5126 0
5199 5053 -5126 0
-5200 5054 5127 0
-5200 -5054 -5127 0
5200 -5054 5127 0
5200 5054 -5127 0
-5201 5055 5128 0
-5201 -5055 -5128 0
5201 -5055 5128 0
5201 5055 -5128 0
5196 5197 5198 5199 5200 5201 0
5122 5195 0
-5202 31 43 0
-5202 -31 -43 0
5202 -31 43 0
5202 31 -43 0
-5203 32 44 0
-5203 -32 -44 0
5203 -32 44 0
5203 32 -44 0
-5204 33 45 0
-5204 -33 -45 0
5204 -33 45 0
5204 33 -45 0
-5205 34 46 0
-5205 -34 -46 0
5205 -34 46 0
5205 34 -46 0
-5206 35 47 0
-5206 -35 -47 0
5206 -35 47 0
5206 35 -47 0
-5207 36 48 0
-5207 -36 -48 0
5207 -36 48 0
5207 36 -48 0
-5208 103 115 0
-5208 -103 -115 0
5208 -103 115 0
5208 103 -115 0
-5209 -5208 61 0
-5209 5208 -61 0
5209 5208 61 0
5209 -5208 -61 0
-5210 104 116 0
-5210 -104 -116 0
5210 -104 116 0
5210 104 -116 0
-5211 5210 62 0
-5211 -5210 -62 0
5211 -5210 62 0
5211 5210 -62 0
-5212 105 117 0
-5212 -105 -117 0
5212 -105 117 0
5212 105 -117 0
-5213 -5212 63 0
-5213 5212 -63 0
5213 5212 63 0
5213 -5212 -63 0
-5214 106 118 0
-5214 -106 -118 0
5214 -106 118 0
5214 106 -118 0
-5215 5214 64 0
-5215 -5214 -64 0
5215 -5214 64 0
5215 5214 -64 0
-5216 -107 119 0
-5216 107 -119 0
5216 107 119 0
5216 -107 -119 0
-5217 5216 65 0
-5217 -5216 -65 0
5217 -5216 65 0
5217 5216 -65 0
-5218 108 120 0
-5218 -108 -120 0
5218 -108 120 0
5218 108 -120 0
-5219 5218 66 0
-5219 -5218 -66 0
5219 -5218 66 0
5219 5218 -66 0
5220 5221 5222 5223 5224 5225 0
-5226 5220 5222 0
-5226 -5220 -5222 0
5226 -5220 5222 0
5226 5220 -5222 0
-5226 0
-5227 5220 0
-5227 5202 0
5227 -5220 -5202 0
-5228 5221 0
-5228 5203 0
5228 -5221 -5203 0
-5229 5222 0
-5229 5204 0
5229 -5222 -5204 0
-5230 5223 0
-5230 5205 0
5230 -5223 -5205 0
-5231 5224 0
-5231 5206 0
5231 -5224 -5206 0
-5232 5225 0
-5232 5207 0
5232 -5225 -5207 0
-5233 5227 5228 0
-5233 -5227 -5228 0
5233 -5227 5228 0
5233 5227 -5228 0
-5234 5233 5229 0
-5234 -5233 -5229 0
5234 -5233 5229 0
5234 5233 -5229 0
-5235 5234 5230 0
-5235 -5234 -5230 0
5235 -5234 5230 0
5235 5234 -5230 0
-5236 5235 5231 0
-5236 -5235 -5231 0
5236 -5235 5231 0
5236 5235 -5231 0
-5237 5236 5232 0
-5237 -5236 -5232 0
5237 -5236 5232 0
5237 5236 -5232 0
-5237 0
-5238 5220 0
-5238 -61 0
5238 -5220 61 0
-5239 5221 0
-5239 62 0
5239 -5221 -62 0
-5240 5222 0
-5240 63 0
5240 -5222 -63 0
-5241 5223 0
-5241 64 0
5241 -5223 -64 0
-5242 5224 0
-5242 65 0
5242 -5224 -65 0
-5243 5225 0
-5243 66 0
5243 -5225 -66 0
-5244 5238 5239 0
-5244 -5238 -5239 0
5244 -5238 5239 0
5244 5238 -5239 0
-5245 5244 5240 0
-5245 -5244 -5240 0
5245 -5244 5240 0
5245 5244 -5240 0
-5246 5245 5241 0
-5246 -5245 -5241 0
5246 -5245 5241 0
5246 5245 -5241 0
-5247 5246 5242 0
-5247 -5246 -5242 0
5247 -5246 5242 0
5247 5246 -5242 0
-5248 5247 5243 0
-5248 -5247 -5243 0
5248 -5247 5243 0
5248 5247 -5243 0
-5248 0
-5249 5220 0
-5249 73 0
5249 -5220 -73 0
-5250 5221 0
-5250 -74 0
5250 -5221 74 0
-5251 5222 0
-5251 75 0
5251 -5222 -75 0
-5252 5223 0
-5252 76 0
5252 -5223 -76 0
-5253 5224 0
-5253 77 0
5253 -5224 -77 0
-5254 5225 0
-5254 78 0
5254 -5225 -78 0
-5255 5249 5250 0
-5255 -5249 -5250 0
5255 -5249 5250 0
5255 5249 -5250 0
-5256 5255 5251 0
-5256 -5255 -5251 0
5256 -5255 5251 0
5256 5255 -5251 0
-5257 5256 5252 0
-5257 -5256 -5252 0
5257 -5256 5252 0
5257 5256 -5252 0
-5258 5257 5253 0
-5258 -5257 -5253 0
5258 -5257 5253 0
5258 5257 -5253 0
-5259 5258 5254 0
-5259 -5258 -5254 0
5259 -5258 5254 0
5259 5258 -5254 0
-5259 0
-5260 5220 0
-5260 61 0
5260 -5220 -61 0
-5261 5221 0
-5261 62 0
5261 -5221 -62 0
-5262 5222 0
-5262 -63 0
5262 -5222 63 0
-5263 5223 0
-5263 64 0
5263 -5223 -64 0
-5264 5224 0
-5264 65 0
5264 -5224 -65 0
-5265 5225 0
-5265 66 0
5265 -5225 -66 0
-5266 5260 5261 0
-5266 -5260 -5261 0
5266 -5260 5261 0
5266 5260 -5261 0
-5267 5266 5262 0
-5267 -5266 -5262 0
5267 -5266 5262 0
5267 5266 -5262 0
-5268 5267 5263 0
-5268 -5267 -5263 0
5268 -5267 5263 0
5268 5267 -5263 0
-5269 5268 5264 0
-5269 -5268 -5264 0
5269 -5268 5264 0
5269 5268 -5264 0
-5270 5269 5265 0
-5270 -5269 -5265 0
5270 -5269 5265 0
5270 5269 -5265 0
-5270 0
-5271 5220 0
-5271 67 0
5271 -5220 -67 0
-5272 5221 0
-5272 68 0
5272 -5221 -68 0
-5273 5222 0
-5273 69 0
5273 -5222 -69 0
-5274 5223 0
-5274 -70 0
5274 -5223 70 0
-5275 5224 0
-5275 71 0
5275 -5224 -71 0
-5276 5225 0
-5276 72 0
5276 -5225 -72 0
-5277 5271 5272 0
-5277 -5271 -5272 0
5277 -5271 5272 0
5277 5271 -5272 0
-5278 5277 5273 0
-5278 -5277 -5273 0
5278 -5277 5273 0
5278 5277 -5273 0
-5279 5278 5274 0
-5279 -5278 -5274 0
5279 -5278 5274 0
5279 5278 -5274 0
-5280 5279 5275 0
-5280 -5279 -5275 0
5280 -5279 5275 0
5280 5279 -5275 0
-5281 5280 5276 0
-5281 -5280 -5276 0
5281 -5280 5276 0
5281 5280 -5276 0
-5281 0
-5282 5220 0
-5282 5209 0
5282 -5220 -5209 0
-5283 5221 0
-5283 5211 0
5283 -5221 -5211 0
-5284 5222 0
-5284 5213 0
5284 -5222 -5213 0
-5285 5223 0
-5285 5215 0
5285 -5223 -5215 0
-5286 5224 0
-5286 5217 0
5286 -5224 -5217 0
-5287 5225 0
-5287 5219 0
5287 -5225 -5219 0
-5288 5282 5283 0
-5288 -5282 -5283 0
5288 -5282 5283 0
5288 5282 -5283 0
-5289 5288 5284 0
-5289 -5288 -5284 0
5289 -5288 5284 0
5289 5288 -5284 0
-5290 5289 5285 0
-5290 -5289 -5285 0
5290 -5289 5285 0
5290 5289 -5285 0
-5291 5290 5286 0
-5291 -5290 -5286 0
5291 -5290 5286 0
5291 5290 -5286 0
-5292 5291 5287 0
-5292 -5291 -5287 0
5292 -5291 5287 0
5292 5291 -5287 0
5293 5294 5295 5296 5297 5298 0
-5299 5293 5295 0
-5299 -5293 -5295 0
5299 -5293 5295 0
5299 5293 -5295 0
-5299 0
-5300 5293 0
-5300 5202 0
5300 -5293 -5202 0
-5301 5294 0
-5301 5203 0
5301 -5294 -5203 0
-5302 5295 0
-5302 5204 0
5302 -5295 -5204 0
-5303 5296 0
-5303 5205 0
5303 -5296 -5205 0
-5304 5297 0
-5304 5206 0
5304 -5297 -5206 0
-5305 5298 0
-5305 5207 0
5305 -5298 -5207 0
-5306 5300 5301 0
-5306 -5300 -5301 0
5306 -5300 5301 0
5306 5300 -5301 0
-5307 5306 5302 0
-5307 -5306 -5302 0
5307 -5306 5302 0
5307 5306 -5302 0
-5308 5307 5303 0
-5308 -5307 -5303 0
5308 -5307 5303 0
5308 5307 -5303 0
-5309 5308 5304 0
-5309 -5308 -5304 0
5309 -5308 5304 0
5309 5308 -5304 0
-5310 5309 5305 0
-5310 -5309 -5305 0
5310 -5309 5305 0
5310 5309 -5305 0
-5310 0
-5311 5293 0
-5311 -61 0
5311 -5293 61 0
-5312 5294 0
-5312 62 0
5312 -5294 -62 0
-5313 5295 0
-5313 63 0
5313 -5295 -63 0
-5314 5296 0
-5314 64 0
5314 -5296 -64 0
-5315 5297 0
-5315 65 0
5315 -5297 -65 0
-5316 5298 0
-5316 66 0
5316 -5298 -66 0
-5317 5311 5312 0
-5317 -5311 -5312 0
5317 -5311 5312 0
5317 5311 -5312 0
-5318 5317 5313 0
-5318 -5317 -5313 0
5318 -5317 5313 0
5318 5317 -5313 0
-5319 5318 5314 0
-5319 -5318 -5314 0
5319 -5318 5314 0
5319 5318 -5314 0
-5320 5319 5315 0
-5320 -5319 -5315 0
5320 -5319 5315 0
5320 5319 -5315 0
-5321 5320 5316 0
-5321 -5320 -5316 0
5321 -5320 5316 0
5321 5320 -5316 0
-5321 0
-5322 5293 0
-5322 73 0
5322 -5293 -73 0
-5323 5294 0
-5323 -74 0
5323 -5294 74 0
-5324 5295 0
-5324 75 0
5324 -5295 -75 0
-5325 5296 0
-5325 76 0
5325 -5296 -76 0
-5326 5297 0
-5326 77 0
5326 -5297 -77 0
-5327 5298 0
-5327 78 0
5327 -5298 -78 0
-5328 5322 5323 0
-5328 -5322 -5323 0
5328 -5322 5323 0
5328 5322 -5323 0
-5329 5328 5324 0
-5329 -5328 -5324 0
5329 -5328 5324 0
5329 5328 -5324 0
-5330 5329 5325 0
-5330 -5329 -5325 0
5330 -5329 5325 0
5330 5329 -5325 0
-5331 5330 5326 0
-5331 -5330 -5326 0
5331 -5330 5326 0
5331 5330 -5326 0
-5332 5331 5327 0
-5332 -5331 -5327 0
5332 -5331 5327 0
5332 5331 -5327 0
-5332 0
-5333 5293 0
-5333 61 0
5333 -5293 -61 0
-5334 5294 0
-5334 62 0
5334 -5294 -62 0
-5335 5295 0
-5335 -63 0
5335 -5295 63 0
-5336 5296 0
-5336 64 0
5336 -5296 -64 0
-5337 5297 0
-5337 65 0
5337 -5297 -65 0
-5338 5298 0
-5338 66 0
5338 -5298 -66 0
-5339 5333 5334 0
-5339 -5333 -5334 0
5339 -5333 5334 0
5339 5333 -5334 0
-5340 5339 5335 0
-5340 -5339 -5335 0
5340 -5339 5335 0
5340 5339 -5335 0
-5341 5340 5336 0
-5341 -5340 -5336 0
5341 -5340 5336 0
5341 5340 -5336 0
-5342 5341 5337 0
-5342 -5341 -5337 0
5342 -5341 5337 0
5342 5341 -5337 0
-5343 5342 5338 0
-5343 -5342 -5338 0
5343 -5342 5338 0
5343 5342 -5338 0
-5343 0
-5344 5293 0
-5344 67 0
5344 -5293 -67 0
-5345 5294 0
-5345 68 0
5345 -5294 -68 0
-5346 5295 0
-5346 69 0
5346 -5295 -69 0
-5347 5296 0
-5347 -70 0
5347 -5296 70 0
-5348 5297 0
-5348 71 0
5348 -5297 -71 0
-5349 5298 0
-5349 72 0
5349 -5298 -72 0
-5350 5344 5345 0
-5350 -5344 -5345 0
5350 -5344 5345 0
5350 5344 -5345 0
-5351 5350 5346 0
-5351 -5350 -5346 0
5351 -5350 5346 0
5351 5350 -5346 0
-5352 5351 5347 0
-5352 -5351 -5347 0
5352 -5351 5347 0
5352 5351 -5347 0
-5353 5352 5348 0
-5353 -5352 -5348 0
5353 -5352 5348 0
5353 5352 -5348 0
-5354 5353 5349 0
-5354 -5353 -5349 0
5354 -5353 5349 0
5354 5353 -5349 0
-5354 0
-5355 5293 0
-5355 5209 0
5355 -5293 -5209 0
-5356 5294 0
-5356 5211 0
5356 -5294 -5211 0
-5357 5295 0
-5357 5213 0
5357 -5295 -5213 0
-5358 5296 0
-5358 5215 0
5358 -5296 -5215 0
-5359 5297 0
-5359 5217 0
5359 -5297 -5217 0
-5360 5298 0
-5360 5219 0
5360 -5298 -5219 0
-5361 5355 5356 0
-5361 -5355 -5356 0
5361 -5355 5356 0
5361 5355 -5356 0
-5362 5361 5357 0
-5362 -5361 -5357 0
5362 -5361 5357 0
5362 5361 -5357 0
-5363 5362 5358 0
-5363 -5362 -5358 0
5363 -5362 5358 0
5363 5362 -5358 0
-5364 5363 5359 0
-5364 -5363 -5359 0
5364 -5363 5359 0
5364 5363 -5359 0
-5365 5364 5360 0
-5365 -5364 -5360 0
5365 -5364 5360 0
5365 5364 -5360 0
-5366 5220 5293 0
-5366 -5220 -5293 0
5366 -5220 5293 0
5366 5220 -5293 0
-5367 5221 5294 0
-5367 -5221 -5294 0
5367 -5221 5294 0
5367 5221 -5294 0
-5368 5222 5295 0
-5368 -5222 -5295 0
5368 -5222 5295 0
5368 5222 -5295 0
-5369 5223 5296 0
-5369 -5223 -5296 0
5369 -5223 5296 0
5369 5223 -5296 0
-5370 5224 5297 0
-5370 -5224 -5297 0
5370 -5224 5297 0
5370 5224 -5297 0
-5371 5225 5298 0
-5371 -5225 -5298 0
5371 -5225 5298 0
5371 5225 -5298 0
5366 5367 5368 5369 5370 5371 0
5292 5365 0
-5372 31 43 0
-5372 -31 -43 0
5372 -31 43 0
5372 31 -43 0
-5373 31 61 0
-5373 -31 -61 0
5373 -31 61 0
5373 31 -61 0
-5374 37 73 0
-5374 -37 -73 0
5374 -37 73 0
5374 37 -73 0
-5375 43 61 0
-5375 -43 -61 0
5375 -43 61 0
5375 43 -61 0
-5376 49 67 0
-5376 -49 -67 0
5376 -49 67 0
5376 49 -67 0
-5377 32 44 0
-5377 -32 -44 0
5377 -32 44 0
5377 32 -44 0
-5378 32 62 0
-5378 -32 -62 0
5378 -32 62 0
5378 32 -62 0
-5379 38 74 0
-5379 -38 -74 0
5379 -38 74 0
5379 38 -74 0
-5380 44 62 0
-5380 -44 -62 0
5380 -44 62 0
5380 44 -62 0
-5381 50 68 0
-5381 -50 -68 0
5381 -50 68 0
5381 50 -68 0
-5382 33 45 0
-5382 -33 -45 0
5382 -33 45 0
5382 33 -45 0
-5383 33 63 0
-5383 -33 -63 0
5383 -33 63 0
5383 33 -63 0
-5384 39 75 0
-5384 -39 -75 0
5384 -39 75 0
5384 39 -75 0
-5385 45 63 0
-5385 -45 -63 0
5385 -45 63 0
5385 45 -63 0
-5386 51 69 0
-5386 -51 -69 0
5386 -51 69 0
5386 51 -69 0
-5387 34 46 0
-5387 -34 -46 0
5387 -34 46 0
5387 34 -46 0
-5388 34 64 0
-5388 -34 -64 0
5388 -34 64 0
5388 34 -64 0
-5389 40 76 0
-5389 -40 -76 0
5389 -40 76 0
5389 40 -76 0
-5390 46 64 0
-5390 -46 -64 0
5390 -46 64 0
5390 46 -64 0
-5391 52 70 0
-5391 -52 -70 0
5391 -52 70 0
5391 52 -70 0
-5392 35 47 0
-5392 -35 -47 0
5392 -35 47 0
5392 35 -47 0
-5393 35 65 0
-5393 -35 -65 0
5393 -35 65 0
5393 35 -65 0
-5394 41 77 0
-5394 -41 -77 0
5394 -41 77 0
5394 41 -77 0
-5395 47 65 0
-5395 -47 -65 0
5395 -47 65 0
5395 47 -65 0
-5396 53 71 0
-5396 -53 -71 0
5396 -53 71 0
5396 53 -71 0
-5397 36 48 0
-5397 -36 -48 0
5397 -36 48 0
5397 36 -48 0
-5398 36 66 0
-5398 -36 -66 0
5398 -36 66 0
5398 36 -66 0
-5399 42 78 0
-5399 -42 -78 0
5399 -42 78 0
5399 42 -78 0
-5400 48 66 0
-5400 -48 -66 0
5400 -48 66 0
5400 48 -66 0
-5401 54 72 0
-5401 -54 -72 0
5401 -54 72 0
5401 54 -72 0
-5402 97 103 0
-5402 -97 -103 0
5402 -97 103 0
5402 97 -103 0
-5403 5402 115 0
-5403 -5402 -115 0
5403 -5402 115 0
5403 5402 -115 0
-5404 5403 31 0
-5404 -5403 -31 0
5404 -5403 31 0
5404 5403 -31 0
-5405 5404 43 0
-5405 -5404 -43 0
5405 -5404 43 0
5405 5404 -43 0
-5406 5405 61 0
-5406 -5405 -61 0
5406 -5405 61 0
5406 5405 -61 0
-5407 98 104 0
-5407 -98 -104 0
5407 -98 104 0
5407 98 -104 0
-5408 5407 116 0
-5408 -5407 -116 0
5408 -5407 116 0
5408 5407 -116 0
-5409 5408 32 0
-5409 -5408 -32 0
5409 -5408 32 0
5409 5408 -32 0
-5410 5409 44 0
-5410 -5409 -44 0
5410 -5409 44 0
5410 5409 -44 0
-5411 5410 62 0
-5411 -5410 -62 0
5411 -5410 62 0
5411 5410 -62 0
-5412 99 105 0
-5412 -99 -105 0
5412 -99 105 0
5412 99 -105 0
-5413 5412 117 0
-5413 -5412 -117 0
5413 -5412 117 0
5413 5412 -117 0
-5414 5413 33 0
-5414 -5413 -33 0
5414 -5413 33 0
5414 5413 -33 0
-5415 5414 45 0
-5415 -5414 -45 0
5415 -5414 45 0
5415 5414 -45 0
-5416 5415 63 0
-5416 -5415 -63 0
5416 -5415 63 0
5416 5415 -63 0
-5417 100 106 0
-5417 -100 -106 0
5417 -100 106 0
5417 100 -106 0
-5418 5417 118 0
-5418 -5417 -118 0
5418 -5417 118 0
5418 5417 -118 0
-5419 5418 34 0
-5419 -5418 -34 0
5419 -5418 34 0
5419 5418 -34 0
-5420 5419 46 0
-5420 -5419 -46 0
5420 -5419 46 0
5420 5419 -46 0
-5421 5420 64 0
-5421 -5420 -64 0
5421 -5420 64 0
5421 5420 -64 0
-5422 107 119 0
-5422 -107 -119 0
5422 -107 119 0
5422 107 -119 0
-5423 5422 35 0
-5423 -5422 -35 0
5423 -5422 35 0
5423 5422 -35 0
-5424 5423 47 0
-5424 -5423 -47 0
5424 -5423 47 0
5424 5423 -47 0
-5425 5424 65 0
-5425 -5424 -65 0
5425 -5424 65 0
5425 5424 -65 0
-5426 102 108 0
-5426 -102 -108 0
5426 -102 108 0
5426 102 -108 0
-5427 5426 120 0
-5427 -5426 -120 0
5427 -5426 120 0
5427 5426 -120 0
-5428 5427 36 0
-5428 -5427 -36 0
5428 -5427 36 0
5428 5427 -36 0
-5429 5428 48 0
-5429 -5428 -48 0
5429 -5428 48 0
5429 5428 -48 0
-5430 5429 66 0
-5430 -5429 -66 0
5430 -5429 66 0
5430 5429 -66 0
5431 5432 5433 5434 5435 5436 0
-5437 5431 5433 0
-5437 -5431 -5433 0
5437 -5431 5433 0
5437 5431 -5433 0
-5437 0
-5438 5431 0
-5438 5372 0
5438 -5431 -5372 0
-5439 5432 0
-5439 5377 0
5439 -5432 -5377 0
-5440 5433 0
-5440 5382 0
5440 -5433 -5382 0
-5441 5434 0
-5441 5387 0
5441 -5434 -5387 0
-5442 5435 0
-5442 5392 0
5442 -5435 -5392 0
-5443 5436 0
-5443 5397 0
5443 -5436 -5397 0
-5444 5438 5439 0
-5444 -5438 -5439 0
5444 -5438 5439 0
5444 5438 -5439 0
-5445 5444 5440 0
-5445 -5444 -5440 0
5445 -5444 5440 0
5445 5444 -5440 0
-5446 5445 5441 0
-5446 -5445 -5441 0
5446 -5445 5441 0
5446 5445 -5441 0
-5447 5446 5442 0
-5447 -5446 -5442 0
5447 -5446 5442 0
5447 5446 -5442 0
-5448 5447 5443 0
-5448 -5447 -5443 0
5448 -5447 5443 0
5448 5447 -5443 0
-5448 0
-5449 5431 0
-5449 5373 0
5449 -5431 -5373 0
-5450 5432 0
-5450 5378 0
5450 -5432 -5378 0
-5451 5433 0
-5451 5383 0
5451 -5433 -5383 0
-5452 5434 0
-5452 5388 0
5452 -5434 -5388 0
-5453 5435 0
-5453 5393 0
5453 -5435 -5393 0
-5454 5436 0
-5454 5398 0
5454 -5436 -5398 0
-5455 5449 5450 0
-5455 -5449 -5450 0
5455 -5449 5450 0
5455 5449 -5450 0
-5456 5455 5451 0
-5456 -5455 -5451 0
5456 -5455 5451 0
5456 5455 -5451 0
-5457 5456 5452 0
-5457 -5456 -5452 0
5457 -5456 5452 0
5457 5456 -5452 0
-5458 5457 5453 0
-5458 -5457 -5453 0
5458 -5457 5453 0
5458 5457 -5453 0
-5459 5458 5454 0
-5459 -5458 -5454 0
5459 -5458 5454 0
5459 5458 -5454 0
-5459 0
-5460 5431 0
-5460 5374 0
5460 -5431 -5374 0
-5461 5432 0
-5461 5379 0
5461 -5432 -5379 0
-5462 5433 0
-5462 5384 0
5462 -5433 -5384 0
-5463 5434 0
-5463 5389 0
5463 -5434 -5389 0
-5464 5435 0
-5464 5394 0
5464 -5435 -5394 0
-5465 5436 0
-5465 5399 0
5465 -5436 -5399 0
-5466 5460 5461 0
-5466 -5460 -5461 0
5466 -5460 5461 0
5466 5460 -5461 0
-5467 5466 5462 0
-5467 -5466 -5462 0
5467 -5466 5462 0
5467 5466 -5462 0
-5468 5467 5463 0
-5468 -5467 -5463 0
5468 -5467 5463 0
5468 5467 -5463 0
-5469 5468 5464 0
-5469 -5468 -5464 0
5469 -5468 5464 0
5469 5468 -5464 0
-5470 5469 5465 0
-5470 -5469 -5465 0
5470 -5469 5465 0
5470 5469 -5465 0
-5470 0
-5471 5431 0
-5471 5375 0
5471 -5431 -5375 0
-5472 5432 0
-5472 5380 0
5472 -5432 -5380 0
-5473 5433 0
-5473 5385 0
5473 -5433 -5385 0
-5474 5434 0
-5474 5390 0
5474 -5434 -5390 0
-5475 5435 0
-5475 5395 0
5475 -5435 -5395 0
-5476 5436 0
-5476 5400 0
5476 -5436 -5400 0
-5477 5471 5472 0
-5477 -5471 -5472 0
5477 -5471 5472 0
5477 5471 -5472 0
-5478 5477 5473 0
-5478 -5477 -5473 0
5478 -5477 5473 0
5478 5477 -5473 0
-5479 5478 5474 0
-5479 -5478 -5474 0
5479 -5478 5474 0
5479 5478 -5474 0
-5480 5479 5475 0
-5480 -5479 -5475 0
5480 -5479 5475 0
5480 5479 -5475 0
-5481 5480 5476 0
-5481 -5480 -5476 0
5481 -5480 5476 0
5481 5480 -5476 0
-5481 0
-5482 5431 0
-5482 5376 0
5482 -5431 -5376 0
-5483 5432 0
-5483 5381 0
5483 -5432 -5381 0
-5484 5433 0
-5484 5386 0
5484 -5433 -5386 0
-5485 5434 0
-5485 5391 0
5485 -5434 -5391 0
-5486 5435 0
-5486 5396 0
5486 -5435 -5396 0
-5487 5436 0
-5487 5401 0
5487 -5436 -5401 0
-5488 5482 5483 0
-5488 -5482 -5483 0
5488 -5482 5483 0
5488 5482 -5483 0
-5489 5488 5484 0
-5489 -5488 -5484 0
5489 -5488 5484 0
5489 5488 -5484 0
-5490 5489 5485 0
-5490 -5489 -5485 0
5490 -5489 5485 0
5490 5489 -5485 0
-5491 5490 5486 0
-5491 -5490 -5486 0
5491 -5490 5486 0
5491 5490 -5486 0
-5492 5491 5487 0
-5492 -5491 -5487 0
5492 -5491 5487 0
5492 5491 -5487 0
-5492 0
-5493 5431 0
-5493 5406 0
5493 -5431 -5406 0
-5494 5432 0
-5494 5411 0
5494 -5432 -5411 0
-5495 5433 0
-5495 5416 0
5495 -5433 -5416 0
-5496 5434 0
-5496 5421 0
5496 -5434 -5421 0
-5497 5435 0
-5497 5425 0
5497 -5435 -5425 0
-5498 5436 0
-5498 5430 0
5498 -5436 -5430 0
-5499 5493 5494 0
-5499 -5493 -5494 0
5499 -5493 5494 0
5499 5493 -5494 0
-5500 5499 5495 0
-5500 -5499 -5495 0
5500 -5499 5495 0
5500 5499 -5495 0
-5501 5500 5496 0
-5501 -5500 -5496 0
5501 -5500 5496 0
5501 5500 -5496 0
-5502 5501 5497 0
-5502 -5501 -5497 0
5502 -5501 5497 0
5502 5501 -5497 0
-5503 5502 5498 0
-5503 -5502 -5498 0
5503 -5502 5498 0
5503 5502 -5498 0
5504 5505 5506 5507 5508 5509 0
-5510 5504 5506 0
-5510 -5504 -5506 0
5510 -5504 5506 0
5510 5504 -5506 0
-5510 0
-5511 5504 0
-5511 5372 0
5511 -5504 -5372 0
-5512 5505 0
-5512 5377 0
5512 -5505 -5377 0
-5513 5506 0
-5513 5382 0
5513 -5506 -5382 0
-5514 5507 0
-5514 5387 0
5514 -5507 -5387 0
-5515 5508 0
-5515 5392 0
5515 -5508 -5392 0
-5516 5509 0
-5516 5397 0
5516 -5509 -5397 0
-5517 5511 5512 0
-5517 -5511 -5512 0
5517 -5511 5512 0
5517 5511 -5512 0
-5518 5517 5513 0
-5518 -5517 -5513 0
5518 -5517 5513 0
5518 5517 -5513 0
-5519 5518 5514 0
-5519 -5518 -5514 0
5519 -5518 5514 0
5519 5518 -5514 0
-5520 5519 5515 0
-5520 -5519 -5515 0
5520 -5519 5515 0
5520 5519 -5515 0
-5521 5520 5516 0
-5521 -5520 -5516 0
5521 -5520 5516 0
5521 5520 -5516 0
-5521 0
-5522 5504 0
-5522 5373 0
5522 -5504 -5373 0
-5523 5505 0
-5523 5378 0
5523 -5505 -5378 0
-5524 5506 0
-5524 5383 0
5524 -5506 -5383 0
-5525 5507 0
-5525 5388 0
5525 -5507 -5388 0
-5526 5508 0
-5526 5393 0
5526 -5508 -5393 0
-5527 5509 0
-5527 5398 0
5527 -5509 -5398 0
-5528 5522 5523 0
-5528 -5522 -5523 0
5528 -5522 5523 0
5528 5522 -5523 0
-5529 5528 5524 0
-5529 -5528 -5524 0
5529 -5528 5524 0
5529 5528 -5524 0
-5530 5529 5525 0
-5530 -5529 -5525 0
5530 -5529 5525 0
5530 5529 -5525 0
-5531 5530 5526 0
-5531 -5530 -5526 0
5531 -5530 5526 0
5531 5530 -5526 0
-5532 5531 5527 0
-5532 -5531 -5527 0
5532 -5531 5527 0
5532 5531 -5527 0
-5532 0
-5533 5504 0
-5533 5374 0
5533 -5504 -5374 0
-5534 5505 0
-5534 5379 0
5534 -5505 -5379 0
-5535 5506 0
-5535 5384 0
5535 -5506 -5384 0
-5536 5507 0
-5536 5389 0
5536 -5507 -5389 0
-5537 5508 0
-5537 5394 0
5537 -5508 -5394 0
-5538 5509 0
-5538 5399 0
5538 -5509 -5399 0
-5539 5533 5534 0
-5539 -5533 -5534 0
5539 -5533 5534 0
5539 5533 -5534 0
-5540 5539 5535 0
-5540 -5539 -5535 0
5540 -5539 5535 0
5540 5539 -5535 0
-5541 5540 5536 0
-5541 -5540 -5536 0
5541 -5540 5536 0
5541 5540 -5536 0
-5542 5541 5537 0
-5542 -5541 -5537 0
5542 -5541 5537 0
5542 5541 -5537 0
-5543 5542 5538 0
-5543 -5542 -5538 0
5543 -5542 5538 0
5543 5542 -5538 0
-5543 0
-5544 5504 0
-5544 5375 0
5544 -5504 -5375 0
-5545 5505 0
-5545 5380 0
5545 -5505 -5380 0
-5546 5506 0
-5546 5385 0
5546 -5506 -5385 0
-5547 5507 0
-5547 5390 0
5547 -5507 -5390 0
-5548 5508 0
-5548 5395 0
5548 -5508 -5395 0
-5549 5509 0
-5549 5400 0
5549 -5509 -5400 0
-5550 5544 5545 0
-5550 -5544 -5545 0
5550 -5544 5545 0
5550 5544 -5545 0
-5551 5550 5546 0
-5551 -5550 -5546 0
5551 -5550 5546 0
5551 5550 -5546 0
-5552 5551 5547 0
-5552 -5551 -5547 0
5552 -5551 5547 0
5552 5551 -5547 0
-5553 5552 5548 0
-5553 -5552 -5548 0
5553 -5552 5548 0
5553 5552 -5548 0
-5554 5553 5549 0
-5554 -5553 -5549 0
5554 -5553 5549 0
5554 5553 -5549 0
-5554 0
-5555 5504 0
-5555 5376 0
5555 -5504 -5376 0
-5556 5505 0
-5556 5381 0
5556 -5505 -5381 0
-5557 5506 0
-5557 5386 0
5557 -5506 -5386 0
-5558 5507 0
-5558 5391 0
5558 -5507 -5391 0
-5559 5508 0
-5559 5396 0
5559 -5508 -5396 0
-5560 5509 0
-5560 5401 0
5560 -5509 -5401 0
-5561 5555 5556 0
-5561 -5555 -5556 0
5561 -5555 5556 0
5561 5555 -5556 0
-5562 5561 5557 0
-5562 -5561 -5557 0
5562 -5561 5557 0
5562 5561 -5557 0
-5563 5562 5558 0
-5563 -5562 -5558 0
5563 -5562 5558 0
5563 5562 -5558 0
-5564 5563 5559 0
-5564 -5563 -5559 0
5564 -5563 5559 0
5564 5563 -5559 0
-5565 5564 5560 0
-5565 -5564 -5560 0
5565 -5564 5560 0
5565 5564 -5560 0
-5565 0
-5566 5504 0
-5566 5406 0
5566 -5504 -5406 0
-5567 5505 0
-5567 5411 0
5567 -5505 -5411 0
-5568 5506 0
-5568 5416 0
5568 -5506 -5416 0
-5569 5507 0
-5569 5421 0
5569 -5507 -5421 0
-5570 5508 0
-5570 5425 0
5570 -5508 -5425 0
-5571 5509 0
-5571 5430 0
5571 -5509 -5430 0
-5572 5566 5567 0
-5572 -5566 -5567 0
5572 -5566 5567 0
5572 5566 -5567 0
-5573 5572 5568 0
-5573 -5572 -5568 0
5573 -5572 5568 0
5573 5572 -5568 0
-5574 5573 5569 0
-5574 -5573 -5569 0
5574 -5573 5569 0
5574 5573 -5569 0
-5575 5574 5570 0
-5575 -5574 -5570 0
5575 -5574 5570 0
5575 5574 -5570 0
-5576 5575 5571 0
-5576 -5575 -5571 0
5576 -5575 5571 0
5576 5575 -5571 0
-5577 5431 5504 0
-5577 -5431 -5504 0
5577 -5431 5504 0
5577 5431 -5504 0
-5578 5432 5505 0
-5578 -5432 -5505 0
5578 -5432 5505 0
5578 5432 -5505 0
-5579 5433 5506 0
-5579 -5433 -5506 0
5579 -5433 5506 0
5579 5433 -5506 0
-5580 5434 5507 0
-5580 -5434 -5507 0
5580 -5434 5507 0
5580 5434 -5507 0
-5581 5435 5508 0
-5581 -5435 -5508 0
5581 -5435 5508 0
5581 5435 -5508 0
-5582 5436 5509 0
-5582 -5436 -5509 0
5582 -5436 5509 0
5582 5436 -5509 0
5577 5578 5579 5580 5581 5582 0
5503 5576 0
-5583 31 43 0
-5583 -31 -43 0
5583 -31 43 0
5583 31 -43 0
-5584 -31 61 0
-5584 31 -61 0
5584 31 61 0
5584 -31 -61 0
-5585 37 73 0
-5585 -37 -73 0
5585 -37 73 0
5585 37 -73 0
-5586 43 61 0
-5586 -43 -61 0
5586 -43 61 0
5586 43 -61 0
-5587 49 67 0
-5587 -49 -67 0
5587 -49 67 0
5587 49 -67 0
-5588 32 44 0
-5588 -32 -44 0
5588 -32 44 0
5588 32 -44 0
-5589 32 62 0
-5589 -32 -62 0
5589 -32 62 0
5589 32 -62 0
-5590 -38 74 0
-5590 38 -74 0
5590 38 74 0
5590 -38 -74 0
-5591 44 62 0
-5591 -44 -62 0
5591 -44 62 0
5591 44 -62 0
-5592 50 68 0
-5592 -50 -68 0
5592 -50 68 0
5592 50 -68 0
-5593 33 45 0
-5593 -33 -45 0
5593 -33 45 0
5593 33 -45 0
-5594 33 63 0
-5594 -33 -63 0
5594 -33 63 0
5594 33 -63 0
-5595 39 75 0
-5595 -39 -75 0
5595 -39 75 0
5595 39 -75 0
-5596 -45 63 0
-5596 45 -63 0
5596 45 63 0
5596 -45 -63 0
-5597 51 69 0
-5597 -51 -69 0
5597 -51 69 0
5597 51 -69 0
-5598 34 46 0
-5598 -34 -46 0
5598 -34 46 0
5598 34 -46 0
-5599 34 64 0
-5599 -34 -64 0
5599 -34 64 0
5599 34 -64 0
-5600 40 76 0
-5600 -40 -76 0
5600 -40 76 0
5600 40 -76 0
-5601 46 64 0
-5601 -46 -64 0
5601 -46 64 0
5601 46 -64 0
-5602 -52 70 0
-5602 52 -70 0
5602 52 70 0
5602 -52 -70 0
-5603 35 47 0
-5603 -35 -47 0
5603 -35 47 0
5603 35 -47 0
-5604 35 65 0
-5604 -35 -65 0
5604 -35 65 0
5604 35 -65 0
-5605 41 77 0
-5605 -41 -77 0
5605 -41 77 0
5605 41 -77 0
-5606 47 65 0
-5606 -47 -65 0
5606 -47 65 0
5606 47 -65 0
-5607 53 71 0
-5607 -53 -71 0
5607 -53 71 0
5607 53 -71 0
-5608 36 48 0
-5608 -36 -48 0
5608 -36 48 0
5608 36 -48 0
-5609 36 66 0
-5609 -36 -66 0
5609 -36 66 0
5609 36 -66 0
-5610 42 78 0
-5610 -42 -78 0
5610 -42 78 0
5610 42 -78 0
-5611 48 66 0
-5611 -48 -66 0
5611 -48 66 0
5611 48 -66 0
-5612 54 72 0
-5612 -54 -72 0
5612 -54 72 0
5612 54 -72 0
-5613 97 103 0
-5613 -97 -103 0
5613 -97 103 0
5613 97 -103 0
-5614 5613 115 0
-5614 -5613 -115 0
5614 -5613 115 0
5614 5613 -115 0
-5615 -5614 31 0
-5615 5614 -31 0
5615 5614 31 0
5615 -5614 -31 0
-5616 5615 43 0
-5616 -5615 -43 0
5616 -5615 43 0
5616 5615 -43 0
-5617 5616 61 0
-5617 -5616 -61 0
5617 -5616 61 0
5617 5616 -61 0
-5618 98 104 0
-5618 -98 -104 0
5618 -98 104 0
5618 98 -104 0
-5619 5618 116 0
-5619 -5618 -116 0
5619 -5618 116 0
5619 5618 -116 0
-5620 5619 32 0
-5620 -5619 -32 0
5620 -5619 32 0
5620 5619 -32 0
-5621 5620 44 0
-5621 -5620 -44 0
5621 -5620 44 0
5621 5620 -44 0
-5622 5621 62 0
-5622 -5621 -62 0
5622 -5621 62 0
5622 5621 -62 0
-5623 99 105 0
-5623 -99 -105 0
5623 -99 105 0
5623 99 -105 0
-5624 5623 117 0
-5624 -5623 -117 0
5624 -5623 117 0
5624 5623 -117 0
-5625 -5624 33 0
-5625 5624 -33 0
5625 5624 33 0
5625 -5624 -33 0
-5626 5625 45 0
-5626 -5625 -45 0
5626 -5625 45 0
5626 5625 -45 0
-5627 5626 63 0
-5627 -5626 -63 0
5627 -5626 63 0
5627 5626 -63 0
-5628 100 106 0
-5628 -100 -106 0
5628 -100 106 0
5628 100 -106 0
-5629 5628 118 0
-5629 -5628 -118 0
5629 -5628 118 0
5629 5628 -118 0
-5630 5629 34 0
-5630 -5629 -34 0
5630 -5629 34 0
5630 5629 -34 0
-5631 5630 46 0
-5631 -5630 -46 0
5631 -5630 46 0
5631 5630 -46 0
-5632 5631 64 0
-5632 -5631 -64 0
5632 -5631 64 0
5632 5631 -64 0
-5633 -107 119 0
-5633 107 -119 0
5633 107 119 0
5633 -107 -119 0
-5634 5633 35 0
-5634 -5633 -35 0
5634 -5633 35 0
5634 5633 -35 0
-5635 5634 47 0
-5635 -5634 -47 0
5635 -5634 47 0
5635 5634 -47 0
-5636 5635 65 0
-5636 -5635 -65 0
5636 -5635 65 0
5636 5635 -65 0
-5637 102 108 0
-5637 -102 -108 0
5637 -102 108 0
5637 102 -108 0
-5638 5637 120 0
-5638 -5637 -120 0
5638 -5637 120 0
5638 5637 -120 0
-5639 5638 36 0
-5639 -5638 -36 0
5639 -5638 36 0
5639 5638 -36 0
-5640 5639 48 0
-5640 -5639 -48 0
5640 -5639 48 0
5640 5639 -48 0
-5641 5640 66 0
-5641 -5640 -66 0
5641 -5640 66 0
5641 5640 -66 0
5642 5643 5644 5645 5646 5647 0
-5648 5642 5644 0
-5648 -5642 -5644 0
5648 -5642 5644 0
5648 5642 -5644 0
-5648 0
-5649 5642 0
-5649 5583 0
5649 -5642 -5583 0
-5650 5643 0
-5650 5588 0
5650 -5643 -5588 0
-5651 5644 0
-5651 5593 0
5651 -5644 -5593 0
-5652 5645 0
-5652 5598 0
5652 -5645 -5598 0
-5653 5646 0
-5653 5603 0
5653 -5646 -5603 0
-5654 5647 0
-5654 5608 0
5654 -5647 -5608 0
-5655 5649 5650 0
-5655 -5649 -5650 0
5655 -5649 5650 0
5655 5649 -5650 0
-5656 5655 5651 0
-5656 -5655 -5651 0
5656 -5655 5651 0
5656 5655 -5651 0
-5657 5656 5652 0
-5657 -5656 -5652 0
5657 -5656 5652 0
5657 5656 -5652 0
-5658 5657 5653 0
-5658 -5657 -5653 0
5658 -5657 5653 0
5658 5657 -5653 0
-5659 5658 5654 0
-5659 -5658 -5654 0
5659 -5658 5654 0
5659 5658 -5654 0
-5659 0
-5660 5642 0
-5660 5584 0
5660 -5642 -5584 0
-5661 5643 0
-5661 5589 0
5661 -5643 -5589 0
-5662 5644 0
-5662 5594 0
5662 -5644 -5594 0
-5663 5645 0
-5663 5599 0
5663 -5645 -5599 0
-5664 5646 0
-5664 5604 0
5664 -5646 -5604 0
-5665 5647 0
-5665 5609 0
5665 -5647 -5609 0
-5666 5660 5661 0
-5666 -5660 -5661 0
5666 -5660 5661 0
5666 5660 -5661 0
-5667 5666 5662 0
-5667 -5666 -5662 0
5667 -5666 5662 0
5667 5666 -5662 0
-5668 5667 5663 0
-5668 -5667 -5663 0
5668 -5667 5663 0
5668 5667 -5663 0
-5669 5668 5664 0
-5669 -5668 -5664 0
5669 -5668 5664 0
5669 5668 -5664 0
-5670 5669 5665 0
-5670 -5669 -5665 0
5670 -5669 5665 0
5670 5669 -5665 0
-5670 0
-5671 5642 0
-5671 5585 0
5671 -5642 -5585 0
-5672 5643 0
-5672 5590 0
5672 -5643 -5590 0
-5673 5644 0
-5673 5595 0
5673 -5644 -5595 0
-5674 5645 0
-5674 5600 0
5674 -5645 -5600 0
-5675 5646 0
-5675 5605 0
5675 -5646 -5605 0
-5676 5647 0
-5676 5610 0
5676 -5647 -5610 0
-5677 5671 5672 0
-5677 -5671 -5672 0
5677 -5671 5672 0
5677 5671 -5672 0
-5678 5677 5673 0
-5678 -5677 -5673 0
5678 -5677 5673 0
5678 5677 -5673 0
-5679 5678 5674 0
-5679 -5678 -5674 0
5679 -5678 5674 0
5679 5678 -5674 0
-5680 5679 5675 0
-5680 -5679 -5675 0
5680 -5679 5675 0
5680 5679 -5675 0
-5681 5680 5676 0
-5681 -5680 -5676 0
5681 -5680 5676 0
5681 5680 -5676 0
-5681 0
-5682 5642 0
-5682 5586 0
5682 -5642 -5586 0
-5683 5643 0
-5683 5591 0
5683 -5643 -5591 0
-5684 5644 0
-5684 5596 0
5684 -5644 -5596 0
-5685 5645 0
-5685 5601 0
5685 -5645 -5601 0
-5686 5646 0
-5686 5606 0
5686 -5646 -5606 0
-5687 5647 0
-5687 5611 0
5687 -5647 -5611 0
-5688 5682 5683 0
-5688 -5682 -5683 0
5688 -5682 5683 0
5688 5682 -5683 0
-5689 5688 5684 0
-5689 -5688 -5684 0
5689 -5688 5684 0
5689 5688 -5684 0
-5690 5689 5685 0
-5690 -5689 -5685 0
5690 -5689 5685 0
5690 5689 -5685 0
-5691 5690 5686 0
-5691 -5690 -5686 0
5691 -5690 5686 0
5691 5690 -5686 0
-5692 5691 5687 0
-5692 -5691 -5687 0
5692 -5691 5687 0
5692 5691 -5687 0
-5692 0
-5693 5642 0
-5693 5587 0
5693 -5642 -5587 0
-5694 5643 0
-5694 5592 0
5694 -5643 -5592 0
-5695 5644 0
-5695 5597 0
5695 -5644 -5597 0
-5696 5645 0
-5696 5602 0
5696 -5645 -5602 0
-5697 5646 0
-5697 5607 0
5697 -5646 -5607 0
-5698 5647 0
-5698 5612 0
5698 -5647 -5612 0
-5699 5693 5694 0
-5699 -5693 -5694 0
5699 -5693 5694 0
5699 5693 -5694 0
-5700 5699 5695 0
-5700 -5699 -5695 0
5700 -5699 5695 0
5700 5699 -5695 0
-5701 5700 5696 0
-5701 -5700 -5696 0
5701 -5700 5696 0
5701 5700 -5696 0
-5702 5701 5697 0
-5702 -5701 -5697 0
5702 -5701 5697 0
5702 5701 -5697 0
-5703 5702 5698 0
-5703 -5702 -5698 0
5703 -5702 5698 0
5703 5702 -5698 0
-5703 0
-5704 5642 0
-5704 5617 0
5704 -5642 -5617 0
-5705 5643 0
-5705 5622 0
5705 -5643 -5622 0
-5706 5644 0
-5706 5627 0
5706 -5644 -5627 0
-5707 5645 0
-5707 5632 0
5707 -5645 -5632 0
-5708 5646 0
-5708 5636 0
5708 -5646 -5636 0
-5709 5647 0
-5709 5641 0
5709 -5647 -5641 0
-5710 5704 5705 0
-5710 -5704 -5705 0
5710 -5704 5705 0
5710 5704 -5705 0
-5711 5710 5706 0
-5711 -5710 -5706 0
5711 -5710 5706 0
5711 5710 -5706 0
-5712 5711 5707 0
-5712 -5711 -5707 0
5712 -5711 5707 0
5712 5711 -5707 0
-5713 5712 5708 0
-5713 -5712 -5708 0
5713 -5712 5708 0
5713 5712 -5708 0
-5714 5713 5709 0
-5714 -5713 -5709 0
5714 -5713 5709 0
5714 5713 -5709 0
5715 5716 5717 5718 5719 5720 0
-5721 5715 5717 0
-5721 -5715 -5717 0
5721 -5715 5717 0
5721 5715 -5717 0
-5721 0
-5722 5715 0
-5722 5583 0
5722 -5715 -5583 0
-5723 5716 0
-5723 5588 0
5723 -5716 -5588 0
-5724 5717 0
-5724 5593 0
5724 -5717 -5593 0
-5725 5718 0
-5725 5598 0
5725 -5718 -5598 0
-5726 5719 0
-5726 5603 0
5726 -5719 -5603 0
-5727 5720 0
-5727 5608 0
5727 -5720 -5608 0
-5728 5722 5723 0
-5728 -5722 -5723 0
5728 -5722 5723 0
5728 5722 -5723 0
-5729 5728 5724 0
-5729 -5728 -5724 0
5729 -5728 5724 0
5729 5728 -5724 0
-5730 5729 5725 0
-5730 -5729 -5725 0
5730 -5729 5725 0
5730 5729 -5725 0
-5731 5730 5726 0
-5731 -5730 -5726 0
5731 -5730 5726 0
5731 5730 -5726 0
-5732 5731 5727 0
-5732 -5731 -5727 0
5732 -5731 5727 0
5732 5731 -5727 0
-5732 0
-5733 5715 0
-5733 5584 0
5733 -5715 -5584 0
-5734 5716 0
-5734 5589 0
5734 -5716 -5589 0
-5735 5717 0
-5735 5594 0
5735 -5717 -5594 0
-5736 5718 0
-5736 5599 0
5736 -5718 -5599 0
-5737 5719 0
-5737 5604 0
5737 -5719 -5604 0
-5738 5720 0
-5738 5609 0
5738 -5720 -5609 0
-5739 5733 5734 0
-5739 -5733 -5734 0
5739 -5733 5734 0
5739 5733 -5734 0
-5740 5739 5735 0
-5740 -5739 -5735 0
5740 -5739 5735 0
5740 5739 -5735 0
-5741 5740 5736 0
-5741 -5740 -5736 0
5741 -5740 5736 0
5741 5740 -5736 0
-5742 5741 5737 0
-5742 -5741 -5737 0
5742 -5741 5737 0
5742 5741 -5737 0
-5743 5742 5738 0
-5743 -5742 -5738 0
5743 -5742 5738 0
5743 5742 -5738 0
-5743 0
-5744 5715 0
-5744 5585 0
5744 -5715 -5585 0
-5745 5716 0
-5745 5590 0
5745 -5716 -5590 0
-5746 5717 0
-5746 5595 0
5746 -5717 -5595 0
-5747 5718 0
-5747 5600 0
5747 -5718 -5600 0
-5748 5719 0
-5748 5605 0
5748 -5719 -5605 0
-5749 5720 0
-5749 5610 0
5749 -5720 -5610 0
-5750 5744 5745 0
-5750 -5744 -5745 0
5750 -5744 5745 0
5750 5744 -5745 0
-5751 5750 5746 0
-5751 -5750 -5746 0
5751 -5750 5746 0
5751 5750 -5746 0
-5752 5751 5747 0
-5752 -5751 -5747 0
5752 -5751 5747 0
5752 5751 -5747 0
-5753 5752 5748 0
-5753 -5752 -5748 0
5753 -5752 5748 0
5753 5752 -5748 0
-5754 5753 5749 0
-5754 -5753 -5749 0
5754 -5753 5749 0
5754 5753 -5749 0
-5754 0
-5755 5715 0
-5755 5586 0
5755 -5715 -5586 0
-5756 5716 0
-5756 5591 0
5756 -5716 -5591 0
-5757 5717 0
-5757 5596 0
5757 -5717 -5596 0
-5758 5718 0
-5758 5601 0
5758 -5718 -5601 0
-5759 5719 0
-5759 5606 0
5759 -5719 -5606 0
-5760 5720 0
-5760 5611 0
5760 -5720 -5611 0
-5761 5755 5756 0
-5761 -5755 -5756 0
5761 -5755 5756 0
5761 5755 -5756 0
-5762 5761 5757 0
-5762 -5761 -5757 0
5762 -5761 5757 0
5762 5761 -5757 0
-5763 5762 5758 0
-5763 -5762 -5758 0
5763 -5762 5758 0
5763 5762 -5758 0
-5764 5763 5759 0
-5764 -5763 -5759 0
5764 -5763 5759 0
5764 5763 -5759 0
-5765 5764 5760 0
-5765 -5764 -5760 0
5765 -5764 5760 0
5765 5764 -5760 0
-5765 0
-5766 5715 0
-5766 5587 0
5766 -5715 -5587 0
-5767 5716 0
-5767 5592 0
5767 -5716 -5592 0
-5768 5717 0
-5768 5597 0
5768 -5717 -5597 0
-5769 5718 0
-5769 5602 0
5769 -5718 -5602 0
-5770 5719 0
-5770 5607 0
5770 -5719 -5607 0
-5771 5720 0
-5771 5612 0
5771 -5720 -5612 0
-5772 5766 5767 0
-5772 -5766 -5767 0
5772 -5766 5767 0
5772 5766 -5767 0
-5773 5772 5768 0
-5773 -5772 -5768 0
5773 -5772 5768 0
5773 5772 -5768 0
-5774 5773 5769 0
-5774 -5773 -5769 0
5774 -5773 5769 0
5774 5773 -5769 0
-5775 5774 5770 0
-5775 -5774 -5770 0
5775 -5774 5770 0
5775 5774 -5770 0
-5776 5775 5771 0
-5776 -5775 -5771 0
5776 -5775 5771 0
5776 5775 -5771 0
-5776 0
-5777 5715 0
-5777 5617 0
5777 -5715 -5617 0
-5778 5716 0
-5778 5622 0
5778 -5716 -5622 0
-5779 5717 0
-5779 5627 0
5779 -5717 -5627 0
-5780 5718 0
-5780 5632 0
5780 -5718 -5632 0
-5781 5719 0
-5781 5636 0
5781 -5719 -5636 0
-5782 5720 0
-5782 5641 0
5782 -5720 -5641 0
-5783 5777 5778 0
-5783 -5777 -5778 0
5783 -5777 5778 0
5783 5777 -5778 0
-5784 5783 5779 0
-5784 -5783 -5779 0
5784 -5783 5779 0
5784 5783 -5779 0
-5785 5784 5780 0
-5785 -5784 -5780 0
5785 -5784 5780 0
5785 5784 -5780 0
-5786 5785 5781 0
-5786 -5785 -5781 0
5786 -5785 5781 0
5786 5785 -5781 0
-5787 5786 5782 0
-5787 -5786 -5782 0
5787 -5786 5782 0
5787 5786 -5782 0
-5788 5642 5715 0
-5788 -5642 -5715 0
5788 -5642 5715 0
5788 5642 -5715 0
-5789 5643 5716 0
-5789 -5643 -5716 0
5789 -5643 5716 0
5789 5643 -5716 0
-5790 5644 5717 0
-5790 -5644 -5717 0
5790 -5644 5717 0
5790 5644 -5717 0
-5791 5645 5718 0
-5791 -5645 -5718 0
5791 -5645 5718 0
5791 5645 -5718 0
-5792 5646 5719 0
-5792 -5646 -5719 0
5792 -5646 5719 0
5792 5646 -5719 0
-5793 5647 5720 0
-5793 -5647 -5720 0
5793 -5647 5720 0
5793 5647 -5720 0
5788 5789 5790 5791 5792 5793 0
5714 5787 0
-5794 37 43 0
-5794 -37 -43 0
5794 -37 43 0
5794 37 -43 0
-5795 38 44 0
-5795 -38 -44 0
5795 -38 44 0
5795 38 -44 0
-5796 39 45 0
-5796 -39 -45 0
5796 -39 45 0
5796 39 -45 0
-5797 40 46 0
-5797 -40 -46 0
5797 -40 46 0
5797 40 -46 0
-5798 41 47 0
-5798 -41 -47 0
5798 -41 47 0
5798 41 -47 0
-5799 42 48 0
-5799 -42 -48 0
5799 -42 48 0
5799 42 -48 0
-5800 109 115 0
-5800 -109 -115 0
5800 -109 115 0
5800 109 -115 0
-5801 5800 73 0
-5801 -5800 -73 0
5801 -5800 73 0
5801 5800 -73 0
-5802 110 116 0
-5802 -110 -116 0
5802 -110 116 0
5802 110 -116 0
-5803 5802 74 0
-5803 -5802 -74 0
5803 -5802 74 0
5803 5802 -74 0
-5804 111 117 0
-5804 -111 -117 0
5804 -111 117 0
5804 111 -117 0
-5805 5804 75 0
-5805 -5804 -75 0
5805 -5804 75 0
5805 5804 -75 0
-5806 112 118 0
-5806 -112 -118 0
5806 -112 118 0
5806 112 -118 0
-5807 5806 76 0
-5807 -5806 -76 0
5807 -5806 76 0
5807 5806 -76 0
-5808 113 119 0
-5808 -113 -119 0
5808 -113 119 0
5808 113 -119 0
-5809 5808 77 0
-5809 -5808 -77 0
5809 -5808 77 0
5809 5808 -77 0
-5810 114 120 0
-5810 -114 -120 0
5810 -114 120 0
5810 114 -120 0
-5811 5810 78 0
-5811 -5810 -78 0
5811 -5810 78 0
5811 5810 -78 0
5812 5813 5814 5815 5816 5817 0
-5818 5813 5814 0
-5818 -5813 -5814 0
5818 -5813 5814 0
5818 5813 -5814 0
-5818 0
-5819 5812 0
-5819 5794 0
5819 -5812 -5794 0
-5820 5813 0
-5820 5795 0
5820 -5813 -5795 0
-5821 5814 0
-5821 5796 0
5821 -5814 -5796 0
-5822 5815 0
-5822 5797 0
5822 -5815 -5797 0
-5823 5816 0
-5823 5798 0
5823 -5816 -5798 0
-5824 5817 0
-5824 5799 0
5824 -5817 -5799 0
-5825 5819 5820 0
-5825 -5819 -5820 0
5825 -5819 5820 0
5825 5819 -5820 0
-5826 5825 5821 0
-5826 -5825 -5821 0
5826 -5825 5821 0
5826 5825 -5821 0
-5827 5826 5822 0
-5827 -5826 -5822 0
5827 -5826 5822 0
5827 5826 -5822 0
-5828 5827 5823 0
-5828 -5827 -5823 0
5828 -5827 5823 0
5828 5827 -5823 0
-5829 5828 5824 0
-5829 -5828 -5824 0
5829 -5828 5824 0
5829 5828 -5824 0
-5829 0
-5830 5812 0
-5830 61 0
5830 -5812 -61 0
-5831 5813 0
-5831 62 0
5831 -5813 -62 0
-5832 5814 0
-5832 63 0
5832 -5814 -63 0
-5833 5815 0
-5833 64 0
5833 -5815 -64 0
-5834 5816 0
-5834 65 0
5834 -5816 -65 0
-5835 5817 0
-5835 66 0
5835 -5817 -66 0
-5836 5830 5831 0
-5836 -5830 -5831 0
5836 -5830 5831 0
5836 5830 -5831 0
-5837 5836 5832 0
-5837 -5836 -5832 0
5837 -5836 5832 0
5837 5836 -5832 0
-5838 5837 5833 0
-5838 -5837 -5833 0
5838 -5837 5833 0
5838 5837 -5833 0
-5839 5838 5834 0
-5839 -5838 -5834 0
5839 -5838 5834 0
5839 5838 -5834 0
-5840 5839 5835 0
-5840 -5839 -5835 0
5840 -5839 5835 0
5840 5839 -5835 0
-5840 0
-5841 5812 0
-5841 73 0
5841 -5812 -73 0
-5842 5813 0
-5842 74 0
5842 -5813 -74 0
-5843 5814 0
-5843 75 0
5843 -5814 -75 0
-5844 5815 0
-5844 76 0
5844 -5815 -76 0
-5845 5816 0
-5845 77 0
5845 -5816 -77 0
-5846 5817 0
-5846 78 0
5846 -5817 -78 0
-5847 5841 5842 0
-5847 -5841 -5842 0
5847 -5841 5842 0
5847 5841 -5842 0
-5848 5847 5843 0
-5848 -5847 -5843 0
5848 -5847 5843 0
5848 5847 -5843 0
-5849 5848 5844 0
-5849 -5848 -5844 0
5849 -5848 5844 0
5849 5848 -5844 0
-5850 5849 5845 0
-5850 -5849 -5845 0
5850 -5849 5845 0
5850 5849 -5845 0
-5851 5850 5846 0
-5851 -5850 -5846 0
5851 -5850 5846 0
5851 5850 -5846 0
-5851 0
-5852 5812 0
-5852 73 0
5852 -5812 -73 0
-5853 5813 0
-5853 74 0
5853 -5813 -74 0
-5854 5814 0
-5854 75 0
5854 -5814 -75 0
-5855 5815 0
-5855 76 0
5855 -5815 -76 0
-5856 5816 0
-5856 77 0
5856 -5816 -77 0
-5857 5817 0
-5857 78 0
5857 -5817 -78 0
-5858 5852 5853 0
-5858 -5852 -5853 0
5858 -5852 5853 0
5858 5852 -5853 0
-5859 5858 5854 0
-5859 -5858 -5854 0
5859 -5858 5854 0
5859 5858 -5854 0
-5860 5859 5855 0
-5860 -5859 -5855 0
5860 -5859 5855 0
5860 5859 -5855 0
-5861 5860 5856 0
-5861 -5860 -5856 0
5861 -5860 5856 0
5861 5860 -5856 0
-5862 5861 5857 0
-5862 -5861 -5857 0
5862 -5861 5857 0
5862 5861 -5857 0
-5862 0
-5863 5812 0
-5863 79 0
5863 -5812 -79 0
-5864 5813 0
-5864 80 0
5864 -5813 -80 0
-5865 5814 0
-5865 81 0
5865 -5814 -81 0
-5866 5815 0
-5866 82 0
5866 -5815 -82 0
-5867 5816 0
-5867 83 0
5867 -5816 -83 0
-5868 5817 0
-5868 84 0
5868 -5817 -84 0
-5869 5863 5864 0
-5869 -5863 -5864 0
5869 -5863 5864 0
5869 5863 -5864 0
-5870 5869 5865 0
-5870 -5869 -5865 0
5870 -5869 5865 0
5870 5869 -5865 0
-5871 5870 5866 0
-5871 -5870 -5866 0
5871 -5870 5866 0
5871 5870 -5866 0
-5872 5871 5867 0
-5872 -5871 -5867 0
5872 -5871 5867 0
5872 5871 -5867 0
-5873 5872 5868 0
-5873 -5872 -5868 0
5873 -5872 5868 0
5873 5872 -5868 0
-5873 0
-5874 5812 0
-5874 5801 0
5874 -5812 -5801 0
-5875 5813 0
-5875 5803 0
5875 -5813 -5803 0
-5876 5814 0
-5876 5805 0
5876 -5814 -5805 0
-5877 5815 0
-5877 5807 0
5877 -5815 -5807 0
-5878 5816 0
-5878 5809 0
5878 -5816 -5809 0
-5879 5817 0
-5879 5811 0
5879 -5817 -5811 0
-5880 5874 5875 0
-5880 -5874 -5875 0
5880 -5874 5875 0
5880 5874 -5875 0
-5881 5880 5876 0
-5881 -5880 -5876 0
5881 -5880 5876 0
5881 5880 -5876 0
-5882 5881 5877 0
-5882 -5881 -5877 0
5882 -5881 5877 0
5882 5881 -5877 0
-5883 5882 5878 0
-5883 -5882 -5878 0
5883 -5882 5878 0
5883 5882 -5878 0
-5884 5883 5879 0
-5884 -5883 -5879 0
5884 -5883 5879 0
5884 5883 -5879 0
5885 5886 5887 5888 5889 5890 0
-5891 5886 5887 0
-5891 -5886 -5887 0
5891 -5886 5887 0
5891 5886 -5887 0
-5891 0
-5892 5885 0
-5892 5794 0
5892 -5885 -5794 0
-5893 5886 0
-5893 5795 0
5893 -5886 -5795 0
-5894 5887 0
-5894 5796 0
5894 -5887 -5796 0
-5895 5888 0
-5895 5797 0
5895 -5888 -5797 0
-5896 5889 0
-5896 5798 0
5896 -5889 -5798 0
-5897 5890 0
-5897 5799 0
5897 -5890 -5799 0
-5898 5892 5893 0
-5898 -5892 -5893 0
5898 -5892 5893 0
5898 5892 -5893 0
-5899 5898 5894 0
-5899 -5898 -5894 0
5899 -5898 5894 0
5899 5898 -5894 0
-5900 5899 5895 0
-5900 -5899 -5895 0
5900 -5899 5895 0
5900 5899 -5895 0
-5901 5900 5896 0
-5901 -5900 -5896 0
5901 -5900 5896 0
5901 5900 -5896 0
-5902 5901 5897 0
-5902 -5901 -5897 0
5902 -5901 5897 0
5902 5901 -5897 0
-5902 0
-5903 5885 0
-5903 61 0
5903 -5885 -61 0
-5904 5886 0
-5904 62 0
5904 -5886 -62 0
-5905 5887 0
-5905 63 0
5905 -5887 -63 0
-5906 5888 0
-5906 64 0
5906 -5888 -64 0
-5907 5889 0
-5907 65 0
5907 -5889 -65 0
-5908 5890 0
-5908 66 0
5908 -5890 -66 0
-5909 5903 5904 0
-5909 -5903 -5904 0
5909 -5903 5904 0
5909 5903 -5904 0
-5910 5909 5905 0
-5910 -5909 -5905 0
5910 -5909 5905 0
5910 5909 -5905 0
-5911 5910 5906 0
-5911 -5910 -5906 0
5911 -5910 5906 0
5911 5910 -5906 0
-5912 5911 5907 0
-5912 -5911 -5907 0
5912 -5911 5907 0
5912 5911 -5907 0
-5913 5912 5908 0
-5913 -5912 -5908 0
5913 -5912 5908 0
5913 5912 -5908 0
-5913 0
-5914 5885 0
-5914 73 0
5914 -5885 -73 0
-5915 5886 0
-5915 74 0
5915 -5886 -74 0
-5916 5887 0
-5916 75 0
5916 -5887 -75 0
-5917 5888 0
-5917 76 0
5917 -5888 -76 0
-5918 5889 0
-5918 77 0
5918 -5889 -77 0
-5919 5890 0
-5919 78 0
5919 -5890 -78 0
-5920 5914 5915 0
-5920 -5914 -5915 0
5920 -5914 5915 0
5920 5914 -5915 0
-5921 5920 5916 0
-5921 -5920 -5916 0
5921 -5920 5916 0
5921 5920 -5916 0
-5922 5921 5917 0
-5922 -5921 -5917 0
5922 -5921 5917 0
5922 5921 -5917 0
-5923 5922 5918 0
-5923 -5922 -5918 0
5923 -5922 5918 0
5923 5922 -5918 0
-5924 5923 5919 0
-5924 -5923 -5919 0
5924 -5923 5919 0
5924 5923 -5919 0
-5924 0
-5925 5885 0
-5925 73 0
5925 -5885 -73 0
-5926 5886 0
-5926 74 0
5926 -5886 -74 0
-5927 5887 0
-5927 75 0
5927 -5887 -75 0
-5928 5888 0
-5928 76 0
5928 -5888 -76 0
-5929 5889 0
-5929 77 0
5929 -5889 -77 0
-5930 5890 0
-5930 78 0
5930 -5890 -78 0
-5931 5925 5926 0
-5931 -5925 -5926 0
5931 -5925 5926 0
5931 5925 -5926 0
-5932 5931 5927 0
-5932 -5931 -5927 0
5932 -5931 5927 0
5932 5931 -5927 0
-5933 5932 5928 0
-5933 -5932 -5928 0
5933 -5932 5928 0
5933 5932 -5928 0
-5934 5933 5929 0
-5934 -5933 -5929 0
5934 -5933 5929 0
5934 5933 -5929 0
-5935 5934 5930 0
-5935 -5934 -5930 0
5935 -5934 5930 0
5935 5934 -5930 0
-5935 0
-5936 5885 0
-5936 79 0
5936 -5885 -79 0
-5937 5886 0
-5937 80 0
5937 -5886 -80 0
-5938 5887 0
-5938 81 0
5938 -5887 -81 0
-5939 5888 0
-5939 82 0
5939 -5888 -82 0
-5940 5889 0
-5940 83 0
5940 -5889 -83 0
-5941 5890 0
-5941 84 0
5941 -5890 -84 0
-5942 5936 5937 0
-5942 -5936 -5937 0
5942 -5936 5937 0
5942 5936 -5937 0
-5943 5942 5938 0
-5943 -5942 -5938 0
5943 -5942 5938 0
5943 5942 -5938 0
-5944 5943 5939 0
-5944 -5943 -5939 0
5944 -5943 5939 0
5944 5943 -5939 0
-5945 5944 5940 0
-5945 -5944 -5940 0
5945 -5944 5940 0
5945 5944 -5940 0
-5946 5945 5941 0
-5946 -5945 -5941 0
5946 -5945 5941 0
5946 5945 -5941 0
-5946 0
-5947 5885 0
-5947 5801 0
5947 -5885 -5801 0
-5948 5886 0
-5948 5803 0
5948 -5886 -5803 0
-5949 5887 0
-5949 5805 0
5949 -5887 -5805 0
-5950 5888 0
-5950 5807 0
5950 -5888 -5807 0
-5951 5889 0
-5951 5809 0
5951 -5889 -5809 0
-5952 5890 0
-5952 5811 0
5952 -5890 -5811 0
-5953 5947 5948 0
-5953 -5947 -5948 0
5953 -5947 5948 0
5953 5947 -5948 0
-5954 5953 5949 0
-5954 -5953 -5949 0
5954 -5953 5949 0
5954 5953 -5949 0
-5955 5954 5950 0
-5955 -5954 -5950 0
5955 -5954 5950 0
5955 5954 -5950 0
-5956 5955 5951 0
-5956 -5955 -5951 0
5956 -5955 5951 0
5956 5955 -5951 0
-5957 5956 5952 0
-5957 -5956 -5952 0
5957 -5956 5952 0
5957 5956 -5952 0
-5958 5812 5885 0
-5958 -5812 -5885 0
5958 -5812 5885 0
5958 5812 -5885 0
-5959 5813 5886 0
-5959 -5813 -5886 0
5959 -5813 5886 0
5959 5813 -5886 0
-5960 5814 5887 0
-5960 -5814 -5887 0
5960 -5814 5887 0
5960 5814 -5887 0
-5961 5815 5888 0
-5961 -5815 -5888 0
5961 -5815 5888 0
5961 5815 -5888 0
-5962 5816 5889 0
-5962 -5816 -5889 0
5962 -5816 5889 0
5962 5816 -5889 0
-5963 5817 5890 0
-5963 -5817 -5890 0
5963 -5817 5890 0
5963 5817 -5890 0
5958 5959 5960 5961 5962 5963 0
5884 5957 0
-5964 37 43 0
-5964 -37 -43 0
5964 -37 43 0
5964 37 -43 0
-5965 38 44 0
-5965 -38 -44 0
5965 -38 44 0
5965 38 -44 0
-5966 39 45 0
-5966 -39 -45 0
5966 -39 45 0
5966 39 -45 0
-5967 40 46 0
-5967 -40 -46 0
5967 -40 46 0
5967 40 -46 0
-5968 41 47 0
-5968 -41 -47 0
5968 -41 47 0
5968 41 -47 0
-5969 42 48 0
-5969 -42 -48 0
5969 -42 48 0
5969 42 -48 0
-5970 109 115 0
-5970 -109 -115 0
5970 -109 115 0
5970 109 -115 0
-5971 5970 73 0
-5971 -5970 -73 0
5971 -5970 73 0
5971 5970 -73 0
-5972 110 116 0
-5972 -110 -116 0
5972 -110 116 0
5972 110 -116 0
-5973 -5972 74 0
-5973 5972 -74 0
5973 5972 74 0
5973 -5972 -74 0
-5974 111 117 0
-5974 -111 -117 0
5974 -111 117 0
5974 111 -117 0
-5975 -5974 75 0
-5975 5974 -75 0
5975 5974 75 0
5975 -5974 -75 0
-5976 112 118 0
-5976 -112 -118 0
5976 -112 118 0
5976 112 -118 0
-5977 5976 76 0
-5977 -5976 -76 0
5977 -5976 76 0
5977 5976 -76 0
-5978 -113 119 0
-5978 113 -119 0
5978 113 119 0
5978 -113 -119 0
-5979 5978 77 0
-5979 -5978 -77 0
5979 -5978 77 0
5979 5978 -77 0
-5980 114 120 0
-5980 -114 -120 0
5980 -114 120 0
5980 114 -120 0
-5981 5980 78 0
-5981 -5980 -78 0
5981 -5980 78 0
5981 5980 -78 0
5982 5983 5984 5985 5986 5987 0
-5988 5983 5984 0
-5988 -5983 -5984 0
5988 -5983 5984 0
5988 5983 -5984 0
-5988 0
-5989 5982 0
-5989 5964 0
5989 -5982 -5964 0
-5990 5983 0
-5990 5965 0
5990 -5983 -5965 0
-5991 5984 0
-5991 5966 0
5991 -5984 -5966 0
-5992 5985 0
-5992 5967 0
5992 -5985 -5967 0
-5993 5986 0
-5993 5968 0
5993 -5986 -5968 0
-5994 5987 0
-5994 5969 0
5994 -5987 -5969 0
-5995 5989 5990 0
-5995 -5989 -5990 0
5995 -5989 5990 0
5995 5989 -5990 0
-5996 5995 5991 0
-5996 -5995 -5991 0
5996 -5995 5991 0
5996 5995 -5991 0
-5997 5996 5992 0
-5997 -5996 -5992 0
5997 -5996 5992 0
5997 5996 -5992 0
-5998 5997 5993 0
-5998 -5997 -5993 0
5998 -5997 5993 0
5998 5997 -5993 0
-5999 5998 5994 0
-5999 -5998 -5994 0
5999 -5998 5994 0
5999 5998 -5994 0
-5999 0
-6000 5982 0
-6000 -61 0
6000 -5982 61 0
-6001 5983 0
-6001 62 0
6001 -5983 -62 0
-6002 5984 0
-6002 63 0
6002 -5984 -63 0
-6003 5985 0
-6003 64 0
6003 -5985 -64 0
-6004 5986 0
-6004 65 0
6004 -5986 -65 0
-6005 5987 0
-6005 66 0
6005 -5987 -66 0
-6006 6000 6001 0
-6006 -6000 -6001 0
6006 -6000 6001 0
6006 6000 -6001 0
-6007 6006 6002 0
-6007 -6006 -6002 0
6007 -6006 6002 0
6007 6006 -6002 0
-6008 6007 6003 0
-6008 -6007 -6003 0
6008 -6007 6003 0
6008 6007 -6003 0
-6009 6008 6004 0
-6009 -6008 -6004 0
6009 -6008 6004 0
6009 6008 -6004 0
-6010 6009 6005 0
-6010 -6009 -6005 0
6010 -6009 6005 0
6010 6009 -6005 0
-6010 0
-6011 5982 0
-6011 73 0
6011 -5982 -73 0
-6012 5983 0
-6012 -74 0
6012 -5983 74 0
-6013 5984 0
-6013 75 0
6013 -5984 -75 0
-6014 5985 0
-6014 76 0
6014 -5985 -76 0
-6015 5986 0
-6015 77 0
6015 -5986 -77 0
-6016 5987 0
-6016 78 0
6016 -5987 -78 0
-6017 6011 6012 0
-6017 -6011 -6012 0
6017 -6011 6012 0
6017 6011 -6012 0
-6018 6017 6013 0
-6018 -6017 -6013 0
6018 -6017 6013 0
6018 6017 -6013 0
-6019 6018 6014 0
-6019 -6018 -6014 0
6019 -6018 6014 0
6019 6018 -6014 0
-6020 6019 6015 0
-6020 -6019 -6015 0
6020 -6019 6015 0
6020 6019 -6015 0
-6021 6020 6016 0
-6021 -6020 -6016 0
6021 -6020 6016 0
6021 6020 -6016 0
-6021 0
-6022 5982 0
-6022 73 0
6022 -5982 -73 0
-6023 5983 0
-6023 74 0
6023 -5983 -74 0
-6024 5984 0
-6024 -75 0
6024 -5984 75 0
-6025 5985 0
-6025 76 0
6025 -5985 -76 0
-6026 5986 0
-6026 77 0
6026 -5986 -77 0
-6027 5987 0
-6027 78 0
6027 -5987 -78 0
-6028 6022 6023 0
-6028 -6022 -6023 0
6028 -6022 6023 0
6028 6022 -6023 0
-6029 6028 6024 0
-6029 -6028 -6024 0
6029 -6028 6024 0
6029 6028 -6024 0
-6030 6029 6025 0
-6030 -6029 -6025 0
6030 -6029 6025 0
6030 6029 -6025 0
-6031 6030 6026 0
-6031 -6030 -6026 0
6031 -6030 6026 0
6031 6030 -6026 0
-6032 6031 6027 0
-6032 -6031 -6027 0
6032 -6031 6027 0
6032 6031 -6027 0
-6032 0
-6033 5982 0
-6033 79 0
6033 -5982 -79 0
-6034 5983 0
-6034 80 0
6034 -5983 -80 0
-6035 5984 0
-6035 81 0
6035 -5984 -81 0
-6036 5985 0
-6036 -82 0
6036 -5985 82 0
-6037 5986 0
-6037 83 0
6037 -5986 -83 0
-6038 5987 0
-6038 84 0
6038 -5987 -84 0
-6039 6033 6034 0
-6039 -6033 -6034 0
6039 -6033 6034 0
6039 6033 -6034 0
-6040 6039 6035 0
-6040 -6039 -6035 0
6040 -6039 6035 0
6040 6039 -6035 0
-6041 6040 6036 0
-6041 -6040 -6036 0
6041 -6040 6036 0
6041 6040 -6036 0
-6042 6041 6037 0
-6042 -6041 -6037 0
6042 -6041 6037 0
6042 6041 -6037 0
-6043 6042 6038 0
-6043 -6042 -6038 0
6043 -6042 6038 0
6043 6042 -6038 0
-6043 0
-6044 5982 0
-6044 5971 0
6044 -5982 -5971 0
-6045 5983 0
-6045 5973 0
6045 -5983 -5973 0
-6046 5984 0
-6046 5975 0
6046 -5984 -5975 0
-6047 5985 0
-6047 5977 0
6047 -5985 -5977 0
-6048 5986 0
-6048 5979 0
6048 -5986 -5979 0
-6049 5987 0
-6049 5981 0
6049 -5987 -5981 0
-6050 6044 6045 0
-6050 -6044 -6045 0
6050 -6044 6045 0
6050 6044 -6045 0
-6051 6050 6046 0
-6051 -6050 -6046 0
6051 -6050 6046 0
6051 6050 -6046 0
-6052 6051 6047 0
-6052 -6051 -6047 0
6052 -6051 6047 0
6052 6051 -6047 0
-6053 6052 6048 0
-6053 -6052 -6048 0
6053 -6052 6048 0
6053 6052 -6048 0
-6054 6053 6049 0
-6054 -6053 -6049 0
6054 -6053 6049 0
6054 6053 -6049 0
6055 6056 6057 6058 6059 6060 0
-6061 6056 6057 0
-6061 -6056 -6057 0
6061 -6056 6057 0
6061 6056 -6057 0
-6061 0
-6062 6055 0
-6062 5964 0
6062 -6055 -5964 0
-6063 6056 0
-6063 5965 0
6063 -6056 -5965 0
-6064 6057 0
-6064 5966 0
6064 -6057 -5966 0
-6065 6058 0
-6065 5967 0
6065 -6058 -5967 0
-6066 6059 0
-6066 5968 0
6066 -6059 -5968 0
-6067 6060 0
-6067 5969 0
6067 -6060 -5969 0
-6068 6062 6063 0
-6068 -6062 -6063 0
6068 -6062 6063 0
6068 6062 -6063 0
-6069 6068 6064 0
-6069 -6068 -6064 0
6069 -6068 6064 0
6069 6068 -6064 0
-6070 6069 6065 0
-6070 -6069 -6065 0
6070 -6069 6065 0
6070 6069 -6065 0
-6071 6070 6066 0
-6071 -6070 -6066 0
6071 -6070 6066 0
6071 6070 -6066 0
-6072 6071 6067 0
-6072 -6071 -6067 0
6072 -6071 6067 0
6072 6071 -6067 0
-6072 0
-6073 6055 0
-6073 -61 0
6073 -6055 61 0
-6074 6056 0
-6074 62 0
6074 -6056 -62 0
-6075 6057 0
-6075 63 0
6075 -6057 -63 0
-6076 6058 0
-6076 64 0
6076 -6058 -64 0
-6077 6059 0
-6077 65 0
6077 -6059 -65 0
-6078 6060 0
-6078 66 0
6078 -6060 -66 0
-6079 6073 6074 0
-6079 -6073 -6074 0
6079 -6073 6074 0
6079 6073 -6074 0
-6080 6079 6075 0
-6080 -6079 -6075 0
6080 -6079 6075 0
6080 6079 -6075 0
-6081 6080 6076 0
-6081 -6080 -6076 0
6081 -6080 6076 0
6081 6080 -6076 0
-6082 6081 6077 0
-6082 -6081 -6077 0
6082 -6081 6077 0
6082 6081 -6077 0
-6083 6082 6078 0
-6083 -6082 -6078 0
6083 -6082 6078 0
6083 6082 -6078 0
-6083 0
-6084 6055 0
-6084 73 0
6084 -6055 -73 0
-6085 6056 0
-6085 -74 0
6085 -6056 74 0
-6086 6057 0
-6086 75 0
6086 -6057 -75 0
-6087 6058 0
-6087 76 0
6087 -6058 -76 0
-6088 6059 0
-6088 77 0
6088 -6059 -77 0
-6089 6060 0
-6089 78 0
6089 -6060 -78 0
-6090 6084 6085 0
-6090 -6084 -6085 0
6090 -6084 6085 0
6090 6084 -6085 0
-6091 6090 6086 0
-6091 -6090 -6086 0
6091 -6090 6086 0
6091 6090 -6086 0
-6092 6091 6087 0
-6092 -6091 -6087 0
6092 -6091 6087 0
6092 6091 -6087 0
-6093 6092 6088 0
-6093 -6092 -6088 0
6093 -6092 6088 0
6093 6092 -6088 0
-6094 6093 6089 0
-6094 -6093 -6089 0
6094 -6093 6089 0
6094 6093 -6089 0
-6094 0
-6095 6055 0
-6095 73 0
6095 -6055 -73 0
-6096 6056 0
-6096 74 0
6096 -6056 -74 0
-6097 6057 0
-6097 -75 0
6097 -6057 75 0
-6098 6058 0
-6098 76 0
6098 -6058 -76 0
-6099 6059 0
-6099 77 0
6099 -6059 -77 0
-6100 6060 0
-6100 78 0
6100 -6060 -78 0
-6101 6095 6096 0
-6101 -6095 -6096 0
6101 -6095 6096 0
6101 6095 -6096 0
-6102 6101 6097 0
-6102 -6101 -6097 0
6102 -6101 6097 0
6102 6101 -6097 0
-6103 6102 6098 0
-6103 -6102 -6098 0
6103 -6102 6098 0
6103 6102 -6098 0
-6104 6103 6099 0
-6104 -6103 -6099 0
6104 -6103 6099 0
6104 6103 -6099 0
-6105 6104 6100 0
-6105 -6104 -6100 0
6105 -6104 6100 0
6105 6104 -6100 0
-6105 0
-6106 6055 0
-6106 79 0
6106 -6055 -79 0
-6107 6056 0
-6107 80 0
6107 -6056 -80 0
-6108 6057 0
-6108 81 0
6108 -6057 -81 0
-6109 6058 0
-6109 -82 0
6109 -6058 82 0
-6110 6059 0
-6110 83 0
6110 -6059 -83 0
-6111 6060 0
-6111 84 0
6111 -6060 -84 0
-6112 6106 6107 0
-6112 -6106 -6107 0
6112 -6106 6107 0
6112 6106 -6107 0
-6113 6112 6108 0
-6113 -6112 -6108 0
6113 -6112 6108 0
6113 6112 -6108 0
-6114 6113 6109 0
-6114 -6113 -6109 0
6114 -6113 6109 0
6114 6113 -6109 0
-6115 6114 6110 0
-6115 -6114 -6110 0
6115 -6114 6110 0
6115 6114 -6110 0
-6116 6115 6111 0
-6116 -6115 -6111 0
6116 -6115 6111 0
6116 6115 -6111 0
-6116 0
-6117 6055 0
-6117 5971 0
6117 -6055 -5971 0
-6118 6056 0
-6118 5973 0
6118 -6056 -5973 0
-6119 6057 0
-6119 5975 0
6119 -6057 -5975 0
-6120 6058 0
-6120 5977 0
6120 -6058 -5977 0
-6121 6059 0
-6121 5979 0
6121 -6059 -5979 0
-6122 6060 0
-6122 5981 0
6122 -6060 -5981 0
-6123 6117 6118 0
-6123 -6117 -6118 0
6123 -6117 6118 0
6123 6117 -6118 0
-6124 6123 6119 0
-6124 -6123 -6119 0
6124 -6123 6119 0
6124 6123 -6119 0
-6125 6124 6120 0
-6125 -6124 -6120 0
6125 -6124 6120 0
6125 6124 -6120 0
-6126 6125 6121 0
-6126 -6125 -6121 0
6126 -6125 6121 0
6126 6125 -6121 0
-6127 6126 6122 0
-6127 -6126 -6122 0
6127 -6126 6122 0
6127 6126 -6122 0
-6128 5982 6055 0
-6128 -5982 -6055 0
6128 -5982 6055 0
6128 5982 -6055 0
-6129 5983 6056 0
-6129 -5983 -6056 0
6129 -5983 6056 0
6129 5983 -6056 0
-6130 5984 6057 0
-6130 -5984 -6057 0
6130 -5984 6057 0
6130 5984 -6057 0
-6131 5985 6058 0
-6131 -5985 -6058 0
6131 -5985 6058 0
6131 5985 -6058 0
-6132 5986 6059 0
-6132 -5986 -6059 0
6132 -5986 6059 0
6132 5986 -6059 0
-6133 5987 6060 0
-6133 -5987 -6060 0
6133 -5987 6060 0
6133 5987 -6060 0
6128 6129 6130 6131 6132 6133 0
6054 6127 0
-6134 37 43 0
-6134 -37 -43 0
6134 -37 43 0
6134 37 -43 0
-6135 31 61 0
-6135 -31 -61 0
6135 -31 61 0
6135 31 -61 0
-6136 37 73 0
-6136 -37 -73 0
6136 -37 73 0
6136 37 -73 0
-6137 43 73 0
-6137 -43 -73 0
6137 -43 73 0
6137 43 -73 0
-6138 49 79 0
-6138 -49 -79 0
6138 -49 79 0
6138 49 -79 0
-6139 38 44 0
-6139 -38 -44 0
6139 -38 44 0
6139 38 -44 0
-6140 32 62 0
-6140 -32 -62 0
6140 -32 62 0
6140 32 -62 0
-6141 38 74 0
-6141 -38 -74 0
6141 -38 74 0
6141 38 -74 0
-6142 44 74 0
-6142 -44 -74 0
6142 -44 74 0
6142 44 -74 0
-6143 50 80 0
-6143 -50 -80 0
6143 -50 80 0
6143 50 -80 0
-6144 39 45 0
-6144 -39 -45 0
6144 -39 45 0
6144 39 -45 0
-6145 33 63 0
-6145 -33 -63 0
6145 -33 63 0
6145 33 -63 0
-6146 39 75 0
-6146 -39 -75 0
6146 -39 75 0
6146 39 -75 0
-6147 45 75 0
-6147 -45 -75 0
6147 -45 75 0
6147 45 -75 0
-6148 51 81 0
-6148 -51 -81 0
6148 -51 81 0
6148 51 -81 0
-6149 40 46 0
-6149 -40 -46 0
6149 -40 46 0
6149 40 -46 0
-6150 34 64 0
-6150 -34 -64 0
6150 -34 64 0
6150 34 -64 0
-6151 40 76 0
-6151 -40 -76 0
6151 -40 76 0
6151 40 -76 0
-6152 46 76 0
-6152 -46 -76 0
6152 -46 76 0
6152 46 -76 0
-6153 52 82 0
-6153 -52 -82 0
6153 -52 82 0
6153 52 -82 0
-6154 41 47 0
-6154 -41 -47 0
6154 -41 47 0
6154 41 -47 0
-6155 35 65 0
-6155 -35 -65 0
6155 -35 65 0
6155 35 -65 0
-6156 41 77 0
-6156 -41 -77 0
6156 -41 77 0
6156 41 -77 0
-6157 47 77 0
-6157 -47 -77 0
6157 -47 77 0
6157 47 -77 0
-6158 53 83 0
-6158 -53 -83 0
6158 -53 83 0
6158 53 -83 0
-6159 42 48 0
-6159 -42 -48 0
6159 -42 48 0
6159 42 -48 0
-6160 36 66 0
-6160 -36 -66 0
6160 -36 66 0
6160 36 -66 0
-6161 42 78 0
-6161 -42 -78 0
6161 -42 78 0
6161 42 -78 0
-6162 48 78 0
-6162 -48 -78 0
6162 -48 78 0
6162 48 -78 0
-6163 54 84 0
-6163 -54 -84 0
6163 -54 84 0
6163 54 -84 0
-6164 97 109 0
-6164 -97 -109 0
6164 -97 109 0
6164 97 -109 0
-6165 6164 115 0
-6165 -6164 -115 0
6165 -6164 115 0
6165 6164 -115 0
-6166 6165 37 0
-6166 -6165 -37 0
6166 -6165 37 0
6166 6165 -37 0
-6167 6166 43 0
-6167 -6166 -43 0
6167 -6166 43 0
6167 6166 -43 0
-6168 6167 73 0
-6168 -6167 -73 0
6168 -6167 73 0
6168 6167 -73 0
-6169 98 110 0
-6169 -98 -110 0
6169 -98 110 0
6169 98 -110 0
-6170 6169 116 0
-6170 -6169 -116 0
6170 -6169 116 0
6170 6169 -116 0
-6171 6170 38 0
-6171 -6170 -38 0
6171 -6170 38 0
6171 6170 -38 0
-6172 6171 44 0
-6172 -6171 -44 0
6172 -6171 44 0
6172 6171 -44 0
-6173 6172 74 0
-6173 -6172 -74 0
6173 -6172 74 0
6173 6172 -74 0
-6174 99 111 0
-6174 -99 -111 0
6174 -99 111 0
6174 99 -111 0
-6175 6174 117 0
-6175 -6174 -117 0
6175 -6174 117 0
6175 6174 -117 0
-6176 6175 39 0
-6176 -6175 -39 0
6176 -6175 39 0
6176 6175 -39 0
-6177 6176 45 0
-6177 -6176 -45 0
6177 -6176 45 0
6177 6176 -45 0
-6178 6177 75 0
-6178 -6177 -75 0
6178 -6177 75 0
6178 6177 -75 0
-6179 100 112 0
-6179 -100 -112 0
6179 -100 112 0
6179 100 -112 0
-6180 6179 118 0
-6180 -6179 -118 0
6180 -6179 118 0
6180 6179 -118 0
-6181 6180 40 0
-6181 -6180 -40 0
6181 -6180 40 0
6181 6180 -40 0
-6182 6181 46 0
-6182 -6181 -46 0
6182 -6181 46 0
6182 6181 -46 0
-6183 6182 76 0
-6183 -6182 -76 0
6183 -6182 76 0
6183 6182 -76 0
-6184 113 119 0
-6184 -113 -119 0
6184 -113 119 0
6184 113 -119 0
-6185 6184 41 0
-6185 -6184 -41 0
6185 -6184 41 0
6185 6184 -41 0
-6186 6185 47 0
-6186 -6185 -47 0
6186 -6185 47 0
6186 6185 -47 0
-6187 6186 77 0
-6187 -6186 -77 0
6187 -6186 77 0
6187 6186 -77 0
-6188 102 114 0
-6188 -102 -114 0
6188 -102 114 0
6188 102 -114 0
-6189 6188 120 0
-6189 -6188 -120 0
6189 -6188 120 0
6189 6188 -120 0
-6190 6189 42 0
-6190 -6189 -42 0
6190 -6189 42 0
6190 6189 -42 0
-6191 6190 48 0
-6191 -6190 -48 0
6191 -6190 48 0
6191 6190 -48 0
-6192 6191 78 0
-6192 -6191 -78 0
6192 -6191 78 0
6192 6191 -78 0
6193 6194 6195 6196 6197 6198 0
-6199 6194 6195 0
-6199 -6194 -6195 0
6199 -6194 6195 0
6199 6194 -6195 0
-6199 0
-6200 6193 0
-6200 6134 0
6200 -6193 -6134 0
-6201 6194 0
-6201 6139 0
6201 -6194 -6139 0
-6202 6195 0
-6202 6144 0
6202 -6195 -6144 0
-6203 6196 0
-6203 6149 0
6203 -6196 -6149 0
-6204 6197 0
-6204 6154 0
6204 -6197 -6154 0
-6205 6198 0
-6205 6159 0
6205 -6198 -6159 0
-6206 6200 6201 0
-6206 -6200 -6201 0
6206 -6200 6201 0
6206 6200 -6201 0
-6207 6206 6202 0
-6207 -6206 -6202 0
6207 -6206 6202 0
6207 6206 -6202 0
-6208 6207 6203 0
-6208 -6207 -6203 0
6208 -6207 6203 0
6208 6207 -6203 0
-6209 6208 6204 0
-6209 -6208 -6204 0
6209 -6208 6204 0
6209 6208 -6204 0
-6210 6209 6205 0
-6210 -6209 -6205 0
6210 -6209 6205 0
6210 6209 -6205 0
-6210 0
-6211 6193 0
-6211 6135 0
6211 -6193 -6135 0
-6212 6194 0
-6212 6140 0
6212 -6194 -6140 0
-6213 6195 0
-6213 6145 0
6213 -6195 -6145 0
-6214 6196 0
-6214 6150 0
6214 -6196 -6150 0
-6215 6197 0
-6215 6155 0
6215 -6197 -6155 0
-6216 6198 0
-6216 6160 0
6216 -6198 -6160 0
-6217 6211 6212 0
-6217 -6211 -6212 0
6217 -6211 6212 0
6217 6211 -6212 0
-6218 6217 6213 0
-6218 -6217 -6213 0
6218 -6217 6213 0
6218 6217 -6213 0
-6219 6218 6214 0
-6219 -6218 -6214 0
6219 -6218 6214 0
6219 6218 -6214 0
-6220 6219 6215 0
-6220 -6219 -6215 0
6220 -6219 6215 0
6220 6219 -6215 0
-6221 6220 6216 0
-6221 -6220 -6216 0
6221 -6220 6216 0
6221 6220 -6216 0
-6221 0
-6222 6193 0
-6222 6136 0
6222 -6193 -6136 0
-6223 6194 0
-6223 6141 0
6223 -6194 -6141 0
-6224 6195 0
-6224 6146 0
6224 -6195 -6146 0
-6225 6196 0
-6225 6151 0
6225 -6196 -6151 0
-6226 6197 0
-6226 6156 0
6226 -6197 -6156 0
-6227 6198 0
-6227 6161 0
6227 -6198 -6161 0
-6228 6222 6223 0
-6228 -6222 -6223 0
6228 -6222 6223 0
6228 6222 -6223 0
-6229 6228 6224 0
-6229 -6228 -6224 0
6229 -6228 6224 0
6229 6228 -6224 0
-6230 6229 6225 0
-6230 -6229 -6225 0
6230 -6229 6225 0
6230 6229 -6225 0
-6231 6230 6226 0
-6231 -6230 -6226 0
6231 -6230 6226 0
6231 6230 -6226 0
-6232 6231 6227 0
-6232 -6231 -6227 0
6232 -6231 6227 0
6232 6231 -6227 0
-6232 0
-6233 6193 0
-6233 6137 0
6233 -6193 -6137 0
-6234 6194 0
-6234 6142 0
6234 -6194 -6142 0
-6235 6195 0
-6235 6147 0
6235 -6195 -6147 0
-6236 6196 0
-6236 6152 0
6236 -6196 -6152 0
-6237 6197 0
-6237 6157 0
6237 -6197 -6157 0
-6238 6198 0
-6238 6162 0
6238 -6198 -6162 0
-6239 6233 6234 0
-6239 -6233 -6234 0
6239 -6233 6234 0
6239 6233 -6234 0
-6240 6239 6235 0
-6240 -6239 -6235 0
6240 -6239 6235 0
6240 6239 -6235 0
-6241 6240 6236 0
-6241 -6240 -6236 0
6241 -6240 6236 0
6241 6240 -6236 0
-6242 6241 6237 0
-6242 -6241 -6237 0
6242 -6241 6237 0
6242 6241 -6237 0
-6243 6242 6238 0
-6243 -6242 -6238 0
6243 -6242 6238 0
6243 6242 -6238 0
-6243 0
-6244 6193 0
-6244 6138 0
6244 -6193 -6138 0
-6245 6194 0
-6245 6143 0
6245 -6194 -6143 0
-6246 6195 0
-6246 6148 0
6246 -6195 -6148 0
-6247 6196 0
-6247 6153 0
6247 -6196 -6153 0
-6248 6197 0
-6248 6158 0
6248 -6197 -6158 0
-6249 6198 0
-6249 6163 0
6249 -6198 -6163 0
-6250 6244 6245 0
-6250 -6244 -6245 0
6250 -6244 6245 0
6250 6244 -6245 0
-6251 6250 6246 0
-6251 -6250 -6246 0
6251 -6250 6246 0
6251 6250 -6246 0
-6252 6251 6247 0
-6252 -6251 -6247 0
6252 -6251 6247 0
6252 6251 -6247 0
-6253 6252 6248 0
-6253 -6252 -6248 0
6253 -6252 6248 0
6253 6252 -6248 0
-6254 6253 6249 0
-6254 -6253 -6249 0
6254 -6253 6249 0
6254 6253 -6249 0
-6254 0
-6255 6193 0
-6255 6168 0
6255 -6193 -6168 0
-6256 6194 0
-6256 6173 0
6256 -6194 -6173 0
-6257 6195 0
-6257 6178 0
6257 -6195 -6178 0
-6258 6196 0
-6258 6183 0
6258 -6196 -6183 0
-6259 6197 0
-6259 6187 0
6259 -6197 -6187 0
-6260 6198 0
-6260 6192 0
6260 -6198 -6192 0
-6261 6255 6256 0
-6261 -6255 -6256 0
6261 -6255 6256 0
6261 6255 -6256 0
-6262 6261 6257 0
-6262 -6261 -6257 0
6262 -6261 6257 0
6262 6261 -6257 0
-6263 6262 6258 0
-6263 -6262 -6258 0
6263 -6262 6258 0
6263 6262 -6258 0
-6264 6263 6259 0
-6264 -6263 -6259 0
6264 -6263 6259 0
6264 6263 -6259 0
-6265 6264 6260 0
-6265 -6264 -6260 0
6265 -6264 6260 0
6265 6264 -6260 0
6266 6267 6268 6269 6270 6271 0
-6272 6267 6268 0
-6272 -6267 -6268 0
6272 -6267 6268 0
6272 6267 -6268 0
-6272 0
-6273 6266 0
-6273 6134 0
6273 -6266 -6134 0
-6274 6267 0
-6274 6139 0
6274 -6267 -6139 0
-6275 6268 0
-6275 6144 0
6275 -6268 -6144 0
-6276 6269 0
-6276 6149 0
6276 -6269 -6149 0
-6277 6270 0
-6277 6154 0
6277 -6270 -6154 0
-6278 6271 0
-6278 6159 0
6278 -6271 -6159 0
-6279 6273 6274 0
-6279 -6273 -6274 0
6279 -6273 6274 0
6279 6273 -6274 0
-6280 6279 6275 0
-6280 -6279 -6275 0
6280 -6279 6275 0
6280 6279 -6275 0
-6281 6280 6276 0
-6281 -6280 -6276 0
6281 -6280 6276 0
6281 6280 -6276 0
-6282 6281 6277 0
-6282 -6281 -6277 0
6282 -6281 6277 0
6282 6281 -6277 0
-6283 6282 6278 0
-6283 -6282 -6278 0
6283 -6282 6278 0
6283 6282 -6278 0
-6283 0
-6284 6266 0
-6284 6135 0
6284 -6266 -6135 0
-6285 6267 0
-6285 6140 0
6285 -6267 -6140 0
-6286 6268 0
-6286 6145 0
6286 -6268 -6145 0
-6287 6269 0
-6287 6150 0
6287 -6269 -6150 0
-6288 6270 0
-6288 6155 0
6288 -6270 -6155 0
-6289 6271 0
-6289 6160 0
6289 -6271 -6160 0
-6290 6284 6285 0
-6290 -6284 -6285 0
6290 -6284 6285 0
6290 6284 -6285 0
-6291 6290 6286 0
-6291 -6290 -6286 0
6291 -6290 6286 0
6291 6290 -6286 0
-6292 6291 6287 0
-6292 -6291 -6287 0
6292 -6291 6287 0
6292 6291 -6287 0
-6293 6292 6288 0
-6293 -6292 -6288 0
6293 -6292 6288 0
6293 6292 -6288 0
-6294 6293 6289 0
-6294 -6293 -6289 0
6294 -6293 6289 0
6294 6293 -6289 0
-6294 0
-6295 6266 0
-6295 6136 0
6295 -6266 -6136 0
-6296 6267 0
-6296 6141 0
6296 -6267 -6141 0
-6297 6268 0
-6297 6146 0
6297 -6268 -6146 0
-6298 6269 0
-6298 6151 0
6298 -6269 -6151 0
-6299 6270 0
-6299 6156 0
6299 -6270 -6156 0
-6300 6271 0
-6300 6161 0
6300 -6271 -6161 0
-6301 6295 6296 0
-6301 -6295 -6296 0
6301 -6295 6296 0
6301 6295 -6296 0
-6302 6301 6297 0
-6302 -6301 -6297 0
6302 -6301 6297 0
6302 6301 -6297 0
-6303 6302 6298 0
-6303 -6302 -6298 0
6303 -6302 6298 0
6303 6302 -6298 0
-6304 6303 6299 0
-6304 -6303 -6299 0
6304 -6303 6299 0
6304 6303 -6299 0
-6305 6304 6300 0
-6305 -6304 -6300 0
6305 -6304 6300 0
6305 6304 -6300 0
-6305 0
-6306 6266 0
-6306 6137 0
6306 -6266 -6137 0
-6307 6267 0
-6307 6142 0
6307 -6267 -6142 0
-6308 6268 0
-6308 6147 0
6308 -6268 -6147 0
-6309 6269 0
-6309 6152 0
6309 -6269 -6152 0
-6310 6270 0
-6310 6157 0
6310 -6270 -6157 0
-6311 6271 0
-6311 6162 0
6311 -6271 -6162 0
-6312 6306 6307 0
-6312 -6306 -6307 0
6312 -6306 6307 0
6312 6306 -6307 0
-6313 6312 6308 0
-6313 -6312 -6308 0
6313 -6312 6308 0
6313 6312 -6308 0
-6314 6313 6309 0
-6314 -6313 -6309 0
6314 -6313 6309 0
6314 6313 -6309 0
-6315 6314 6310 0
-6315 -6314 -6310 0
6315 -6314 6310 0
6315 6314 -6310 0
-6316 6315 6311 0
-6316 -6315 -6311 0
6316 -6315 6311 0
6316 6315 -6311 0
-6316 0
-6317 6266 0
-6317 6138 0
6317 -6266 -6138 0
-6318 6267 0
-6318 6143 0
6318 -6267 -6143 0
-6319 6268 0
-6319 6148 0
6319 -6268 -6148 0
-6320 6269 0
-6320 6153 0
6320 -6269 -6153 0
-6321 6270 0
-6321 6158 0
6321 -6270 -6158 0
-6322 6271 0
-6322 6163 0
6322 -6271 -6163 0
-6323 6317 6318 0
-6323 -6317 -6318 0
6323 -6317 6318 0
6323 6317 -6318 0
-6324 6323 6319 0
-6324 -6323 -6319 0
6324 -6323 6319 0
6324 6323 -6319 0
-6325 6324 6320 0
-6325 -6324 -6320 0
6325 -6324 6320 0
6325 6324 -6320 0
-6326 6325 6321 0
-6326 -6325 -6321 0
6326 -6325 6321 0
6326 6325 -6321 0
-6327 6326 6322 0
-6327 -6326 -6322 0
6327 -6326 6322 0
6327 6326 -6322 0
-6327 0
-6328 6266 0
-6328 6168 0
6328 -6266 -6168 0
-6329 6267 0
-6329 6173 0
6329 -6267 -6173 0
-6330 6268 0
-6330 6178 0
6330 -6268 -6178 0
-6331 6269 0
-6331 6183 0
6331 -6269 -6183 0
-6332 6270 0
-6332 6187 0
6332 -6270 -6187 0
-6333 6271 0
-6333 6192 0
6333 -6271 -6192 0
-6334 6328 6329 0
-6334 -6328 -6329 0
6334 -6328 6329 0
6334 6328 -6329 0
-6335 6334 6330 0
-6335 -6334 -6330 0
6335 -6334 6330 0
6335 6334 -6330 0
-6336 6335 6331 0
-6336 -6335 -6331 0
6336 -6335 6331 0
6336 6335 -6331 0
-6337 6336 6332 0
-6337 -6336 -6332 0
6337 -6336 6332 0
6337 6336 -6332 0
-6338 6337 6333 0
-6338 -6337 -6333 0
6338 -6337 6333 0
6338 6337 -6333 0
-6339 6193 6266 0
-6339 -6193 -6266 0
6339 -6193 6266 0
6339 6193 -6266 0
-6340 6194 6267 0
-6340 -6194 -6267 0
6340 -6194 6267 0
6340 6194 -6267 0
-6341 6195 6268 0
-6341 -6195 -6268 0
6341 -6195 6268 0
6341 6195 -6268 0
-6342 6196 6269 0
-6342 -6196 -6269 0
6342 -6196 6269 0
6342 6196 -6269 0
-6343 6197 6270 0
-6343 -6197 -6270 0
6343 -6197 6270 0
6343 6197 -6270 0
-6344 6198 6271 0
-6344 -6198 -6271 0
6344 -6198 6271 0
6344 6198 -6271 0
6339 6340 6341 6342 6343 6344 0
6265 6338 0
-6345 37 43 0
-6345 -37 -43 0
6345 -37 43 0
6345 37 -43 0
-6346 -31 61 0
-6346 31 -61 0
6346 31 61 0
6346 -31 -61 0
-6347 37 73 0
-6347 -37 -73 0
6347 -37 73 0
6347 37 -73 0
-6348 43 73 0
-6348 -43 -73 0
6348 -43 73 0
6348 43 -73 0
-6349 49 79 0
-6349 -49 -79 0
6349 -49 79 0
6349 49 -79 0
-6350 38 44 0
-6350 -38 -44 0
6350 -38 44 0
6350 38 -44 0
-6351 32 62 0
-6351 -32 -62 0
6351 -32 62 0
6351 32 -62 0
-6352 -38 74 0
-6352 38 -74 0
6352 38 74 0
6352 -38 -74 0
-6353 44 74 0
-6353 -44 -74 0
6353 -44 74 0
6353 44 -74 0
-6354 50 80 0
-6354 -50 -80 0
6354 -50 80 0
6354 50 -80 0
-6355 39 45 0
-6355 -39 -45 0
6355 -39 45 0
6355 39 -45 0
-6356 33 63 0
-6356 -33 -63 0
6356 -33 63 0
6356 33 -63 0
-6357 39 75 0
-6357 -39 -75 0
6357 -39 75 0
6357 39 -75 0
-6358 -45 75 0
-6358 45 -75 0
6358 45 75 0
6358 -45 -75 0
-6359 51 81 0
-6359 -51 -81 0
6359 -51 81 0
6359 51 -81 0
-6360 40 46 0
-6360 -40 -46 0
6360 -40 46 0
6360 40 -46 0
-6361 34 64 0
-6361 -34 -64 0
6361 -34 64 0
6361 34 -64 0
-6362 40 76 0
-6362 -40 -76 0
6362 -40 76 0
6362 40 -76 0
-6363 46 76 0
-6363 -46 -76 0
6363 -46 76 0
6363 46 -76 0
-6364 -52 82 0
-6364 52 -82 0
6364 52 82 0
6364 -52 -82 0
-6365 41 47 0
-6365 -41 -47 0
6365 -41 47 0
6365 41 -47 0
-6366 35 65 0
-6366 -35 -65 0
6366 -35 65 0
6366 35 -65 0
-6367 41 77 0
-6367 -41 -77 0
6367 -41 77 0
6367 41 -77 0
-6368 47 77 0
-6368 -47 -77 0
6368 -47 77 0
6368 47 -77 0
-6369 53 83 0
-6369 -53 -83 0
6369 -53 83 0
6369 53 -83 0
-6370 42 48 0
-6370 -42 -48 0
6370 -42 48 0
6370 42 -48 0
-6371 36 66 0
-6371 -36 -66 0
6371 -36 66 0
6371 36 -66 0
-6372 42 78 0
-6372 -42 -78 0
6372 -42 78 0
6372 42 -78 0
-6373 48 78 0
-6373 -48 -78 0
6373 -48 78 0
6373 48 -78 0
-6374 54 84 0
-6374 -54 -84 0
6374 -54 84 0
6374 54 -84 0
-6375 97 109 0
-6375 -97 -109 0
6375 -97 109 0
6375 97 -109 0
-6376 6375 115 0
-6376 -6375 -115 0
6376 -6375 115 0
6376 6375 -115 0
-6377 6376 37 0
-6377 -6376 -37 0
6377 -6376 37 0
6377 6376 -37 0
-6378 6377 43 0
-6378 -6377 -43 0
6378 -6377 43 0
6378 6377 -43 0
-6379 6378 73 0
-6379 -6378 -73 0
6379 -6378 73 0
6379 6378 -73 0
-6380 98 110 0
-6380 -98 -110 0
6380 -98 110 0
6380 98 -110 0
-6381 6380 116 0
-6381 -6380 -116 0
6381 -6380 116 0
6381 6380 -116 0
-6382 -6381 38 0
-6382 6381 -38 0
6382 6381 38 0
6382 -6381 -38 0
-6383 6382 44 0
-6383 -6382 -44 0
6383 -6382 44 0
6383 6382 -44 0
-6384 6383 74 0
-6384 -6383 -74 0
6384 -6383 74 0
6384 6383 -74 0
-6385 99 111 0
-6385 -99 -111 0
6385 -99 111 0
6385 99 -111 0
-6386 6385 117 0
-6386 -6385 -117 0
6386 -6385 117 0
6386 6385 -117 0
-6387 -6386 39 0
-6387 6386 -39 0
6387 6386 39 0
6387 -6386 -39 0
-6388 6387 45 0
-6388 -6387 -45 0
6388 -6387 45 0
6388 6387 -45 0
-6389 6388 75 0
-6389 -6388 -75 0
6389 -6388 75 0
6389 6388 -75 0
-6390 100 112 0
-6390 -100 -112 0
6390 -100 112 0
6390 100 -112 0
-6391 6390 118 0
-6391 -6390 -118 0
6391 -6390 118 0
6391 6390 -118 0
-6392 6391 40 0
-6392 -6391 -40 0
6392 -6391 40 0
6392 6391 -40 0
-6393 6392 46 0
-6393 -6392 -46 0
6393 -6392 46 0
6393 6392 -46 0
-6394 6393 76 0
-6394 -6393 -76 0
6394 -6393 76 0
6394 6393 -76 0
-6395 -113 119 0
-6395 113 -119 0
6395 113 119 0
6395 -113 -119 0
-6396 6395 41 0
-6396 -6395 -41 0
6396 -6395 41 0
6396 6395 -41 0
-6397 6396 47 0
-6397 -6396 -47 0
6397 -6396 47 0
6397 6396 -47 0
-6398 6397 77 0
-6398 -6397 -77 0
6398 -6397 77 0
6398 6397 -77 0
-6399 102 114 0
-6399 -102 -114 0
6399 -102 114 0
6399 102 -114 0
-6400 6399 120 0
-6400 -6399 -120 0
6400 -6399 120 0
6400 6399 -120 0
-6401 6400 42 0
-6401 -6400 -42 0
6401 -6400 42 0
6401 6400 -42 0
-6402 6401 48 0
-6402 -6401 -48 0
6402 -6401 48 0
6402 6401 -48 0
-6403 6402 78 0
-6403 -6402 -78 0
6403 -6402 78 0
6403 6402 -78 0
6404 6405 6406 6407 6408 6409 0
-6410 6405 6406 0
-6410 -6405 -6406 0
6410 -6405 6406 0
6410 6405 -6406 0
-6410 0
-6411 6404 0
-6411 6345 0
6411 -6404 -6345 0
-6412 6405 0
-6412 6350 0
6412 -6405 -6350 0
-6413 6406 0
-6413 6355 0
6413 -6406 -6355 0
-6414 6407 0
-6414 6360 0
6414 -6407 -6360 0
-6415 6408 0
-6415 6365 0
6415 -6408 -6365 0
-6416 6409 0
-6416 6370 0
6416 -6409 -6370 0
-6417 6411 6412 0
-6417 -6411 -6412 0
6417 -6411 6412 0
6417 6411 -6412 0
-6418 6417 6413 0
-6418 -6417 -6413 0
6418 -6417 6413 0
6418 6417 -6413 0
-6419 6418 6414 0
-6419 -6418 -6414 0
6419 -6418 6414 0
6419 6418 -6414 0
-6420 6419 6415 0
-6420 -6419 -6415 0
6420 -6419 6415 0
6420 6419 -6415 0
-6421 6420 6416 0
-6421 -6420 -6416 0
6421 -6420 6416 0
6421 6420 -6416 0
-6421 0
-6422 6404 0
-6422 6346 0
6422 -6404 -6346 0
-6423 6405 0
-6423 6351 0
6423 -6405 -6351 0
-6424 6406 0
-6424 6356 0
6424 -6406 -6356 0
-6425 6407 0
-6425 6361 0
6425 -6407 -6361 0
-6426 6408 0
-6426 6366 0
6426 -6408 -6366 0
-6427 6409 0
-6427 6371 0
6427 -6409 -6371 0
-6428 6422 6423 0
-6428 -6422 -6423 0
6428 -6422 6423 0
6428 6422 -6423 0
-6429 6428 6424 0
-6429 -6428 -6424 0
6429 -6428 6424 0
6429 6428 -6424 0
-6430 6429 6425 0
-6430 -6429 -6425 0
6430 -6429 6425 0
6430 6429 -6425 0
-6431 6430 6426 0
-6431 -6430 -6426 0
6431 -6430 6426 0
6431 6430 -6426 0
-6432 6431 6427 0
-6432 -6431 -6427 0
6432 -6431 6427 0
6432 6431 -6427 0
-6432 0
-6433 6404 0
-6433 6347 0
6433 -6404 -6347 0
-6434 6405 0
-6434 6352 0
6434 -6405 -6352 0
-6435 6406 0
-6435 6357 0
6435 -6406 -6357 0
-6436 6407 0
-6436 6362 0
6436 -6407 -6362 0
-6437 6408 0
-6437 6367 0
6437 -6408 -6367 0
-6438 6409 0
-6438 6372 0
6438 -6409 -6372 0
-6439 6433 6434 0
-6439 -6433 -6434 0
6439 -6433 6434 0
6439 6433 -6434 0
-6440 6439 6435 0
-6440 -6439 -6435 0
6440 -6439 6435 0
6440 6439 -6435 0
-6441 6440 6436 0
-6441 -6440 -6436 0
6441 -6440 6436 0
6441 6440 -6436 0
-6442 6441 6437 0
-6442 -6441 -6437 0
6442 -6441 6437 0
6442 6441 -6437 0
-6443 6442 6438 0
-6443 -6442 -6438 0
6443 -6442 6438 0
6443 6442 -6438 0
-6443 0
-6444 6404 0
-6444 6348 0
6444 -6404 -6348 0
-6445 6405 0
-6445 6353 0
6445 -6405 -6353 0
-6446 6406 0
-6446 6358 0
6446 -6406 -6358 0
-6447 6407 0
-6447 6363 0
6447 -6407 -6363 0
-6448 6408 0
-6448 6368 0
6448 -6408 -6368 0
-6449 6409 0
-6449 6373 0
6449 -6409 -6373 0
-6450 6444 6445 0
-6450 -6444 -6445 0
6450 -6444 6445 0
6450 6444 -6445 0
-6451 6450 6446 0
-6451 -6450 -6446 0
6451 -6450 6446 0
6451 6450 -6446 0
-6452 6451 6447 0
-6452 -6451 -6447 0
6452 -6451 6447 0
6452 6451 -6447 0
-6453 6452 6448 0
-6453 -6452 -6448 0
6453 -6452 6448 0
6453 6452 -6448 0
-6454 6453 6449 0
-6454 -6453 -6449 0
6454 -6453 6449 0
6454 6453 -6449 0
-6454 0
-6455 6404 0
-6455 6349 0
6455 -6404 -6349 0
-6456 6405 0
-6456 6354 0
6456 -6405 -6354 0
-6457 6406 0
-6457 6359 0
6457 -6406 -6359 0
-6458 6407 0
-6458 6364 0
6458 -6407 -6364 0
-6459 6408 0
-6459 6369 0
6459 -6408 -6369 0
-6460 6409 0
-6460 6374 0
6460 -6409 -6374 0
-6461 6455 6456 0
-6461 -6455 -6456 0
6461 -6455 6456 0
6461 6455 -6456 0
-6462 6461 6457 0
-6462 -6461 -6457 0
6462 -6461 6457 0
6462 6461 -6457 0
-6463 6462 6458 0
-6463 -6462 -6458 0
6463 -6462 6458 0
6463 6462 -6458 0
-6464 6463 6459 0
-6464 -6463 -6459 0
6464 -6463 6459 0
6464 6463 -6459 0
-6465 6464 6460 0
-6465 -6464 -6460 0
6465 -6464 6460 0
6465 6464 -6460 0
-6465 0
-6466 6404 0
-6466 6379 0
6466 -6404 -6379 0
-6467 6405 0
-6467 6384 0
6467 -6405 -6384 0
-6468 6406 0
-6468 6389 0
6468 -6406 -6389 0
-6469 6407 0
-6469 6394 0
6469 -6407 -6394 0
-6470 6408 0
-6470 6398 0
6470 -6408 -6398 0
-6471 6409 0
-6471 6403 0
6471 -6409 -6403 0
-6472 6466 6467 0
-6472 -6466 -6467 0
6472 -6466 6467 0
6472 6466 -6467 0
-6473 6472 6468 0
-6473 -6472 -6468 0
6473 -6472 6468 0
6473 6472 -6468 0
-6474 6473 6469 0
-6474 -6473 -6469 0
6474 -6473 6469 0
6474 6473 -6469 0
-6475 6474 6470 0
-6475 -6474 -6470 0
6475 -6474 6470 0
6475 6474 -6470 0
-6476 6475 6471 0
-6476 -6475 -6471 0
6476 -6475 6471 0
6476 6475 -6471 0
6477 6478 6479 6480 6481 6482 0
-6483 6478 6479 0
-6483 -6478 -6479 0
6483 -6478 6479 0
6483 6478 -6479 0
-6483 0
-6484 6477 0
-6484 6345 0
6484 -6477 -6345 0
-6485 6478 0
-6485 6350 0
6485 -6478 -6350 0
-6486 6479 0
-6486 6355 0
6486 -6479 -6355 0
-6487 6480 0
-6487 6360 0
6487 -6480 -6360 0
-6488 6481 0
-6488 6365 0
6488 -6481 -6365 0
-6489 6482 0
-6489 6370 0
6489 -6482 -6370 0
-6490 6484 6485 0
-6490 -6484 -6485 0
6490 -6484 6485 0
6490 6484 -6485 0
-6491 6490 6486 0
-6491 -6490 -6486 0
6491 -6490 6486 0
6491 6490 -6486 0
-6492 6491 6487 0
-6492 -6491 -6487 0
6492 -6491 6487 0
6492 6491 -6487 0
-6493 6492 6488 0
-6493 -6492 -6488 0
6493 -6492 6488 0
6493 6492 -6488 0
-6494 6493 6489 0
-6494 -6493 -6489 0
6494 -6493 6489 0
6494 6493 -6489 0
-6494 0
-6495 6477 0
-6495 6346 0
6495 -6477 -6346 0
-6496 6478 0
-6496 6351 0
6496 -6478 -6351 0
-6497 6479 0
-6497 6356 0
6497 -6479 -6356 0
-6498 6480 0
-6498 6361 0
6498 -6480 -6361 0
-6499 6481 0
-6499 6366 0
6499 -6481 -6366 0
-6500 6482 0
-6500 6371 0
6500 -6482 -6371 0
-6501 6495 6496 0
-6501 -6495 -6496 0
6501 -6495 6496 0
6501 6495 -6496 0
-6502 6501 6497 0
-6502 -6501 -6497 0
6502 -6501 6497 0
6502 6501 -6497 0
-6503 6502 6498 0
-6503 -6502 -6498 0
6503 -6502 6498 0
6503 6502 -6498 0
-6504 6503 6499 0
-6504 -6503 -6499 0
6504 -6503 6499 0
6504 6503 -6499 0
-6505 6504 6500 0
-6505 -6504 -6500 0
6505 -6504 6500 0
6505 6504 -6500 0
-6505 0
-6506 6477 0
-6506 6347 0
6506 -6477 -6347 0
-6507 6478 0
-6507 6352 0
6507 -6478 -6352 0
-6508 6479 0
-6508 6357 0
6508 -6479 -6357 0
-6509 6480 0
-6509 6362 0
6509 -6480 -6362 0
-6510 6481 0
-6510 6367 0
6510 -6481 -6367 0
-6511 6482 0
-6511 6372 0
6511 -6482 -6372 0
-6512 6506 6507 0
-6512 -6506 -6507 0
6512 -6506 6507 0
6512 6506 -6507 0
-6513 6512 6508 0
-6513 -6512 -6508 0
6513 -6512 6508 0
6513 6512 -6508 0
-6514 6513 6509 0
-6514 -6513 -6509 0
6514 -6513 6509 0
6514 6513 -6509 0
-6515 6514 6510 0
-6515 -6514 -6510 0
6515 -6514 6510 0
6515 6514 -6510 0
-6516 6515 6511 0
-6516 -6515 -6511 0
6516 -6515 6511 0
6516 6515 -6511 0
-6516 0
-6517 6477 0
-6517 6348 0
6517 -6477 -6348 0
-6518 6478 0
-6518 6353 0
6518 -6478 -6353 0
-6519 6479 0
-6519 6358 0
6519 -6479 -6358 0
-6520 6480 0
-6520 6363 0
6520 -6480 -6363 0
-6521 6481 0
-6521 6368 0
6521 -6481 -6368 0
-6522 6482 0
-6522 6373 0
6522 -6482 -6373 0
-6523 6517 6518 0
-6523 -6517 -6518 0
6523 -6517 6518 0
6523 6517 -6518 0
-6524 6523 6519 0
-6524 -6523 -6519 0
6524 -6523 6519 0
6524 6523 -6519 0
-6525 6524 6520 0
-6525 -6524 -6520 0
6525 -6524 6520 0
6525 6524 -6520 0
-6526 6525 6521 0
-6526 -6525 -6521 0
6526 -6525 6521 0
6526 6525 -6521 0
-6527 6526 6522 0
-6527 -6526 -6522 0
6527 -6526 6522 0
6527 6526 -6522 0
-6527 0
-6528 6477 0
-6528 6349 0
6528 -6477 -6349 0
-6529 6478 0
-6529 6354 0
6529 -6478 -6354 0
-6530 6479 0
-6530 6359 0
6530 -6479 -6359 0
-6531 6480 0
-6531 6364 0
6531 -6480 -6364 0
-6532 6481 0
-6532 6369 0
6532 -6481 -6369 0
-6533 6482 0
-6533 6374 0
6533 -6482 -6374 0
-6534 6528 6529 0
-6534 -6528 -6529 0
6534 -6528 6529 0
6534 6528 -6529 0
-6535 6534 6530 0
-6535 -6534 -6530 0
6535 -6534 6530 0
6535 6534 -6530 0
-6536 6535 6531 0
-6536 -6535 -6531 0
6536 -6535 6531 0
6536 6535 -6531 0
-6537 6536 6532 0
-6537 -6536 -6532 0
6537 -6536 6532 0
6537 6536 -6532 0
-6538 6537 6533 0
-6538 -6537 -6533 0
6538 -6537 6533 0
6538 6537 -6533 0
-6538 0
-6539 6477 0
-6539 6379 0
6539 -6477 -6379 0
-6540 6478 0
-6540 6384 0
6540 -6478 -6384 0
-6541 6479 0
-6541 6389 0
6541 -6479 -6389 0
-6542 6480 0
-6542 6394 0
6542 -6480 -6394 0
-6543 6481 0
-6543 6398 0
6543 -6481 -6398 0
-6544 6482 0
-6544 6403 0
6544 -6482 -6403 0
-6545 6539 6540 0
-6545 -6539 -6540 0
6545 -6539 6540 0
6545 6539 -6540 0
-6546 6545 6541 0
-6546 -6545 -6541 0
6546 -6545 6541 0
6546 6545 -6541 0
-6547 6546 6542 0
-6547 -6546 -6542 0
6547 -6546 6542 0
6547 6546 -6542 0
-6548 6547 6543 0
-6548 -6547 -6543 0
6548 -6547 6543 0
6548 6547 -6543 0
-6549 6548 6544 0
-6549 -6548 -6544 0
6549 -6548 6544 0
6549 6548 -6544 0
-6550 6404 6477 0
-6550 -6404 -6477 0
6550 -6404 6477 0
6550 6404 -6477 0
-6551 6405 6478 0
-6551 -6405 -6478 0
6551 -6405 6478 0
6551 6405 -6478 0
-6552 6406 6479 0
-6552 -6406 -6479 0
6552 -6406 6479 0
6552 6406 -6479 0
-6553 6407 6480 0
-6553 -6407 -6480 0
6553 -6407 6480 0
6553 6407 -6480 0
-6554 6408 6481 0
-6554 -6408 -6481 0
6554 -6408 6481 0
6554 6408 -6481 0
-6555 6409 6482 0
-6555 -6409 -6482 0
6555 -6409 6482 0
6555 6409 -6482 0
6550 6551 6552 6553 6554 6555 0
6476 6549 0
-6556 31 37 0
-6556 -31 -37 0
6556 -31 37 0
6556 31 -37 0
-6557 6556 43 0
-6557 -6556 -43 0
6557 -6556 43 0
6557 6556 -43 0
-6558 61 73 0
-6558 -61 -73 0
6558 -61 73 0
6558 61 -73 0
-6559 67 79 0
-6559 -67 -79 0
6559 -67 79 0
6559 67 -79 0
-6560 32 38 0
-6560 -32 -38 0
6560 -32 38 0
6560 32 -38 0
-6561 6560 44 0
-6561 -6560 -44 0
6561 -6560 44 0
6561 6560 -44 0
-6562 62 74 0
-6562 -62 -74 0
6562 -62 74 0
6562 62 -74 0
-6563 68 80 0
-6563 -68 -80 0
6563 -68 80 0
6563 68 -80 0
-6564 33 39 0
-6564 -33 -39 0
6564 -33 39 0
6564 33 -39 0
-6565 6564 45 0
-6565 -6564 -45 0
6565 -6564 45 0
6565 6564 -45 0
-6566 63 75 0
-6566 -63 -75 0
6566 -63 75 0
6566 63 -75 0
-6567 69 81 0
-6567 -69 -81 0
6567 -69 81 0
6567 69 -81 0
-6568 34 40 0
-6568 -34 -40 0
6568 -34 40 0
6568 34 -40 0
-6569 6568 46 0
-6569 -6568 -46 0
6569 -6568 46 0
6569 6568 -46 0
-6570 64 76 0
-6570 -64 -76 0
6570 -64 76 0
6570 64 -76 0
-6571 70 82 0
-6571 -70 -82 0
6571 -70 82 0
6571 70 -82 0
-6572 35 41 0
-6572 -35 -41 0
6572 -35 41 0
6572 35 -41 0
-6573 6572 47 0
-6573 -6572 -47 0
6573 -6572 47 0
6573 6572 -47 0
-6574 65 77 0
-6574 -65 -77 0
6574 -65 77 0
6574 65 -77 0
-6575 71 83 0
-6575 -71 -83 0
6575 -71 83 0
6575 71 -83 0
-6576 36 42 0
-6576 -36 -42 0
6576 -36 42 0
6576 36 -42 0
-6577 6576 48 0
-6577 -6576 -48 0
6577 -6576 48 0
6577 6576 -48 0
-6578 66 78 0
-6578 -66 -78 0
6578 -66 78 0
6578 66 -78 0
-6579 72 84 0
-6579 -72 -84 0
6579 -72 84 0
6579 72 -84 0
-6580 103 109 0
-6580 -103 -109 0
6580 -103 109 0
6580 103 -109 0
-6581 6580 115 0
-6581 -6580 -115 0
6581 -6580 115 0
6581 6580 -115 0
-6582 6581 61 0
-6582 -6581 -61 0
6582 -6581 61 0
6582 6581 -61 0
-6583 6582 73 0
-6583 -6582 -73 0
6583 -6582 73 0
6583 6582 -73 0
-6584 104 110 0
-6584 -104 -110 0
6584 -104 110 0
6584 104 -110 0
-6585 6584 116 0
-6585 -6584 -116 0
6585 -6584 116 0
6585 6584 -116 0
-6586 6585 62 0
-6586 -6585 -62 0
6586 -6585 62 0
6586 6585 -62 0
-6587 6586 74 0
-6587 -6586 -74 0
6587 -6586 74 0
6587 6586 -74 0
-6588 105 111 0
-6588 -105 -111 0
6588 -105 111 0
6588 105 -111 0
-6589 6588 117 0
-6589 -6588 -117 0
6589 -6588 117 0
6589 6588 -117 0
-6590 6589 63 0
-6590 -6589 -63 0
6590 -6589 63 0
6590 6589 -63 0
-6591 6590 75 0
-6591 -6590 -75 0
6591 -6590 75 0
6591 6590 -75 0
-6592 106 112 0
-6592 -106 -112 0
6592 -106 112 0
6592 106 -112 0
-6593 6592 118 0
-6593 -6592 -118 0
6593 -6592 118 0
6593 6592 -118 0
-6594 6593 64 0
-6594 -6593 -64 0
6594 -6593 64 0
6594 6593 -64 0
-6595 6594 76 0
-6595 -6594 -76 0
6595 -6594 76 0
6595 6594 -76 0
-6596 107 113 0
-6596 -107 -113 0
6596 -107 113 0
6596 107 -113 0
-6597 6596 119 0
-6597 -6596 -119 0
6597 -6596 119 0
6597 6596 -119 0
-6598 6597 65 0
-6598 -6597 -65 0
6598 -6597 65 0
6598 6597 -65 0
-6599 6598 77 0
-6599 -6598 -77 0
6599 -6598 77 0
6599 6598 -77 0
-6600 108 114 0
-6600 -108 -114 0
6600 -108 114 0
6600 108 -114 0
-6601 6600 120 0
-6601 -6600 -120 0
6601 -6600 120 0
6601 6600 -120 0
-6602 6601 66 0
-6602 -6601 -66 0
6602 -6601 66 0
6602 6601 -66 0
-6603 6602 78 0
-6603 -6602 -78 0
6603 -6602 78 0
6603 6602 -78 0
6604 6605 6606 6607 6608 6609 0
-6610 6604 6605 0
-6610 -6604 -6605 0
6610 -6604 6605 0
6610 6604 -6605 0
-6611 6610 6606 0
-6611 -6610 -6606 0
6611 -6610 6606 0
6611 6610 -6606 0
-6611 0
-6612 6604 0
-6612 6557 0
6612 -6604 -6557 0
-6613 6605 0
-6613 6561 0
6613 -6605 -6561 0
-6614 6606 0
-6614 6565 0
6614 -6606 -6565 0
-6615 6607 0
-6615 6569 0
6615 -6607 -6569 0
-6616 6608 0
-6616 6573 0
6616 -6608 -6573 0
-6617 6609 0
-6617 6577 0
6617 -6609 -6577 0
-6618 6612 6613 0
-6618 -6612 -6613 0
6618 -6612 6613 0
6618 6612 -6613 0
-6619 6618 6614 0
-6619 -6618 -6614 0
6619 -6618 6614 0
6619 6618 -6614 0
-6620 6619 6615 0
-6620 -6619 -6615 0
6620 -6619 6615 0
6620 6619 -6615 0
-6621 6620 6616 0
-6621 -6620 -6616 0
6621 -6620 6616 0
6621 6620 -6616 0
-6622 6621 6617 0
-6622 -6621 -6617 0
6622 -6621 6617 0
6622 6621 -6617 0
-6622 0
-6623 6604 0
-6623 61 0
6623 -6604 -61 0
-6624 6605 0
-6624 62 0
6624 -6605 -62 0
-6625 6606 0
-6625 63 0
6625 -6606 -63 0
-6626 6607 0
-6626 64 0
6626 -6607 -64 0
-6627 6608 0
-6627 65 0
6627 -6608 -65 0
-6628 6609 0
-6628 66 0
6628 -6609 -66 0
-6629 6623 6624 0
-6629 -6623 -6624 0
6629 -6623 6624 0
6629 6623 -6624 0
-6630 6629 6625 0
-6630 -6629 -6625 0
6630 -6629 6625 0
6630 6629 -6625 0
-6631 6630 6626 0
-6631 -6630 -6626 0
6631 -6630 6626 0
6631 6630 -6626 0
-6632 6631 6627 0
-6632 -6631 -6627 0
6632 -6631 6627 0
6632 6631 -6627 0
-6633 6632 6628 0
-6633 -6632 -6628 0
6633 -6632 6628 0
6633 6632 -6628 0
-6633 0
-6634 6604 0
-6634 73 0
6634 -6604 -73 0
-6635 6605 0
-6635 74 0
6635 -6605 -74 0
-6636 6606 0
-6636 75 0
6636 -6606 -75 0
-6637 6607 0
-6637 76 0
6637 -6607 -76 0
-6638 6608 0
-6638 77 0
6638 -6608 -77 0
-6639 6609 0
-6639 78 0
6639 -6609 -78 0
-6640 6634 6635 0
-6640 -6634 -6635 0
6640 -6634 6635 0
6640 6634 -6635 0
-6641 6640 6636 0
-6641 -6640 -6636 0
6641 -6640 6636 0
6641 6640 -6636 0
-6642 6641 6637 0
-6642 -6641 -6637 0
6642 -6641 6637 0
6642 6641 -6637 0
-6643 6642 6638 0
-6643 -6642 -6638 0
6643 -6642 6638 0
6643 6642 -6638 0
-6644 6643 6639 0
-6644 -6643 -6639 0
6644 -6643 6639 0
6644 6643 -6639 0
-6644 0
-6645 6604 0
-6645 6558 0
6645 -6604 -6558 0
-6646 6605 0
-6646 6562 0
6646 -6605 -6562 0
-6647 6606 0
-6647 6566 0
6647 -6606 -6566 0
-6648 6607 0
-6648 6570 0
6648 -6607 -6570 0
-6649 6608 0
-6649 6574 0
6649 -6608 -6574 0
-6650 6609 0
-6650 6578 0
6650 -6609 -6578 0
-6651 6645 6646 0
-6651 -6645 -6646 0
6651 -6645 6646 0
6651 6645 -6646 0
-6652 6651 6647 0
-6652 -6651 -6647 0
6652 -6651 6647 0
6652 6651 -6647 0
-6653 6652 6648 0
-6653 -6652 -6648 0
6653 -6652 6648 0
6653 6652 -6648 0
-6654 6653 6649 0
-6654 -6653 -6649 0
6654 -6653 6649 0
6654 6653 -6649 0
-6655 6654 6650 0
-6655 -6654 -6650 0
6655 -6654 6650 0
6655 6654 -6650 0
-6655 0
-6656 6604 0
-6656 6559 0
6656 -6604 -6559 0
-6657 6605 0
-6657 6563 0
6657 -6605 -6563 0
-6658 6606 0
-6658 6567 0
6658 -6606 -6567 0
-6659 6607 0
-6659 6571 0
6659 -6607 -6571 0
-6660 6608 0
-6660 6575 0
6660 -6608 -6575 0
-6661 6609 0
-6661 6579 0
6661 -6609 -6579 0
-6662 6656 6657 0
-6662 -6656 -6657 0
6662 -6656 6657 0
6662 6656 -6657 0
-6663 6662 6658 0
-6663 -6662 -6658 0
6663 -6662 6658 0
6663 6662 -6658 0
-6664 6663 6659 0
-6664 -6663 -6659 0
6664 -6663 6659 0
6664 6663 -6659 0
-6665 6664 6660 0
-6665 -6664 -6660 0
6665 -6664 6660 0
6665 6664 -6660 0
-6666 6665 6661 0
-6666 -6665 -6661 0
6666 -6665 6661 0
6666 6665 -6661 0
-6666 0
-6667 6604 0
-6667 6583 0
6667 -6604 -6583 0
-6668 6605 0
-6668 6587 0
6668 -6605 -6587 0
-6669 6606 0
-6669 6591 0
6669 -6606 -6591 0
-6670 6607 0
-6670 6595 0
6670 -6607 -6595 0
-6671 6608 0
-6671 6599 0
6671 -6608 -6599 0
-6672 6609 0
-6672 6603 0
6672 -6609 -6603 0
-6673 6667 6668 0
-6673 -6667 -6668 0
6673 -6667 6668 0
6673 6667 -6668 0
-6674 6673 6669 0
-6674 -6673 -6669 0
6674 -6673 6669 0
6674 6673 -6669 0
-6675 6674 6670 0
-6675 -6674 -6670 0
6675 -6674 6670 0
6675 6674 -6670 0
-6676 6675 6671 0
-6676 -6675 -6671 0
6676 -6675 6671 0
6676 6675 -6671 0
-6677 6676 6672 0
-6677 -6676 -6672 0
6677 -6676 6672 0
6677 6676 -6672 0
6678 6679 6680 6681 6682 6683 0
-6684 6678 6679 0
-6684 -6678 -6679 0
6684 -6678 6679 0
6684 6678 -6679 0
-6685 6684 6680 0
-6685 -6684 -6680 0
6685 -6684 6680 0
6685 6684 -6680 0
-6685 0
-6686 6678 0
-6686 6557 0
6686 -6678 -6557 0
-6687 6679 0
-6687 6561 0
6687 -6679 -6561 0
-6688 6680 0
-6688 6565 0
6688 -6680 -6565 0
-6689 6681 0
-6689 6569 0
6689 -6681 -6569 0
-6690 6682 0
-6690 6573 0
6690 -6682 -6573 0
-6691 6683 0
-6691 6577 0
6691 -6683 -6577 0
-6692 6686 6687 0
-6692 -6686 -6687 0
6692 -6686 6687 0
6692 6686 -6687 0
-6693 6692 6688 0
-6693 -6692 -6688 0
6693 -6692 6688 0
6693 6692 -6688 0
-6694 6693 6689 0
-6694 -6693 -6689 0
6694 -6693 6689 0
6694 6693 -6689 0
-6695 6694 6690 0
-6695 -6694 -6690 0
6695 -6694 6690 0
6695 6694 -6690 0
-6696 6695 6691 0
-6696 -6695 -6691 0
6696 -6695 6691 0
6696 6695 -6691 0
-6696 0
-6697 6678 0
-6697 61 0
6697 -6678 -61 0
-6698 6679 0
-6698 62 0
6698 -6679 -62 0
-6699 6680 0
-6699 63 0
6699 -6680 -63 0
-6700 6681 0
-6700 64 0
6700 -6681 -64 0
-6701 6682 0
-6701 65 0
6701 -6682 -65 0
-6702 6683 0
-6702 66 0
6702 -6683 -66 0
-6703 6697 6698 0
-6703 -6697 -6698 0
6703 -6697 6698 0
6703 6697 -6698 0
-6704 6703 6699 0
-6704 -6703 -6699 0
6704 -6703 6699 0
6704 6703 -6699 0
-6705 6704 6700 0
-6705 -6704 -6700 0
6705 -6704 6700 0
6705 6704 -6700 0
-6706 6705 6701 0
-6706 -6705 -6701 0
6706 -6705 6701 0
6706 6705 -6701 0
-6707 6706 6702 0
-6707 -6706 -6702 0
6707 -6706 6702 0
6707 6706 -6702 0
-6707 0
-6708 6678 0
-6708 73 0
6708 -6678 -73 0
-6709 6679 0
-6709 74 0
6709 -6679 -74 0
-6710 6680 0
-6710 75 0
6710 -6680 -75 0
-6711 6681 0
-6711 76 0
6711 -6681 -76 0
-6712 6682 0
-6712 77 0
6712 -6682 -77 0
-6713 6683 0
-6713 78 0
6713 -6683 -78 0
-6714 6708 6709 0
-6714 -6708 -6709 0
6714 -6708 6709 0
6714 6708 -6709 0
-6715 6714 6710 0
-6715 -6714 -6710 0
6715 -6714 6710 0
6715 6714 -6710 0
-6716 6715 6711 0
-6716 -6715 -6711 0
6716 -6715 6711 0
6716 6715 -6711 0
-6717 6716 6712 0
-6717 -6716 -6712 0
6717 -6716 6712 0
6717 6716 -6712 0
-6718 6717 6713 0
-6718 -6717 -6713 0
6718 -6717 6713 0
6718 6717 -6713 0
-6718 0
-6719 6678 0
-6719 6558 0
6719 -6678 -6558 0
-6720 6679 0
-6720 6562 0
6720 -6679 -6562 0
-6721 6680 0
-6721 6566 0
6721 -6680 -6566 0
-6722 6681 0
-6722 6570 0
6722 -6681 -6570 0
-6723 6682 0
-6723 6574 0
6723 -6682 -6574 0
-6724 6683 0
-6724 6578 0
6724 -6683 -6578 0
-6725 6719 6720 0
-6725 -6719 -6720 0
6725 -6719 6720 0
6725 6719 -6720 0
-6726 6725 6721 0
-6726 -6725 -6721 0
6726 -6725 6721 0
6726 6725 -6721 0
-6727 6726 6722 0
-6727 -6726 -6722 0
6727 -6726 6722 0
6727 6726 -6722 0
-6728 6727 6723 0
-6728 -6727 -6723 0
6728 -6727 6723 0
6728 6727 -6723 0
-6729 6728 6724 0
-6729 -6728 -6724 0
6729 -6728 6724 0
6729 6728 -6724 0
-6729 0
-6730 6678 0
-6730 6559 0
6730 -6678 -6559 0
-6731 6679 0
-6731 6563 0
6731 -6679 -6563 0
-6732 6680 0
-6732 6567 0
6732 -6680 -6567 0
-6733 6681 0
-6733 6571 0
6733 -6681 -6571 0
-6734 6682 0
-6734 6575 0
6734 -6682 -6575 0
-6735 6683 0
-6735 6579 0
6735 -6683 -6579 0
-6736 6730 6731 0
-6736 -6730 -6731 0
6736 -6730 6731 0
6736 6730 -6731 0
-6737 6736 6732 0
-6737 -6736 -6732 0
6737 -6736 6732 0
6737 6736 -6732 0
-6738 6737 6733 0
-6738 -6737 -6733 0
6738 -6737 6733 0
6738 6737 -6733 0
-6739 6738 6734 0
-6739 -6738 -6734 0
6739 -6738 6734 0
6739 6738 -6734 0
-6740 6739 6735 0
-6740 -6739 -6735 0
6740 -6739 6735 0
6740 6739 -6735 0
-6740 0
-6741 6678 0
-6741 6583 0
6741 -6678 -6583 0
-6742 6679 0
-6742 6587 0
6742 -6679 -6587 0
-6743 6680 0
-6743 6591 0
6743 -6680 -6591 0
-6744 6681 0
-6744 6595 0
6744 -6681 -6595 0
-6745 6682 0
-6745 6599 0
6745 -6682 -6599 0
-6746 6683 0
-6746 6603 0
6746 -6683 -6603 0
-6747 6741 6742 0
-6747 -6741 -6742 0
6747 -6741 6742 0
6747 6741 -6742 0
-6748 6747 6743 0
-6748 -6747 -6743 0
6748 -6747 6743 0
6748 6747 -6743 0
-6749 6748 6744 0
-6749 -6748 -6744 0
6749 -6748 6744 0
6749 6748 -6744 0
-6750 6749 6745 0
-6750 -6749 -6745 0
6750 -6749 6745 0
6750 6749 -6745 0
-6751 6750 6746 0
-6751 -6750 -6746 0
6751 -6750 6746 0
6751 6750 -6746 0
-6752 6604 6678 0
-6752 -6604 -6678 0
6752 -6604 6678 0
6752 6604 -6678 0
-6753 6605 6679 0
-6753 -6605 -6679 0
6753 -6605 6679 0
6753 6605 -6679 0
-6754 6606 6680 0
-6754 -6606 -6680 0
6754 -6606 6680 0
6754 6606 -6680 0
-6755 6607 6681 0
-6755 -6607 -6681 0
6755 -6607 6681 0
6755 6607 -6681 0
-6756 6608 6682 0
-6756 -6608 -6682 0
6756 -6608 6682 0
6756 6608 -6682 0
-6757 6609 6683 0
-6757 -6609 -6683 0
6757 -6609 6683 0
6757 6609 -6683 0
6752 6753 6754 6755 6756 6757 0
6677 6751 0
-6758 31 37 0
-6758 -31 -37 0
6758 -31 37 0
6758 31 -37 0
-6759 6758 43 0
-6759 -6758 -43 0
6759 -6758 43 0
6759 6758 -43 0
-6760 61 73 0
-6760 -61 -73 0
6760 -61 73 0
6760 61 -73 0
-6761 67 79 0
-6761 -67 -79 0
6761 -67 79 0
6761 67 -79 0
-6762 32 38 0
-6762 -32 -38 0
6762 -32 38 0
6762 32 -38 0
-6763 6762 44 0
-6763 -6762 -44 0
6763 -6762 44 0
6763 6762 -44 0
-6764 62 74 0
-6764 -62 -74 0
6764 -62 74 0
6764 62 -74 0
-6765 68 80 0
-6765 -68 -80 0
6765 -68 80 0
6765 68 -80 0
-6766 33 39 0
-6766 -33 -39 0
6766 -33 39 0
6766 33 -39 0
-6767 6766 45 0
-6767 -6766 -45 0
6767 -6766 45 0
6767 6766 -45 0
-6768 -63 75 0
-6768 63 -75 0
6768 63 75 0
6768 -63 -75 0
-6769 69 81 0
-6769 -69 -81 0
6769 -69 81 0
6769 69 -81 0
-6770 34 40 0
-6770 -34 -40 0
6770 -34 40 0
6770 34 -40 0
-6771 6770 46 0
-6771 -6770 -46 0
6771 -6770 46 0
6771 6770 -46 0
-6772 64 76 0
-6772 -64 -76 0
6772 -64 76 0
6772 64 -76 0
-6773 -70 82 0
-6773 70 -82 0
6773 70 82 0
6773 -70 -82 0
-6774 35 41 0
-6774 -35 -41 0
6774 -35 41 0
6774 35 -41 0
-6775 6774 47 0
-6775 -6774 -47 0
6775 -6774 47 0
6775 6774 -47 0
-6776 65 77 0
-6776 -65 -77 0
6776 -65 77 0
6776 65 -77 0
-6777 71 83 0
-6777 -71 -83 0
6777 -71 83 0
6777 71 -83 0
-6778 36 42 0
-6778 -36 -42 0
6778 -36 42 0
6778 36 -42 0
-6779 6778 48 0
-6779 -6778 -48 0
6779 -6778 48 0
6779 6778 -48 0
-6780 66 78 0
-6780 -66 -78 0
6780 -66 78 0
6780 66 -78 0
-6781 72 84 0
-6781 -72 -84 0
6781 -72 84 0
6781 72 -84 0
-6782 103 109 0
-6782 -103 -109 0
6782 -103 109 0
6782 103 -109 0
-6783 6782 115 0
-6783 -6782 -115 0
6783 -6782 115 0
6783 6782 -115 0
-6784 -6783 61 0
-6784 6783 -61 0
6784 6783 61 0
6784 -6783 -61 0
-6785 6784 73 0
-6785 -6784 -73 0
6785 -6784 73 0
6785 6784 -73 0
-6786 104 110 0
-6786 -104 -110 0
6786 -104 110 0
6786 104 -110 0
-6787 6786 116 0
-6787 -6786 -116 0
6787 -6786 116 0
6787 6786 -116 0
-6788 -6787 62 0
-6788 6787 -62 0
6788 6787 62 0
6788 -6787 -62 0
-6789 6788 74 0
-6789 -6788 -74 0
6789 -6788 74 0
6789 6788 -74 0
-6790 105 111 0
-6790 -105 -111 0
6790 -105 111 0
6790 105 -111 0
-6791 6790 117 0
-6791 -6790 -117 0
6791 -6790 117 0
6791 6790 -117 0
-6792 -6791 63 0
-6792 6791 -63 0
6792 6791 63 0
6792 -6791 -63 0
-6793 6792 75 0
-6793 -6792 -75 0
6793 -6792 75 0
6793 6792 -75 0
-6794 106 112 0
-6794 -106 -112 0
6794 -106 112 0
6794 106 -112 0
-6795 6794 118 0
-6795 -6794 -118 0
6795 -6794 118 0
6795 6794 -118 0
-6796 6795 64 0
-6796 -6795 -64 0
6796 -6795 64 0
6796 6795 -64 0
-6797 6796 76 0
-6797 -6796 -76 0
6797 -6796 76 0
6797 6796 -76 0
-6798 -107 113 0
-6798 107 -113 0
6798 107 113 0
6798 -107 -113 0
-6799 6798 119 0
-6799 -6798 -119 0
6799 -6798 119 0
6799 6798 -119 0
-6800 6799 65 0
-6800 -6799 -65 0
6800 -6799 65 0
6800 6799 -65 0
-6801 6800 77 0
-6801 -6800 -77 0
6801 -6800 77 0
6801 6800 -77 0
-6802 108 114 0
-6802 -108 -114 0
6802 -108 114 0
6802 108 -114 0
-6803 6802 120 0
-6803 -6802 -120 0
6803 -6802 120 0
6803 6802 -120 0
-6804 6803 66 0
-6804 -6803 -66 0
6804 -6803 66 0
6804 6803 -66 0
-6805 6804 78 0
-6805 -6804 -78 0
6805 -6804 78 0
6805 6804 -78 0
6806 6807 6808 6809 6810 6811 0
-6812 6806 6807 0
-6812 -6806 -6807 0
6812 -6806 6807 0
6812 6806 -6807 0
-6813 6812 6808 0
-6813 -6812 -6808 0
6813 -6812 6808 0
6813 6812 -6808 0
-6813 0
-6814 6806 0
-6814 6759 0
6814 -6806 -6759 0
-6815 6807 0
-6815 6763 0
6815 -6807 -6763 0
-6816 6808 0
-6816 6767 0
6816 -6808 -6767 0
-6817 6809 0
-6817 6771 0
6817 -6809 -6771 0
-6818 6810 0
-6818 6775 0
6818 -6810 -6775 0
-6819 6811 0
-6819 6779 0
6819 -6811 -6779 0
-6820 6814 6815 0
-6820 -6814 -6815 0
6820 -6814 6815 0
6820 6814 -6815 0
-6821 6820 6816 0
-6821 -6820 -6816 0
6821 -6820 6816 0
6821 6820 -6816 0
-6822 6821 6817 0
-6822 -6821 -6817 0
6822 -6821 6817 0
6822 6821 -6817 0
-6823 6822 6818 0
-6823 -6822 -6818 0
6823 -6822 6818 0
6823 6822 -6818 0
-6824 6823 6819 0
-6824 -6823 -6819 0
6824 -6823 6819 0
6824 6823 -6819 0
-6824 0
-6825 6806 0
-6825 -61 0
6825 -6806 61 0
-6826 6807 0
-6826 62 0
6826 -6807 -62 0
-6827 6808 0
-6827 63 0
6827 -6808 -63 0
-6828 6809 0
-6828 64 0
6828 -6809 -64 0
-6829 6810 0
-6829 65 0
6829 -6810 -65 0
-6830 6811 0
-6830 66 0
6830 -6811 -66 0
-6831 6825 6826 0
-6831 -6825 -6826 0
6831 -6825 6826 0
6831 6825 -6826 0
-6832 6831 6827 0
-6832 -6831 -6827 0
6832 -6831 6827 0
6832 6831 -6827 0
-6833 6832 6828 0
-6833 -6832 -6828 0
6833 -6832 6828 0
6833 6832 -6828 0
-6834 6833 6829 0
-6834 -6833 -6829 0
6834 -6833 6829 0
6834 6833 -6829 0
-6835 6834 6830 0
-6835 -6834 -6830 0
6835 -6834 6830 0
6835 6834 -6830 0
-6835 0
-6836 6806 0
-6836 73 0
6836 -6806 -73 0
-6837 6807 0
-6837 -74 0
6837 -6807 74 0
-6838 6808 0
-6838 75 0
6838 -6808 -75 0
-6839 6809 0
-6839 76 0
6839 -6809 -76 0
-6840 6810 0
-6840 77 0
6840 -6810 -77 0
-6841 6811 0
-6841 78 0
6841 -6811 -78 0
-6842 6836 6837 0
-6842 -6836 -6837 0
6842 -6836 6837 0
6842 6836 -6837 0
-6843 6842 6838 0
-6843 -6842 -6838 0
6843 -6842 6838 0
6843 6842 -6838 0
-6844 6843 6839 0
-6844 -6843 -6839 0
6844 -6843 6839 0
6844 6843 -6839 0
-6845 6844 6840 0
-6845 -6844 -6840 0
6845 -6844 6840 0
6845 6844 -6840 0
-6846 6845 6841 0
-6846 -6845 -6841 0
6846 -6845 6841 0
6846 6845 -6841 0
-6846 0
-6847 6806 0
-6847 6760 0
6847 -6806 -6760 0
-6848 6807 0
-6848 6764 0
6848 -6807 -6764 0
-6849 6808 0
-6849 6768 0
6849 -6808 -6768 0
-6850 6809 0
-6850 6772 0
6850 -6809 -6772 0
-6851 6810 0
-6851 6776 0
6851 -6810 -6776 0
-6852 6811 0
-6852 6780 0
6852 -6811 -6780 0
-6853 6847 6848 0
-6853 -6847 -6848 0
6853 -6847 6848 0
6853 6847 -6848 0
-6854 6853 6849 0
-6854 -6853 -6849 0
6854 -6853 6849 0
6854 6853 -6849 0
-6855 6854 6850 0
-6855 -6854 -6850 0
6855 -6854 6850 0
6855 6854 -6850 0
-6856 6855 6851 0
-6856 -6855 -6851 0
6856 -6855 6851 0
6856 6855 -6851 0
-6857 6856 6852 0
-6857 -6856 -6852 0
6857 -6856 6852 0
6857 6856 -6852 0
-6857 0
-6858 6806 0
-6858 6761 0
6858 -6806 -6761 0
-6859 6807 0
-6859 6765 0
6859 -6807 -6765 0
-6860 6808 0
-6860 6769 0
6860 -6808 -6769 0
-6861 6809 0
-6861 6773 0
6861 -6809 -6773 0
-6862 6810 0
-6862 6777 0
6862 -6810 -6777 0
-6863 6811 0
-6863 6781 0
6863 -6811 -6781 0
-6864 6858 6859 0
-6864 -6858 -6859 0
6864 -6858 6859 0
6864 6858 -6859 0
-6865 6864 6860 0
-6865 -6864 -6860 0
6865 -6864 6860 0
6865 6864 -6860 0
-6866 6865 6861 0
-6866 -6865 -6861 0
6866 -6865 6861 0
6866 6865 -6861 0
-6867 6866 6862 0
-6867 -6866 -6862 0
6867 -6866 6862 0
6867 6866 -6862 0
-6868 6867 6863 0
-6868 -6867 -6863 0
6868 -6867 6863 0
6868 6867 -6863 0
-6868 0
-6869 6806 0
-6869 6785 0
6869 -6806 -6785 0
-6870 6807 0
-6870 6789 0
6870 -6807 -6789 0
-6871 6808 0
-6871 6793 0
6871 -6808 -6793 0
-6872 6809 0
-6872 6797 0
6872 -6809 -6797 0
-6873 6810 0
-6873 6801 0
6873 -6810 -6801 0
-6874 6811 0
-6874 6805 0
6874 -6811 -6805 0
-6875 6869 6870 0
-6875 -6869 -6870 0
6875 -6869 6870 0
6875 6869 -6870 0
-6876 6875 6871 0
-6876 -6875 -6871 0
6876 -6875 6871 0
6876 6875 -6871 0
-6877 6876 6872 0
-6877 -6876 -6872 0
6877 -6876 6872 0
6877 6876 -6872 0
-6878 6877 6873 0
-6878 -6877 -6873 0
6878 -6877 6873 0
6878 6877 -6873 0
-6879 6878 6874 0
-6879 -6878 -6874 0
6879 -6878 6874 0
6879 6878 -6874 0
6880 6881 6882 6883 6884 6885 0
-6886 6880 6881 0
-6886 -6880 -6881 0
6886 -6880 6881 0
6886 6880 -6881 0
-6887 6886 6882 0
-6887 -6886 -6882 0
6887 -6886 6882 0
6887 6886 -6882 0
-6887 0
-6888 6880 0
-6888 6759 0
6888 -6880 -6759 0
-6889 6881 0
-6889 6763 0
6889 -6881 -6763 0
-6890 6882 0
-6890 6767 0
6890 -6882 -6767 0
-6891 6883 0
-6891 6771 0
6891 -6883 -6771 0
-6892 6884 0
-6892 6775 0
6892 -6884 -6775 0
-6893 6885 0
-6893 6779 0
6893 -6885 -6779 0
-6894 6888 6889 0
-6894 -6888 -6889 0
6894 -6888 6889 0
6894 6888 -6889 0
-6895 6894 6890 0
-6895 -6894 -6890 0
6895 -6894 6890 0
6895 6894 -6890 0
-6896 6895 6891 0
-6896 -6895 -6891 0
6896 -6895 6891 0
6896 6895 -6891 0
-6897 6896 6892 0
-6897 -6896 -6892 0
6897 -6896 6892 0
6897 6896 -6892 0
-6898 6897 6893 0
-6898 -6897 -6893 0
6898 -6897 6893 0
6898 6897 -6893 0
-6898 0
-6899 6880 0
-6899 -61 0
6899 -6880 61 0
-6900 6881 0
-6900 62 0
6900 -6881 -62 0
-6901 6882 0
-6901 63 0
6901 -6882 -63 0
-6902 6883 0
-6902 64 0
6902 -6883 -64 0
-6903 6884 0
-6903 65 0
6903 -6884 -65 0
-6904 6885 0
-6904 66 0
6904 -6885 -66 0
-6905 6899 6900 0
-6905 -6899 -6900 0
6905 -6899 6900 0
6905 6899 -6900 0
-6906 6905 6901 0
-6906 -6905 -6901 0
6906 -6905 6901 0
6906 6905 -6901 0
-6907 6906 6902 0
-6907 -6906 -6902 0
6907 -6906 6902 0
6907 6906 -6902 0
-6908 6907 6903 0
-6908 -6907 -6903 0
6908 -6907 6903 0
6908 6907 -6903 0
-6909 6908 6904 0
-6909 -6908 -6904 0
6909 -6908 6904 0
6909 6908 -6904 0
-6909 0
-6910 6880 0
-6910 73 0
6910 -6880 -73 0
-6911 6881 0
-6911 -74 0
6911 -6881 74 0
-6912 6882 0
-6912 75 0
6912 -6882 -75 0
-6913 6883 0
-6913 76 0
6913 -6883 -76 0
-6914 6884 0
-6914 77 0
6914 -6884 -77 0
-6915 6885 0
-6915 78 0
6915 -6885 -78 0
-6916 6910 6911 0
-6916 -6910 -6911 0
6916 -6910 6911 0
6916 6910 -6911 0
-6917 6916 6912 0
-6917 -6916 -6912 0
6917 -6916 6912 0
6917 6916 -6912 0
-6918 6917 6913 0
-6918 -6917 -6913 0
6918 -6917 6913 0
6918 6917 -6913 0
-6919 6918 6914 0
-6919 -6918 -6914 0
6919 -6918 6914 0
6919 6918 -6914 0
-6920 6919 6915 0
-6920 -6919 -6915 0
6920 -6919 6915 0
6920 6919 -6915 0
-6920 0
-6921 6880 0
-6921 6760 0
6921 -6880 -6760 0
-6922 6881 0
-6922 6764 0
6922 -6881 -6764 0
-6923 6882 0
-6923 6768 0
6923 -6882 -6768 0
-6924 6883 0
-6924 6772 0
6924 -6883 -6772 0
-6925 6884 0
-6925 6776 0
6925 -6884 -6776 0
-6926 6885 0
-6926 6780 0
6926 -6885 -6780 0
-6927 6921 6922 0
-6927 -6921 -6922 0
6927 -6921 6922 0
6927 6921 -6922 0
-6928 6927 6923 0
-6928 -6927 -6923 0
6928 -6927 6923 0
6928 6927 -6923 0
-6929 6928 6924 0
-6929 -6928 -6924 0
6929 -6928 6924 0
6929 6928 -6924 0
-6930 6929 6925 0
-6930 -6929 -6925 0
6930 -6929 6925 0
6930 6929 -6925 0
-6931 6930 6926 0
-6931 -6930 -6926 0
6931 -6930 6926 0
6931 6930 -6926 0
-6931 0
-6932 6880 0
-6932 6761 0
6932 -6880 -6761 0
-6933 6881 0
-6933 6765 0
6933 -6881 -6765 0
-6934 6882 0
-6934 6769 0
6934 -6882 -6769 0
-6935 6883 0
-6935 6773 0
6935 -6883 -6773 0
-6936 6884 0
-6936 6777 0
6936 -6884 -6777 0
-6937 6885 0
-6937 6781 0
6937 -6885 -6781 0
-6938 6932 6933 0
-6938 -6932 -6933 0
6938 -6932 6933 0
6938 6932 -6933 0
-6939 6938 6934 0
-6939 -6938 -6934 0
6939 -6938 6934 0
6939 6938 -6934 0
-6940 6939 6935 0
-6940 -6939 -6935 0
6940 -6939 6935 0
6940 6939 -6935 0
-6941 6940 6936 0
-6941 -6940 -6936 0
6941 -6940 6936 0
6941 6940 -6936 0
-6942 6941 6937 0
-6942 -6941 -6937 0
6942 -6941 6937 0
6942 6941 -6937 0
-6942 0
-6943 6880 0
-6943 6785 0
6943 -6880 -6785 0
-6944 6881 0
-6944 6789 0
6944 -6881 -6789 0
-6945 6882 0
-6945 6793 0
6945 -6882 -6793 0
-6946 6883 0
-6946 6797 0
6946 -6883 -6797 0
-6947 6884 0
-6947 6801 0
6947 -6884 -6801 0
-6948 6885 0
-6948 6805 0
6948 -6885 -6805 0
-6949 6943 6944 0
-6949 -6943 -6944 0
6949 -6943 6944 0
6949 6943 -6944 0
-6950 6949 6945 0
-6950 -6949 -6945 0
6950 -6949 6945 0
6950 6949 -6945 0
-6951 6950 6946 0
-6951 -6950 -6946 0
6951 -6950 6946 0
6951 6950 -6946 0
-6952 6951 6947 0
-6952 -6951 -6947 0
6952 -6951 6947 0
6952 6951 -6947 0
-6953 6952 6948 0
-6953 -6952 -6948 0
6953 -6952 6948 0
6953 6952 -6948 0
-6954 6806 6880 0
-6954 -6806 -6880 0
6954 -6806 6880 0
6954 6806 -6880 0
-6955 6807 6881 0
-6955 -6807 -6881 0
6955 -6807 6881 0
6955 6807 -6881 0
-6956 6808 6882 0
-6956 -6808 -6882 0
6956 -6808 6882 0
6956 6808 -6882 0
-6957 6809 6883 0
-6957 -6809 -6883 0
6957 -6809 6883 0
6957 6809 -6883 0
-6958 6810 6884 0
-6958 -6810 -6884 0
6958 -6810 6884 0
6958 6810 -6884 0
-6959 6811 6885 0
-6959 -6811 -6885 0
6959 -6811 6885 0
6959 6811 -6885 0
6954 6955 6956 6957 6958 6959 0
6879 6953 0
-6960 31 37 0
-6960 -31 -37 0
6960 -31 37 0
6960 31 -37 0
-6961 6960 43 0
-6961 -6960 -43 0
6961 -6960 43 0
6961 6960 -43 0
-6962 31 61 0
-6962 -31 -61 0
6962 -31 61 0
6962 31 -61 0
-6963 37 73 0
-6963 -37 -73 0
6963 -37 73 0
6963 37 -73 0
-6964 43 61 0
-6964 -43 -61 0
6964 -43 61 0
6964 43 -61 0
-6965 6964 73 0
-6965 -6964 -73 0
6965 -6964 73 0
6965 6964 -73 0
-6966 49 67 0
-6966 -49 -67 0
6966 -49 67 0
6966 49 -67 0
-6967 6966 79 0
-6967 -6966 -79 0
6967 -6966 79 0
6967 6966 -79 0
-6968 32 38 0
-6968 -32 -38 0
6968 -32 38 0
6968 32 -38 0
-6969 6968 44 0
-6969 -6968 -44 0
6969 -6968 44 0
6969 6968 -44 0
-6970 32 62 0
-6970 -32 -62 0
6970 -32 62 0
6970 32 -62 0
-6971 38 74 0
-6971 -38 -74 0
6971 -38 74 0
6971 38 -74 0
-6972 44 62 0
-6972 -44 -62 0
6972 -44 62 0
6972 44 -62 0
-6973 6972 74 0
-6973 -6972 -74 0
6973 -6972 74 0
6973 6972 -74 0
-6974 50 68 0
-6974 -50 -68 0
6974 -50 68 0
6974 50 -68 0
-6975 6974 80 0
-6975 -6974 -80 0
6975 -6974 80 0
6975 6974 -80 0
-6976 33 39 0
-6976 -33 -39 0
6976 -33 39 0
6976 33 -39 0
-6977 6976 45 0
-6977 -6976 -45 0
6977 -6976 45 0
6977 6976 -45 0
-6978 33 63 0
-6978 -33 -63 0
6978 -33 63 0
6978 33 -63 0
-6979 39 75 0
-6979 -39 -75 0
6979 -39 75 0
6979 39 -75 0
-6980 45 63 0
-6980 -45 -63 0
6980 -45 63 0
6980 45 -63 0
-6981 6980 75 0
-6981 -6980 -75 0
6981 -6980 75 0
6981 6980 -75 0
-6982 51 69 0
-6982 -51 -69 0
6982 -51 69 0
6982 51 -69 0
-6983 6982 81 0
-6983 -6982 -81 0
6983 -6982 81 0
6983 6982 -81 0
-6984 34 40 0
-6984 -34 -40 0
6984 -34 40 0
6984 34 -40 0
-6985 6984 46 0
-6985 -6984 -46 0
6985 -6984 46 0
6985 6984 -46 0
-6986 34 64 0
-6986 -34 -64 0
6986 -34 64 0
6986 34 -64 0
-6987 40 76 0
-6987 -40 -76 0
6987 -40 76 0
6987 40 -76 0
-6988 46 64 0
-6988 -46 -64 0
6988 -46 64 0
6988 46 -64 0
-6989 6988 76 0
-6989 -6988 -76 0
6989 -6988 76 0
6989 6988 -76 0
-6990 52 70 0
-6990 -52 -70 0
6990 -52 70 0
6990 52 -70 0
-6991 6990 82 0
-6991 -6990 -82 0
6991 -6990 82 0
6991 6990 -82 0
-6992 35 41 0
-6992 -35 -41 0
6992 -35 41 0
6992 35 -41 0
-6993 6992 47 0
-6993 -6992 -47 0
6993 -6992 47 0
6993 6992 -47 0
-6994 35 65 0
-6994 -35 -65 0
6994 -35 65 0
6994 35 -65 0
-6995 41 77 0
-6995 -41 -77 0
6995 -41 77 0
6995 41 -77 0
-6996 47 65 0
-6996 -47 -65 0
6996 -47 65 0
6996 47 -65 0
-6997 6996 77 0
-6997 -6996 -77 0
6997 -6996 77 0
6997 6996 -77 0
-6998 53 71 0
-6998 -53 -71 0
6998 -53 71 0
6998 53 -71 0
-6999 6998 83 0
-6999 -6998 -83 0
6999 -6998 83 0
6999 6998 -83 0
-7000 36 42 0
-7000 -36 -42 0
7000 -36 42 0
7000 36 -42 0
-7001 7000 48 0
-7001 -7000 -48 0
7001 -7000 48 0
7001 7000 -48 0
-7002 36 66 0
-7002 -36 -66 0
7002 -36 66 0
7002 36 -66 0
-7003 42 78 0
-7003 -42 -78 0
7003 -42 78 0
7003 42 -78 0
-7004 48 66 0
-7004 -48 -66 0
7004 -48 66 0
7004 48 -66 0
-7005 7004 78 0
-7005 -7004 -78 0
7005 -7004 78 0
7005 7004 -78 0
-7006 54 72 0
-7006 -54 -72 0
7006 -54 72 0
7006 54 -72 0
-7007 7006 84 0
-7007 -7006 -84 0
7007 -7006 84 0
7007 7006 -84 0
-7008 97 103 0
-7008 -97 -103 0
7008 -97 103 0
7008 97 -103 0
-7009 7008 109 0
-7009 -7008 -109 0
7009 -7008 109 0
7009 7008 -109 0
-7010 7009 115 0
-7010 -7009 -115 0
7010 -7009 115 0
7010 7009 -115 0
-7011 7010 31 0
-7011 -7010 -31 0
7011 -7010 31 0
7011 7010 -31 0
-7012 7011 37 0
-7012 -7011 -37 0
7012 -7011 37 0
7012 7011 -37 0
-7013 7012 43 0
-7013 -7012 -43 0
7013 -7012 43 0
7013 7012 -43 0
-7014 7013 61 0
-7014 -7013 -61 0
7014 -7013 61 0
7014 7013 -61 0
-7015 7014 73 0
-7015 -7014 -73 0
7015 -7014 73 0
7015 7014 -73 0
-7016 98 104 0
-7016 -98 -104 0
7016 -98 104 0
7016 98 -104 0
-7017 7016 110 0
-7017 -7016 -110 0
7017 -7016 110 0
7017 7016 -110 0
-7018 7017 116 0
-7018 -7017 -116 0
7018 -7017 116 0
7018 7017 -116 0
-7019 7018 32 0
-7019 -7018 -32 0
7019 -7018 32 0
7019 7018 -32 0
-7020 7019 38 0
-7020 -7019 -38 0
7020 -7019 38 0
7020 7019 -38 0
-7021 7020 44 0
-7021 -7020 -44 0
7021 -7020 44 0
7021 7020 -44 0
-7022 7021 62 0
-7022 -7021 -62 0
7022 -7021 62 0
7022 7021 -62 0
-7023 7022 74 0
-7023 -7022 -74 0
7023 -7022 74 0
7023 7022 -74 0
-7024 99 105 0
-7024 -99 -105 0
7024 -99 105 0
7024 99 -105 0
-7025 7024 111 0
-7025 -7024 -111 0
7025 -7024 111 0
7025 7024 -111 0
-7026 7025 117 0
-7026 -7025 -117 0
7026 -7025 117 0
7026 7025 -117 0
-7027 7026 33 0
-7027 -7026 -33 0
7027 -7026 33 0
7027 7026 -33 0
-7028 7027 39 0
-7028 -7027 -39 0
7028 -7027 39 0
7028 7027 -39 0
-7029 7028 45 0
-7029 -7028 -45 0
7029 -7028 45 0
7029 7028 -45 0
-7030 7029 63 0
-7030 -7029 -63 0
7030 -7029 63 0
7030 7029 -63 0
-7031 7030 75 0
-7031 -7030 -75 0
7031 -7030 75 0
7031 7030 -75 0
-7032 100 106 0
-7032 -100 -106 0
7032 -100 106 0
7032 100 -106 0
-7033 7032 112 0
-7033 -7032 -112 0
7033 -7032 112 0
7033 7032 -112 0
-7034 7033 118 0
-7034 -7033 -118 0
7034 -7033 118 0
7034 7033 -118 0
-7035 7034 34 0
-7035 -7034 -34 0
7035 -7034 34 0
7035 7034 -34 0
-7036 7035 40 0
-7036 -7035 -40 0
7036 -7035 40 0
7036 7035 -40 0
-7037 7036 46 0
-7037 -7036 -46 0
7037 -7036 46 0
7037 7036 -46 0
-7038 7037 64 0
-7038 -7037 -64 0
7038 -7037 64 0
7038 7037 -64 0
-7039 7038 76 0
-7039 -7038 -76 0
7039 -7038 76 0
7039 7038 -76 0
-7040 107 113 0
-7040 -107 -113 0
7040 -107 113 0
7040 107 -113 0
-7041 7040 119 0
-7041 -7040 -119 0
7041 -7040 119 0
7041 7040 -119 0
-7042 7041 35 0
-7042 -7041 -35 0
7042 -7041 35 0
7042 7041 -35 0
-7043 7042 41 0
-7043 -7042 -41 0
7043 -7042 41 0
7043 7042 -41 0
-7044 7043 47 0
-7044 -7043 -47 0
7044 -7043 47 0
7044 7043 -47 0
-7045 7044 65 0
-7045 -7044 -65 0
7045 -7044 65 0
7045 7044 -65 0
-7046 7045 77 0
-7046 -7045 -77 0
7046 -7045 77 0
7046 7045 -77 0
-7047 102 108 0
-7047 -102 -108 0
7047 -102 108 0
7047 102 -108 0
-7048 7047 114 0
-7048 -7047 -114 0
7048 -7047 114 0
7048 7047 -114 0
-7049 7048 120 0
-7049 -7048 -120 0
7049 -7048 120 0
7049 7048 -120 0
-7050 7049 36 0
-7050 -7049 -36 0
7050 -7049 36 0
7050 7049 -36 0
-7051 7050 42 0
-7051 -7050 -42 0
7051 -7050 42 0
7051 7050 -42 0
-7052 7051 48 0
-7052 -7051 -48 0
7052 -7051 48 0
7052 7051 -48 0
-7053 7052 66 0
-7053 -7052 -66 0
7053 -7052 66 0
7053 7052 -66 0
-7054 7053 78 0
-7054 -7053 -78 0
7054 -7053 78 0
7054 7053 -78 0
7055 7056 7057 7058 7059 7060 0
-7061 7055 7056 0
-7061 -7055 -7056 0
7061 -7055 7056 0
7061 7055 -7056 0
-7062 7061 7057 0
-7062 -7061 -7057 0
7062 -7061 7057 0
7062 7061 -7057 0
-7062 0
-7063 7055 0
-7063 6961 0
7063 -7055 -6961 0
-7064 7056 0
-7064 6969 0
7064 -7056 -6969 0
-7065 7057 0
-7065 6977 0
7065 -7057 -6977 0
-7066 7058 0
-7066 6985 0
7066 -7058 -6985 0
-7067 7059 0
-7067 6993 0
7067 -7059 -6993 0
-7068 7060 0
-7068 7001 0
7068 -7060 -7001 0
-7069 7063 7064 0
-7069 -7063 -7064 0
7069 -7063 7064 0
7069 7063 -7064 0
-7070 7069 7065 0
-7070 -7069 -7065 0
7070 -7069 7065 0
7070 7069 -7065 0
-7071 7070 7066 0
-7071 -7070 -7066 0
7071 -7070 7066 0
7071 7070 -7066 0
-7072 7071 7067 0
-7072 -7071 -7067 0
7072 -7071 7067 0
7072 7071 -7067 0
-7073 7072 7068 0
-7073 -7072 -7068 0
7073 -7072 7068 0
7073 7072 -7068 0
-7073 0
-7074 7055 0
-7074 6962 0
7074 -7055 -6962 0
-7075 7056 0
-7075 6970 0
7075 -7056 -6970 0
-7076 7057 0
-7076 6978 0
7076 -7057 -6978 0
-7077 7058 0
-7077 6986 0
7077 -7058 -6986 0
-7078 7059 0
-7078 6994 0
7078 -7059 -6994 0
-7079 7060 0
-7079 7002 0
7079 -7060 -7002 0
-7080 7074 7075 0
-7080 -7074 -7075 0
7080 -7074 7075 0
7080 7074 -7075 0
-7081 7080 7076 0
-7081 -7080 -7076 0
7081 -7080 7076 0
7081 7080 -7076 0
-7082 7081 7077 0
-7082 -7081 -7077 0
7082 -7081 7077 0
7082 7081 -7077 0
-7083 7082 7078 0
-7083 -7082 -7078 0
7083 -7082 7078 0
7083 7082 -7078 0
-7084 7083 7079 0
-7084 -7083 -7079 0
7084 -7083 7079 0
7084 7083 -7079 0
-7084 0
-7085 7055 0
-7085 6963 0
7085 -7055 -6963 0
-7086 7056 0
-7086 6971 0
7086 -7056 -6971 0
-7087 7057 0
-7087 6979 0
7087 -7057 -6979 0
-7088 7058 0
-7088 6987 0
7088 -7058 -6987 0
-7089 7059 0
-7089 6995 0
7089 -7059 -6995 0
-7090 7060 0
-7090 7003 0
7090 -7060 -7003 0
-7091 7085 7086 0
-7091 -7085 -7086 0
7091 -7085 7086 0
7091 7085 -7086 0
-7092 7091 7087 0
-7092 -7091 -7087 0
7092 -7091 7087 0
7092 7091 -7087 0
-7093 7092 7088 0
-7093 -7092 -7088 0
7093 -7092 7088 0
7093 7092 -7088 0
-7094 7093 7089 0
-7094 -7093 -7089 0
7094 -7093 7089 0
7094 7093 -7089 0
-7095 7094 7090 0
-7095 -7094 -7090 0
7095 -7094 7090 0
7095 7094 -7090 0
-7095 0
-7096 7055 0
-7096 6965 0
7096 -7055 -6965 0
-7097 7056 0
-7097 6973 0
7097 -7056 -6973 0
-7098 7057 0
-7098 6981 0
7098 -7057 -6981 0
-7099 7058 0
-7099 6989 0
7099 -7058 -6989 0
-7100 7059 0
-7100 6997 0
7100 -7059 -6997 0
-7101 7060 0
-7101 7005 0
7101 -7060 -7005 0
-7102 7096 7097 0
-7102 -7096 -7097 0
7102 -7096 7097 0
7102 7096 -7097 0
-7103 7102 7098 0
-7103 -7102 -7098 0
7103 -7102 7098 0
7103 7102 -7098 0
-7104 7103 7099 0
-7104 -7103 -7099 0
7104 -7103 7099 0
7104 7103 -7099 0
-7105 7104 7100 0
-7105 -7104 -7100 0
7105 -7104 7100 0
7105 7104 -7100 0
-7106 7105 7101 0
-7106 -7105 -7101 0
7106 -7105 7101 0
7106 7105 -7101 0
-7106 0
-7107 7055 0
-7107 6967 0
7107 -7055 -6967 0
-7108 7056 0
-7108 6975 0
7108 -7056 -6975 0
-7109 7057 0
-7109 6983 0
7109 -7057 -6983 0
-7110 7058 0
-7110 6991 0
7110 -7058 -6991 0
-7111 7059 0
-7111 6999 0
7111 -7059 -6999 0
-7112 7060 0
-7112 7007 0
7112 -7060 -7007 0
-7113 7107 7108 0
-7113 -7107 -7108 0
7113 -7107 7108 0
7113 7107 -7108 0
-7114 7113 7109 0
-7114 -7113 -7109 0
7114 -7113 7109 0
7114 7113 -7109 0
-7115 7114 7110 0
-7115 -7114 -7110 0
7115 -7114 7110 0
7115 7114 -7110 0
-7116 7115 7111 0
-7116 -7115 -7111 0
7116 -7115 7111 0
7116 7115 -7111 0
-7117 7116 7112 0
-7117 -7116 -7112 0
7117 -7116 7112 0
7117 7116 -7112 0
-7117 0
-7118 7055 0
-7118 7015 0
7118 -7055 -7015 0
-7119 7056 0
-7119 7023 0
7119 -7056 -7023 0
-7120 7057 0
-7120 7031 0
7120 -7057 -7031 0
-7121 7058 0
-7121 7039 0
7121 -7058 -7039 0
-7122 7059 0
-7122 7046 0
7122 -7059 -7046 0
-7123 7060 0
-7123 7054 0
7123 -7060 -7054 0
-7124 7118 7119 0
-7124 -7118 -7119 0
7124 -7118 7119 0
7124 7118 -7119 0
-7125 7124 7120 0
-7125 -7124 -7120 0
7125 -7124 7120 0
7125 7124 -7120 0
-7126 7125 7121 0
-7126 -7125 -7121 0
7126 -7125 7121 0
7126 7125 -7121 0
-7127 7126 7122 0
-7127 -7126 -7122 0
7127 -7126 7122 0
7127 7126 -7122 0
-7128 7127 7123 0
-7128 -7127 -7123 0
7128 -7127 7123 0
7128 7127 -7123 0
7129 7130 7131 7132 7133 7134 0
-7135 7129 7130 0
-7135 -7129 -7130 0
7135 -7129 7130 0
7135 7129 -7130 0
-7136 7135 7131 0
-7136 -7135 -7131 0
7136 -7135 7131 0
7136 7135 -7131 0
-7136 0
-7137 7129 0
-7137 6961 0
7137 -7129 -6961 0
-7138 7130 0
-7138 6969 0
7138 -7130 -6969 0
-7139 7131 0
-7139 6977 0
7139 -7131 -6977 0
-7140 7132 0
-7140 6985 0
7140 -7132 -6985 0
-7141 7133 0
-7141 6993 0
7141 -7133 -6993 0
-7142 7134 0
-7142 7001 0
7142 -7134 -7001 0
-7143 7137 7138 0
-7143 -7137 -7138 0
7143 -7137 7138 0
7143 7137 -7138 0
-7144 7143 7139 0
-7144 -7143 -7139 0
7144 -7143 7139 0
7144 7143 -7139 0
-7145 7144 7140 0
-7145 -7144 -7140 0
7145 -7144 7140 0
7145 7144 -7140 0
-7146 7145 7141 0
-7146 -7145 -7141 0
7146 -7145 7141 0
7146 7145 -7141 0
-7147 7146 7142 0
-7147 -7146 -7142 0
7147 -7146 7142 0
7147 7146 -7142 0
-7147 0
-7148 7129 0
-7148 6962 0
7148 -7129 -6962 0
-7149 7130 0
-7149 6970 0
7149 -7130 -6970 0
-7150 7131 0
-7150 6978 0
7150 -7131 -6978 0
-7151 7132 0
-7151 6986 0
7151 -7132 -6986 0
-7152 7133 0
-7152 6994 0
7152 -7133 -6994 0
-7153 7134 0
-7153 7002 0
7153 -7134 -7002 0
-7154 7148 7149 0
-7154 -7148 -7149 0
7154 -7148 7149 0
7154 7148 -7149 0
-7155 7154 7150 0
-7155 -7154 -7150 0
7155 -7154 7150 0
7155 7154 -7150 0
-7156 7155 7151 0
-7156 -7155 -7151 0
7156 -7155 7151 0
7156 7155 -7151 0
-7157 7156 7152 0
-7157 -7156 -7152 0
7157 -7156 7152 0
7157 7156 -7152 0
-7158 7157 7153 0
-7158 -7157 -7153 0
7158 -7157 7153 0
7158 7157 -7153 0
-7158 0
-7159 7129 0
-7159 6963 0
7159 -7129 -6963 0
-7160 7130 0
-7160 6971 0
7160 -7130 -6971 0
-7161 7131 0
-7161 6979 0
7161 -7131 -6979 0
-7162 7132 0
-7162 6987 0
7162 -7132 -6987 0
-7163 7133 0
-7163 6995 0
7163 -7133 -6995 0
-7164 7134 0
-7164 7003 0
7164 -7134 -7003 0
-7165 7159 7160 0
-7165 -7159 -7160 0
7165 -7159 7160 0
7165 7159 -7160 0
-7166 7165 7161 0
-7166 -7165 -7161 0
7166 -7165 7161 0
7166 7165 -7161 0
-7167 7166 7162 0
-7167 -7166 -7162 0
7167 -7166 7162 0
7167 7166 -7162 0
-7168 7167 7163 0
-7168 -7167 -7163 0
7168 -7167 7163 0
7168 7167 -7163 0
-7169 7168 7164 0
-7169 -7168 -7164 0
7169 -7168 7164 0
7169 7168 -7164 0
-7169 0
-7170 7129 0
-7170 6965 0
7170 -7129 -6965 0
-7171 7130 0
-7171 6973 0
7171 -7130 -6973 0
-7172 7131 0
-7172 6981 0
7172 -7131 -6981 0
-7173 7132 0
-7173 6989 0
7173 -7132 -6989 0
-7174 7133 0
-7174 6997 0
7174 -7133 -6997 0
-7175 7134 0
-7175 7005 0
7175 -7134 -7005 0
-7176 7170 7171 0
-7176 -7170 -7171 0
7176 -7170 7171 0
7176 7170 -7171 0
-7177 7176 7172 0
-7177 -7176 -7172 0
7177 -7176 7172 0
7177 7176 -7172 0
-7178 7177 7173 0
-7178 -7177 -7173 0
7178 -7177 7173 0
7178 7177 -7173 0
-7179 7178 7174 0
-7179 -7178 -7174 0
7179 -7178 7174 0
7179 7178 -7174 0
-7180 7179 7175 0
-7180 -7179 -7175 0
7180 -7179 7175 0
7180 7179 -7175 0
-7180 0
-7181 7129 0
-7181 6967 0
7181 -7129 -6967 0
-7182 7130 0
-7182 6975 0
7182 -7130 -6975 0
-7183 7131 0
-7183 6983 0
7183 -7131 -6983 0
-7184 7132 0
-7184 6991 0
7184 -7132 -6991 0
-7185 7133 0
-7185 6999 0
7185 -7133 -6999 0
-7186 7134 0
-7186 7007 0
7186 -7134 -7007 0
-7187 7181 7182 0
-7187 -7181 -7182 0
7187 -7181 7182 0
7187 7181 -7182 0
-7188 7187 7183 0
-7188 -7187 -7183 0
7188 -7187 7183 0
7188 7187 -7183 0
-7189 7188 7184 0
-7189 -7188 -7184 0
7189 -7188 7184 0
7189 7188 -7184 0
-7190 7189 7185 0
-7190 -7189 -7185 0
7190 -7189 7185 0
7190 7189 -7185 0
-7191 7190 7186 0
-7191 -7190 -7186 0
7191 -7190 7186 0
7191 7190 -7186 0
-7191 0
-7192 7129 0
-7192 7015 0
7192 -7129 -7015 0
-7193 7130 0
-7193 7023 0
7193 -7130 -7023 0
-7194 7131 0
-7194 7031 0
7194 -7131 -7031 0
-7195 7132 0
-7195 7039 0
7195 -7132 -7039 0
-7196 7133 0
-7196 7046 0
7196 -7133 -7046 0
-7197 7134 0
-7197 7054 0
7197 -7134 -7054 0
-7198 7192 7193 0
-7198 -7192 -7193 0
7198 -7192 7193 0
7198 7192 -7193 0
-7199 7198 7194 0
-7199 -7198 -7194 0
7199 -7198 7194 0
7199 7198 -7194 0
-7200 7199 7195 0
-7200 -7199 -7195 0
7200 -7199 7195 0
7200 7199 -7195 0
-7201 7200 7196 0
-7201 -7200 -7196 0
7201 -7200 7196 0
7201 7200 -7196 0
-7202 7201 7197 0
-7202 -7201 -7197 0
7202 -7201 7197 0
7202 7201 -7197 0
-7203 7055 7129 0
-7203 -7055 -7129 0
7203 -7055 7129 0
7203 7055 -7129 0
-7204 7056 7130 0
-7204 -7056 -7130 0
7204 -7056 7130 0
7204 7056 -7130 0
-7205 7057 7131 0
-7205 -7057 -7131 0
7205 -7057 7131 0
7205 7057 -7131 0
-7206 7058 7132 0
-7206 -7058 -7132 0
7206 -7058 7132 0
7206 7058 -7132 0
-7207 7059 7133 0
-7207 -7059 -7133 0
7207 -7059 7133 0
7207 7059 -7133 0
-7208 7060 7134 0
-7208 -7060 -7134 0
7208 -7060 7134 0
7208 7060 -7134 0
7203 7204 7205 7206 7207 7208 0
7128 7202 0
-7209 31 37 0
-7209 -31 -37 0
7209 -31 37 0
7209 31 -37 0
-7210 7209 43 0
-7210 -7209 -43 0
7210 -7209 43 0
7210 7209 -43 0
-7211 -31 61 0
-7211 31 -61 0
7211 31 61 0
7211 -31 -61 0
-7212 37 73 0
-7212 -37 -73 0
7212 -37 73 0
7212 37 -73 0
-7213 43 61 0
-7213 -43 -61 0
7213 -43 61 0
7213 43 -61 0
-7214 7213 73 0
-7214 -7213 -73 0
7214 -7213 73 0
7214 7213 -73 0
-7215 49 67 0
-7215 -49 -67 0
7215 -49 67 0
7215 49 -67 0
-7216 7215 79 0
-7216 -7215 -79 0
7216 -7215 79 0
7216 7215 -79 0
-7217 32 38 0
-7217 -32 -38 0
7217 -32 38 0
7217 32 -38 0
-7218 7217 44 0
-7218 -7217 -44 0
7218 -7217 44 0
7218 7217 -44 0
-7219 32 62 0
-7219 -32 -62 0
7219 -32 62 0
7219 32 -62 0
-7220 -38 74 0
-7220 38 -74 0
7220 38 74 0
7220 -38 -74 0
-7221 44 62 0
-7221 -44 -62 0
7221 -44 62 0
7221 44 -62 0
-7222 7221 74 0
-7222 -7221 -74 0
7222 -7221 74 0
7222 7221 -74 0
-7223 50 68 0
-7223 -50 -68 0
7223 -50 68 0
7223 50 -68 0
-7224 7223 80 0
-7224 -7223 -80 0
7224 -7223 80 0
7224 7223 -80 0
-7225 33 39 0
-7225 -33 -39 0
7225 -33 39 0
7225 33 -39 0
-7226 7225 45 0
-7226 -7225 -45 0
7226 -7225 45 0
7226 7225 -45 0
-7227 33 63 0
-7227 -33 -63 0
7227 -33 63 0
7227 33 -63 0
-7228 39 75 0
-7228 -39 -75 0
7228 -39 75 0
7228 39 -75 0
-7229 -45 63 0
-7229 45 -63 0
7229 45 63 0
7229 -45 -63 0
-7230 7229 75 0
-7230 -7229 -75 0
7230 -7229 75 0
7230 7229 -75 0
-7231 51 69 0
-7231 -51 -69 0
7231 -51 69 0
7231 51 -69 0
-7232 7231 81 0
-7232 -7231 -81 0
7232 -7231 81 0
7232 7231 -81 0
-7233 34 40 0
-7233 -34 -40 0
7233 -34 40 0
7233 34 -40 0
-7234 7233 46 0
-7234 -7233 -46 0
7234 -7233 46 0
7234 7233 -46 0
-7235 34 64 0
-7235 -34 -64 0
7235 -34 64 0
7235 34 -64 0
-7236 40 76 0
-7236 -40 -76 0
7236 -40 76 0
7236 40 -76 0
-7237 46 64 0
-7237 -46 -64 0
7237 -46 64 0
7237 46 -64 0
-7238 7237 76 0
-7238 -7237 -76 0
7238 -7237 76 0
7238 7237 -76 0
-7239 -52 70 0
-7239 52 -70 0
7239 52 70 0
7239 -52 -70 0
-7240 7239 82 0
-7240 -7239 -82 0
7240 -7239 82 0
7240 7239 -82 0
-7241 35 41 0
-7241 -35 -41 0
7241 -35 41 0
7241 35 -41 0
-7242 7241 47 0
-7242 -7241 -47 0
7242 -7241 47 0
7242 7241 -47 0
-7243 35 65 0
-7243 -35 -65 0
7243 -35 65 0
7243 35 -65 0
-7244 41 77 0
-7244 -41 -77 0
7244 -41 77 0
7244 41 -77 0
-7245 47 65 0
-7245 -47 -65 0
7245 -47 65 0
7245 47 -65 0
-7246 7245 77 0
-7246 -7245 -77 0
7246 -7245 77 0
7246 7245 -77 0
-7247 53 71 0
-7247 -53 -71 0
7247 -53 71 0
7247 53 -71 0
-7248 7247 83 0
-7248 -7247 -83 0
7248 -7247 83 0
7248 7247 -83 0
-7249 36 42 0
-7249 -36 -42 0
7249 -36 42 0
7249 36 -42 0
-7250 7249 48 0
-7250 -7249 -48 0
7250 -7249 48 0
7250 7249 -48 0
-7251 36 66 0
-7251 -36 -66 0
7251 -36 66 0
7251 36 -66 0
-7252 42 78 0
-7252 -42 -78 0
7252 -42 78 0
7252 42 -78 0
-7253 48 66 0
-7253 -48 -66 0
7253 -48 66 0
7253 48 -66 0
-7254 7253 78 0
-7254 -7253 -78 0
7254 -7253 78 0
7254 7253 -78 0
-7255 54 72 0
-7255 -54 -72 0
7255 -54 72 0
7255 54 -72 0
-7256 7255 84 0
-7256 -7255 -84 0
7256 -7255 84 0
7256 7255 -84 0
-7257 97 103 0
-7257 -97 -103 0
7257 -97 103 0
7257 97 -103 0
-7258 7257 109 0
-7258 -7257 -109 0
7258 -7257 109 0
7258 7257 -109 0
-7259 7258 115 0
-7259 -7258 -115 0
7259 -7258 115 0
7259 7258 -115 0
-7260 -7259 31 0
-7260 7259 -31 0
7260 7259 31 0
7260 -7259 -31 0
-7261 7260 37 0
-7261 -7260 -37 0
7261 -7260 37 0
7261 7260 -37 0
-7262 7261 43 0
-7262 -7261 -43 0
7262 -7261 43 0
7262 7261 -43 0
-7263 7262 61 0
-7263 -7262 -61 0
7263 -7262 61 0
7263 7262 -61 0
-7264 7263 73 0
-7264 -7263 -73 0
7264 -7263 73 0
7264 7263 -73 0
-7265 98 104 0
-7265 -98 -104 0
7265 -98 104 0
7265 98 -104 0
-7266 7265 110 0
-7266 -7265 -110 0
7266 -7265 110 0
7266 7265 -110 0
-7267 7266 116 0
-7267 -7266 -116 0
7267 -7266 116 0
7267 7266 -116 0
-7268 -7267 32 0
-7268 7267 -32 0
7268 7267 32 0
7268 -7267 -32 0
-7269 7268 38 0
-7269 -7268 -38 0
7269 -7268 38 0
7269 7268 -38 0
-7270 7269 44 0
-7270 -7269 -44 0
7270 -7269 44 0
7270 7269 -44 0
-7271 7270 62 0
-7271 -7270 -62 0
7271 -7270 62 0
7271 7270 -62 0
-7272 7271 74 0
-7272 -7271 -74 0
7272 -7271 74 0
7272 7271 -74 0
-7273 99 105 0
-7273 -99 -105 0
7273 -99 105 0
7273 99 -105 0
-7274 7273 111 0
-7274 -7273 -111 0
7274 -7273 111 0
7274 7273 -111 0
-7275 7274 117 0
-7275 -7274 -117 0
7275 -7274 117 0
7275 7274 -117 0
-7276 -7275 33 0
-7276 7275 -33 0
7276 7275 33 0
7276 -7275 -33 0
-7277 7276 39 0
-7277 -7276 -39 0
7277 -7276 39 0
7277 7276 -39 0
-7278 7277 45 0
-7278 -7277 -45 0
7278 -7277 45 0
7278 7277 -45 0
-7279 7278 63 0
-7279 -7278 -63 0
7279 -7278 63 0
7279 7278 -63 0
-7280 7279 75 0
-7280 -7279 -75 0
7280 -7279 75 0
7280 7279 -75 0
-7281 100 106 0
-7281 -100 -106 0
7281 -100 106 0
7281 100 -106 0
-7282 7281 112 0
-7282 -7281 -112 0
7282 -7281 112 0
7282 7281 -112 0
-7283 7282 118 0
-7283 -7282 -118 0
7283 -7282 118 0
7283 7282 -118 0
-7284 7283 34 0
-7284 -7283 -34 0
7284 -7283 34 0
7284 7283 -34 0
-7285 7284 40 0
-7285 -7284 -40 0
7285 -7284 40 0
7285 7284 -40 0
-7286 7285 46 0
-7286 -7285 -46 0
7286 -7285 46 0
7286 7285 -46 0
-7287 7286 64 0
-7287 -7286 -64 0
7287 -7286 64 0
7287 7286 -64 0
-7288 7287 76 0
-7288 -7287 -76 0
7288 -7287 76 0
7288 7287 -76 0
-7289 -107 113 0
-7289 107 -113 0
7289 107 113 0
7289 -107 -113 0
-7290 7289 119 0
-7290 -7289 -119 0
7290 -7289 119 0
7290 7289 -119 0
-7291 7290 35 0
-7291 -7290 -35 0
7291 -7290 35 0
7291 7290 -35 0
-7292 7291 41 0
-7292 -7291 -41 0
7292 -7291 41 0
7292 7291 -41 0
-7293 7292 47 0
-7293 -7292 -47 0
7293 -7292 47 0
7293 7292 -47 0
-7294 7293 65 0
-7294 -7293 -65 0
7294 -7293 65 0
7294 7293 -65 0
-7295 7294 77 0
-7295 -7294 -77 0
7295 -7294 77 0
7295 7294 -77 0
-7296 102 108 0
-7296 -102 -108 0
7296 -102 108 0
7296 102 -108 0
-7297 7296 114 0
-7297 -7296 -114 0
7297 -7296 114 0
7297 7296 -114 0
-7298 7297 120 0
-7298 -7297 -120 0
7298 -7297 120 0
7298 7297 -120 0
-7299 7298 36 0
-7299 -7298 -36 0
7299 -7298 36 0
7299 7298 -36 0
-7300 7299 42 0
-7300 -7299 -42 0
7300 -7299 42 0
7300 7299 -42 0
-7301 7300 48 0
-7301 -7300 -48 0
7301 -7300 48 0
7301 7300 -48 0
-7302 7301 66 0
-7302 -7301 -66 0
7302 -7301 66 0
7302 7301 -66 0
-7303 7302 78 0
-7303 -7302 -78 0
7303 -7302 78 0
7303 7302 -78 0
7304 7305 7306 7307 7308 7309 0
-7310 7304 7305 0
-7310 -7304 -7305 0
7310 -7304 7305 0
7310 7304 -7305 0
-7311 7310 7306 0
-7311 -7310 -7306 0
7311 -7310 7306 0
7311 7310 -7306 0
-7311 0
-7312 7304 0
-7312 7210 0
7312 -7304 -7210 0
-7313 7305 0
-7313 7218 0
7313 -7305 -7218 0
-7314 7306 0
-7314 7226 0
7314 -7306 -7226 0
-7315 7307 0
-7315 7234 0
7315 -7307 -7234 0
-7316 7308 0
-7316 7242 0
7316 -7308 -7242 0
-7317 7309 0
-7317 7250 0
7317 -7309 -7250 0
-7318 7312 7313 0
-7318 -7312 -7313 0
7318 -7312 7313 0
7318 7312 -7313 0
-7319 7318 7314 0
-7319 -7318 -7314 0
7319 -7318 7314 0
7319 7318 -7314 0
-7320 7319 7315 0
-7320 -7319 -7315 0
7320 -7319 7315 0
7320 7319 -7315 0
-7321 7320 7316 0
-7321 -7320 -7316 0
7321 -7320 7316 0
7321 7320 -7316 0
-7322 7321 7317 0
-7322 -7321 -7317 0
7322 -7321 7317 0
7322 7321 -7317 0
-7322 0
-7323 7304 0
-7323 7211 0
7323 -7304 -7211 0
-7324 7305 0
-7324 7219 0
7324 -7305 -7219 0
-7325 7306 0
-7325 7227 0
7325 -7306 -7227 0
-7326 7307 0
-7326 7235 0
7326 -7307 -7235 0
-7327 7308 0
-7327 7243 0
7327 -7308 -7243 0
-7328 7309 0
-7328 7251 0
7328 -7309 -7251 0
-7329 7323 7324 0
-7329 -7323 -7324 0
7329 -7323 7324 0
7329 7323 -7324 0
-7330 7329 7325 0
-7330 -7329 -7325 0
7330 -7329 7325 0
7330 7329 -7325 0
-7331 7330 7326 0
-7331 -7330 -7326 0
7331 -7330 7326 0
7331 7330 -7326 0
-7332 7331 7327 0
-7332 -7331 -7327 0
7332 -7331 7327 0
7332 7331 -7327 0
-7333 7332 7328 0
-7333 -7332 -7328 0
7333 -7332 7328 0
7333 7332 -7328 0
-7333 0
-7334 7304 0
-7334 7212 0
7334 -7304 -7212 0
-7335 7305 0
-7335 7220 0
7335 -7305 -7220 0
-7336 7306 0
-7336 7228 0
7336 -7306 -7228 0
-7337 7307 0
-7337 7236 0
7337 -7307 -7236 0
-7338 7308 0
-7338 7244 0
7338 -7308 -7244 0
-7339 7309 0
-7339 7252 0
7339 -7309 -7252 0
-7340 7334 7335 0
-7340 -7334 -7335 0
7340 -7334 7335 0
7340 7334 -7335 0
-7341 7340 7336 0
-7341 -7340 -7336 0
7341 -7340 7336 0
7341 7340 -7336 0
-7342 7341 7337 0
-7342 -7341 -7337 0
7342 -7341 7337 0
7342 7341 -7337 0
-7343 7342 7338 0
-7343 -7342 -7338 0
7343 -7342 7338 0
7343 7342 -7338 0
-7344 7343 7339 0
-7344 -7343 -7339 0
7344 -7343 7339 0
7344 7343 -7339 0
-7344 0
-7345 7304 0
-7345 7214 0
7345 -7304 -7214 0
-7346 7305 0
-7346 7222 0
7346 -7305 -7222 0
-7347 7306 0
-7347 7230 0
7347 -7306 -7230 0
-7348 7307 0
-7348 7238 0
7348 -7307 -7238 0
-7349 7308 0
-7349 7246 0
7349 -7308 -7246 0
-7350 7309 0
-7350 7254 0
7350 -7309 -7254 0
-7351 7345 7346 0
-7351 -7345 -7346 0
7351 -7345 7346 0
7351 7345 -7346 0
-7352 7351 7347 0
-7352 -7351 -7347 0
7352 -7351 7347 0
7352 7351 -7347 0
-7353 7352 7348 0
-7353 -7352 -7348 0
7353 -7352 7348 0
7353 7352 -7348 0
-7354 7353 7349 0
-7354 -7353 -7349 0
7354 -7353 7349 0
7354 7353 -7349 0
-7355 7354 7350 0
-7355 -7354 -7350 0
7355 -7354 7350 0
7355 7354 -7350 0
-7355 0
-7356 7304 0
-7356 7216 0
7356 -7304 -7216 0
-7357 7305 0
-7357 7224 0
7357 -7305 -7224 0
-7358 7306 0
-7358 7232 0
7358 -7306 -7232 0
-7359 7307 0
-7359 7240 0
7359 -7307 -7240 0
-7360 7308 0
-7360 7248 0
7360 -7308 -7248 0
-7361 7309 0
-7361 7256 0
7361 -7309 -7256 0
-7362 7356 7357 0
-7362 -7356 -7357 0
7362 -7356 7357 0
7362 7356 -7357 0
-7363 7362 7358 0
-7363 -7362 -7358 0
7363 -7362 7358 0
7363 7362 -7358 0
-7364 7363 7359 0
-7364 -7363 -7359 0
7364 -7363 7359 0
7364 7363 -7359 0
-7365 7364 7360 0
-7365 -7364 -7360 0
7365 -7364 7360 0
7365 7364 -7360 0
-7366 7365 7361 0
-7366 -7365 -7361 0
7366 -7365 7361 0
7366 7365 -7361 0
-7366 0
-7367 7304 0
-7367 7264 0
7367 -7304 -7264 0
-7368 7305 0
-7368 7272 0
7368 -7305 -7272 0
-7369 7306 0
-7369 7280 0
7369 -7306 -7280 0
-7370 7307 0
-7370 7288 0
7370 -7307 -7288 0
-7371 7308 0
-7371 7295 0
7371 -7308 -7295 0
-7372 7309 0
-7372 7303 0
7372 -7309 -7303 0
-7373 7367 7368 0
-7373 -7367 -7368 0
7373 -7367 7368 0
7373 7367 -7368 0
-7374 7373 7369 0
-7374 -7373 -7369 0
7374 -7373 7369 0
7374 7373 -7369 0
-7375 7374 7370 0
-7375 -7374 -7370 0
7375 -7374 7370 0
7375 7374 -7370 0
-7376 7375 7371 0
-7376 -7375 -7371 0
7376 -7375 7371 0
7376 7375 -7371 0
-7377 7376 7372 0
-7377 -7376 -7372 0
7377 -7376 7372 0
7377 7376 -7372 0
7378 7379 7380 7381 7382 7383 0
-7384 7378 7379 0
-7384 -7378 -7379 0
7384 -7378 7379 0
7384 7378 -7379 0
-7385 7384 7380 0
-7385 -7384 -7380 0
7385 -7384 7380 0
7385 7384 -7380 0
-7385 0
-7386 7378 0
-7386 7210 0
7386 -7378 -7210 0
-7387 7379 0
-7387 7218 0
7387 -7379 -7218 0
-7388 7380 0
-7388 7226 0
7388 -7380 -7226 0
-7389 7381 0
-7389 7234 0
7389 -7381 -7234 0
-7390 7382 0
-7390 7242 0
7390 -7382 -7242 0
-7391 7383 0
-7391 7250 0
7391 -7383 -7250 0
-7392 7386 7387 0
-7392 -7386 -7387 0
7392 -7386 7387 0
7392 7386 -7387 0
-7393 7392 7388 0
-7393 -7392 -7388 0
7393 -7392 7388 0
7393 7392 -7388 0
-7394 7393 7389 0
-7394 -7393 -7389 0
7394 -7393 7389 0
7394 7393 -7389 0
-7395 7394 7390 0
-7395 -7394 -7390 0
7395 -7394 7390 0
7395 7394 -7390 0
-7396 7395 7391 0
-7396 -7395 -7391 0
7396 -7395 7391 0
7396 7395 -7391 0
-7396 0
-7397 7378 0
-7397 7211 0
7397 -7378 -7211 0
-7398 7379 0
-7398 7219 0
7398 -7379 -7219 0
-7399 7380 0
-7399 7227 0
7399 -7380 -7227 0
-7400 7381 0
-7400 7235 0
7400 -7381 -7235 0
-7401 7382 0
-7401 7243 0
7401 -7382 -7243 0
-7402 7383 0
-7402 7251 0
7402 -7383 -7251 0
-7403 7397 7398 0
-7403 -7397 -7398 0
7403 -7397 7398 0
7403 7397 -7398 0
-7404 7403 7399 0
-7404 -7403 -7399 0
7404 -7403 7399 0
7404 7403 -7399 0
-7405 7404 7400 0
-7405 -7404 -7400 0
7405 -7404 7400 0
7405 7404 -7400 0
-7406 7405 7401 0
-7406 -7405 -7401 0
7406 -7405 7401 0
7406 7405 -7401 0
-7407 7406 7402 0
-7407 -7406 -7402 0
7407 -7406 7402 0
7407 7406 -7402 0
-7407 0
-7408 7378 0
-7408 7212 0
7408 -7378 -7212 0
-7409 7379 0
-7409 7220 0
7409 -7379 -7220 0
-7410 7380 0
-7410 7228 0
7410 -7380 -7228 0
-7411 7381 0
-7411 7236 0
7411 -7381 -7236 0
-7412 7382 0
-7412 7244 0
7412 -7382 -7244 0
-7413 7383 0
-7413 7252 0
7413 -7383 -7252 0
-7414 7408 7409 0
-7414 -7408 -7409 0
7414 -7408 7409 0
7414 7408 -7409 0
-7415 7414 7410 0
-7415 -7414 -7410 0
7415 -7414 7410 0
7415 7414 -7410 0
-7416 7415 7411 0
-7416 -7415 -7411 0
7416 -7415 7411 0
7416 7415 -7411 0
-7417 7416 7412 0
-7417 -7416 -7412 0
7417 -7416 7412 0
7417 7416 -7412 0
-7418 7417 7413 0
-7418 -7417 -7413 0
7418 -7417 7413 0
7418 7417 -7413 0
-7418 0
-7419 7378 0
-7419 7214 0
7419 -7378 -7214 0
-7420 7379 0
-7420 7222 0
7420 -7379 -7222 0
-7421 7380 0
-7421 7230 0
7421 -7380 -7230 0
-7422 7381 0
-7422 7238 0
7422 -7381 -7238 0
-7423 7382 0
-7423 7246 0
7423 -7382 -7246 0
-7424 7383 0
-7424 7254 0
7424 -7383 -7254 0
-7425 7419 7420 0
-7425 -7419 -7420 0
7425 -7419 7420 0
7425 7419 -7420 0
-7426 7425 7421 0
-7426 -7425 -7421 0
7426 -7425 7421 0
7426 7425 -7421 0
-7427 7426 7422 0
-7427 -7426 -7422 0
7427 -7426 7422 0
7427 7426 -7422 0
-7428 7427 7423 0
-7428 -7427 -7423 0
7428 -7427 7423 0
7428 7427 -7423 0
-7429 7428 7424 0
-7429 -7428 -7424 0
7429 -7428 7424 0
7429 7428 -7424 0
-7429 0
-7430 7378 0
-7430 7216 0
7430 -7378 -7216 0
-7431 7379 0
-7431 7224 0
7431 -7379 -7224 0
-7432 7380 0
-7432 7232 0
7432 -7380 -7232 0
-7433 7381 0
-7433 7240 0
7433 -7381 -7240 0
-7434 7382 0
-7434 7248 0
7434 -7382 -7248 0
-7435 7383 0
-7435 7256 0
7435 -7383 -7256 0
-7436 7430 7431 0
-7436 -7430 -7431 0
7436 -7430 7431 0
7436 7430 -7431 0
-7437 7436 7432 0
-7437 -7436 -7432 0
7437 -7436 7432 0
7437 7436 -7432 0
-7438 7437 7433 0
-7438 -7437 -7433 0
7438 -7437 7433 0
7438 7437 -7433 0
-7439 7438 7434 0
-7439 -7438 -7434 0
7439 -7438 7434 0
7439 7438 -7434 0
-7440 7439 7435 0
-7440 -7439 -7435 0
7440 -7439 7435 0
7440 7439 -7435 0
-7440 0
-7441 7378 0
-7441 7264 0
7441 -7378 -7264 0
-7442 7379 0
-7442 7272 0
7442 -7379 -7272 0
-7443 7380 0
-7443 7280 0
7443 -7380 -7280 0
-7444 7381 0
-7444 7288 0
7444 -7381 -7288 0
-7445 7382 0
-7445 7295 0
7445 -7382 -7295 0
-7446 7383 0
-7446 7303 0
7446 -7383 -7303 0
-7447 7441 7442 0
-7447 -7441 -7442 0
7447 -7441 7442 0
7447 7441 -7442 0
-7448 7447 7443 0
-7448 -7447 -7443 0
7448 -7447 7443 0
7448 7447 -7443 0
-7449 7448 7444 0
-7449 -7448 -7444 0
7449 -7448 7444 0
7449 7448 -7444 0
-7450 7449 7445 0
-7450 -7449 -7445 0
7450 -7449 7445 0
7450 7449 -7445 0
-7451 7450 7446 0
-7451 -7450 -7446 0
7451 -7450 7446 0
7451 7450 -7446 0
-7452 7304 7378 0
-7452 -7304 -7378 0
7452 -7304 7378 0
7452 7304 -7378 0
-7453 7305 7379 0
-7453 -7305 -7379 0
7453 -7305 7379 0
7453 7305 -7379 0
-7454 7306 7380 0
-7454 -7306 -7380 0
7454 -7306 7380 0
7454 7306 -7380 0
-7455 7307 7381 0
-7455 -7307 -7381 0
7455 -7307 7381 0
7455 7307 -7381 0
-7456 7308 7382 0
-7456 -7308 -7382 0
7456 -7308 7382 0
7456 7308 -7382 0
-7457 7309 7383 0
-7457 -7309 -7383 0
7457 -7309 7383 0
7457 7309 -7383 0
7452 7453 7454 7455 7456 7457 0
7377 7451 0
7458 7459 7460 7461 7462 7463 0
-7461 0
-7464 7458 0
-7464 49 0
7464 -7458 -49 0
-7465 7459 0
-7465 50 0
7465 -7459 -50 0
-7466 7460 0
-7466 51 0
7466 -7460 -51 0
-7467 7461 0
-7467 52 0
7467 -7461 -52 0
-7468 7462 0
-7468 53 0
7468 -7462 -53 0
-7469 7463 0
-7469 54 0
7469 -7463 -54 0
-7470 7464 7465 0
-7470 -7464 -7465 0
7470 -7464 7465 0
7470 7464 -7465 0
-7471 7470 7466 0
-7471 -7470 -7466 0
7471 -7470 7466 0
7471 7470 -7466 0
-7472 7471 7467 0
-7472 -7471 -7467 0
7472 -7471 7467 0
7472 7471 -7467 0
-7473 7472 7468 0
-7473 -7472 -7468 0
7473 -7472 7468 0
7473 7472 -7468 0
-7474 7473 7469 0
-7474 -7473 -7469 0
7474 -7473 7469 0
7474 7473 -7469 0
-7474 0
-7475 7458 0
-7475 67 0
7475 -7458 -67 0
-7476 7459 0
-7476 68 0
7476 -7459 -68 0
-7477 7460 0
-7477 69 0
7477 -7460 -69 0
-7478 7461 0
-7478 70 0
7478 -7461 -70 0
-7479 7462 0
-7479 71 0
7479 -7462 -71 0
-7480 7463 0
-7480 72 0
7480 -7463 -72 0
-7481 7475 7476 0
-7481 -7475 -7476 0
7481 -7475 7476 0
7481 7475 -7476 0
-7482 7481 7477 0
-7482 -7481 -7477 0
7482 -7481 7477 0
7482 7481 -7477 0
-7483 7482 7478 0
-7483 -7482 -7478 0
7483 -7482 7478 0
7483 7482 -7478 0
-7484 7483 7479 0
-7484 -7483 -7479 0
7484 -7483 7479 0
7484 7483 -7479 0
-7485 7484 7480 0
-7485 -7484 -7480 0
7485 -7484 7480 0
7485 7484 -7480 0
-7485 0
-7486 7458 0
-7486 79 0
7486 -7458 -79 0
-7487 7459 0
-7487 80 0
7487 -7459 -80 0
-7488 7460 0
-7488 81 0
7488 -7460 -81 0
-7489 7461 0
-7489 82 0
7489 -7461 -82 0
-7490 7462 0
-7490 83 0
7490 -7462 -83 0
-7491 7463 0
-7491 84 0
7491 -7463 -84 0
-7492 7486 7487 0
-7492 -7486 -7487 0
7492 -7486 7487 0
7492 7486 -7487 0
-7493 7492 7488 0
-7493 -7492 -7488 0
7493 -7492 7488 0
7493 7492 -7488 0
-7494 7493 7489 0
-7494 -7493 -7489 0
7494 -7493 7489 0
7494 7493 -7489 0
-7495 7494 7490 0
-7495 -7494 -7490 0
7495 -7494 7490 0
7495 7494 -7490 0
-7496 7495 7491 0
-7496 -7495 -7491 0
7496 -7495 7491 0
7496 7495 -7491 0
-7496 0
-7497 7458 0
-7497 121 0
7497 -7458 -121 0
-7498 7459 0
-7498 122 0
7498 -7459 -122 0
-7499 7460 0
-7499 123 0
7499 -7460 -123 0
-7500 7461 0
-7500 124 0
7500 -7461 -124 0
-7501 7462 0
-7501 125 0
7501 -7462 -125 0
-7502 7463 0
-7502 126 0
7502 -7463 -126 0
-7503 7497 7498 0
-7503 -7497 -7498 0
7503 -7497 7498 0
7503 7497 -7498 0
-7504 7503 7499 0
-7504 -7503 -7499 0
7504 -7503 7499 0
7504 7503 -7499 0
-7505 7504 7500 0
-7505 -7504 -7500 0
7505 -7504 7500 0
7505 7504 -7500 0
-7506 7505 7501 0
-7506 -7505 -7501 0
7506 -7505 7501 0
7506 7505 -7501 0
-7507 7506 7502 0
-7507 -7506 -7502 0
7507 -7506 7502 0
7507 7506 -7502 0
7508 7509 7510 7511 7512 7513 0
-7511 0
-7514 7508 0
-7514 49 0
7514 -7508 -49 0
-7515 7509 0
-7515 50 0
7515 -7509 -50 0
-7516 7510 0
-7516 51 0
7516 -7510 -51 0
-7517 7511 0
-7517 52 0
7517 -7511 -52 0
-7518 7512 0
-7518 53 0
7518 -7512 -53 0
-7519 7513 0
-7519 54 0
7519 -7513 -54 0
-7520 7514 7515 0
-7520 -7514 -7515 0
7520 -7514 7515 0
7520 7514 -7515 0
-7521 7520 7516 0
-7521 -7520 -7516 0
7521 -7520 7516 0
7521 7520 -7516 0
-7522 7521 7517 0
-7522 -7521 -7517 0
7522 -7521 7517 0
7522 7521 -7517 0
-7523 7522 7518 0
-7523 -7522 -7518 0
7523 -7522 7518 0
7523 7522 -7518 0
-7524 7523 7519 0
-7524 -7523 -7519 0
7524 -7523 7519 0
7524 7523 -7519 0
-7524 0
-7525 7508 0
-7525 67 0
7525 -7508 -67 0
-7526 7509 0
-7526 68 0
7526 -7509 -68 0
-7527 7510 0
-7527 69 0
7527 -7510 -69 0
-7528 7511 0
-7528 70 0
7528 -7511 -70 0
-7529 7512 0
-7529 71 0
7529 -7512 -71 0
-7530 7513 0
-7530 72 0
7530 -7513 -72 0
-7531 7525 7526 0
-7531 -7525 -7526 0
7531 -7525 7526 0
7531 7525 -7526 0
-7532 7531 7527 0
-7532 -7531 -7527 0
7532 -7531 7527 0
7532 7531 -7527 0
-7533 7532 7528 0
-7533 -7532 -7528 0
7533 -7532 7528 0
7533 7532 -7528 0
-7534 7533 7529 0
-7534 -7533 -7529 0
7534 -7533 7529 0
7534 7533 -7529 0
-7535 7534 7530 0
-7535 -7534 -7530 0
7535 -7534 7530 0
7535 7534 -7530 0
-7535 0
-7536 7508 0
-7536 79 0
7536 -7508 -79 0
-7537 7509 0
-7537 80 0
7537 -7509 -80 0
-7538 7510 0
-7538 81 0
7538 -7510 -81 0
-7539 7511 0
-7539 82 0
7539 -7511 -82 0
-7540 7512 0
-7540 83 0
7540 -7512 -83 0
-7541 7513 0
-7541 84 0
7541 -7513 -84 0
-7542 7536 7537 0
-7542 -7536 -7537 0
7542 -7536 7537 0
7542 7536 -7537 0
-7543 7542 7538 0
-7543 -7542 -7538 0
7543 -7542 7538 0
7543 7542 -7538 0
-7544 7543 7539 0
-7544 -7543 -7539 0
7544 -7543 7539 0
7544 7543 -7539 0
-7545 7544 7540 0
-7545 -7544 -7540 0
7545 -7544 7540 0
7545 7544 -7540 0
-7546 7545 7541 0
-7546 -7545 -7541 0
7546 -7545 7541 0
7546 7545 -7541 0
-7546 0
-7547 7508 0
-7547 121 0
7547 -7508 -121 0
-7548 7509 0
-7548 122 0
7548 -7509 -122 0
-7549 7510 0
-7549 123 0
7549 -7510 -123 0
-7550 7511 0
-7550 124 0
7550 -7511 -124 0
-7551 7512 0
-7551 125 0
7551 -7512 -125 0
-7552 7513 0
-7552 126 0
7552 -7513 -126 0
-7553 7547 7548 0
-7553 -7547 -7548 0
7553 -7547 7548 0
7553 7547 -7548 0
-7554 7553 7549 0
-7554 -7553 -7549 0
7554 -7553 7549 0
7554 7553 -7549 0
-7555 7554 7550 0
-7555 -7554 -7550 0
7555 -7554 7550 0
7555 7554 -7550 0
-7556 7555 7551 0
-7556 -7555 -7551 0
7556 -7555 7551 0
7556 7555 -7551 0
-7557 7556 7552 0
-7557 -7556 -7552 0
7557 -7556 7552 0
7557 7556 -7552 0
-7558 7458 7508 0
-7558 -7458 -7508 0
7558 -7458 7508 0
7558 7458 -7508 0
-7559 7459 7509 0
-7559 -7459 -7509 0
7559 -7459 7509 0
7559 7459 -7509 0
-7560 7460 7510 0
-7560 -7460 -7510 0
7560 -7460 7510 0
7560 7460 -7510 0
-7561 7461 7511 0
-7561 -7461 -7511 0
7561 -7461 7511 0
7561 7461 -7511 0
-7562 7462 7512 0
-7562 -7462 -7512 0
7562 -7462 7512 0
7562 7462 -7512 0
-7563 7463 7513 0
-7563 -7463 -7513 0
7563 -7463 7513 0
7563 7463 -7513 0
7558 7559 7560 7561 7562 7563 0
7507 7557 0
7564 7565 7566 7567 7568 7569 0
-7567 0
-7570 7564 0
-7570 49 0
7570 -7564 -49 0
-7571 7565 0
-7571 50 0
7571 -7565 -50 0
-7572 7566 0
-7572 51 0
7572 -7566 -51 0
-7573 7567 0
-7573 52 0
7573 -7567 -52 0
-7574 7568 0
-7574 53 0
7574 -7568 -53 0
-7575 7569 0
-7575 54 0
7575 -7569 -54 0
-7576 7570 7571 0
-7576 -7570 -7571 0
7576 -7570 7571 0
7576 7570 -7571 0
-7577 7576 7572 0
-7577 -7576 -7572 0
7577 -7576 7572 0
7577 7576 -7572 0
-7578 7577 7573 0
-7578 -7577 -7573 0
7578 -7577 7573 0
7578 7577 -7573 0
-7579 7578 7574 0
-7579 -7578 -7574 0
7579 -7578 7574 0
7579 7578 -7574 0
-7580 7579 7575 0
-7580 -7579 -7575 0
7580 -7579 7575 0
7580 7579 -7575 0
-7580 0
-7581 7564 0
-7581 -67 0
7581 -7564 67 0
-7582 7565 0
-7582 68 0
7582 -7565 -68 0
-7583 7566 0
-7583 69 0
7583 -7566 -69 0
-7584 7567 0
-7584 70 0
7584 -7567 -70 0
-7585 7568 0
-7585 71 0
7585 -7568 -71 0
-7586 7569 0
-7586 72 0
7586 -7569 -72 0
-7587 7581 7582 0
-7587 -7581 -7582 0
7587 -7581 7582 0
7587 7581 -7582 0
-7588 7587 7583 0
-7588 -7587 -7583 0
7588 -7587 7583 0
7588 7587 -7583 0
-7589 7588 7584 0
-7589 -7588 -7584 0
7589 -7588 7584 0
7589 7588 -7584 0
-7590 7589 7585 0
-7590 -7589 -7585 0
7590 -7589 7585 0
7590 7589 -7585 0
-7591 7590 7586 0
-7591 -7590 -7586 0
7591 -7590 7586 0
7591 7590 -7586 0
-7591 0
-7592 7564 0
-7592 79 0
7592 -7564 -79 0
-7593 7565 0
-7593 -80 0
7593 -7565 80 0
-7594 7566 0
-7594 81 0
7594 -7566 -81 0
-7595 7567 0
-7595 82 0
7595 -7567 -82 0
-7596 7568 0
-7596 83 0
7596 -7568 -83 0
-7597 7569 0
-7597 84 0
7597 -7569 -84 0
-7598 7592 7593 0
-7598 -7592 -7593 0
7598 -7592 7593 0
7598 7592 -7593 0
-7599 7598 7594 0
-7599 -7598 -7594 0
7599 -7598 7594 0
7599 7598 -7594 0
-7600 7599 7595 0
-7600 -7599 -7595 0
7600 -7599 7595 0
7600 7599 -7595 0
-7601 7600 7596 0
-7601 -7600 -7596 0
7601 -7600 7596 0
7601 7600 -7596 0
-7602 7601 7597 0
-7602 -7601 -7597 0
7602 -7601 7597 0
7602 7601 -7597 0
-7602 0
-7566 0
-7567 0
-7603 7564 0
-7603 121 0
7603 -7564 -121 0
-7604 7565 0
-7604 122 0
7604 -7565 -122 0
-7605 7566 0
-7605 123 0
7605 -7566 -123 0
-7606 7567 0
-7606 -124 0
7606 -7567 124 0
-7607 7568 0
-7607 -125 0
7607 -7568 125 0
-7608 7569 0
-7608 126 0
7608 -7569 -126 0
-7609 7603 7604 0
-7609 -7603 -7604 0
7609 -7603 7604 0
7609 7603 -7604 0
-7610 7609 7605 0
-7610 -7609 -7605 0
7610 -7609 7605 0
7610 7609 -7605 0
-7611 7610 7606 0
-7611 -7610 -7606 0
7611 -7610 7606 0
7611 7610 -7606 0
-7612 7611 7607 0
-7612 -7611 -7607 0
7612 -7611 7607 0
7612 7611 -7607 0
-7613 7612 7608 0
-7613 -7612 -7608 0
7613 -7612 7608 0
7613 7612 -7608 0
7614 7615 7616 7617 7618 7619 0
-7617 0
-7620 7614 0
-7620 49 0
7620 -7614 -49 0
-7621 7615 0
-7621 50 0
7621 -7615 -50 0
-7622 7616 0
-7622 51 0
7622 -7616 -51 0
-7623 7617 0
-7623 52 0
7623 -7617 -52 0
-7624 7618 0
-7624 53 0
7624 -7618 -53 0
-7625 7619 0
-7625 54 0
7625 -7619 -54 0
-7626 7620 7621 0
-7626 -7620 -7621 0
7626 -7620 7621 0
7626 7620 -7621 0
-7627 7626 7622 0
-7627 -7626 -7622 0
7627 -7626 7622 0
7627 7626 -7622 0
-7628 7627 7623 0
-7628 -7627 -7623 0
7628 -7627 7623 0
7628 7627 -7623 0
-7629 7628 7624 0
-7629 -7628 -7624 0
7629 -7628 7624 0
7629 7628 -7624 0
-7630 7629 7625 0
-7630 -7629 -7625 0
7630 -7629 7625 0
7630 7629 -7625 0
-7630 0
-7631 7614 0
-7631 -67 0
7631 -7614 67 0
-7632 7615 0
-7632 68 0
7632 -7615 -68 0
-7633 7616 0
-7633 69 0
7633 -7616 -69 0
-7634 7617 0
-7634 70 0
7634 -7617 -70 0
-7635 7618 0
-7635 71 0
7635 -7618 -71 0
-7636 7619 0
-7636 72 0
7636 -7619 -72 0
-7637 7631 7632 0
-7637 -7631 -7632 0
7637 -7631 7632 0
7637 7631 -7632 0
-7638 7637 7633 0
-7638 -7637 -7633 0
7638 -7637 7633 0
7638 7637 -7633 0
-7639 7638 7634 0
-7639 -7638 -7634 0
7639 -7638 7634 0
7639 7638 -7634 0
-7640 7639 7635 0
-7640 -7639 -7635 0
7640 -7639 7635 0
7640 7639 -7635 0
-7641 7640 7636 0
-7641 -7640 -7636 0
7641 -7640 7636 0
7641 7640 -7636 0
-7641 0
-7642 7614 0
-7642 79 0
7642 -7614 -79 0
-7643 7615 0
-7643 -80 0
7643 -7615 80 0
-7644 7616 0
-7644 81 0
7644 -7616 -81 0
-7645 7617 0
-7645 82 0
7645 -7617 -82 0
-7646 7618 0
-7646 83 0
7646 -7618 -83 0
-7647 7619 0
-7647 84 0
7647 -7619 -84 0
-7648 7642 7643 0
-7648 -7642 -7643 0
7648 -7642 7643 0
7648 7642 -7643 0
-7649 7648 7644 0
-7649 -7648 -7644 0
7649 -7648 7644 0
7649 7648 -7644 0
-7650 7649 7645 0
-7650 -7649 -7645 0
7650 -7649 7645 0
7650 7649 -7645 0
-7651 7650 7646 0
-7651 -7650 -7646 0
7651 -7650 7646 0
7651 7650 -7646 0
-7652 7651 7647 0
-7652 -7651 -7647 0
7652 -7651 7647 0
7652 7651 -7647 0
-7652 0
-7616 0
-7617 0
-7653 7614 0
-7653 121 0
7653 -7614 -121 0
-7654 7615 0
-7654 122 0
7654 -7615 -122 0
-7655 7616 0
-7655 123 0
7655 -7616 -123 0
-7656 7617 0
-7656 -124 0
7656 -7617 124 0
-7657 7618 0
-7657 -125 0
7657 -7618 125 0
-7658 7619 0
-7658 126 0
7658 -7619 -126 0
-7659 7653 7654 0
-7659 -7653 -7654 0
7659 -7653 7654 0
7659 7653 -7654 0
-7660 7659 7655 0
-7660 -7659 -7655 0
7660 -7659 7655 0
7660 7659 -7655 0
-7661 7660 7656 0
-7661 -7660 -7656 0
7661 -7660 7656 0
7661 7660 -7656 0
-7662 7661 7657 0
-7662 -7661 -7657 0
7662 -7661 7657 0
7662 7661 -7657 0
-7663 7662 7658 0
-7663 -7662 -7658 0
7663 -7662 7658 0
7663 7662 -7658 0
-7664 7564 7614 0
-7664 -7564 -7614 0
7664 -7564 7614 0
7664 7564 -7614 0
-7665 7565 7615 0
-7665 -7565 -7615 0
7665 -7565 7615 0
7665 7565 -7615 0
-7666 7566 7616 0
-7666 -7566 -7616 0
7666 -7566 7616 0
7666 7566 -7616 0
-7667 7567 7617 0
-7667 -7567 -7617 0
7667 -7567 7617 0
7667 7567 -7617 0
-7668 7568 7618 0
-7668 -7568 -7618 0
7668 -7568 7618 0
7668 7568 -7618 0
-7669 7569 7619 0
-7669 -7569 -7619 0
7669 -7569 7619 0
7669 7569 -7619 0
7664 7665 7666 7667 7668 7669 0
7613 7663 0
-7670 31 67 0
-7670 -31 -67 0
7670 -31 67 0
7670 31 -67 0
-7671 37 79 0
-7671 -37 -79 0
7671 -37 79 0
7671 37 -79 0
-7672 32 68 0
-7672 -32 -68 0
7672 -32 68 0
7672 32 -68 0
-7673 38 80 0
-7673 -38 -80 0
7673 -38 80 0
7673 38 -80 0
-7674 33 69 0
-7674 -33 -69 0
7674 -33 69 0
7674 33 -69 0
-7675 39 81 0
-7675 -39 -81 0
7675 -39 81 0
7675 39 -81 0
-7676 34 70 0
-7676 -34 -70 0
7676 -34 70 0
7676 34 -70 0
-7677 40 82 0
-7677 -40 -82 0
7677 -40 82 0
7677 40 -82 0
-7678 35 71 0
-7678 -35 -71 0
7678 -35 71 0
7678 35 -71 0
-7679 41 83 0
-7679 -41 -83 0
7679 -41 83 0
7679 41 -83 0
-7680 36 72 0
-7680 -36 -72 0
7680 -36 72 0
7680 36 -72 0
-7681 42 84 0
-7681 -42 -84 0
7681 -42 84 0
7681 42 -84 0
-7682 97 121 0
-7682 -97 -121 0
7682 -97 121 0
7682 97 -121 0
-7683 7682 49 0
-7683 -7682 -49 0
7683 -7682 49 0
7683 7682 -49 0
-7684 98 122 0
-7684 -98 -122 0
7684 -98 122 0
7684 98 -122 0
-7685 7684 50 0
-7685 -7684 -50 0
7685 -7684 50 0
7685 7684 -50 0
-7686 99 123 0
-7686 -99 -123 0
7686 -99 123 0
7686 99 -123 0
-7687 7686 51 0
-7687 -7686 -51 0
7687 -7686 51 0
7687 7686 -51 0
-7688 100 124 0
-7688 -100 -124 0
7688 -100 124 0
7688 100 -124 0
-7689 7688 52 0
-7689 -7688 -52 0
7689 -7688 52 0
7689 7688 -52 0
-7690 125 53 0
-7690 -125 -53 0
7690 -125 53 0
7690 125 -53 0
-7691 102 126 0
-7691 -102 -126 0
7691 -102 126 0
7691 102 -126 0
-7692 7691 54 0
-7692 -7691 -54 0
7692 -7691 54 0
7692 7691 -54 0
7693 7694 7695 7696 7697 7698 0
-7696 0
-7699 7693 0
-7699 49 0
7699 -7693 -49 0
-7700 7694 0
-7700 50 0
7700 -7694 -50 0
-7701 7695 0
-7701 51 0
7701 -7695 -51 0
-7702 7696 0
-7702 52 0
7702 -7696 -52 0
-7703 7697 0
-7703 53 0
7703 -7697 -53 0
-7704 7698 0
-7704 54 0
7704 -7698 -54 0
-7705 7699 7700 0
-7705 -7699 -7700 0
7705 -7699 7700 0
7705 7699 -7700 0
-7706 7705 7701 0
-7706 -7705 -7701 0
7706 -7705 7701 0
7706 7705 -7701 0
-7707 7706 7702 0
-7707 -7706 -7702 0
7707 -7706 7702 0
7707 7706 -7702 0
-7708 7707 7703 0
-7708 -7707 -7703 0
7708 -7707 7703 0
7708 7707 -7703 0
-7709 7708 7704 0
-7709 -7708 -7704 0
7709 -7708 7704 0
7709 7708 -7704 0
-7709 0
-7710 7693 0
-7710 7670 0
7710 -7693 -7670 0
-7711 7694 0
-7711 7672 0
7711 -7694 -7672 0
-7712 7695 0
-7712 7674 0
7712 -7695 -7674 0
-7713 7696 0
-7713 7676 0
7713 -7696 -7676 0
-7714 7697 0
-7714 7678 0
7714 -7697 -7678 0
-7715 7698 0
-7715 7680 0
7715 -7698 -7680 0
-7716 7710 7711 0
-7716 -7710 -7711 0
7716 -7710 7711 0
7716 7710 -7711 0
-7717 7716 7712 0
-7717 -7716 -7712 0
7717 -7716 7712 0
7717 7716 -7712 0
-7718 7717 7713 0
-7718 -7717 -7713 0
7718 -7717 7713 0
7718 7717 -7713 0
-7719 7718 7714 0
-7719 -7718 -7714 0
7719 -7718 7714 0
7719 7718 -7714 0
-7720 7719 7715 0
-7720 -7719 -7715 0
7720 -7719 7715 0
7720 7719 -7715 0
-7720 0
-7721 7693 0
-7721 7671 0
7721 -7693 -7671 0
-7722 7694 0
-7722 7673 0
7722 -7694 -7673 0
-7723 7695 0
-7723 7675 0
7723 -7695 -7675 0
-7724 7696 0
-7724 7677 0
7724 -7696 -7677 0
-7725 7697 0
-7725 7679 0
7725 -7697 -7679 0
-7726 7698 0
-7726 7681 0
7726 -7698 -7681 0
-7727 7721 7722 0
-7727 -7721 -7722 0
7727 -7721 7722 0
7727 7721 -7722 0
-7728 7727 7723 0
-7728 -7727 -7723 0
7728 -7727 7723 0
7728 7727 -7723 0
-7729 7728 7724 0
-7729 -7728 -7724 0
7729 -7728 7724 0
7729 7728 -7724 0
-7730 7729 7725 0
-7730 -7729 -7725 0
7730 -7729 7725 0
7730 7729 -7725 0
-7731 7730 7726 0
-7731 -7730 -7726 0
7731 -7730 7726 0
7731 7730 -7726 0
-7731 0
-7732 7693 0
-7732 43 0
7732 -7693 -43 0
-7733 7694 0
-7733 44 0
7733 -7694 -44 0
-7734 7695 0
-7734 45 0
7734 -7695 -45 0
-7735 7696 0
-7735 46 0
7735 -7696 -46 0
-7736 7697 0
-7736 47 0
7736 -7697 -47 0
-7737 7698 0
-7737 48 0
7737 -7698 -48 0
-7738 7732 7733 0
-7738 -7732 -7733 0
7738 -7732 7733 0
7738 7732 -7733 0
-7739 7738 7734 0
-7739 -7738 -7734 0
7739 -7738 7734 0
7739 7738 -7734 0
-7740 7739 7735 0
-7740 -7739 -7735 0
7740 -7739 7735 0
7740 7739 -7735 0
-7741 7740 7736 0
-7741 -7740 -7736 0
7741 -7740 7736 0
7741 7740 -7736 0
-7742 7741 7737 0
-7742 -7741 -7737 0
7742 -7741 7737 0
7742 7741 -7737 0
-7742 0
-7743 7693 0
-7743 49 0
7743 -7693 -49 0
-7744 7694 0
-7744 50 0
7744 -7694 -50 0
-7745 7695 0
-7745 51 0
7745 -7695 -51 0
-7746 7696 0
-7746 52 0
7746 -7696 -52 0
-7747 7697 0
-7747 53 0
7747 -7697 -53 0
-7748 7698 0
-7748 54 0
7748 -7698 -54 0
-7749 7743 7744 0
-7749 -7743 -7744 0
7749 -7743 7744 0
7749 7743 -7744 0
-7750 7749 7745 0
-7750 -7749 -7745 0
7750 -7749 7745 0
7750 7749 -7745 0
-7751 7750 7746 0
-7751 -7750 -7746 0
7751 -7750 7746 0
7751 7750 -7746 0
-7752 7751 7747 0
-7752 -7751 -7747 0
7752 -7751 7747 0
7752 7751 -7747 0
-7753 7752 7748 0
-7753 -7752 -7748 0
7753 -7752 7748 0
7753 7752 -7748 0
-7753 0
-7754 7693 0
-7754 7683 0
7754 -7693 -7683 0
-7755 7694 0
-7755 7685 0
7755 -7694 -7685 0
-7756 7695 0
-7756 7687 0
7756 -7695 -7687 0
-7757 7696 0
-7757 7689 0
7757 -7696 -7689 0
-7758 7697 0
-7758 7690 0
7758 -7697 -7690 0
-7759 7698 0
-7759 7692 0
7759 -7698 -7692 0
-7760 7754 7755 0
-7760 -7754 -7755 0
7760 -7754 7755 0
7760 7754 -7755 0
-7761 7760 7756 0
-7761 -7760 -7756 0
7761 -7760 7756 0
7761 7760 -7756 0
-7762 7761 7757 0
-7762 -7761 -7757 0
7762 -7761 7757 0
7762 7761 -7757 0
-7763 7762 7758 0
-7763 -7762 -7758 0
7763 -7762 7758 0
7763 7762 -7758 0
-7764 7763 7759 0
-7764 -7763 -7759 0
7764 -7763 7759 0
7764 7763 -7759 0
7765 7766 7767 7768 7769 7770 0
-7768 0
-7771 7765 0
-7771 49 0
7771 -7765 -49 0
-7772 7766 0
-7772 50 0
7772 -7766 -50 0
-7773 7767 0
-7773 51 0
7773 -7767 -51 0
-7774 7768 0
-7774 52 0
7774 -7768 -52 0
-7775 7769 0
-7775 53 0
7775 -7769 -53 0
-7776 7770 0
-7776 54 0
7776 -7770 -54 0
-7777 7771 7772 0
-7777 -7771 -7772 0
7777 -7771 7772 0
7777 7771 -7772 0
-7778 7777 7773 0
-7778 -7777 -7773 0
7778 -7777 7773 0
7778 7777 -7773 0
-7779 7778 7774 0
-7779 -7778 -7774 0
7779 -7778 7774 0
7779 7778 -7774 0
-7780 7779 7775 0
-7780 -7779 -7775 0
7780 -7779 7775 0
7780 7779 -7775 0
-7781 7780 7776 0
-7781 -7780 -7776 0
7781 -7780 7776 0
7781 7780 -7776 0
-7781 0
-7782 7765 0
-7782 7670 0
7782 -7765 -7670 0
-7783 7766 0
-7783 7672 0
7783 -7766 -7672 0
-7784 7767 0
-7784 7674 0
7784 -7767 -7674 0
-7785 7768 0
-7785 7676 0
7785 -7768 -7676 0
-7786 7769 0
-7786 7678 0
7786 -7769 -7678 0
-7787 7770 0
-7787 7680 0
7787 -7770 -7680 0
-7788 7782 7783 0
-7788 -7782 -7783 0
7788 -7782 7783 0
7788 7782 -7783 0
-7789 7788 7784 0
-7789 -7788 -7784 0
7789 -7788 7784 0
7789 7788 -7784 0
-7790 7789 7785 0
-7790 -7789 -7785 0
7790 -7789 7785 0
7790 7789 -7785 0
-7791 7790 7786 0
-7791 -7790 -7786 0
7791 -7790 7786 0
7791 7790 -7786 0
-7792 7791 7787 0
-7792 -7791 -7787 0
7792 -7791 7787 0
7792 7791 -7787 0
-7792 0
-7793 7765 0
-7793 7671 0
7793 -7765 -7671 0
-7794 7766 0
-7794 7673 0
7794 -7766 -7673 0
-7795 7767 0
-7795 7675 0
7795 -7767 -7675 0
-7796 7768 0
-7796 7677 0
7796 -7768 -7677 0
-7797 7769 0
-7797 7679 0
7797 -7769 -7679 0
-7798 7770 0
-7798 7681 0
7798 -7770 -7681 0
-7799 7793 7794 0
-7799 -7793 -7794 0
7799 -7793 7794 0
7799 7793 -7794 0
-7800 7799 7795 0
-7800 -7799 -7795 0
7800 -7799 7795 0
7800 7799 -7795 0
-7801 7800 7796 0
-7801 -7800 -7796 0
7801 -7800 7796 0
7801 7800 -7796 0
-7802 7801 7797 0
-7802 -7801 -7797 0
7802 -7801 7797 0
7802 7801 -7797 0
-7803 7802 7798 0
-7803 -7802 -7798 0
7803 -7802 7798 0
7803 7802 -7798 0
-7803 0
-7804 7765 0
-7804 43 0
7804 -7765 -43 0
-7805 7766 0
-7805 44 0
7805 -7766 -44 0
-7806 7767 0
-7806 45 0
7806 -7767 -45 0
-7807 7768 0
-7807 46 0
7807 -7768 -46 0
-7808 7769 0
-7808 47 0
7808 -7769 -47 0
-7809 7770 0
-7809 48 0
7809 -7770 -48 0
-7810 7804 7805 0
-7810 -7804 -7805 0
7810 -7804 7805 0
7810 7804 -7805 0
-7811 7810 7806 0
-7811 -7810 -7806 0
7811 -7810 7806 0
7811 7810 -7806 0
-7812 7811 7807 0
-7812 -7811 -7807 0
7812 -7811 7807 0
7812 7811 -7807 0
-7813 7812 7808 0
-7813 -7812 -7808 0
7813 -7812 7808 0
7813 7812 -7808 0
-7814 7813 7809 0
-7814 -7813 -7809 0
7814 -7813 7809 0
7814 7813 -7809 0
-7814 0
-7815 7765 0
-7815 49 0
7815 -7765 -49 0
-7816 7766 0
-7816 50 0
7816 -7766 -50 0
-7817 7767 0
-7817 51 0
7817 -7767 -51 0
-7818 7768 0
-7818 52 0
7818 -7768 -52 0
-7819 7769 0
-7819 53 0
7819 -7769 -53 0
-7820 7770 0
-7820 54 0
7820 -7770 -54 0
-7821 7815 7816 0
-7821 -7815 -7816 0
7821 -7815 7816 0
7821 7815 -7816 0
-7822 7821 7817 0
-7822 -7821 -7817 0
7822 -7821 7817 0
7822 7821 -7817 0
-7823 7822 7818 0
-7823 -7822 -7818 0
7823 -7822 7818 0
7823 7822 -7818 0
-7824 7823 7819 0
-7824 -7823 -7819 0
7824 -7823 7819 0
7824 7823 -7819 0
-7825 7824 7820 0
-7825 -7824 -7820 0
7825 -7824 7820 0
7825 7824 -7820 0
-7825 0
-7826 7765 0
-7826 7683 0
7826 -7765 -7683 0
-7827 7766 0
-7827 7685 0
7827 -7766 -7685 0
-7828 7767 0
-7828 7687 0
7828 -7767 -7687 0
-7829 7768 0
-7829 7689 0
7829 -7768 -7689 0
-7830 7769 0
-7830 7690 0
7830 -7769 -7690 0
-7831 7770 0
-7831 7692 0
7831 -7770 -7692 0
-7832 7826 7827 0
-7832 -7826 -7827 0
7832 -7826 7827 0
7832 7826 -7827 0
-7833 7832 7828 0
-7833 -7832 -7828 0
7833 -7832 7828 0
7833 7832 -7828 0
-7834 7833 7829 0
-7834 -7833 -7829 0
7834 -7833 7829 0
7834 7833 -7829 0
-7835 7834 7830 0
-7835 -7834 -7830 0
7835 -7834 7830 0
7835 7834 -7830 0
-7836 7835 7831 0
-7836 -7835 -7831 0
7836 -7835 7831 0
7836 7835 -7831 0
-7837 7693 7765 0
-7837 -7693 -7765 0
7837 -7693 7765 0
7837 7693 -7765 0
-7838 7694 7766 0
-7838 -7694 -7766 0
7838 -7694 7766 0
7838 7694 -7766 0
-7839 7695 7767 0
-7839 -7695 -7767 0
7839 -7695 7767 0
7839 7695 -7767 0
-7840 7696 7768 0
-7840 -7696 -7768 0
7840 -7696 7768 0
7840 7696 -7768 0
-7841 7697 7769 0
-7841 -7697 -7769 0
7841 -7697 7769 0
7841 7697 -7769 0
-7842 7698 7770 0
-7842 -7698 -7770 0
7842 -7698 7770 0
7842 7698 -7770 0
7837 7838 7839 7840 7841 7842 0
7764 7836 0
-7843 -31 67 0
-7843 31 -67 0
7843 31 67 0
7843 -31 -67 0
-7844 37 79 0
-7844 -37 -79 0
7844 -37 79 0
7844 37 -79 0
-7845 32 68 0
-7845 -32 -68 0
7845 -32 68 0
7845 32 -68 0
-7846 -38 80 0
-7846 38 -80 0
7846 38 80 0
7846 -38 -80 0
-7847 33 69 0
-7847 -33 -69 0
7847 -33 69 0
7847 33 -69 0
-7848 39 81 0
-7848 -39 -81 0
7848 -39 81 0
7848 39 -81 0
-7849 34 70 0
-7849 -34 -70 0
7849 -34 70 0
7849 34 -70 0
-7850 40 82 0
-7850 -40 -82 0
7850 -40 82 0
7850 40 -82 0
-7851 35 71 0
-7851 -35 -71 0
7851 -35 71 0
7851 35 -71 0
-7852 41 83 0
-7852 -41 -83 0
7852 -41 83 0
7852 41 -83 0
-7853 36 72 0
-7853 -36 -72 0
7853 -36 72 0
7853 36 -72 0
-7854 42 84 0
-7854 -42 -84 0
7854 -42 84 0
7854 42 -84 0
-7855 97 121 0
-7855 -97 -121 0
7855 -97 121 0
7855 97 -121 0
-7856 7855 49 0
-7856 -7855 -49 0
7856 -7855 49 0
7856 7855 -49 0
-7857 98 122 0
-7857 -98 -122 0
7857 -98 122 0
7857 98 -122 0
-7858 7857 50 0
-7858 -7857 -50 0
7858 -7857 50 0
7858 7857 -50 0
-7859 99 123 0
-7859 -99 -123 0
7859 -99 123 0
7859 99 -123 0
-7860 7859 51 0
-7860 -7859 -51 0
7860 -7859 51 0
7860 7859 -51 0
-7861 100 124 0
-7861 -100 -124 0
7861 -100 124 0
7861 100 -124 0
-7862 -7861 52 0
-7862 7861 -52 0
7862 7861 52 0
7862 -7861 -52 0
-7863 -125 53 0
-7863 125 -53 0
7863 125 53 0
7863 -125 -53 0
-7864 102 126 0
-7864 -102 -126 0
7864 -102 126 0
7864 102 -126 0
-7865 7864 54 0
-7865 -7864 -54 0
7865 -7864 54 0
7865 7864 -54 0
7866 7867 7868 7869 7870 7871 0
-7869 0
-7872 7866 0
-7872 49 0
7872 -7866 -49 0
-7873 7867 0
-7873 50 0
7873 -7867 -50 0
-7874 7868 0
-7874 51 0
7874 -7868 -51 0
-7875 7869 0
-7875 52 0
7875 -7869 -52 0
-7876 7870 0
-7876 53 0
7876 -7870 -53 0
-7877 7871 0
-7877 54 0
7877 -7871 -54 0
-7878 7872 7873 0
-7878 -7872 -7873 0
7878 -7872 7873 0
7878 7872 -7873 0
-7879 7878 7874 0
-7879 -7878 -7874 0
7879 -7878 7874 0
7879 7878 -7874 0
-7880 7879 7875 0
-7880 -7879 -7875 0
7880 -7879 7875 0
7880 7879 -7875 0
-7881 7880 7876 0
-7881 -7880 -7876 0
7881 -7880 7876 0
7881 7880 -7876 0
-7882 7881 7877 0
-7882 -7881 -7877 0
7882 -7881 7877 0
7882 7881 -7877 0
-7882 0
-7883 7866 0
-7883 7843 0
7883 -7866 -7843 0
-7884 7867 0
-7884 7845 0
7884 -7867 -7845 0
-7885 7868 0
-7885 7847 0
7885 -7868 -7847 0
-7886 7869 0
-7886 7849 0
7886 -7869 -7849 0
-7887 7870 0
-7887 7851 0
7887 -7870 -7851 0
-7888 7871 0
-7888 7853 0
7888 -7871 -7853 0
-7889 7883 7884 0
-7889 -7883 -7884 0
7889 -7883 7884 0
7889 7883 -7884 0
-7890 7889 7885 0
-7890 -7889 -7885 0
7890 -7889 7885 0
7890 7889 -7885 0
-7891 7890 7886 0
-7891 -7890 -7886 0
7891 -7890 7886 0
7891 7890 -7886 0
-7892 7891 7887 0
-7892 -7891 -7887 0
7892 -7891 7887 0
7892 7891 -7887 0
-7893 7892 7888 0
-7893 -7892 -7888 0
7893 -7892 7888 0
7893 7892 -7888 0
-7893 0
-7894 7866 0
-7894 7844 0
7894 -7866 -7844 0
-7895 7867 0
-7895 7846 0
7895 -7867 -7846 0
-7896 7868 0
-7896 7848 0
7896 -7868 -7848 0
-7897 7869 0
-7897 7850 0
7897 -7869 -7850 0
-7898 7870 0
-7898 7852 0
7898 -7870 -7852 0
-7899 7871 0
-7899 7854 0
7899 -7871 -7854 0
-7900 7894 7895 0
-7900 -7894 -7895 0
7900 -7894 7895 0
7900 7894 -7895 0
-7901 7900 7896 0
-7901 -7900 -7896 0
7901 -7900 7896 0
7901 7900 -7896 0
-7902 7901 7897 0
-7902 -7901 -7897 0
7902 -7901 7897 0
7902 7901 -7897 0
-7903 7902 7898 0
-7903 -7902 -7898 0
7903 -7902 7898 0
7903 7902 -7898 0
-7904 7903 7899 0
-7904 -7903 -7899 0
7904 -7903 7899 0
7904 7903 -7899 0
-7904 0
-7905 7866 0
-7905 43 0
7905 -7866 -43 0
-7906 7867 0
-7906 44 0
7906 -7867 -44 0
-7907 7868 0
-7907 -45 0
7907 -7868 45 0
-7908 7869 0
-7908 46 0
7908 -7869 -46 0
-7909 7870 0
-7909 47 0
7909 -7870 -47 0
-7910 7871 0
-7910 48 0
7910 -7871 -48 0
-7911 7905 7906 0
-7911 -7905 -7906 0
7911 -7905 7906 0
7911 7905 -7906 0
-7912 7911 7907 0
-7912 -7911 -7907 0
7912 -7911 7907 0
7912 7911 -7907 0
-7913 7912 7908 0
-7913 -7912 -7908 0
7913 -7912 7908 0
7913 7912 -7908 0
-7914 7913 7909 0
-7914 -7913 -7909 0
7914 -7913 7909 0
7914 7913 -7909 0
-7915 7914 7910 0
-7915 -7914 -7910 0
7915 -7914 7910 0
7915 7914 -7910 0
-7915 0
-7916 7866 0
-7916 49 0
7916 -7866 -49 0
-7917 7867 0
-7917 50 0
7917 -7867 -50 0
-7918 7868 0
-7918 51 0
7918 -7868 -51 0
-7919 7869 0
-7919 -52 0
7919 -7869 52 0
-7920 7870 0
-7920 53 0
7920 -7870 -53 0
-7921 7871 0
-7921 54 0
7921 -7871 -54 0
-7922 7916 7917 0
-7922 -7916 -7917 0
7922 -7916 7917 0
7922 7916 -7917 0
-7923 7922 7918 0
-7923 -7922 -7918 0
7923 -7922 7918 0
7923 7922 -7918 0
-7924 7923 7919 0
-7924 -7923 -7919 0
7924 -7923 7919 0
7924 7923 -7919 0
-7925 7924 7920 0
-7925 -7924 -7920 0
7925 -7924 7920 0
7925 7924 -7920 0
-7926 7925 7921 0
-7926 -7925 -7921 0
7926 -7925 7921 0
7926 7925 -7921 0
-7926 0
-7927 7866 0
-7927 7856 0
7927 -7866 -7856 0
-7928 7867 0
-7928 7858 0
7928 -7867 -7858 0
-7929 7868 0
-7929 7860 0
7929 -7868 -7860 0
-7930 7869 0
-7930 7862 0
7930 -7869 -7862 0
-7931 7870 0
-7931 7863 0
7931 -7870 -7863 0
-7932 7871 0
-7932 7865 0
7932 -7871 -7865 0
-7933 7927 7928 0
-7933 -7927 -7928 0
7933 -7927 7928 0
7933 7927 -7928 0
-7934 7933 7929 0
-7934 -7933 -7929 0
7934 -7933 7929 0
7934 7933 -7929 0
-7935 7934 7930 0
-7935 -7934 -7930 0
7935 -7934 7930 0
7935 7934 -7930 0
-7936 7935 7931 0
-7936 -7935 -7931 0
7936 -7935 7931 0
7936 7935 -7931 0
-7937 7936 7932 0
-7937 -7936 -7932 0
7937 -7936 7932 0
7937 7936 -7932 0
7938 7939 7940 7941 7942 7943 0
-7941 0
-7944 7938 0
-7944 49 0
7944 -7938 -49 0
-7945 7939 0
-7945 50 0
7945 -7939 -50 0
-7946 7940 0
-7946 51 0
7946 -7940 -51 0
-7947 7941 0
-7947 52 0
7947 -7941 -52 0
-7948 7942 0
-7948 53 0
7948 -7942 -53 0
-7949 7943 0
-7949 54 0
7949 -7943 -54 0
-7950 7944 7945 0
-7950 -7944 -7945 0
7950 -7944 7945 0
7950 7944 -7945 0
-7951 7950 7946 0
-7951 -7950 -7946 0
7951 -7950 7946 0
7951 7950 -7946 0
-7952 7951 7947 0
-7952 -7951 -7947 0
7952 -7951 7947 0
7952 7951 -7947 0
-7953 7952 7948 0
-7953 -7952 -7948 0
7953 -7952 7948 0
7953 7952 -7948 0
-7954 7953 7949 0
-7954 -7953 -7949 0
7954 -7953 7949 0
7954 7953 -7949 0
-7954 0
-7955 7938 0
-7955 7843 0
7955 -7938 -7843 0
-7956 7939 0
-7956 7845 0
7956 -7939 -7845 0
-7957 7940 0
-7957 7847 0
7957 -7940 -7847 0
-7958 7941 0
-7958 7849 0
7958 -7941 -7849 0
-7959 7942 0
-7959 7851 0
7959 -7942 -7851 0
-7960 7943 0
-7960 7853 0
7960 -7943 -7853 0
-7961 7955 7956 0
-7961 -7955 -7956 0
7961 -7955 7956 0
7961 7955 -7956 0
-7962 7961 7957 0
-7962 -7961 -7957 0
7962 -7961 7957 0
7962 7961 -7957 0
-7963 7962 7958 0
-7963 -7962 -7958 0
7963 -7962 7958 0
7963 7962 -7958 0
-7964 7963 7959 0
-7964 -7963 -7959 0
7964 -7963 7959 0
7964 7963 -7959 0
-7965 7964 7960 0
-7965 -7964 -7960 0
7965 -7964 7960 0
7965 7964 -7960 0
-7965 0
-7966 7938 0
-7966 7844 0
7966 -7938 -7844 0
-7967 7939 0
-7967 7846 0
7967 -7939 -7846 0
-7968 7940 0
-7968 7848 0
7968 -7940 -7848 0
-7969 7941 0
-7969 7850 0
7969 -7941 -7850 0
-7970 7942 0
-7970 7852 0
7970 -7942 -7852 0
-7971 7943 0
-7971 7854 0
7971 -7943 -7854 0
-7972 7966 7967 0
-7972 -7966 -7967 0
7972 -7966 7967 0
7972 7966 -7967 0
-7973 7972 7968 0
-7973 -7972 -7968 0
7973 -7972 7968 0
7973 7972 -7968 0
-7974 7973 7969 0
-7974 -7973 -7969 0
7974 -7973 7969 0
7974 7973 -7969 0
-7975 7974 7970 0
-7975 -7974 -7970 0
7975 -7974 7970 0
7975 7974 -7970 0
-7976 7975 7971 0
-7976 -7975 -7971 0
7976 -7975 7971 0
7976 7975 -7971 0
-7976 0
-7977 7938 0
-7977 43 0
7977 -7938 -43 0
-7978 7939 0
-7978 44 0
7978 -7939 -44 0
-7979 7940 0
-7979 -45 0
7979 -7940 45 0
-7980 7941 0
-7980 46 0
7980 -7941 -46 0
-7981 7942 0
-7981 47 0
7981 -7942 -47 0
-7982 7943 0
-7982 48 0
7982 -7943 -48 0
-7983 7977 7978 0
-7983 -7977 -7978 0
7983 -7977 7978 0
7983 7977 -7978 0
-7984 7983 7979 0
-7984 -7983 -7979 0
7984 -7983 7979 0
7984 7983 -7979 0
-7985 7984 7980 0
-7985 -7984 -7980 0
7985 -7984 7980 0
7985 7984 -7980 0
-7986 7985 7981 0
-7986 -7985 -7981 0
7986 -7985 7981 0
7986 7985 -7981 0
-7987 7986 7982 0
-7987 -7986 -7982 0
7987 -7986 7982 0
7987 7986 -7982 0
-7987 0
-7988 7938 0
-7988 49 0
7988 -7938 -49 0
-7989 7939 0
-7989 50 0
7989 -7939 -50 0
-7990 7940 0
-7990 51 0
7990 -7940 -51 0
-7991 7941 0
-7991 -52 0
7991 -7941 52 0
-7992 7942 0
-7992 53 0
7992 -7942 -53 0
-7993 7943 0
-7993 54 0
7993 -7943 -54 0
-7994 7988 7989 0
-7994 -7988 -7989 0
7994 -7988 7989 0
7994 7988 -7989 0
-7995 7994 7990 0
-7995 -7994 -7990 0
7995 -7994 7990 0
7995 7994 -7990 0
-7996 7995 7991 0
-7996 -7995 -7991 0
7996 -7995 7991 0
7996 7995 -7991 0
-7997 7996 7992 0
-7997 -7996 -7992 0
7997 -7996 7992 0
7997 7996 -7992 0
-7998 7997 7993 0
-7998 -7997 -7993 0
7998 -7997 7993 0
7998 7997 -7993 0
-7998 0
-7999 7938 0
-7999 7856 0
7999 -7938 -7856 0
-8000 7939 0
-8000 7858 0
8000 -7939 -7858 0
-8001 7940 0
-8001 7860 0
8001 -7940 -7860 0
-8002 7941 0
-8002 7862 0
8002 -7941 -7862 0
-8003 7942 0
-8003 7863 0
8003 -7942 -7863 0
-8004 7943 0
-8004 7865 0
8004 -7943 -7865 0
-8005 7999 8000 0
-8005 -7999 -8000 0
8005 -7999 8000 0
8005 7999 -8000 0
-8006 8005 8001 0
-8006 -8005 -8001 0
8006 -8005 8001 0
8006 8005 -8001 0
-8007 8006 8002 0
-8007 -8006 -8002 0
8007 -8006 8002 0
8007 8006 -8002 0
-8008 8007 8003 0
-8008 -8007 -8003 0
8008 -8007 8003 0
8008 8007 -8003 0
-8009 8008 8004 0
-8009 -8008 -8004 0
8009 -8008 8004 0
8009 8008 -8004 0
-8010 7866 7938 0
-8010 -7866 -7938 0
8010 -7866 7938 0
8010 7866 -7938 0
-8011 7867 7939 0
-8011 -7867 -7939 0
8011 -7867 7939 0
8011 7867 -7939 0
-8012 7868 7940 0
-8012 -7868 -7940 0
8012 -7868 7940 0
8012 7868 -7940 0
-8013 7869 7941 0
-8013 -7869 -7941 0
8013 -7869 7941 0
8013 7869 -7941 0
-8014 7870 7942 0
-8014 -7870 -7942 0
8014 -7870 7942 0
8014 7870 -7942 0
-8015 7871 7943 0
-8015 -7871 -7943 0
8015 -7871 7943 0
8015 7871 -7943 0
8010 8011 8012 8013 8014 8015 0
7937 8009 0
-8016 31 49 0
-8016 -31 -49 0
8016 -31 49 0
8016 31 -49 0
-8017 32 50 0
-8017 -32 -50 0
8017 -32 50 0
8017 32 -50 0
-8018 33 51 0
-8018 -33 -51 0
8018 -33 51 0
8018 33 -51 0
-8019 34 52 0
-8019 -34 -52 0
8019 -34 52 0
8019 34 -52 0
-8020 35 53 0
-8020 -35 -53 0
8020 -35 53 0
8020 35 -53 0
-8021 36 54 0
-8021 -36 -54 0
8021 -36 54 0
8021 36 -54 0
-8022 103 121 0
-8022 -103 -121 0
8022 -103 121 0
8022 103 -121 0
-8023 8022 67 0
-8023 -8022 -67 0
8023 -8022 67 0
8023 8022 -67 0
-8024 104 122 0
-8024 -104 -122 0
8024 -104 122 0
8024 104 -122 0
-8025 8024 68 0
-8025 -8024 -68 0
8025 -8024 68 0
8025 8024 -68 0
-8026 105 123 0
-8026 -105 -123 0
8026 -105 123 0
8026 105 -123 0
-8027 8026 69 0
-8027 -8026 -69 0
8027 -8026 69 0
8027 8026 -69 0
-8028 106 124 0
-8028 -106 -124 0
8028 -106 124 0
8028 106 -124 0
-8029 8028 70 0
-8029 -8028 -70 0
8029 -8028 70 0
8029 8028 -70 0
-8030 107 125 0
-8030 -107 -125 0
8030 -107 125 0
8030 107 -125 0
-8031 8030 71 0
-8031 -8030 -71 0
8031 -8030 71 0
8031 8030 -71 0
-8032 108 126 0
-8032 -108 -126 0
8032 -108 126 0
8032 108 -126 0
-8033 8032 72 0
-8033 -8032 -72 0
8033 -8032 72 0
8033 8032 -72 0
8034 8035 8036 8037 8038 8039 0
-8040 8034 8037 0
-8040 -8034 -8037 0
8040 -8034 8037 0
8040 8034 -8037 0
-8040 0
-8041 8034 0
-8041 8016 0
8041 -8034 -8016 0
-8042 8035 0
-8042 8017 0
8042 -8035 -8017 0
-8043 8036 0
-8043 8018 0
8043 -8036 -8018 0
-8044 8037 0
-8044 8019 0
8044 -8037 -8019 0
-8045 8038 0
-8045 8020 0
8045 -8038 -8020 0
-8046 8039 0
-8046 8021 0
8046 -8039 -8021 0
-8047 8041 8042 0
-8047 -8041 -8042 0
8047 -8041 8042 0
8047 8041 -8042 0
-8048 8047 8043 0
-8048 -8047 -8043 0
8048 -8047 8043 0
8048 8047 -8043 0
-8049 8048 8044 0
-8049 -8048 -8044 0
8049 -8048 8044 0
8049 8048 -8044 0
-8050 8049 8045 0
-8050 -8049 -8045 0
8050 -8049 8045 0
8050 8049 -8045 0
-8051 8050 8046 0
-8051 -8050 -8046 0
8051 -8050 8046 0
8051 8050 -8046 0
-8051 0
-8052 8034 0
-8052 67 0
8052 -8034 -67 0
-8053 8035 0
-8053 68 0
8053 -8035 -68 0
-8054 8036 0
-8054 69 0
8054 -8036 -69 0
-8055 8037 0
-8055 70 0
8055 -8037 -70 0
-8056 8038 0
-8056 71 0
8056 -8038 -71 0
-8057 8039 0
-8057 72 0
8057 -8039 -72 0
-8058 8052 8053 0
-8058 -8052 -8053 0
8058 -8052 8053 0
8058 8052 -8053 0
-8059 8058 8054 0
-8059 -8058 -8054 0
8059 -8058 8054 0
8059 8058 -8054 0
-8060 8059 8055 0
-8060 -8059 -8055 0
8060 -8059 8055 0
8060 8059 -8055 0
-8061 8060 8056 0
-8061 -8060 -8056 0
8061 -8060 8056 0
8061 8060 -8056 0
-8062 8061 8057 0
-8062 -8061 -8057 0
8062 -8061 8057 0
8062 8061 -8057 0
-8062 0
-8063 8034 0
-8063 79 0
8063 -8034 -79 0
-8064 8035 0
-8064 80 0
8064 -8035 -80 0
-8065 8036 0
-8065 81 0
8065 -8036 -81 0
-8066 8037 0
-8066 82 0
8066 -8037 -82 0
-8067 8038 0
-8067 83 0
8067 -8038 -83 0
-8068 8039 0
-8068 84 0
8068 -8039 -84 0
-8069 8063 8064 0
-8069 -8063 -8064 0
8069 -8063 8064 0
8069 8063 -8064 0
-8070 8069 8065 0
-8070 -8069 -8065 0
8070 -8069 8065 0
8070 8069 -8065 0
-8071 8070 8066 0
-8071 -8070 -8066 0
8071 -8070 8066 0
8071 8070 -8066 0
-8072 8071 8067 0
-8072 -8071 -8067 0
8072 -8071 8067 0
8072 8071 -8067 0
-8073 8072 8068 0
-8073 -8072 -8068 0
8073 -8072 8068 0
8073 8072 -8068 0
-8073 0
-8074 8034 0
-8074 61 0
8074 -8034 -61 0
-8075 8035 0
-8075 62 0
8075 -8035 -62 0
-8076 8036 0
-8076 63 0
8076 -8036 -63 0
-8077 8037 0
-8077 64 0
8077 -8037 -64 0
-8078 8038 0
-8078 65 0
8078 -8038 -65 0
-8079 8039 0
-8079 66 0
8079 -8039 -66 0
-8080 8074 8075 0
-8080 -8074 -8075 0
8080 -8074 8075 0
8080 8074 -8075 0
-8081 8080 8076 0
-8081 -8080 -8076 0
8081 -8080 8076 0
8081 8080 -8076 0
-8082 8081 8077 0
-8082 -8081 -8077 0
8082 -8081 8077 0
8082 8081 -8077 0
-8083 8082 8078 0
-8083 -8082 -8078 0
8083 -8082 8078 0
8083 8082 -8078 0
-8084 8083 8079 0
-8084 -8083 -8079 0
8084 -8083 8079 0
8084 8083 -8079 0
-8084 0
-8085 8034 0
-8085 67 0
8085 -8034 -67 0
-8086 8035 0
-8086 68 0
8086 -8035 -68 0
-8087 8036 0
-8087 69 0
8087 -8036 -69 0
-8088 8037 0
-8088 70 0
8088 -8037 -70 0
-8089 8038 0
-8089 71 0
8089 -8038 -71 0
-8090 8039 0
-8090 72 0
8090 -8039 -72 0
-8091 8085 8086 0
-8091 -8085 -8086 0
8091 -8085 8086 0
8091 8085 -8086 0
-8092 8091 8087 0
-8092 -8091 -8087 0
8092 -8091 8087 0
8092 8091 -8087 0
-8093 8092 8088 0
-8093 -8092 -8088 0
8093 -8092 8088 0
8093 8092 -8088 0
-8094 8093 8089 0
-8094 -8093 -8089 0
8094 -8093 8089 0
8094 8093 -8089 0
-8095 8094 8090 0
-8095 -8094 -8090 0
8095 -8094 8090 0
8095 8094 -8090 0
-8095 0
-8096 8034 0
-8096 8023 0
8096 -8034 -8023 0
-8097 8035 0
-8097 8025 0
8097 -8035 -8025 0
-8098 8036 0
-8098 8027 0
8098 -8036 -8027 0
-8099 8037 0
-8099 8029 0
8099 -8037 -8029 0
-8100 8038 0
-8100 8031 0
8100 -8038 -8031 0
-8101 8039 0
-8101 8033 0
8101 -8039 -8033 0
-8102 8096 8097 0
-8102 -8096 -8097 0
8102 -8096 8097 0
8102 8096 -8097 0
-8103 8102 8098 0
-8103 -8102 -8098 0
8103 -8102 8098 0
8103 8102 -8098 0
-8104 8103 8099 0
-8104 -8103 -8099 0
8104 -8103 8099 0
8104 8103 -8099 0
-8105 8104 8100 0
-8105 -8104 -8100 0
8105 -8104 8100 0
8105 8104 -8100 0
-8106 8105 8101 0
-8106 -8105 -8101 0
8106 -8105 8101 0
8106 8105 -8101 0
8107 8108 8109 8110 8111 8112 0
-8113 8107 8110 0
-8113 -8107 -8110 0
8113 -8107 8110 0
8113 8107 -8110 0
-8113 0
-8114 8107 0
-8114 8016 0
8114 -8107 -8016 0
-8115 8108 0
-8115 8017 0
8115 -8108 -8017 0
-8116 8109 0
-8116 8018 0
8116 -8109 -8018 0
-8117 8110 0
-8117 8019 0
8117 -8110 -8019 0
-8118 8111 0
-8118 8020 0
8118 -8111 -8020 0
-8119 8112 0
-8119 8021 0
8119 -8112 -8021 0
-8120 8114 8115 0
-8120 -8114 -8115 0
8120 -8114 8115 0
8120 8114 -8115 0
-8121 8120 8116 0
-8121 -8120 -8116 0
8121 -8120 8116 0
8121 8120 -8116 0
-8122 8121 8117 0
-8122 -8121 -8117 0
8122 -8121 8117 0
8122 8121 -8117 0
-8123 8122 8118 0
-8123 -8122 -8118 0
8123 -8122 8118 0
8123 8122 -8118 0
-8124 8123 8119 0
-8124 -8123 -8119 0
8124 -8123 8119 0
8124 8123 -8119 0
-8124 0
-8125 8107 0
-8125 67 0
8125 -8107 -67 0
-8126 8108 0
-8126 68 0
8126 -8108 -68 0
-8127 8109 0
-8127 69 0
8127 -8109 -69 0
-8128 8110 0
-8128 70 0
8128 -8110 -70 0
-8129 8111 0
-8129 71 0
8129 -8111 -71 0
-8130 8112 0
-8130 72 0
8130 -8112 -72 0
-8131 8125 8126 0
-8131 -8125 -8126 0
8131 -8125 8126 0
8131 8125 -8126 0
-8132 8131 8127 0
-8132 -8131 -8127 0
8132 -8131 8127 0
8132 8131 -8127 0
-8133 8132 8128 0
-8133 -8132 -8128 0
8133 -8132 8128 0
8133 8132 -8128 0
-8134 8133 8129 0
-8134 -8133 -8129 0
8134 -8133 8129 0
8134 8133 -8129 0
-8135 8134 8130 0
-8135 -8134 -8130 0
8135 -8134 8130 0
8135 8134 -8130 0
-8135 0
-8136 8107 0
-8136 79 0
8136 -8107 -79 0
-8137 8108 0
-8137 80 0
8137 -8108 -80 0
-8138 8109 0
-8138 81 0
8138 -8109 -81 0
-8139 8110 0
-8139 82 0
8139 -8110 -82 0
-8140 8111 0
-8140 83 0
8140 -8111 -83 0
-8141 8112 0
-8141 84 0
8141 -8112 -84 0
-8142 8136 8137 0
-8142 -8136 -8137 0
8142 -8136 8137 0
8142 8136 -8137 0
-8143 8142 8138 0
-8143 -8142 -8138 0
8143 -8142 8138 0
8143 8142 -8138 0
-8144 8143 8139 0
-8144 -8143 -8139 0
8144 -8143 8139 0
8144 8143 -8139 0
-8145 8144 8140 0
-8145 -8144 -8140 0
8145 -8144 8140 0
8145 8144 -8140 0
-8146 8145 8141 0
-8146 -8145 -8141 0
8146 -8145 8141 0
8146 8145 -8141 0
-8146 0
-8147 8107 0
-8147 61 0
8147 -8107 -61 0
-8148 8108 0
-8148 62 0
8148 -8108 -62 0
-8149 8109 0
-8149 63 0
8149 -8109 -63 0
-8150 8110 0
-8150 64 0
8150 -8110 -64 0
-8151 8111 0
-8151 65 0
8151 -8111 -65 0
-8152 8112 0
-8152 66 0
8152 -8112 -66 0
-8153 8147 8148 0
-8153 -8147 -8148 0
8153 -8147 8148 0
8153 8147 -8148 0
-8154 8153 8149 0
-8154 -8153 -8149 0
8154 -8153 8149 0
8154 8153 -8149 0
-8155 8154 8150 0
-8155 -8154 -8150 0
8155 -8154 8150 0
8155 8154 -8150 0
-8156 8155 8151 0
-8156 -8155 -8151 0
8156 -8155 8151 0
8156 8155 -8151 0
-8157 8156 8152 0
-8157 -8156 -8152 0
8157 -8156 8152 0
8157 8156 -8152 0
-8157 0
-8158 8107 0
-8158 67 0
8158 -8107 -67 0
-8159 8108 0
-8159 68 0
8159 -8108 -68 0
-8160 8109 0
-8160 69 0
8160 -8109 -69 0
-8161 8110 0
-8161 70 0
8161 -8110 -70 0
-8162 8111 0
-8162 71 0
8162 -8111 -71 0
-8163 8112 0
-8163 72 0
8163 -8112 -72 0
-8164 8158 8159 0
-8164 -8158 -8159 0
8164 -8158 8159 0
8164 8158 -8159 0
-8165 8164 8160 0
-8165 -8164 -8160 0
8165 -8164 8160 0
8165 8164 -8160 0
-8166 8165 8161 0
-8166 -8165 -8161 0
8166 -8165 8161 0
8166 8165 -8161 0
-8167 8166 8162 0
-8167 -8166 -8162 0
8167 -8166 8162 0
8167 8166 -8162 0
-8168 8167 8163 0
-8168 -8167 -8163 0
8168 -8167 8163 0
8168 8167 -8163 0
-8168 0
-8169 8107 0
-8169 8023 0
8169 -8107 -8023 0
-8170 8108 0
-8170 8025 0
8170 -8108 -8025 0
-8171 8109 0
-8171 8027 0
8171 -8109 -8027 0
-8172 8110 0
-8172 8029 0
8172 -8110 -8029 0
-8173 8111 0
-8173 8031 0
8173 -8111 -8031 0
-8174 8112 0
-8174 8033 0
8174 -8112 -8033 0
-8175 8169 8170 0
-8175 -8169 -8170 0
8175 -8169 8170 0
8175 8169 -8170 0
-8176 8175 8171 0
-8176 -8175 -8171 0
8176 -8175 8171 0
8176 8175 -8171 0
-8177 8176 8172 0
-8177 -8176 -8172 0
8177 -8176 8172 0
8177 8176 -8172 0
-8178 8177 8173 0
-8178 -8177 -8173 0
8178 -8177 8173 0
8178 8177 -8173 0
-8179 8178 8174 0
-8179 -8178 -8174 0
8179 -8178 8174 0
8179 8178 -8174 0
-8180 8034 8107 0
-8180 -8034 -8107 0
8180 -8034 8107 0
8180 8034 -8107 0
-8181 8035 8108 0
-8181 -8035 -8108 0
8181 -8035 8108 0
8181 8035 -8108 0
-8182 8036 8109 0
-8182 -8036 -8109 0
8182 -8036 8109 0
8182 8036 -8109 0
-8183 8037 8110 0
-8183 -8037 -8110 0
8183 -8037 8110 0
8183 8037 -8110 0
-8184 8038 8111 0
-8184 -8038 -8111 0
8184 -8038 8111 0
8184 8038 -8111 0
-8185 8039 8112 0
-8185 -8039 -8112 0
8185 -8039 8112 0
8185 8039 -8112 0
8180 8181 8182 8183 8184 8185 0
8106 8179 0
-8186 31 49 0
-8186 -31 -49 0
8186 -31 49 0
8186 31 -49 0
-8187 32 50 0
-8187 -32 -50 0
8187 -32 50 0
8187 32 -50 0
-8188 33 51 0
-8188 -33 -51 0
8188 -33 51 0
8188 33 -51 0
-8189 34 52 0
-8189 -34 -52 0
8189 -34 52 0
8189 34 -52 0
-8190 35 53 0
-8190 -35 -53 0
8190 -35 53 0
8190 35 -53 0
-8191 36 54 0
-8191 -36 -54 0
8191 -36 54 0
8191 36 -54 0
-8192 103 121 0
-8192 -103 -121 0
8192 -103 121 0
8192 103 -121 0
-8193 -8192 67 0
-8193 8192 -67 0
8193 8192 67 0
8193 -8192 -67 0
-8194 104 122 0
-8194 -104 -122 0
8194 -104 122 0
8194 104 -122 0
-8195 8194 68 0
-8195 -8194 -68 0
8195 -8194 68 0
8195 8194 -68 0
-8196 105 123 0
-8196 -105 -123 0
8196 -105 123 0
8196 105 -123 0
-8197 8196 69 0
-8197 -8196 -69 0
8197 -8196 69 0
8197 8196 -69 0
-8198 106 124 0
-8198 -106 -124 0
8198 -106 124 0
8198 106 -124 0
-8199 -8198 70 0
-8199 8198 -70 0
8199 8198 70 0
8199 -8198 -70 0
-8200 -107 125 0
-8200 107 -125 0
8200 107 125 0
8200 -107 -125 0
-8201 8200 71 0
-8201 -8200 -71 0
8201 -8200 71 0
8201 8200 -71 0
-8202 108 126 0
-8202 -108 -126 0
8202 -108 126 0
8202 108 -126 0
-8203 8202 72 0
-8203 -8202 -72 0
8203 -8202 72 0
8203 8202 -72 0
8204 8205 8206 8207 8208 8209 0
-8210 8204 8207 0
-8210 -8204 -8207 0
8210 -8204 8207 0
8210 8204 -8207 0
-8210 0
-8211 8204 0
-8211 8186 0
8211 -8204 -8186 0
-8212 8205 0
-8212 8187 0
8212 -8205 -8187 0
-8213 8206 0
-8213 8188 0
8213 -8206 -8188 0
-8214 8207 0
-8214 8189 0
8214 -8207 -8189 0
-8215 8208 0
-8215 8190 0
8215 -8208 -8190 0
-8216 8209 0
-8216 8191 0
8216 -8209 -8191 0
-8217 8211 8212 0
-8217 -8211 -8212 0
8217 -8211 8212 0
8217 8211 -8212 0
-8218 8217 8213 0
-8218 -8217 -8213 0
8218 -8217 8213 0
8218 8217 -8213 0
-8219 8218 8214 0
-8219 -8218 -8214 0
8219 -8218 8214 0
8219 8218 -8214 0
-8220 8219 8215 0
-8220 -8219 -8215 0
8220 -8219 8215 0
8220 8219 -8215 0
-8221 8220 8216 0
-8221 -8220 -8216 0
8221 -8220 8216 0
8221 8220 -8216 0
-8221 0
-8222 8204 0
-8222 -67 0
8222 -8204 67 0
-8223 8205 0
-8223 68 0
8223 -8205 -68 0
-8224 8206 0
-8224 69 0
8224 -8206 -69 0
-8225 8207 0
-8225 70 0
8225 -8207 -70 0
-8226 8208 0
-8226 71 0
8226 -8208 -71 0
-8227 8209 0
-8227 72 0
8227 -8209 -72 0
-8228 8222 8223 0
-8228 -8222 -8223 0
8228 -8222 8223 0
8228 8222 -8223 0
-8229 8228 8224 0
-8229 -8228 -8224 0
8229 -8228 8224 0
8229 8228 -8224 0
-8230 8229 8225 0
-8230 -8229 -8225 0
8230 -8229 8225 0
8230 8229 -8225 0
-8231 8230 8226 0
-8231 -8230 -8226 0
8231 -8230 8226 0
8231 8230 -8226 0
-8232 8231 8227 0
-8232 -8231 -8227 0
8232 -8231 8227 0
8232 8231 -8227 0
-8232 0
-8233 8204 0
-8233 79 0
8233 -8204 -79 0
-8234 8205 0
-8234 -80 0
8234 -8205 80 0
-8235 8206 0
-8235 81 0
8235 -8206 -81 0
-8236 8207 0
-8236 82 0
8236 -8207 -82 0
-8237 8208 0
-8237 83 0
8237 -8208 -83 0
-8238 8209 0
-8238 84 0
8238 -8209 -84 0
-8239 8233 8234 0
-8239 -8233 -8234 0
8239 -8233 8234 0
8239 8233 -8234 0
-8240 8239 8235 0
-8240 -8239 -8235 0
8240 -8239 8235 0
8240 8239 -8235 0
-8241 8240 8236 0
-8241 -8240 -8236 0
8241 -8240 8236 0
8241 8240 -8236 0
-8242 8241 8237 0
-8242 -8241 -8237 0
8242 -8241 8237 0
8242 8241 -8237 0
-8243 8242 8238 0
-8243 -8242 -8238 0
8243 -8242 8238 0
8243 8242 -8238 0
-8243 0
-8244 8204 0
-8244 61 0
8244 -8204 -61 0
-8245 8205 0
-8245 62 0
8245 -8205 -62 0
-8246 8206 0
-8246 -63 0
8246 -8206 63 0
-8247 8207 0
-8247 64 0
8247 -8207 -64 0
-8248 8208 0
-8248 65 0
8248 -8208 -65 0
-8249 8209 0
-8249 66 0
8249 -8209 -66 0
-8250 8244 8245 0
-8250 -8244 -8245 0
8250 -8244 8245 0
8250 8244 -8245 0
-8251 8250 8246 0
-8251 -8250 -8246 0
8251 -8250 8246 0
8251 8250 -8246 0
-8252 8251 8247 0
-8252 -8251 -8247 0
8252 -8251 8247 0
8252 8251 -8247 0
-8253 8252 8248 0
-8253 -8252 -8248 0
8253 -8252 8248 0
8253 8252 -8248 0
-8254 8253 8249 0
-8254 -8253 -8249 0
8254 -8253 8249 0
8254 8253 -8249 0
-8254 0
-8255 8204 0
-8255 67 0
8255 -8204 -67 0
-8256 8205 0
-8256 68 0
8256 -8205 -68 0
-8257 8206 0
-8257 69 0
8257 -8206 -69 0
-8258 8207 0
-8258 -70 0
8258 -8207 70 0
-8259 8208 0
-8259 71 0
8259 -8208 -71 0
-8260 8209 0
-8260 72 0
8260 -8209 -72 0
-8261 8255 8256 0
-8261 -8255 -8256 0
8261 -8255 8256 0
8261 8255 -8256 0
-8262 8261 8257 0
-8262 -8261 -8257 0
8262 -8261 8257 0
8262 8261 -8257 0
-8263 8262 8258 0
-8263 -8262 -8258 0
8263 -8262 8258 0
8263 8262 -8258 0
-8264 8263 8259 0
-8264 -8263 -8259 0
8264 -8263 8259 0
8264 8263 -8259 0
-8265 8264 8260 0
-8265 -8264 -8260 0
8265 -8264 8260 0
8265 8264 -8260 0
-8265 0
-8266 8204 0
-8266 8193 0
8266 -8204 -8193 0
-8267 8205 0
-8267 8195 0
8267 -8205 -8195 0
-8268 8206 0
-8268 8197 0
8268 -8206 -8197 0
-8269 8207 0
-8269 8199 0
8269 -8207 -8199 0
-8270 8208 0
-8270 8201 0
8270 -8208 -8201 0
-8271 8209 0
-8271 8203 0
8271 -8209 -8203 0
-8272 8266 8267 0
-8272 -8266 -8267 0
8272 -8266 8267 0
8272 8266 -8267 0
-8273 8272 8268 0
-8273 -8272 -8268 0
8273 -8272 8268 0
8273 8272 -8268 0
-8274 8273 8269 0
-8274 -8273 -8269 0
8274 -8273 8269 0
8274 8273 -8269 0
-8275 8274 8270 0
-8275 -8274 -8270 0
8275 -8274 8270 0
8275 8274 -8270 0
-8276 8275 8271 0
-8276 -8275 -8271 0
8276 -8275 8271 0
8276 8275 -8271 0
8277 8278 8279 8280 8281 8282 0
-8283 8277 8280 0
-8283 -8277 -8280 0
8283 -8277 8280 0
8283 8277 -8280 0
-8283 0
-8284 8277 0
-8284 8186 0
8284 -8277 -8186 0
-8285 8278 0
-8285 8187 0
8285 -8278 -8187 0
-8286 8279 0
-8286 8188 0
8286 -8279 -8188 0
-8287 8280 0
-8287 8189 0
8287 -8280 -8189 0
-8288 8281 0
-8288 8190 0
8288 -8281 -8190 0
-8289 8282 0
-8289 8191 0
8289 -8282 -8191 0
-8290 8284 8285 0
-8290 -8284 -8285 0
8290 -8284 8285 0
8290 8284 -8285 0
-8291 8290 8286 0
-8291 -8290 -8286 0
8291 -8290 8286 0
8291 8290 -8286 0
-8292 8291 8287 0
-8292 -8291 -8287 0
8292 -8291 8287 0
8292 8291 -8287 0
-8293 8292 8288 0
-8293 -8292 -8288 0
8293 -8292 8288 0
8293 8292 -8288 0
-8294 8293 8289 0
-8294 -8293 -8289 0
8294 -8293 8289 0
8294 8293 -8289 0
-8294 0
-8295 8277 0
-8295 -67 0
8295 -8277 67 0
-8296 8278 0
-8296 68 0
8296 -8278 -68 0
-8297 8279 0
-8297 69 0
8297 -8279 -69 0
-8298 8280 0
-8298 70 0
8298 -8280 -70 0
-8299 8281 0
-8299 71 0
8299 -8281 -71 0
-8300 8282 0
-8300 72 0
8300 -8282 -72 0
-8301 8295 8296 0
-8301 -8295 -8296 0
8301 -8295 8296 0
8301 8295 -8296 0
-8302 8301 8297 0
-8302 -8301 -8297 0
8302 -8301 8297 0
8302 8301 -8297 0
-8303 8302 8298 0
-8303 -8302 -8298 0
8303 -8302 8298 0
8303 8302 -8298 0
-8304 8303 8299 0
-8304 -8303 -8299 0
8304 -8303 8299 0
8304 8303 -8299 0
-8305 8304 8300 0
-8305 -8304 -8300 0
8305 -8304 8300 0
8305 8304 -8300 0
-8305 0
-8306 8277 0
-8306 79 0
8306 -8277 -79 0
-8307 8278 0
-8307 -80 0
8307 -8278 80 0
-8308 8279 0
-8308 81 0
8308 -8279 -81 0
-8309 8280 0
-8309 82 0
8309 -8280 -82 0
-8310 8281 0
-8310 83 0
8310 -8281 -83 0
-8311 8282 0
-8311 84 0
8311 -8282 -84 0
-8312 8306 8307 0
-8312 -8306 -8307 0
8312 -8306 8307 0
8312 8306 -8307 0
-8313 8312 8308 0
-8313 -8312 -8308 0
8313 -8312 8308 0
8313 8312 -8308 0
-8314 8313 8309 0
-8314 -8313 -8309 0
8314 -8313 8309 0
8314 8313 -8309 0
-8315 8314 8310 0
-8315 -8314 -8310 0
8315 -8314 8310 0
8315 8314 -8310 0
-8316 8315 8311 0
-8316 -8315 -8311 0
8316 -8315 8311 0
8316 8315 -8311 0
-8316 0
-8317 8277 0
-8317 61 0
8317 -8277 -61 0
-8318 8278 0
-8318 62 0
8318 -8278 -62 0
-8319 8279 0
-8319 -63 0
8319 -8279 63 0
-8320 8280 0
-8320 64 0
8320 -8280 -64 0
-8321 8281 0
-8321 65 0
8321 -8281 -65 0
-8322 8282 0
-8322 66 0
8322 -8282 -66 0
-8323 8317 8318 0
-8323 -8317 -8318 0
8323 -8317 8318 0
8323 8317 -8318 0
-8324 8323 8319 0
-8324 -8323 -8319 0
8324 -8323 8319 0
8324 8323 -8319 0
-8325 8324 8320 0
-8325 -8324 -8320 0
8325 -8324 8320 0
8325 8324 -8320 0
-8326 8325 8321 0
-8326 -8325 -8321 0
8326 -8325 8321 0
8326 8325 -8321 0
-8327 8326 8322 0
-8327 -8326 -8322 0
8327 -8326 8322 0
8327 8326 -8322 0
-8327 0
-8328 8277 0
-8328 67 0
8328 -8277 -67 0
-8329 8278 0
-8329 68 0
8329 -8278 -68 0
-8330 8279 0
-8330 69 0
8330 -8279 -69 0
-8331 8280 0
-8331 -70 0
8331 -8280 70 0
-8332 8281 0
-8332 71 0
8332 -8281 -71 0
-8333 8282 0
-8333 72 0
8333 -8282 -72 0
-8334 8328 8329 0
-8334 -8328 -8329 0
8334 -8328 8329 0
8334 8328 -8329 0
-8335 8334 8330 0
-8335 -8334 -8330 0
8335 -8334 8330 0
8335 8334 -8330 0
-8336 8335 8331 0
-8336 -8335 -8331 0
8336 -8335 8331 0
8336 8335 -8331 0
-8337 8336 8332 0
-8337 -8336 -8332 0
8337 -8336 8332 0
8337 8336 -8332 0
-8338 8337 8333 0
-8338 -8337 -8333 0
8338 -8337 8333 0
8338 8337 -8333 0
-8338 0
-8339 8277 0
-8339 8193 0
8339 -8277 -8193 0
-8340 8278 0
-8340 8195 0
8340 -8278 -8195 0
-8341 8279 0
-8341 8197 0
8341 -8279 -8197 0
-8342 8280 0
-8342 8199 0
8342 -8280 -8199 0
-8343 8281 0
-8343 8201 0
8343 -8281 -8201 0
-8344 8282 0
-8344 8203 0
8344 -8282 -8203 0
-8345 8339 8340 0
-8345 -8339 -8340 0
8345 -8339 8340 0
8345 8339 -8340 0
-8346 8345 8341 0
-8346 -8345 -8341 0
8346 -8345 8341 0
8346 8345 -8341 0
-8347 8346 8342 0
-8347 -8346 -8342 0
8347 -8346 8342 0
8347 8346 -8342 0
-8348 8347 8343 0
-8348 -8347 -8343 0
8348 -8347 8343 0
8348 8347 -8343 0
-8349 8348 8344 0
-8349 -8348 -8344 0
8349 -8348 8344 0
8349 8348 -8344 0
-8350 8204 8277 0
-8350 -8204 -8277 0
8350 -8204 8277 0
8350 8204 -8277 0
-8351 8205 8278 0
-8351 -8205 -8278 0
8351 -8205 8278 0
8351 8205 -8278 0
-8352 8206 8279 0
-8352 -8206 -8279 0
8352 -8206 8279 0
8352 8206 -8279 0
-8353 8207 8280 0
-8353 -8207 -8280 0
8353 -8207 8280 0
8353 8207 -8280 0
-8354 8208 8281 0
-8354 -8208 -8281 0
8354 -8208 8281 0
8354 8208 -8281 0
-8355 8209 8282 0
-8355 -8209 -8282 0
8355 -8209 8282 0
8355 8209 -8282 0
8350 8351 8352 8353 8354 8355 0
8276 8349 0
-8356 31 49 0
-8356 -31 -49 0
8356 -31 49 0
8356 31 -49 0
-8357 31 67 0
-8357 -31 -67 0
8357 -31 67 0
8357 31 -67 0
-8358 37 79 0
-8358 -37 -79 0
8358 -37 79 0
8358 37 -79 0
-8359 43 61 0
-8359 -43 -61 0
8359 -43 61 0
8359 43 -61 0
-8360 49 67 0
-8360 -49 -67 0
8360 -49 67 0
8360 49 -67 0
-8361 32 50 0
-8361 -32 -50 0
8361 -32 50 0
8361 32 -50 0
-8362 32 68 0
-8362 -32 -68 0
8362 -32 68 0
8362 32 -68 0
-8363 38 80 0
-8363 -38 -80 0
8363 -38 80 0
8363 38 -80 0
-8364 44 62 0
-8364 -44 -62 0
8364 -44 62 0
8364 44 -62 0
-8365 50 68 0
-8365 -50 -68 0
8365 -50 68 0
8365 50 -68 0
-8366 33 51 0
-8366 -33 -51 0
8366 -33 51 0
8366 33 -51 0
-8367 33 69 0
-8367 -33 -69 0
8367 -33 69 0
8367 33 -69 0
-8368 39 81 0
-8368 -39 -81 0
8368 -39 81 0
8368 39 -81 0
-8369 45 63 0
-8369 -45 -63 0
8369 -45 63 0
8369 45 -63 0
-8370 51 69 0
-8370 -51 -69 0
8370 -51 69 0
8370 51 -69 0
-8371 34 52 0
-8371 -34 -52 0
8371 -34 52 0
8371 34 -52 0
-8372 34 70 0
-8372 -34 -70 0
8372 -34 70 0
8372 34 -70 0
-8373 40 82 0
-8373 -40 -82 0
8373 -40 82 0
8373 40 -82 0
-8374 46 64 0
-8374 -46 -64 0
8374 -46 64 0
8374 46 -64 0
-8375 52 70 0
-8375 -52 -70 0
8375 -52 70 0
8375 52 -70 0
-8376 35 53 0
-8376 -35 -53 0
8376 -35 53 0
8376 35 -53 0
-8377 35 71 0
-8377 -35 -71 0
8377 -35 71 0
8377 35 -71 0
-8378 41 83 0
-8378 -41 -83 0
8378 -41 83 0
8378 41 -83 0
-8379 47 65 0
-8379 -47 -65 0
8379 -47 65 0
8379 47 -65 0
-8380 53 71 0
-8380 -53 -71 0
8380 -53 71 0
8380 53 -71 0
-8381 36 54 0
-8381 -36 -54 0
8381 -36 54 0
8381 36 -54 0
-8382 36 72 0
-8382 -36 -72 0
8382 -36 72 0
8382 36 -72 0
-8383 42 84 0
-8383 -42 -84 0
8383 -42 84 0
8383 42 -84 0
-8384 48 66 0
-8384 -48 -66 0
8384 -48 66 0
8384 48 -66 0
-8385 54 72 0
-8385 -54 -72 0
8385 -54 72 0
8385 54 -72 0
-8386 97 103 0
-8386 -97 -103 0
8386 -97 103 0
8386 97 -103 0
-8387 8386 121 0
-8387 -8386 -121 0
8387 -8386 121 0
8387 8386 -121 0
-8388 8387 31 0
-8388 -8387 -31 0
8388 -8387 31 0
8388 8387 -31 0
-8389 8388 49 0
-8389 -8388 -49 0
8389 -8388 49 0
8389 8388 -49 0
-8390 8389 67 0
-8390 -8389 -67 0
8390 -8389 67 0
8390 8389 -67 0
-8391 98 104 0
-8391 -98 -104 0
8391 -98 104 0
8391 98 -104 0
-8392 8391 122 0
-8392 -8391 -122 0
8392 -8391 122 0
8392 8391 -122 0
-8393 8392 32 0
-8393 -8392 -32 0
8393 -8392 32 0
8393 8392 -32 0
-8394 8393 50 0
-8394 -8393 -50 0
8394 -8393 50 0
8394 8393 -50 0
-8395 8394 68 0
-8395 -8394 -68 0
8395 -8394 68 0
8395 8394 -68 0
-8396 99 105 0
-8396 -99 -105 0
8396 -99 105 0
8396 99 -105 0
-8397 8396 123 0
-8397 -8396 -123 0
8397 -8396 123 0
8397 8396 -123 0
-8398 8397 33 0
-8398 -8397 -33 0
8398 -8397 33 0
8398 8397 -33 0
-8399 8398 51 0
-8399 -8398 -51 0
8399 -8398 51 0
8399 8398 -51 0
-8400 8399 69 0
-8400 -8399 -69 0
8400 -8399 69 0
8400 8399 -69 0
-8401 100 106 0
-8401 -100 -106 0
8401 -100 106 0
8401 100 -106 0
-8402 8401 124 0
-8402 -8401 -124 0
8402 -8401 124 0
8402 8401 -124 0
-8403 8402 34 0
-8403 -8402 -34 0
8403 -8402 34 0
8403 8402 -34 0
-8404 8403 52 0
-8404 -8403 -52 0
8404 -8403 52 0
8404 8403 -52 0
-8405 8404 70 0
-8405 -8404 -70 0
8405 -8404 70 0
8405 8404 -70 0
-8406 107 125 0
-8406 -107 -125 0
8406 -107 125 0
8406 107 -125 0
-8407 8406 35 0
-8407 -8406 -35 0
8407 -8406 35 0
8407 8406 -35 0
-8408 8407 53 0
-8408 -8407 -53 0
8408 -8407 53 0
8408 8407 -53 0
-8409 8408 71 0
-8409 -8408 -71 0
8409 -8408 71 0
8409 8408 -71 0
-8410 102 108 0
-8410 -102 -108 0
8410 -102 108 0
8410 102 -108 0
-8411 8410 126 0
-8411 -8410 -126 0
8411 -8410 126 0
8411 8410 -126 0
-8412 8411 36 0
-8412 -8411 -36 0
8412 -8411 36 0
8412 8411 -36 0
-8413 8412 54 0
-8413 -8412 -54 0
8413 -8412 54 0
8413 8412 -54 0
-8414 8413 72 0
-8414 -8413 -72 0
8414 -8413 72 0
8414 8413 -72 0
8415 8416 8417 8418 8419 8420 0
-8421 8415 8418 0
-8421 -8415 -8418 0
8421 -8415 8418 0
8421 8415 -8418 0
-8421 0
-8422 8415 0
-8422 8356 0
8422 -8415 -8356 0
-8423 8416 0
-8423 8361 0
8423 -8416 -8361 0
-8424 8417 0
-8424 8366 0
8424 -8417 -8366 0
-8425 8418 0
-8425 8371 0
8425 -8418 -8371 0
-8426 8419 0
-8426 8376 0
8426 -8419 -8376 0
-8427 8420 0
-8427 8381 0
8427 -8420 -8381 0
-8428 8422 8423 0
-8428 -8422 -8423 0
8428 -8422 8423 0
8428 8422 -8423 0
-8429 8428 8424 0
-8429 -8428 -8424 0
8429 -8428 8424 0
8429 8428 -8424 0
-8430 8429 8425 0
-8430 -8429 -8425 0
8430 -8429 8425 0
8430 8429 -8425 0
-8431 8430 8426 0
-8431 -8430 -8426 0
8431 -8430 8426 0
8431 8430 -8426 0
-8432 8431 8427 0
-8432 -8431 -8427 0
8432 -8431 8427 0
8432 8431 -8427 0
-8432 0
-8433 8415 0
-8433 8357 0
8433 -8415 -8357 0
-8434 8416 0
-8434 8362 0
8434 -8416 -8362 0
-8435 8417 0
-8435 8367 0
8435 -8417 -8367 0
-8436 8418 0
-8436 8372 0
8436 -8418 -8372 0
-8437 8419 0
-8437 8377 0
8437 -8419 -8377 0
-8438 8420 0
-8438 8382 0
8438 -8420 -8382 0
-8439 8433 8434 0
-8439 -8433 -8434 0
8439 -8433 8434 0
8439 8433 -8434 0
-8440 8439 8435 0
-8440 -8439 -8435 0
8440 -8439 8435 0
8440 8439 -8435 0
-8441 8440 8436 0
-8441 -8440 -8436 0
8441 -8440 8436 0
8441 8440 -8436 0
-8442 8441 8437 0
-8442 -8441 -8437 0
8442 -8441 8437 0
8442 8441 -8437 0
-8443 8442 8438 0
-8443 -8442 -8438 0
8443 -8442 8438 0
8443 8442 -8438 0
-8443 0
-8444 8415 0
-8444 8358 0
8444 -8415 -8358 0
-8445 8416 0
-8445 8363 0
8445 -8416 -8363 0
-8446 8417 0
-8446 8368 0
8446 -8417 -8368 0
-8447 8418 0
-8447 8373 0
8447 -8418 -8373 0
-8448 8419 0
-8448 8378 0
8448 -8419 -8378 0
-8449 8420 0
-8449 8383 0
8449 -8420 -8383 0
-8450 8444 8445 0
-8450 -8444 -8445 0
8450 -8444 8445 0
8450 8444 -8445 0
-8451 8450 8446 0
-8451 -8450 -8446 0
8451 -8450 8446 0
8451 8450 -8446 0
-8452 8451 8447 0
-8452 -8451 -8447 0
8452 -8451 8447 0
8452 8451 -8447 0
-8453 8452 8448 0
-8453 -8452 -8448 0
8453 -8452 8448 0
8453 8452 -8448 0
-8454 8453 8449 0
-8454 -8453 -8449 0
8454 -8453 8449 0
8454 8453 -8449 0
-8454 0
-8455 8415 0
-8455 8359 0
8455 -8415 -8359 0
-8456 8416 0
-8456 8364 0
8456 -8416 -8364 0
-8457 8417 0
-8457 8369 0
8457 -8417 -8369 0
-8458 8418 0
-8458 8374 0
8458 -8418 -8374 0
-8459 8419 0
-8459 8379 0
8459 -8419 -8379 0
-8460 8420 0
-8460 8384 0
8460 -8420 -8384 0
-8461 8455 8456 0
-8461 -8455 -8456 0
8461 -8455 8456 0
8461 8455 -8456 0
-8462 8461 8457 0
-8462 -8461 -8457 0
8462 -8461 8457 0
8462 8461 -8457 0
-8463 8462 8458 0
-8463 -8462 -8458 0
8463 -8462 8458 0
8463 8462 -8458 0
-8464 8463 8459 0
-8464 -8463 -8459 0
8464 -8463 8459 0
8464 8463 -8459 0
-8465 8464 8460 0
-8465 -8464 -8460 0
8465 -8464 8460 0
8465 8464 -8460 0
-8465 0
-8466 8415 0
-8466 8360 0
8466 -8415 -8360 0
-8467 8416 0
-8467 8365 0
8467 -8416 -8365 0
-8468 8417 0
-8468 8370 0
8468 -8417 -8370 0
-8469 8418 0
-8469 8375 0
8469 -8418 -8375 0
-8470 8419 0
-8470 8380 0
8470 -8419 -8380 0
-8471 8420 0
-8471 8385 0
8471 -8420 -8385 0
-8472 8466 8467 0
-8472 -8466 -8467 0
8472 -8466 8467 0
8472 8466 -8467 0
-8473 8472 8468 0
-8473 -8472 -8468 0
8473 -8472 8468 0
8473 8472 -8468 0
-8474 8473 8469 0
-8474 -8473 -8469 0
8474 -8473 8469 0
8474 8473 -8469 0
-8475 8474 8470 0
-8475 -8474 -8470 0
8475 -8474 8470 0
8475 8474 -8470 0
-8476 8475 8471 0
-8476 -8475 -8471 0
8476 -8475 8471 0
8476 8475 -8471 0
-8476 0
-8477 8415 0
-8477 8390 0
8477 -8415 -8390 0
-8478 8416 0
-8478 8395 0
8478 -8416 -8395 0
-8479 8417 0
-8479 8400 0
8479 -8417 -8400 0
-8480 8418 0
-8480 8405 0
8480 -8418 -8405 0
-8481 8419 0
-8481 8409 0
8481 -8419 -8409 0
-8482 8420 0
-8482 8414 0
8482 -8420 -8414 0
-8483 8477 8478 0
-8483 -8477 -8478 0
8483 -8477 8478 0
8483 8477 -8478 0
-8484 8483 8479 0
-8484 -8483 -8479 0
8484 -8483 8479 0
8484 8483 -8479 0
-8485 8484 8480 0
-8485 -8484 -8480 0
8485 -8484 8480 0
8485 8484 -8480 0
-8486 8485 8481 0
-8486 -8485 -8481 0
8486 -8485 8481 0
8486 8485 -8481 0
-8487 8486 8482 0
-8487 -8486 -8482 0
8487 -8486 8482 0
8487 8486 -8482 0
8488 8489 8490 8491 8492 8493 0
-8494 8488 8491 0
-8494 -8488 -8491 0
8494 -8488 8491 0
8494 8488 -8491 0
-8494 0
-8495 8488 0
-8495 8356 0
8495 -8488 -8356 0
-8496 8489 0
-8496 8361 0
8496 -8489 -8361 0
-8497 8490 0
-8497 8366 0
8497 -8490 -8366 0
-8498 8491 0
-8498 8371 0
8498 -8491 -8371 0
-8499 8492 0
-8499 8376 0
8499 -8492 -8376 0
-8500 8493 0
-8500 8381 0
8500 -8493 -8381 0
-8501 8495 8496 0
-8501 -8495 -8496 0
8501 -8495 8496 0
8501 8495 -8496 0
-8502 8501 8497 0
-8502 -8501 -8497 0
8502 -8501 8497 0
8502 8501 -8497 0
-8503 8502 8498 0
-8503 -8502 -8498 0
8503 -8502 8498 0
8503 8502 -8498 0
-8504 8503 8499 0
-8504 -8503 -8499 0
8504 -8503 8499 0
8504 8503 -8499 0
-8505 8504 8500 0
-8505 -8504 -8500 0
8505 -8504 8500 0
8505 8504 -8500 0
-8505 0
-8506 8488 0
-8506 8357 0
8506 -8488 -8357 0
-8507 8489 0
-8507 8362 0
8507 -8489 -8362 0
-8508 8490 0
-8508 8367 0
8508 -8490 -8367 0
-8509 8491 0
-8509 8372 0
8509 -8491 -8372 0
-8510 8492 0
-8510 8377 0
8510 -8492 -8377 0
-8511 8493 0
-8511 8382 0
8511 -8493 -8382 0
-8512 8506 8507 0
-8512 -8506 -8507 0
8512 -8506 8507 0
8512 8506 -8507 0
-8513 8512 8508 0
-8513 -8512 -8508 0
8513 -8512 8508 0
8513 8512 -8508 0
-8514 8513 8509 0
-8514 -8513 -8509 0
8514 -8513 8509 0
8514 8513 -8509 0
-8515 8514 8510 0
-8515 -8514 -8510 0
8515 -8514 8510 0
8515 8514 -8510 0
-8516 8515 8511 0
-8516 -8515 -8511 0
8516 -8515 8511 0
8516 8515 -8511 0
-8516 0
-8517 8488 0
-8517 8358 0
8517 -8488 -8358 0
-8518 8489 0
-8518 8363 0
8518 -8489 -8363 0
-8519 8490 0
-8519 8368 0
8519 -8490 -8368 0
-8520 8491 0
-8520 8373 0
8520 -8491 -8373 0
-8521 8492 0
-8521 8378 0
8521 -8492 -8378 0
-8522 8493 0
-8522 8383 0
8522 -8493 -8383 0
-8523 8517 8518 0
-8523 -8517 -8518 0
8523 -8517 8518 0
8523 8517 -8518 0
-8524 8523 8519 0
-8524 -8523 -8519 0
8524 -8523 8519 0
8524 8523 -8519 0
-8525 8524 8520 0
-8525 -8524 -8520 0
8525 -8524 8520 0
8525 8524 -8520 0
-8526 8525 8521 0
-8526 -8525 -8521 0
8526 -8525 8521 0
8526 8525 -8521 0
-8527 8526 8522 0
-8527 -8526 -8522 0
8527 -8526 8522 0
8527 8526 -8522 0
-8527 0
-8528 8488 0
-8528 8359 0
8528 -8488 -8359 0
-8529 8489 0
-8529 8364 0
8529 -8489 -8364 0
-8530 8490 0
-8530 8369 0
8530 -8490 -8369 0
-8531 8491 0
-8531 8374 0
8531 -8491 -8374 0
-8532 8492 0
-8532 8379 0
8532 -8492 -8379 0
-8533 8493 0
-8533 8384 0
8533 -8493 -8384 0
-8534 8528 8529 0
-8534 -8528 -8529 0
8534 -8528 8529 0
8534 8528 -8529 0
-8535 8534 8530 0
-8535 -8534 -8530 0
8535 -8534 8530 0
8535 8534 -8530 0
-8536 8535 8531 0
-8536 -8535 -8531 0
8536 -8535 8531 0
8536 8535 -8531 0
-8537 8536 8532 0
-8537 -8536 -8532 0
8537 -8536 8532 0
8537 8536 -8532 0
-8538 8537 8533 0
-8538 -8537 -8533 0
8538 -8537 8533 0
8538 8537 -8533 0
-8538 0
-8539 8488 0
-8539 8360 0
8539 -8488 -8360 0
-8540 8489 0
-8540 8365 0
8540 -8489 -8365 0
-8541 8490 0
-8541 8370 0
8541 -8490 -8370 0
-8542 8491 0
-8542 8375 0
8542 -8491 -8375 0
-8543 8492 0
-8543 8380 0
8543 -8492 -8380 0
-8544 8493 0
-8544 8385 0
8544 -8493 -8385 0
-8545 8539 8540 0
-8545 -8539 -8540 0
8545 -8539 8540 0
8545 8539 -8540 0
-8546 8545 8541 0
-8546 -8545 -8541 0
8546 -8545 8541 0
8546 8545 -8541 0
-8547 8546 8542 0
-8547 -8546 -8542 0
8547 -8546 8542 0
8547 8546 -8542 0
-8548 8547 8543 0
-8548 -8547 -8543 0
8548 -8547 8543 0
8548 8547 -8543 0
-8549 8548 8544 0
-8549 -8548 -8544 0
8549 -8548 8544 0
8549 8548 -8544 0
-8549 0
-8550 8488 0
-8550 8390 0
8550 -8488 -8390 0
-8551 8489 0
-8551 8395 0
8551 -8489 -8395 0
-8552 8490 0
-8552 8400 0
8552 -8490 -8400 0
-8553 8491 0
-8553 8405 0
8553 -8491 -8405 0
-8554 8492 0
-8554 8409 0
8554 -8492 -8409 0
-8555 8493 0
-8555 8414 0
8555 -8493 -8414 0
-8556 8550 8551 0
-8556 -8550 -8551 0
8556 -8550 8551 0
8556 8550 -8551 0
-8557 8556 8552 0
-8557 -8556 -8552 0
8557 -8556 8552 0
8557 8556 -8552 0
-8558 8557 8553 0
-8558 -8557 -8553 0
8558 -8557 8553 0
8558 8557 -8553 0
-8559 8558 8554 0
-8559 -8558 -8554 0
8559 -8558 8554 0
8559 8558 -8554 0
-8560 8559 8555 0
-8560 -8559 -8555 0
8560 -8559 8555 0
8560 8559 -8555 0
-8561 8415 8488 0
-8561 -8415 -8488 0
8561 -8415 8488 0
8561 8415 -8488 0
-8562 8416 8489 0
-8562 -8416 -8489 0
8562 -8416 8489 0
8562 8416 -8489 0
-8563 8417 8490 0
-8563 -8417 -8490 0
8563 -8417 8490 0
8563 8417 -8490 0
-8564 8418 8491 0
-8564 -8418 -8491 0
8564 -8418 8491 0
8564 8418 -8491 0
-8565 8419 8492 0
-8565 -8419 -8492 0
8565 -8419 8492 0
8565 8419 -8492 0
-8566 8420 8493 0
-8566 -8420 -8493 0
8566 -8420 8493 0
8566 8420 -8493 0
8561 8562 8563 8564 8565 8566 0
8487 8560 0
-8567 31 49 0
-8567 -31 -49 0
8567 -31 49 0
8567 31 -49 0
-8568 -31 67 0
-8568 31 -67 0
8568 31 67 0
8568 -31 -67 0
-8569 37 79 0
-8569 -37 -79 0
8569 -37 79 0
8569 37 -79 0
-8570 43 61 0
-8570 -43 -61 0
8570 -43 61 0
8570 43 -61 0
-8571 49 67 0
-8571 -49 -67 0
8571 -49 67 0
8571 49 -67 0
-8572 32 50 0
-8572 -32 -50 0
8572 -32 50 0
8572 32 -50 0
-8573 32 68 0
-8573 -32 -68 0
8573 -32 68 0
8573 32 -68 0
-8574 -38 80 0
-8574 38 -80 0
8574 38 80 0
8574 -38 -80 0
-8575 44 62 0
-8575 -44 -62 0
8575 -44 62 0
8575 44 -62 0
-8576 50 68 0
-8576 -50 -68 0
8576 -50 68 0
8576 50 -68 0
-8577 33 51 0
-8577 -33 -51 0
8577 -33 51 0
8577 33 -51 0
-8578 33 69 0
-8578 -33 -69 0
8578 -33 69 0
8578 33 -69 0
-8579 39 81 0
-8579 -39 -81 0
8579 -39 81 0
8579 39 -81 0
-8580 -45 63 0
-8580 45 -63 0
8580 45 63 0
8580 -45 -63 0
-8581 51 69 0
-8581 -51 -69 0
8581 -51 69 0
8581 51 -69 0
-8582 34 52 0
-8582 -34 -52 0
8582 -34 52 0
8582 34 -52 0
-8583 34 70 0
-8583 -34 -70 0
8583 -34 70 0
8583 34 -70 0
-8584 40 82 0
-8584 -40 -82 0
8584 -40 82 0
8584 40 -82 0
-8585 46 64 0
-8585 -46 -64 0
8585 -46 64 0
8585 46 -64 0
-8586 -52 70 0
-8586 52 -70 0
8586 52 70 0
8586 -52 -70 0
-8587 35 53 0
-8587 -35 -53 0
8587 -35 53 0
8587 35 -53 0
-8588 35 71 0
-8588 -35 -71 0
8588 -35 71 0
8588 35 -71 0
-8589 41 83 0
-8589 -41 -83 0
8589 -41 83 0
8589 41 -83 0
-8590 47 65 0
-8590 -47 -65 0
8590 -47 65 0
8590 47 -65 0
-8591 53 71 0
-8591 -53 -71 0
8591 -53 71 0
8591 53 -71 0
-8592 36 54 0
-8592 -36 -54 0
8592 -36 54 0
8592 36 -54 0
-8593 36 72 0
-8593 -36 -72 0
8593 -36 72 0
8593 36 -72 0
-8594 42 84 0
-8594 -42 -84 0
8594 -42 84 0
8594 42 -84 0
-8595 48 66 0
-8595 -48 -66 0
8595 -48 66 0
8595 48 -66 0
-8596 54 72 0
-8596 -54 -72 0
8596 -54 72 0
8596 54 -72 0
-8597 97 103 0
-8597 -97 -103 0
8597 -97 103 0
8597 97 -103 0
-8598 8597 121 0
-8598 -8597 -121 0
8598 -8597 121 0
8598 8597 -121 0
-8599 -8598 31 0
-8599 8598 -31 0
8599 8598 31 0
8599 -8598 -31 0
-8600 8599 49 0
-8600 -8599 -49 0
8600 -8599 49 0
8600 8599 -49 0
-8601 8600 67 0
-8601 -8600 -67 0
8601 -8600 67 0
8601 8600 -67 0
-8602 98 104 0
-8602 -98 -104 0
8602 -98 104 0
8602 98 -104 0
-8603 8602 122 0
-8603 -8602 -122 0
8603 -8602 122 0
8603 8602 -122 0
-8604 8603 32 0
-8604 -8603 -32 0
8604 -8603 32 0
8604 8603 -32 0
-8605 8604 50 0
-8605 -8604 -50 0
8605 -8604 50 0
8605 8604 -50 0
-8606 8605 68 0
-8606 -8605 -68 0
8606 -8605 68 0
8606 8605 -68 0
-8607 99 105 0
-8607 -99 -105 0
8607 -99 105 0
8607 99 -105 0
-8608 8607 123 0
-8608 -8607 -123 0
8608 -8607 123 0
8608 8607 -123 0
-8609 8608 33 0
-8609 -8608 -33 0
8609 -8608 33 0
8609 8608 -33 0
-8610 8609 51 0
-8610 -8609 -51 0
8610 -8609 51 0
8610 8609 -51 0
-8611 8610 69 0
-8611 -8610 -69 0
8611 -8610 69 0
8611 8610 -69 0
-8612 100 106 0
-8612 -100 -106 0
8612 -100 106 0
8612 100 -106 0
-8613 8612 124 0
-8613 -8612 -124 0
8613 -8612 124 0
8613 8612 -124 0
-8614 -8613 34 0
-8614 8613 -34 0
8614 8613 34 0
8614 -8613 -34 0
-8615 8614 52 0
-8615 -8614 -52 0
8615 -8614 52 0
8615 8614 -52 0
-8616 8615 70 0
-8616 -8615 -70 0
8616 -8615 70 0
8616 8615 -70 0
-8617 -107 125 0
-8617 107 -125 0
8617 107 125 0
8617 -107 -125 0
-8618 8617 35 0
-8618 -8617 -35 0
8618 -8617 35 0
8618 8617 -35 0
-8619 8618 53 0
-8619 -8618 -53 0
8619 -8618 53 0
8619 8618 -53 0
-8620 8619 71 0
-8620 -8619 -71 0
8620 -8619 71 0
8620 8619 -71 0
-8621 102 108 0
-8621 -102 -108 0
8621 -102 108 0
8621 102 -108 0
-8622 8621 126 0
-8622 -8621 -126 0
8622 -8621 126 0
8622 8621 -126 0
-8623 8622 36 0
-8623 -8622 -36 0
8623 -8622 36 0
8623 8622 -36 0
-8624 8623 54 0
-8624 -8623 -54 0
8624 -8623 54 0
8624 8623 -54 0
-8625 8624 72 0
-8625 -8624 -72 0
8625 -8624 72 0
8625 8624 -72 0
8626 8627 8628 8629 8630 8631 0
-8632 8626 8629 0
-8632 -8626 -8629 0
8632 -8626 8629 0
8632 8626 -8629 0
-8632 0
-8633 8626 0
-8633 8567 0
8633 -8626 -8567 0
-8634 8627 0
-8634 8572 0
8634 -8627 -8572 0
-8635 8628 0
-8635 8577 0
8635 -8628 -8577 0
-8636 8629 0
-8636 8582 0
8636 -8629 -8582 0
-8637 8630 0
-8637 8587 0
8637 -8630 -8587 0
-8638 8631 0
-8638 8592 0
8638 -8631 -8592 0
-8639 8633 8634 0
-8639 -8633 -8634 0
8639 -8633 8634 0
8639 8633 -8634 0
-8640 8639 8635 0
-8640 -8639 -8635 0
8640 -8639 8635 0
8640 8639 -8635 0
-8641 8640 8636 0
-8641 -8640 -8636 0
8641 -8640 8636 0
8641 8640 -8636 0
-8642 8641 8637 0
-8642 -8641 -8637 0
8642 -8641 8637 0
8642 8641 -8637 0
-8643 8642 8638 0
-8643 -8642 -8638 0
8643 -8642 8638 0
8643 8642 -8638 0
-8643 0
-8644 8626 0
-8644 8568 0
8644 -8626 -8568 0
-8645 8627 0
-8645 8573 0
8645 -8627 -8573 0
-8646 8628 0
-8646 8578 0
8646 -8628 -8578 0
-8647 8629 0
-8647 8583 0
8647 -8629 -8583 0
-8648 8630 0
-8648 8588 0
8648 -8630 -8588 0
-8649 8631 0
-8649 8593 0
8649 -8631 -8593 0
-8650 8644 8645 0
-8650 -8644 -8645 0
8650 -8644 8645 0
8650 8644 -8645 0
-8651 8650 8646 0
-8651 -8650 -8646 0
8651 -8650 8646 0
8651 8650 -8646 0
-8652 8651 8647 0
-8652 -8651 -8647 0
8652 -8651 8647 0
8652 8651 -8647 0
-8653 8652 8648 0
-8653 -8652 -8648 0
8653 -8652 8648 0
8653 8652 -8648 0
-8654 8653 8649 0
-8654 -8653 -8649 0
8654 -8653 8649 0
8654 8653 -8649 0
-8654 0
-8655 8626 0
-8655 8569 0
8655 -8626 -8569 0
-8656 8627 0
-8656 8574 0
8656 -8627 -8574 0
-8657 8628 0
-8657 8579 0
8657 -8628 -8579 0
-8658 8629 0
-8658 8584 0
8658 -8629 -8584 0
-8659 8630 0
-8659 8589 0
8659 -8630 -8589 0
-8660 8631 0
-8660 8594 0
8660 -8631 -8594 0
-8661 8655 8656 0
-8661 -8655 -8656 0
8661 -8655 8656 0
8661 8655 -8656 0
-8662 8661 8657 0
-8662 -8661 -8657 0
8662 -8661 8657 0
8662 8661 -8657 0
-8663 8662 8658 0
-8663 -8662 -8658 0
8663 -8662 8658 0
8663 8662 -8658 0
-8664 8663 8659 0
-8664 -8663 -8659 0
8664 -8663 8659 0
8664 8663 -8659 0
-8665 8664 8660 0
-8665 -8664 -8660 0
8665 -8664 8660 0
8665 8664 -8660 0
-8665 0
-8666 8626 0
-8666 8570 0
8666 -8626 -8570 0
-8667 8627 0
-8667 8575 0
8667 -8627 -8575 0
-8668 8628 0
-8668 8580 0
8668 -8628 -8580 0
-8669 8629 0
-8669 8585 0
8669 -8629 -8585 0
-8670 8630 0
-8670 8590 0
8670 -8630 -8590 0
-8671 8631 0
-8671 8595 0
8671 -8631 -8595 0
-8672 8666 8667 0
-8672 -8666 -8667 0
8672 -8666 8667 0
8672 8666 -8667 0
-8673 8672 8668 0
-8673 -8672 -8668 0
8673 -8672 8668 0
8673 8672 -8668 0
-8674 8673 8669 0
-8674 -8673 -8669 0
8674 -8673 8669 0
8674 8673 -8669 0
-8675 8674 8670 0
-8675 -8674 -8670 0
8675 -8674 8670 0
8675 8674 -8670 0
-8676 8675 8671 0
-8676 -8675 -8671 0
8676 -8675 8671 0
8676 8675 -8671 0
-8676 0
-8677 8626 0
-8677 8571 0
8677 -8626 -8571 0
-8678 8627 0
-8678 8576 0
8678 -8627 -8576 0
-8679 8628 0
-8679 8581 0
8679 -8628 -8581 0
-8680 8629 0
-8680 8586 0
8680 -8629 -8586 0
-8681 8630 0
-8681 8591 0
8681 -8630 -8591 0
-8682 8631 0
-8682 8596 0
8682 -8631 -8596 0
-8683 8677 8678 0
-8683 -8677 -8678 0
8683 -8677 8678 0
8683 8677 -8678 0
-8684 8683 8679 0
-8684 -8683 -8679 0
8684 -8683 8679 0
8684 8683 -8679 0
-8685 8684 8680 0
-8685 -8684 -8680 0
8685 -8684 8680 0
8685 8684 -8680 0
-8686 8685 8681 0
-8686 -8685 -8681 0
8686 -8685 8681 0
8686 8685 -8681 0
-8687 8686 8682 0
-8687 -8686 -8682 0
8687 -8686 8682 0
8687 8686 -8682 0
-8687 0
-8688 8626 0
-8688 8601 0
8688 -8626 -8601 0
-8689 8627 0
-8689 8606 0
8689 -8627 -8606 0
-8690 8628 0
-8690 8611 0
8690 -8628 -8611 0
-8691 8629 0
-8691 8616 0
8691 -8629 -8616 0
-8692 8630 0
-8692 8620 0
8692 -8630 -8620 0
-8693 8631 0
-8693 8625 0
8693 -8631 -8625 0
-8694 8688 8689 0
-8694 -8688 -8689 0
8694 -8688 8689 0
8694 8688 -8689 0
-8695 8694 8690 0
-8695 -8694 -8690 0
8695 -8694 8690 0
8695 8694 -8690 0
-8696 8695 8691 0
-8696 -8695 -8691 0
8696 -8695 8691 0
8696 8695 -8691 0
-8697 8696 8692 0
-8697 -8696 -8692 0
8697 -8696 8692 0
8697 8696 -8692 0
-8698 8697 8693 0
-8698 -8697 -8693 0
8698 -8697 8693 0
8698 8697 -8693 0
8699 8700 8701 8702 8703 8704 0
-8705 8699 8702 0
-8705 -8699 -8702 0
8705 -8699 8702 0
8705 8699 -8702 0
-8705 0
-8706 8699 0
-8706 8567 0
8706 -8699 -8567 0
-8707 8700 0
-8707 8572 0
8707 -8700 -8572 0
-8708 8701 0
-8708 8577 0
8708 -8701 -8577 0
-8709 8702 0
-8709 8582 0
8709 -8702 -8582 0
-8710 8703 0
-8710 8587 0
8710 -8703 -8587 0
-8711 8704 0
-8711 8592 0
8711 -8704 -8592 0
-8712 8706 8707 0
-8712 -8706 -8707 0
8712 -8706 8707 0
8712 8706 -8707 0
-8713 8712 8708 0
-8713 -8712 -8708 0
8713 -8712 8708 0
8713 8712 -8708 0
-8714 8713 8709 0
-8714 -8713 -8709 0
8714 -8713 8709 0
8714 8713 -8709 0
-8715 8714 8710 0
-8715 -8714 -8710 0
8715 -8714 8710 0
8715 8714 -8710 0
-8716 8715 8711 0
-8716 -8715 -8711 0
8716 -8715 8711 0
8716 8715 -8711 0
-8716 0
-8717 8699 0
-8717 8568 0
8717 -8699 -8568 0
-8718 8700 0
-8718 8573 0
8718 -8700 -8573 0
-8719 8701 0
-8719 8578 0
8719 -8701 -8578 0
-8720 8702 0
-8720 8583 0
8720 -8702 -8583 0
-8721 8703 0
-8721 8588 0
8721 -8703 -8588 0
-8722 8704 0
-8722 8593 0
8722 -8704 -8593 0
-8723 8717 8718 0
-8723 -8717 -8718 0
8723 -8717 8718 0
8723 8717 -8718 0
-8724 8723 8719 0
-8724 -8723 -8719 0
8724 -8723 8719 0
8724 8723 -8719 0
-8725 8724 8720 0
-8725 -8724 -8720 0
8725 -8724 8720 0
8725 8724 -8720 0
-8726 8725 8721 0
-8726 -8725 -8721 0
8726 -8725 8721 0
8726 8725 -8721 0
-8727 8726 8722 0
-8727 -8726 -8722 0
8727 -8726 8722 0
8727 8726 -8722 0
-8727 0
-8728 8699 0
-8728 8569 0
8728 -8699 -8569 0
-8729 8700 0
-8729 8574 0
8729 -8700 -8574 0
-8730 8701 0
-8730 8579 0
8730 -8701 -8579 0
-8731 8702 0
-8731 8584 0
8731 -8702 -8584 0
-8732 8703 0
-8732 8589 0
8732 -8703 -8589 0
-8733 8704 0
-8733 8594 0
8733 -8704 -8594 0
-8734 8728 8729 0
-8734 -8728 -8729 0
8734 -8728 8729 0
8734 8728 -8729 0
-8735 8734 8730 0
-8735 -8734 -8730 0
8735 -8734 8730 0
8735 8734 -8730 0
-8736 8735 8731 0
-8736 -8735 -8731 0
8736 -8735 8731 0
8736 8735 -8731 0
-8737 8736 8732 0
-8737 -8736 -8732 0
8737 -8736 8732 0
8737 8736 -8732 0
-8738 8737 8733 0
-8738 -8737 -8733 0
8738 -8737 8733 0
8738 8737 -8733 0
-8738 0
-8739 8699 0
-8739 8570 0
8739 -8699 -8570 0
-8740 8700 0
-8740 8575 0
8740 -8700 -8575 0
-8741 8701 0
-8741 8580 0
8741 -8701 -8580 0
-8742 8702 0
-8742 8585 0
8742 -8702 -8585 0
-8743 8703 0
-8743 8590 0
8743 -8703 -8590 0
-8744 8704 0
-8744 8595 0
8744 -8704 -8595 0
-8745 8739 8740 0
-8745 -8739 -8740 0
8745 -8739 8740 0
8745 8739 -8740 0
-8746 8745 8741 0
-8746 -8745 -8741 0
8746 -8745 8741 0
8746 8745 -8741 0
-8747 8746 8742 0
-8747 -8746 -8742 0
8747 -8746 8742 0
8747 8746 -8742 0
-8748 8747 8743 0
-8748 -8747 -8743 0
8748 -8747 8743 0
8748 8747 -8743 0
-8749 8748 8744 0
-8749 -8748 -8744 0
8749 -8748 8744 0
8749 8748 -8744 0
-8749 0
-8750 8699 0
-8750 8571 0
8750 -8699 -8571 0
-8751 8700 0
-8751 8576 0
8751 -8700 -8576 0
-8752 8701 0
-8752 8581 0
8752 -8701 -8581 0
-8753 8702 0
-8753 8586 0
8753 -8702 -8586 0
-8754 8703 0
-8754 8591 0
8754 -8703 -8591 0
-8755 8704 0
-8755 8596 0
8755 -8704 -8596 0
-8756 8750 8751 0
-8756 -8750 -8751 0
8756 -8750 8751 0
8756 8750 -8751 0
-8757 8756 8752 0
-8757 -8756 -8752 0
8757 -8756 8752 0
8757 8756 -8752 0
-8758 8757 8753 0
-8758 -8757 -8753 0
8758 -8757 8753 0
8758 8757 -8753 0
-8759 8758 8754 0
-8759 -8758 -8754 0
8759 -8758 8754 0
8759 8758 -8754 0
-8760 8759 8755 0
-8760 -8759 -8755 0
8760 -8759 8755 0
8760 8759 -8755 0
-8760 0
-8761 8699 0
-8761 8601 0
8761 -8699 -8601 0
-8762 8700 0
-8762 8606 0
8762 -8700 -8606 0
-8763 8701 0
-8763 8611 0
8763 -8701 -8611 0
-8764 8702 0
-8764 8616 0
8764 -8702 -8616 0
-8765 8703 0
-8765 8620 0
8765 -8703 -8620 0
-8766 8704 0
-8766 8625 0
8766 -8704 -8625 0
-8767 8761 8762 0
-8767 -8761 -8762 0
8767 -8761 8762 0
8767 8761 -8762 0
-8768 8767 8763 0
-8768 -8767 -8763 0
8768 -8767 8763 0
8768 8767 -8763 0
-8769 8768 8764 0
-8769 -8768 -8764 0
8769 -8768 8764 0
8769 8768 -8764 0
-8770 8769 8765 0
-8770 -8769 -8765 0
8770 -8769 8765 0
8770 8769 -8765 0
-8771 8770 8766 0
-8771 -8770 -8766 0
8771 -8770 8766 0
8771 8770 -8766 0
-8772 8626 8699 0
-8772 -8626 -8699 0
8772 -8626 8699 0
8772 8626 -8699 0
-8773 8627 8700 0
-8773 -8627 -8700 0
8773 -8627 8700 0
8773 8627 -8700 0
-8774 8628 8701 0
-8774 -8628 -8701 0
8774 -8628 8701 0
8774 8628 -8701 0
-8775 8629 8702 0
-8775 -8629 -8702 0
8775 -8629 8702 0
8775 8629 -8702 0
-8776 8630 8703 0
-8776 -8630 -8703 0
8776 -8630 8703 0
8776 8630 -8703 0
-8777 8631 8704 0
-8777 -8631 -8704 0
8777 -8631 8704 0
8777 8631 -8704 0
8772 8773 8774 8775 8776 8777 0
8698 8771 0
-8778 37 49 0
-8778 -37 -49 0
8778 -37 49 0
8778 37 -49 0
-8779 38 50 0
-8779 -38 -50 0
8779 -38 50 0
8779 38 -50 0
-8780 39 51 0
-8780 -39 -51 0
8780 -39 51 0
8780 39 -51 0
-8781 40 52 0
-8781 -40 -52 0
8781 -40 52 0
8781 40 -52 0
-8782 41 53 0
-8782 -41 -53 0
8782 -41 53 0
8782 41 -53 0
-8783 42 54 0
-8783 -42 -54 0
8783 -42 54 0
8783 42 -54 0
-8784 109 121 0
-8784 -109 -121 0
8784 -109 121 0
8784 109 -121 0
-8785 8784 79 0
-8785 -8784 -79 0
8785 -8784 79 0
8785 8784 -79 0
-8786 110 122 0
-8786 -110 -122 0
8786 -110 122 0
8786 110 -122 0
-8787 8786 80 0
-8787 -8786 -80 0
8787 -8786 80 0
8787 8786 -80 0
-8788 111 123 0
-8788 -111 -123 0
8788 -111 123 0
8788 111 -123 0
-8789 8788 81 0
-8789 -8788 -81 0
8789 -8788 81 0
8789 8788 -81 0
-8790 112 124 0
-8790 -112 -124 0
8790 -112 124 0
8790 112 -124 0
-8791 8790 82 0
-8791 -8790 -82 0
8791 -8790 82 0
8791 8790 -82 0
-8792 113 125 0
-8792 -113 -125 0
8792 -113 125 0
8792 113 -125 0
-8793 8792 83 0
-8793 -8792 -83 0
8793 -8792 83 0
8793 8792 -83 0
-8794 114 126 0
-8794 -114 -126 0
8794 -114 126 0
8794 114 -126 0
-8795 8794 84 0
-8795 -8794 -84 0
8795 -8794 84 0
8795 8794 -84 0
8796 8797 8798 8799 8800 8801 0
-8802 8797 8799 0
-8802 -8797 -8799 0
8802 -8797 8799 0
8802 8797 -8799 0
-8802 0
-8803 8796 0
-8803 8778 0
8803 -8796 -8778 0
-8804 8797 0
-8804 8779 0
8804 -8797 -8779 0
-8805 8798 0
-8805 8780 0
8805 -8798 -8780 0
-8806 8799 0
-8806 8781 0
8806 -8799 -8781 0
-8807 8800 0
-8807 8782 0
8807 -8800 -8782 0
-8808 8801 0
-8808 8783 0
8808 -8801 -8783 0
-8809 8803 8804 0
-8809 -8803 -8804 0
8809 -8803 8804 0
8809 8803 -8804 0
-8810 8809 8805 0
-8810 -8809 -8805 0
8810 -8809 8805 0
8810 8809 -8805 0
-8811 8810 8806 0
-8811 -8810 -8806 0
8811 -8810 8806 0
8811 8810 -8806 0
-8812 8811 8807 0
-8812 -8811 -8807 0
8812 -8811 8807 0
8812 8811 -8807 0
-8813 8812 8808 0
-8813 -8812 -8808 0
8813 -8812 8808 0
8813 8812 -8808 0
-8813 0
-8814 8796 0
-8814 67 0
8814 -8796 -67 0
-8815 8797 0
-8815 68 0
8815 -8797 -68 0
-8816 8798 0
-8816 69 0
8816 -8798 -69 0
-8817 8799 0
-8817 70 0
8817 -8799 -70 0
-8818 8800 0
-8818 71 0
8818 -8800 -71 0
-8819 8801 0
-8819 72 0
8819 -8801 -72 0
-8820 8814 8815 0
-8820 -8814 -8815 0
8820 -8814 8815 0
8820 8814 -8815 0
-8821 8820 8816 0
-8821 -8820 -8816 0
8821 -8820 8816 0
8821 8820 -8816 0
-8822 8821 8817 0
-8822 -8821 -8817 0
8822 -8821 8817 0
8822 8821 -8817 0
-8823 8822 8818 0
-8823 -8822 -8818 0
8823 -8822 8818 0
8823 8822 -8818 0
-8824 8823 8819 0
-8824 -8823 -8819 0
8824 -8823 8819 0
8824 8823 -8819 0
-8824 0
-8825 8796 0
-8825 79 0
8825 -8796 -79 0
-8826 8797 0
-8826 80 0
8826 -8797 -80 0
-8827 8798 0
-8827 81 0
8827 -8798 -81 0
-8828 8799 0
-8828 82 0
8828 -8799 -82 0
-8829 8800 0
-8829 83 0
8829 -8800 -83 0
-8830 8801 0
-8830 84 0
8830 -8801 -84 0
-8831 8825 8826 0
-8831 -8825 -8826 0
8831 -8825 8826 0
8831 8825 -8826 0
-8832 8831 8827 0
-8832 -8831 -8827 0
8832 -8831 8827 0
8832 8831 -8827 0
-8833 8832 8828 0
-8833 -8832 -8828 0
8833 -8832 8828 0
8833 8832 -8828 0
-8834 8833 8829 0
-8834 -8833 -8829 0
8834 -8833 8829 0
8834 8833 -8829 0
-8835 8834 8830 0
-8835 -8834 -8830 0
8835 -8834 8830 0
8835 8834 -8830 0
-8835 0
-8836 8796 0
-8836 73 0
8836 -8796 -73 0
-8837 8797 0
-8837 74 0
8837 -8797 -74 0
-8838 8798 0
-8838 75 0
8838 -8798 -75 0
-8839 8799 0
-8839 76 0
8839 -8799 -76 0
-8840 8800 0
-8840 77 0
8840 -8800 -77 0
-8841 8801 0
-8841 78 0
8841 -8801 -78 0
-8842 8836 8837 0
-8842 -8836 -8837 0
8842 -8836 8837 0
8842 8836 -8837 0
-8843 8842 8838 0
-8843 -8842 -8838 0
8843 -8842 8838 0
8843 8842 -8838 0
-8844 8843 8839 0
-8844 -8843 -8839 0
8844 -8843 8839 0
8844 8843 -8839 0
-8845 8844 8840 0
-8845 -8844 -8840 0
8845 -8844 8840 0
8845 8844 -8840 0
-8846 8845 8841 0
-8846 -8845 -8841 0
8846 -8845 8841 0
8846 8845 -8841 0
-8846 0
-8847 8796 0
-8847 79 0
8847 -8796 -79 0
-8848 8797 0
-8848 80 0
8848 -8797 -80 0
-8849 8798 0
-8849 81 0
8849 -8798 -81 0
-8850 8799 0
-8850 82 0
8850 -8799 -82 0
-8851 8800 0
-8851 83 0
8851 -8800 -83 0
-8852 8801 0
-8852 84 0
8852 -8801 -84 0
-8853 8847 8848 0
-8853 -8847 -8848 0
8853 -8847 8848 0
8853 8847 -8848 0
-8854 8853 8849 0
-8854 -8853 -8849 0
8854 -8853 8849 0
8854 8853 -8849 0
-8855 8854 8850 0
-8855 -8854 -8850 0
8855 -8854 8850 0
8855 8854 -8850 0
-8856 8855 8851 0
-8856 -8855 -8851 0
8856 -8855 8851 0
8856 8855 -8851 0
-8857 8856 8852 0
-8857 -8856 -8852 0
8857 -8856 8852 0
8857 8856 -8852 0
-8857 0
-8858 8796 0
-8858 8785 0
8858 -8796 -8785 0
-8859 8797 0
-8859 8787 0
8859 -8797 -8787 0
-8860 8798 0
-8860 8789 0
8860 -8798 -8789 0
-8861 8799 0
-8861 8791 0
8861 -8799 -8791 0
-8862 8800 0
-8862 8793 0
8862 -8800 -8793 0
-8863 8801 0
-8863 8795 0
8863 -8801 -8795 0
-8864 8858 8859 0
-8864 -8858 -8859 0
8864 -8858 8859 0
8864 8858 -8859 0
-8865 8864 8860 0
-8865 -8864 -8860 0
8865 -8864 8860 0
8865 8864 -8860 0
-8866 8865 8861 0
-8866 -8865 -8861 0
8866 -8865 8861 0
8866 8865 -8861 0
-8867 8866 8862 0
-8867 -8866 -8862 0
8867 -8866 8862 0
8867 8866 -8862 0
-8868 8867 8863 0
-8868 -8867 -8863 0
8868 -8867 8863 0
8868 8867 -8863 0
8869 8870 8871 8872 8873 8874 0
-8875 8870 8872 0
-8875 -8870 -8872 0
8875 -8870 8872 0
8875 8870 -8872 0
-8875 0
-8876 8869 0
-8876 8778 0
8876 -8869 -8778 0
-8877 8870 0
-8877 8779 0
8877 -8870 -8779 0
-8878 8871 0
-8878 8780 0
8878 -8871 -8780 0
-8879 8872 0
-8879 8781 0
8879 -8872 -8781 0
-8880 8873 0
-8880 8782 0
8880 -8873 -8782 0
-8881 8874 0
-8881 8783 0
8881 -8874 -8783 0
-8882 8876 8877 0
-8882 -8876 -8877 0
8882 -8876 8877 0
8882 8876 -8877 0
-8883 8882 8878 0
-8883 -8882 -8878 0
8883 -8882 8878 0
8883 8882 -8878 0
-8884 8883 8879 0
-8884 -8883 -8879 0
8884 -8883 8879 0
8884 8883 -8879 0
-8885 8884 8880 0
-8885 -8884 -8880 0
8885 -8884 8880 0
8885 8884 -8880 0
-8886 8885 8881 0
-8886 -8885 -8881 0
8886 -8885 8881 0
8886 8885 -8881 0
-8886 0
-8887 8869 0
-8887 67 0
8887 -8869 -67 0
-8888 8870 0
-8888 68 0
8888 -8870 -68 0
-8889 8871 0
-8889 69 0
8889 -8871 -69 0
-8890 8872 0
-8890 70 0
8890 -8872 -70 0
-8891 8873 0
-8891 71 0
8891 -8873 -71 0
-8892 8874 0
-8892 72 0
8892 -8874 -72 0
-8893 8887 8888 0
-8893 -8887 -8888 0
8893 -8887 8888 0
8893 8887 -8888 0
-8894 8893 8889 0
-8894 -8893 -8889 0
8894 -8893 8889 0
8894 8893 -8889 0
-8895 8894 8890 0
-8895 -8894 -8890 0
8895 -8894 8890 0
8895 8894 -8890 0
-8896 8895 8891 0
-8896 -8895 -8891 0
8896 -8895 8891 0
8896 8895 -8891 0
-8897 8896 8892 0
-8897 -8896 -8892 0
8897 -8896 8892 0
8897 8896 -8892 0
-8897 0
-8898 8869 0
-8898 79 0
8898 -8869 -79 0
-8899 8870 0
-8899 80 0
8899 -8870 -80 0
-8900 8871 0
-8900 81 0
8900 -8871 -81 0
-8901 8872 0
-8901 82 0
8901 -8872 -82 0
-8902 8873 0
-8902 83 0
8902 -8873 -83 0
-8903 8874 0
-8903 84 0
8903 -8874 -84 0
-8904 8898 8899 0
-8904 -8898 -8899 0
8904 -8898 8899 0
8904 8898 -8899 0
-8905 8904 8900 0
-8905 -8904 -8900 0
8905 -8904 8900 0
8905 8904 -8900 0
-8906 8905 8901 0
-8906 -8905 -8901 0
8906 -8905 8901 0
8906 8905 -8901 0
-8907 8906 8902 0
-8907 -8906 -8902 0
8907 -8906 8902 0
8907 8906 -8902 0
-8908 8907 8903 0
-8908 -8907 -8903 0
8908 -8907 8903 0
8908 8907 -8903 0
-8908 0
-8909 8869 0
-8909 73 0
8909 -8869 -73 0
-8910 8870 0
-8910 74 0
8910 -8870 -74 0
-8911 8871 0
-8911 75 0
8911 -8871 -75 0
-8912 8872 0
-8912 76 0
8912 -8872 -76 0
-8913 8873 0
-8913 77 0
8913 -8873 -77 0
-8914 8874 0
-8914 78 0
8914 -8874 -78 0
-8915 8909 8910 0
-8915 -8909 -8910 0
8915 -8909 8910 0
8915 8909 -8910 0
-8916 8915 8911 0
-8916 -8915 -8911 0
8916 -8915 8911 0
8916 8915 -8911 0
-8917 8916 8912 0
-8917 -8916 -8912 0
8917 -8916 8912 0
8917 8916 -8912 0
-8918 8917 8913 0
-8918 -8917 -8913 0
8918 -8917 8913 0
8918 8917 -8913 0
-8919 8918 8914 0
-8919 -8918 -8914 0
8919 -8918 8914 0
8919 8918 -8914 0
-8919 0
-8920 8869 0
-8920 79 0
8920 -8869 -79 0
-8921 8870 0
-8921 80 0
8921 -8870 -80 0
-8922 8871 0
-8922 81 0
8922 -8871 -81 0
-8923 8872 0
-8923 82 0
8923 -8872 -82 0
-8924 8873 0
-8924 83 0
8924 -8873 -83 0
-8925 8874 0
-8925 84 0
8925 -8874 -84 0
-8926 8920 8921 0
-8926 -8920 -8921 0
8926 -8920 8921 0
8926 8920 -8921 0
-8927 8926 8922 0
-8927 -8926 -8922 0
8927 -8926 8922 0
8927 8926 -8922 0
-8928 8927 8923 0
-8928 -8927 -8923 0
8928 -8927 8923 0
8928 8927 -8923 0
-8929 8928 8924 0
-8929 -8928 -8924 0
8929 -8928 8924 0
8929 8928 -8924 0
-8930 8929 8925 0
-8930 -8929 -8925 0
8930 -8929 8925 0
8930 8929 -8925 0
-8930 0
-8931 8869 0
-8931 8785 0
8931 -8869 -8785 0
-8932 8870 0
-8932 8787 0
8932 -8870 -8787 0
-8933 8871 0
-8933 8789 0
8933 -8871 -8789 0
-8934 8872 0
-8934 8791 0
8934 -8872 -8791 0
-8935 8873 0
-8935 8793 0
8935 -8873 -8793 0
-8936 8874 0
-8936 8795 0
8936 -8874 -8795 0
-8937 8931 8932 0
-8937 -8931 -8932 0
8937 -8931 8932 0
8937 8931 -8932 0
-8938 8937 8933 0
-8938 -8937 -8933 0
8938 -8937 8933 0
8938 8937 -8933 0
-8939 8938 8934 0
-8939 -8938 -8934 0
8939 -8938 8934 0
8939 8938 -8934 0
-8940 8939 8935 0
-8940 -8939 -8935 0
8940 -8939 8935 0
8940 8939 -8935 0
-8941 8940 8936 0
-8941 -8940 -8936 0
8941 -8940 8936 0
8941 8940 -8936 0
-8942 8796 8869 0
-8942 -8796 -8869 0
8942 -8796 8869 0
8942 8796 -8869 0
-8943 8797 8870 0
-8943 -8797 -8870 0
8943 -8797 8870 0
8943 8797 -8870 0
-8944 8798 8871 0
-8944 -8798 -8871 0
8944 -8798 8871 0
8944 8798 -8871 0
-8945 8799 8872 0
-8945 -8799 -8872 0
8945 -8799 8872 0
8945 8799 -8872 0
-8946 8800 8873 0
-8946 -8800 -8873 0
8946 -8800 8873 0
8946 8800 -8873 0
-8947 8801 8874 0
-8947 -8801 -8874 0
8947 -8801 8874 0
8947 8801 -8874 0
8942 8943 8944 8945 8946 8947 0
8868 8941 0
-8948 37 49 0
-8948 -37 -49 0
8948 -37 49 0
8948 37 -49 0
-8949 38 50 0
-8949 -38 -50 0
8949 -38 50 0
8949 38 -50 0
-8950 39 51 0
-8950 -39 -51 0
8950 -39 51 0
8950 39 -51 0
-8951 40 52 0
-8951 -40 -52 0
8951 -40 52 0
8951 40 -52 0
-8952 41 53 0
-8952 -41 -53 0
8952 -41 53 0
8952 41 -53 0
-8953 42 54 0
-8953 -42 -54 0
8953 -42 54 0
8953 42 -54 0
-8954 109 121 0
-8954 -109 -121 0
8954 -109 121 0
8954 109 -121 0
-8955 8954 79 0
-8955 -8954 -79 0
8955 -8954 79 0
8955 8954 -79 0
-8956 110 122 0
-8956 -110 -122 0
8956 -110 122 0
8956 110 -122 0
-8957 -8956 80 0
-8957 8956 -80 0
8957 8956 80 0
8957 -8956 -80 0
-8958 111 123 0
-8958 -111 -123 0
8958 -111 123 0
8958 111 -123 0
-8959 8958 81 0
-8959 -8958 -81 0
8959 -8958 81 0
8959 8958 -81 0
-8960 112 124 0
-8960 -112 -124 0
8960 -112 124 0
8960 112 -124 0
-8961 -8960 82 0
-8961 8960 -82 0
8961 8960 82 0
8961 -8960 -82 0
-8962 -113 125 0
-8962 113 -125 0
8962 113 125 0
8962 -113 -125 0
-8963 8962 83 0
-8963 -8962 -83 0
8963 -8962 83 0
8963 8962 -83 0
-8964 114 126 0
-8964 -114 -126 0
8964 -114 126 0
8964 114 -126 0
-8965 8964 84 0
-8965 -8964 -84 0
8965 -8964 84 0
8965 8964 -84 0
8966 8967 8968 8969 8970 8971 0
-8972 8967 8969 0
-8972 -8967 -8969 0
8972 -8967 8969 0
8972 8967 -8969 0
-8972 0
-8973 8966 0
-8973 8948 0
8973 -8966 -8948 0
-8974 8967 0
-8974 8949 0
8974 -8967 -8949 0
-8975 8968 0
-8975 8950 0
8975 -8968 -8950 0
-8976 8969 0
-8976 8951 0
8976 -8969 -8951 0
-8977 8970 0
-8977 8952 0
8977 -8970 -8952 0
-8978 8971 0
-8978 8953 0
8978 -8971 -8953 0
-8979 8973 8974 0
-8979 -8973 -8974 0
8979 -8973 8974 0
8979 8973 -8974 0
-8980 8979 8975 0
-8980 -8979 -8975 0
8980 -8979 8975 0
8980 8979 -8975 0
-8981 8980 8976 0
-8981 -8980 -8976 0
8981 -8980 8976 0
8981 8980 -8976 0
-8982 8981 8977 0
-8982 -8981 -8977 0
8982 -8981 8977 0
8982 8981 -8977 0
-8983 8982 8978 0
-8983 -8982 -8978 0
8983 -8982 8978 0
8983 8982 -8978 0
-8983 0
-8984 8966 0
-8984 -67 0
8984 -8966 67 0
-8985 8967 0
-8985 68 0
8985 -8967 -68 0
-8986 8968 0
-8986 69 0
8986 -8968 -69 0
-8987 8969 0
-8987 70 0
8987 -8969 -70 0
-8988 8970 0
-8988 71 0
8988 -8970 -71 0
-8989 8971 0
-8989 72 0
8989 -8971 -72 0
-8990 8984 8985 0
-8990 -8984 -8985 0
8990 -8984 8985 0
8990 8984 -8985 0
-8991 8990 8986 0
-8991 -8990 -8986 0
8991 -8990 8986 0
8991 8990 -8986 0
-8992 8991 8987 0
-8992 -8991 -8987 0
8992 -8991 8987 0
8992 8991 -8987 0
-8993 8992 8988 0
-8993 -8992 -8988 0
8993 -8992 8988 0
8993 8992 -8988 0
-8994 8993 8989 0
-8994 -8993 -8989 0
8994 -8993 8989 0
8994 8993 -8989 0
-8994 0
-8995 8966 0
-8995 79 0
8995 -8966 -79 0
-8996 8967 0
-8996 -80 0
8996 -8967 80 0
-8997 8968 0
-8997 81 0
8997 -8968 -81 0
-8998 8969 0
-8998 82 0
8998 -8969 -82 0
-8999 8970 0
-8999 83 0
8999 -8970 -83 0
-9000 8971 0
-9000 84 0
9000 -8971 -84 0
-9001 8995 8996 0
-9001 -8995 -8996 0
9001 -8995 8996 0
9001 8995 -8996 0
-9002 9001 8997 0
-9002 -9001 -8997 0
9002 -9001 8997 0
9002 9001 -8997 0
-9003 9002 8998 0
-9003 -9002 -8998 0
9003 -9002 8998 0
9003 9002 -8998 0
-9004 9003 8999 0
-9004 -9003 -8999 0
9004 -9003 8999 0
9004 9003 -8999 0
-9005 9004 9000 0
-9005 -9004 -9000 0
9005 -9004 9000 0
9005 9004 -9000 0
-9005 0
-9006 8966 0
-9006 73 0
9006 -8966 -73 0
-9007 8967 0
-9007 74 0
9007 -8967 -74 0
-9008 8968 0
-9008 -75 0
9008 -8968 75 0
-9009 8969 0
-9009 76 0
9009 -8969 -76 0
-9010 8970 0
-9010 77 0
9010 -8970 -77 0
-9011 8971 0
-9011 78 0
9011 -8971 -78 0
-9012 9006 9007 0
-9012 -9006 -9007 0
9012 -9006 9007 0
9012 9006 -9007 0
-9013 9012 9008 0
-9013 -9012 -9008 0
9013 -9012 9008 0
9013 9012 -9008 0
-9014 9013 9009 0
-9014 -9013 -9009 0
9014 -9013 9009 0
9014 9013 -9009 0
-9015 9014 9010 0
-9015 -9014 -9010 0
9015 -9014 9010 0
9015 9014 -9010 0
-9016 9015 9011 0
-9016 -9015 -9011 0
9016 -9015 9011 0
9016 9015 -9011 0
-9016 0
-9017 8966 0
-9017 79 0
9017 -8966 -79 0
-9018 8967 0
-9018 80 0
9018 -8967 -80 0
-9019 8968 0
-9019 81 0
9019 -8968 -81 0
-9020 8969 0
-9020 -82 0
9020 -8969 82 0
-9021 8970 0
-9021 83 0
9021 -8970 -83 0
-9022 8971 0
-9022 84 0
9022 -8971 -84 0
-9023 9017 9018 0
-9023 -9017 -9018 0
9023 -9017 9018 0
9023 9017 -9018 0
-9024 9023 9019 0
-9024 -9023 -9019 0
9024 -9023 9019 0
9024 9023 -9019 0
-9025 9024 9020 0
-9025 -9024 -9020 0
9025 -9024 9020 0
9025 9024 -9020 0
-9026 9025 9021 0
-9026 -9025 -9021 0
9026 -9025 9021 0
9026 9025 -9021 0
-9027 9026 9022 0
-9027 -9026 -9022 0
9027 -9026 9022 0
9027 9026 -9022 0
-9027 0
-9028 8966 0
-9028 8955 0
9028 -8966 -8955 0
-9029 8967 0
-9029 8957 0
9029 -8967 -8957 0
-9030 8968 0
-9030 8959 0
9030 -8968 -8959 0
-9031 8969 0
-9031 8961 0
9031 -8969 -8961 0
-9032 8970 0
-9032 8963 0
9032 -8970 -8963 0
-9033 8971 0
-9033 8965 0
9033 -8971 -8965 0
-9034 9028 9029 0
-9034 -9028 -9029 0
9034 -9028 9029 0
9034 9028 -9029 0
-9035 9034 9030 0
-9035 -9034 -9030 0
9035 -9034 9030 0
9035 9034 -9030 0
-9036 9035 9031 0
-9036 -9035 -9031 0
9036 -9035 9031 0
9036 9035 -9031 0
-9037 9036 9032 0
-9037 -9036 -9032 0
9037 -9036 9032 0
9037 9036 -9032 0
-9038 9037 9033 0
-9038 -9037 -9033 0
9038 -9037 9033 0
9038 9037 -9033 0
9039 9040 9041 9042 9043 9044 0
-9045 9040 9042 0
-9045 -9040 -9042 0
9045 -9040 9042 0
9045 9040 -9042 0
-9045 0
-9046 9039 0
-9046 8948 0
9046 -9039 -8948 0
-9047 9040 0
-9047 8949 0
9047 -9040 -8949 0
-9048 9041 0
-9048 8950 0
9048 -9041 -8950 0
-9049 9042 0
-9049 8951 0
9049 -9042 -8951 0
-9050 9043 0
-9050 8952 0
9050 -9043 -8952 0
-9051 9044 0
-9051 8953 0
9051 -9044 -8953 0
-9052 9046 9047 0
-9052 -9046 -9047 0
9052 -9046 9047 0
9052 9046 -9047 0
-9053 9052 9048 0
-9053 -9052 -9048 0
9053 -9052 9048 0
9053 9052 -9048 0
-9054 9053 9049 0
-9054 -9053 -9049 0
9054 -9053 9049 0
9054 9053 -9049 0
-9055 9054 9050 0
-9055 -9054 -9050 0
9055 -9054 9050 0
9055 9054 -9050 0
-9056 9055 9051 0
-9056 -9055 -9051 0
9056 -9055 9051 0
9056 9055 -9051 0
-9056 0
-9057 9039 0
-9057 -67 0
9057 -9039 67 0
-9058 9040 0
-9058 68 0
9058 -9040 -68 0
-9059 9041 0
-9059 69 0
9059 -9041 -69 0
-9060 9042 0
-9060 70 0
9060 -9042 -70 0
-9061 9043 0
-9061 71 0
9061 -9043 -71 0
-9062 9044 0
-9062 72 0
9062 -9044 -72 0
-9063 9057 9058 0
-9063 -9057 -9058 0
9063 -9057 9058 0
9063 9057 -9058 0
-9064 9063 9059 0
-9064 -9063 -9059 0
9064 -9063 9059 0
9064 9063 -9059 0
-9065 9064 9060 0
-9065 -9064 -9060 0
9065 -9064 9060 0
9065 9064 -9060 0
-9066 9065 9061 0
-9066 -9065 -9061 0
9066 -9065 9061 0
9066 9065 -9061 0
-9067 9066 9062 0
-9067 -9066 -9062 0
9067 -9066 9062 0
9067 9066 -9062 0
-9067 0
-9068 9039 0
-9068 79 0
9068 -9039 -79 0
-9069 9040 0
-9069 -80 0
9069 -9040 80 0
-9070 9041 0
-9070 81 0
9070 -9041 -81 0
-9071 9042 0
-9071 82 0
9071 -9042 -82 0
-9072 9043 0
-9072 83 0
9072 -9043 -83 0
-9073 9044 0
-9073 84 0
9073 -9044 -84 0
-9074 9068 9069 0
-9074 -9068 -9069 0
9074 -9068 9069 0
9074 9068 -9069 0
-9075 9074 9070 0
-9075 -9074 -9070 0
9075 -9074 9070 0
9075 9074 -9070 0
-9076 9075 9071 0
-9076 -9075 -9071 0
9076 -9075 9071 0
9076 9075 -9071 0
-9077 9076 9072 0
-9077 -9076 -9072 0
9077 -9076 9072 0
9077 9076 -9072 0
-9078 9077 9073 0
-9078 -9077 -9073 0
9078 -9077 9073 0
9078 9077 -9073 0
-9078 0
-9079 9039 0
-9079 73 0
9079 -9039 -73 0
-9080 9040 0
-9080 74 0
9080 -9040 -74 0
-9081 9041 0
-9081 -75 0
9081 -9041 75 0
-9082 9042 0
-9082 76 0
9082 -9042 -76 0
-9083 9043 0
-9083 77 0
9083 -9043 -77 0
-9084 9044 0
-9084 78 0
9084 -9044 -78 0
-9085 9079 9080 0
-9085 -9079 -9080 0
9085 -9079 9080 0
9085 9079 -9080 0
-9086 9085 9081 0
-9086 -9085 -9081 0
9086 -9085 9081 0
9086 9085 -9081 0
-9087 9086 9082 0
-9087 -9086 -9082 0
9087 -9086 9082 0
9087 9086 -9082 0
-9088 9087 9083 0
-9088 -9087 -9083 0
9088 -9087 9083 0
9088 9087 -9083 0
-9089 9088 9084 0
-9089 -9088 -9084 0
9089 -9088 9084 0
9089 9088 -9084 0
-9089 0
-9090 9039 0
-9090 79 0
9090 -9039 -79 0
-9091 9040 0
-9091 80 0
9091 -9040 -80 0
-9092 9041 0
-9092 81 0
9092 -9041 -81 0
-9093 9042 0
-9093 -82 0
9093 -9042 82 0
-9094 9043 0
-9094 83 0
9094 -9043 -83 0
-9095 9044 0
-9095 84 0
9095 -9044 -84 0
-9096 9090 9091 0
-9096 -9090 -9091 0
9096 -9090 9091 0
9096 9090 -9091 0
-9097 9096 9092 0
-9097 -9096 -9092 0
9097 -9096 9092 0
9097 9096 -9092 0
-9098 9097 9093 0
-9098 -9097 -9093 0
9098 -9097 9093 0
9098 9097 -9093 0
-9099 9098 9094 0
-9099 -9098 -9094 0
9099 -9098 9094 0
9099 9098 -9094 0
-9100 9099 9095 0
-9100 -9099 -9095 0
9100 -9099 9095 0
9100 9099 -9095 0
-9100 0
-9101 9039 0
-9101 8955 0
9101 -9039 -8955 0
-9102 9040 0
-9102 8957 0
9102 -9040 -8957 0
-9103 9041 0
-9103 8959 0
9103 -9041 -8959 0
-9104 9042 0
-9104 8961 0
9104 -9042 -8961 0
-9105 9043 0
-9105 8963 0
9105 -9043 -8963 0
-9106 9044 0
-9106 8965 0
9106 -9044 -8965 0
-9107 9101 9102 0
-9107 -9101 -9102 0
9107 -9101 9102 0
9107 9101 -9102 0
-9108 9107 9103 0
-9108 -9107 -9103 0
9108 -9107 9103 0
9108 9107 -9103 0
-9109 9108 9104 0
-9109 -9108 -9104 0
9109 -9108 9104 0
9109 9108 -9104 0
-9110 9109 9105 0
-9110 -9109 -9105 0
9110 -9109 9105 0
9110 9109 -9105 0
-9111 9110 9106 0
-9111 -9110 -9106 0
9111 -9110 9106 0
9111 9110 -9106 0
-9112 8966 9039 0
-9112 -8966 -9039 0
9112 -8966 9039 0
9112 8966 -9039 0
-9113 8967 9040 0
-9113 -8967 -9040 0
9113 -8967 9040 0
9113 8967 -9040 0
-9114 8968 9041 0
-9114 -8968 -9041 0
9114 -8968 9041 0
9114 8968 -9041 0
-9115 8969 9042 0
-9115 -8969 -9042 0
9115 -8969 9042 0
9115 8969 -9042 0
-9116 8970 9043 0
-9116 -8970 -9043 0
9116 -8970 9043 0
9116 8970 -9043 0
-9117 8971 9044 0
-9117 -8971 -9044 0
9117 -8971 9044 0
9117 8971 -9044 0
9112 9113 9114 9115 9116 9117 0
9038 9111 0
-9118 37 49 0
-9118 -37 -49 0
9118 -37 49 0
9118 37 -49 0
-9119 31 67 0
-9119 -31 -67 0
9119 -31 67 0
9119 31 -67 0
-9120 37 79 0
-9120 -37 -79 0
9120 -37 79 0
9120 37 -79 0
-9121 43 73 0
-9121 -43 -73 0
9121 -43 73 0
9121 43 -73 0
-9122 49 79 0
-9122 -49 -79 0
9122 -49 79 0
9122 49 -79 0
-9123 38 50 0
-9123 -38 -50 0
9123 -38 50 0
9123 38 -50 0
-9124 32 68 0
-9124 -32 -68 0
9124 -32 68 0
9124 32 -68 0
-9125 38 80 0
-9125 -38 -80 0
9125 -38 80 0
9125 38 -80 0
-9126 44 74 0
-9126 -44 -74 0
9126 -44 74 0
9126 44 -74 0
-9127 50 80 0
-9127 -50 -80 0
9127 -50 80 0
9127 50 -80 0
-9128 39 51 0
-9128 -39 -51 0
9128 -39 51 0
9128 39 -51 0
-9129 33 69 0
-9129 -33 -69 0
9129 -33 69 0
9129 33 -69 0
-9130 39 81 0
-9130 -39 -81 0
9130 -39 81 0
9130 39 -81 0
-9131 45 75 0
-9131 -45 -75 0
9131 -45 75 0
9131 45 -75 0
-9132 51 81 0
-9132 -51 -81 0
9132 -51 81 0
9132 51 -81 0
-9133 40 52 0
-9133 -40 -52 0
9133 -40 52 0
9133 40 -52 0
-9134 34 70 0
-9134 -34 -70 0
9134 -34 70 0
9134 34 -70 0
-9135 40 82 0
-9135 -40 -82 0
9135 -40 82 0
9135 40 -82 0
-9136 46 76 0
-9136 -46 -76 0
9136 -46 76 0
9136 46 -76 0
-9137 52 82 0
-9137 -52 -82 0
9137 -52 82 0
9137 52 -82 0
-9138 41 53 0
-9138 -41 -53 0
9138 -41 53 0
9138 41 -53 0
-9139 35 71 0
-9139 -35 -71 0
9139 -35 71 0
9139 35 -71 0
-9140 41 83 0
-9140 -41 -83 0
9140 -41 83 0
9140 41 -83 0
-9141 47 77 0
-9141 -47 -77 0
9141 -47 77 0
9141 47 -77 0
-9142 53 83 0
-9142 -53 -83 0
9142 -53 83 0
9142 53 -83 0
-9143 42 54 0
-9143 -42 -54 0
9143 -42 54 0
9143 42 -54 0
-9144 36 72 0
-9144 -36 -72 0
9144 -36 72 0
9144 36 -72 0
-9145 42 84 0
-9145 -42 -84 0
9145 -42 84 0
9145 42 -84 0
-9146 48 78 0
-9146 -48 -78 0
9146 -48 78 0
9146 48 -78 0
-9147 54 84 0
-9147 -54 -84 0
9147 -54 84 0
9147 54 -84 0
-9148 97 109 0
-9148 -97 -109 0
9148 -97 109 0
9148 97 -109 0
-9149 9148 121 0
-9149 -9148 -121 0
9149 -9148 121 0
9149 9148 -121 0
-9150 9149 37 0
-9150 -9149 -37 0
9150 -9149 37 0
9150 9149 -37 0
-9151 9150 49 0
-9151 -9150 -49 0
9151 -9150 49 0
9151 9150 -49 0
-9152 9151 79 0
-9152 -9151 -79 0
9152 -9151 79 0
9152 9151 -79 0
-9153 98 110 0
-9153 -98 -110 0
9153 -98 110 0
9153 98 -110 0
-9154 9153 122 0
-9154 -9153 -122 0
9154 -9153 122 0
9154 9153 -122 0
-9155 9154 38 0
-9155 -9154 -38 0
9155 -9154 38 0
9155 9154 -38 0
-9156 9155 50 0
-9156 -9155 -50 0
9156 -9155 50 0
9156 9155 -50 0
-9157 9156 80 0
-9157 -9156 -80 0
9157 -9156 80 0
9157 9156 -80 0
-9158 99 111 0
-9158 -99 -111 0
9158 -99 111 0
9158 99 -111 0
-9159 9158 123 0
-9159 -9158 -123 0
9159 -9158 123 0
9159 9158 -123 0
-9160 9159 39 0
-9160 -9159 -39 0
9160 -9159 39 0
9160 9159 -39 0
-9161 9160 51 0
-9161 -9160 -51 0
9161 -9160 51 0
9161 9160 -51 0
-9162 9161 81 0
-9162 -9161 -81 0
9162 -9161 81 0
9162 9161 -81 0
-9163 100 112 0
-9163 -100 -112 0
9163 -100 112 0
9163 100 -112 0
-9164 9163 124 0
-9164 -9163 -124 0
9164 -9163 124 0
9164 9163 -124 0
-9165 9164 40 0
-9165 -9164 -40 0
9165 -9164 40 0
9165 9164 -40 0
-9166 9165 52 0
-9166 -9165 -52 0
9166 -9165 52 0
9166 9165 -52 0
-9167 9166 82 0
-9167 -9166 -82 0
9167 -9166 82 0
9167 9166 -82 0
-9168 113 125 0
-9168 -113 -125 0
9168 -113 125 0
9168 113 -125 0
-9169 9168 41 0
-9169 -9168 -41 0
9169 -9168 41 0
9169 9168 -41 0
-9170 9169 53 0
-9170 -9169 -53 0
9170 -9169 53 0
9170 9169 -53 0
-9171 9170 83 0
-9171 -9170 -83 0
9171 -9170 83 0
9171 9170 -83 0
-9172 102 114 0
-9172 -102 -114 0
9172 -102 114 0
9172 102 -114 0
-9173 9172 126 0
-9173 -9172 -126 0
9173 -9172 126 0
9173 9172 -126 0
-9174 9173 42 0
-9174 -9173 -42 0
9174 -9173 42 0
9174 9173 -42 0
-9175 9174 54 0
-9175 -9174 -54 0
9175 -9174 54 0
9175 9174 -54 0
-9176 9175 84 0
-9176 -9175 -84 0
9176 -9175 84 0
9176 9175 -84 0
9177 9178 9179 9180 9181 9182 0
-9183 9178 9180 0
-9183 -9178 -9180 0
9183 -9178 9180 0
9183 9178 -9180 0
-9183 0
-9184 9177 0
-9184 9118 0
9184 -9177 -9118 0
-9185 9178 0
-9185 9123 0
9185 -9178 -9123 0
-9186 9179 0
-9186 9128 0
9186 -9179 -9128 0
-9187 9180 0
-9187 9133 0
9187 -9180 -9133 0
-9188 9181 0
-9188 9138 0
9188 -9181 -9138 0
-9189 9182 0
-9189 9143 0
9189 -9182 -9143 0
-9190 9184 9185 0
-9190 -9184 -9185 0
9190 -9184 9185 0
9190 9184 -9185 0
-9191 9190 9186 0
-9191 -9190 -9186 0
9191 -9190 9186 0
9191 9190 -9186 0
-9192 9191 9187 0
-9192 -9191 -9187 0
9192 -9191 9187 0
9192 9191 -9187 0
-9193 9192 9188 0
-9193 -9192 -9188 0
9193 -9192 9188 0
9193 9192 -9188 0
-9194 9193 9189 0
-9194 -9193 -9189 0
9194 -9193 9189 0
9194 9193 -9189 0
-9194 0
-9195 9177 0
-9195 9119 0
9195 -9177 -9119 0
-9196 9178 0
-9196 9124 0
9196 -9178 -9124 0
-9197 9179 0
-9197 9129 0
9197 -9179 -9129 0
-9198 9180 0
-9198 9134 0
9198 -9180 -9134 0
-9199 9181 0
-9199 9139 0
9199 -9181 -9139 0
-9200 9182 0
-9200 9144 0
9200 -9182 -9144 0
-9201 9195 9196 0
-9201 -9195 -9196 0
9201 -9195 9196 0
9201 9195 -9196 0
-9202 9201 9197 0
-9202 -9201 -9197 0
9202 -9201 9197 0
9202 9201 -9197 0
-9203 9202 9198 0
-9203 -9202 -9198 0
9203 -9202 9198 0
9203 9202 -9198 0
-9204 9203 9199 0
-9204 -9203 -9199 0
9204 -9203 9199 0
9204 9203 -9199 0
-9205 9204 9200 0
-9205 -9204 -9200 0
9205 -9204 9200 0
9205 9204 -9200 0
-9205 0
-9206 9177 0
-9206 9120 0
9206 -9177 -9120 0
-9207 9178 0
-9207 9125 0
9207 -9178 -9125 0
-9208 9179 0
-9208 9130 0
9208 -9179 -9130 0
-9209 9180 0
-9209 9135 0
9209 -9180 -9135 0
-9210 9181 0
-9210 9140 0
9210 -9181 -9140 0
-9211 9182 0
-9211 9145 0
9211 -9182 -9145 0
-9212 9206 9207 0
-9212 -9206 -9207 0
9212 -9206 9207 0
9212 9206 -9207 0
-9213 9212 9208 0
-9213 -9212 -9208 0
9213 -9212 9208 0
9213 9212 -9208 0
-9214 9213 9209 0
-9214 -9213 -9209 0
9214 -9213 9209 0
9214 9213 -9209 0
-9215 9214 9210 0
-9215 -9214 -9210 0
9215 -9214 9210 0
9215 9214 -9210 0
-9216 9215 9211 0
-9216 -9215 -9211 0
9216 -9215 9211 0
9216 9215 -9211 0
-9216 0
-9217 9177 0
-9217 9121 0
9217 -9177 -9121 0
-9218 9178 0
-9218 9126 0
9218 -9178 -9126 0
-9219 9179 0
-9219 9131 0
9219 -9179 -9131 0
-9220 9180 0
-9220 9136 0
9220 -9180 -9136 0
-9221 9181 0
-9221 9141 0
9221 -9181 -9141 0
-9222 9182 0
-9222 9146 0
9222 -9182 -9146 0
-9223 9217 9218 0
-9223 -9217 -9218 0
9223 -9217 9218 0
9223 9217 -9218 0
-9224 9223 9219 0
-9224 -9223 -9219 0
9224 -9223 9219 0
9224 9223 -9219 0
-9225 9224 9220 0
-9225 -9224 -9220 0
9225 -9224 9220 0
9225 9224 -9220 0
-9226 9225 9221 0
-9226 -9225 -9221 0
9226 -9225 9221 0
9226 9225 -9221 0
-9227 9226 9222 0
-9227 -9226 -9222 0
9227 -9226 9222 0
9227 9226 -9222 0
-9227 0
-9228 9177 0
-9228 9122 0
9228 -9177 -9122 0
-9229 9178 0
-9229 9127 0
9229 -9178 -9127 0
-9230 9179 0
-9230 9132 0
9230 -9179 -9132 0
-9231 9180 0
-9231 9137 0
9231 -9180 -9137 0
-9232 9181 0
-9232 9142 0
9232 -9181 -9142 0
-9233 9182 0
-9233 9147 0
9233 -9182 -9147 0
-9234 9228 9229 0
-9234 -9228 -9229 0
9234 -9228 9229 0
9234 9228 -9229 0
-9235 9234 9230 0
-9235 -9234 -9230 0
9235 -9234 9230 0
9235 9234 -9230 0
-9236 9235 9231 0
-9236 -9235 -9231 0
9236 -9235 9231 0
9236 9235 -9231 0
-9237 9236 9232 0
-9237 -9236 -9232 0
9237 -9236 9232 0
9237 9236 -9232 0
-9238 9237 9233 0
-9238 -9237 -9233 0
9238 -9237 9233 0
9238 9237 -9233 0
-9238 0
-9239 9177 0
-9239 9152 0
9239 -9177 -9152 0
-9240 9178 0
-9240 9157 0
9240 -9178 -9157 0
-9241 9179 0
-9241 9162 0
9241 -9179 -9162 0
-9242 9180 0
-9242 9167 0
9242 -9180 -9167 0
-9243 9181 0
-9243 9171 0
9243 -9181 -9171 0
-9244 9182 0
-9244 9176 0
9244 -9182 -9176 0
-9245 9239 9240 0
-9245 -9239 -9240 0
9245 -9239 9240 0
9245 9239 -9240 0
-9246 9245 9241 0
-9246 -9245 -9241 0
9246 -9245 9241 0
9246 9245 -9241 0
-9247 9246 9242 0
-9247 -9246 -9242 0
9247 -9246 9242 0
9247 9246 -9242 0
-9248 9247 9243 0
-9248 -9247 -9243 0
9248 -9247 9243 0
9248 9247 -9243 0
-9249 9248 9244 0
-9249 -9248 -9244 0
9249 -9248 9244 0
9249 9248 -9244 0
9250 9251 9252 9253 9254 9255 0
-9256 9251 9253 0
-9256 -9251 -9253 0
9256 -9251 9253 0
9256 9251 -9253 0
-9256 0
-9257 9250 0
-9257 9118 0
9257 -9250 -9118 0
-9258 9251 0
-9258 9123 0
9258 -9251 -9123 0
-9259 9252 0
-9259 9128 0
9259 -9252 -9128 0
-9260 9253 0
-9260 9133 0
9260 -9253 -9133 0
-9261 9254 0
-9261 9138 0
9261 -9254 -9138 0
-9262 9255 0
-9262 9143 0
9262 -9255 -9143 0
-9263 9257 9258 0
-9263 -9257 -9258 0
9263 -9257 9258 0
9263 9257 -9258 0
-9264 9263 9259 0
-9264 -9263 -9259 0
9264 -9263 9259 0
9264 9263 -9259 0
-9265 9264 9260 0
-9265 -9264 -9260 0
9265 -9264 9260 0
9265 9264 -9260 0
-9266 9265 9261 0
-9266 -9265 -9261 0
9266 -9265 9261 0
9266 9265 -9261 0
-9267 9266 9262 0
-9267 -9266 -9262 0
9267 -9266 9262 0
9267 9266 -9262 0
-9267 0
-9268 9250 0
-9268 9119 0
9268 -9250 -9119 0
-9269 9251 0
-9269 9124 0
9269 -9251 -9124 0
-9270 9252 0
-9270 9129 0
9270 -9252 -9129 0
-9271 9253 0
-9271 9134 0
9271 -9253 -9134 0
-9272 9254 0
-9272 9139 0
9272 -9254 -9139 0
-9273 9255 0
-9273 9144 0
9273 -9255 -9144 0
-9274 9268 9269 0
-9274 -9268 -9269 0
9274 -9268 9269 0
9274 9268 -9269 0
-9275 9274 9270 0
-9275 -9274 -9270 0
9275 -9274 9270 0
9275 9274 -9270 0
-9276 9275 9271 0
-9276 -9275 -9271 0
9276 -9275 9271 0
9276 9275 -9271 0
-9277 9276 9272 0
-9277 -9276 -9272 0
9277 -9276 9272 0
9277 9276 -9272 0
-9278 9277 9273 0
-9278 -9277 -9273 0
9278 -9277 9273 0
9278 9277 -9273 0
-9278 0
-9279 9250 0
-9279 9120 0
9279 -9250 -9120 0
-9280 9251 0
-9280 9125 0
9280 -9251 -9125 0
-9281 9252 0
-9281 9130 0
9281 -9252 -9130 0
-9282 9253 0
-9282 9135 0
9282 -9253 -9135 0
-9283 9254 0
-9283 9140 0
9283 -9254 -9140 0
-9284 9255 0
-9284 9145 0
9284 -9255 -9145 0
-9285 9279 9280 0
-9285 -9279 -9280 0
9285 -9279 9280 0
9285 9279 -9280 0
-9286 9285 9281 0
-9286 -9285 -9281 0
9286 -9285 9281 0
9286 9285 -9281 0
-9287 9286 9282 0
-9287 -9286 -9282 0
9287 -9286 9282 0
9287 9286 -9282 0
-9288 9287 9283 0
-9288 -9287 -9283 0
9288 -9287 9283 0
9288 9287 -9283 0
-9289 9288 9284 0
-9289 -9288 -9284 0
9289 -9288 9284 0
9289 9288 -9284 0
-9289 0
-9290 9250 0
-9290 9121 0
9290 -9250 -9121 0
-9291 9251 0
-9291 9126 0
9291 -9251 -9126 0
-9292 9252 0
-9292 9131 0
9292 -9252 -9131 0
-9293 9253 0
-9293 9136 0
9293 -9253 -9136 0
-9294 9254 0
-9294 9141 0
9294 -9254 -9141 0
-9295 9255 0
-9295 9146 0
9295 -9255 -9146 0
-9296 9290 9291 0
-9296 -9290 -9291 0
9296 -9290 9291 0
9296 9290 -9291 0
-9297 9296 9292 0
-9297 -9296 -9292 0
9297 -9296 9292 0
9297 9296 -9292 0
-9298 9297 9293 0
-9298 -9297 -9293 0
9298 -9297 9293 0
9298 9297 -9293 0
-9299 9298 9294 0
-9299 -9298 -9294 0
9299 -9298 9294 0
9299 9298 -9294 0
-9300 9299 9295 0
-9300 -9299 -9295 0
9300 -9299 9295 0
9300 9299 -9295 0
-9300 0
-9301 9250 0
-9301 9122 0
9301 -9250 -9122 0
-9302 9251 0
-9302 9127 0
9302 -9251 -9127 0
-9303 9252 0
-9303 9132 0
9303 -9252 -9132 0
-9304 9253 0
-9304 9137 0
9304 -9253 -9137 0
-9305 9254 0
-9305 9142 0
9305 -9254 -9142 0
-9306 9255 0
-9306 9147 0
9306 -9255 -9147 0
-9307 9301 9302 0
-9307 -9301 -9302 0
9307 -9301 9302 0
9307 9301 -9302 0
-9308 9307 9303 0
-9308 -9307 -9303 0
9308 -9307 9303 0
9308 9307 -9303 0
-9309 9308 9304 0
-9309 -9308 -9304 0
9309 -9308 9304 0
9309 9308 -9304 0
-9310 9309 9305 0
-9310 -9309 -9305 0
9310 -9309 9305 0
9310 9309 -9305 0
-9311 9310 9306 0
-9311 -9310 -9306 0
9311 -9310 9306 0
9311 9310 -9306 0
-9311 0
-9312 9250 0
-9312 9152 0
9312 -9250 -9152 0
-9313 9251 0
-9313 9157 0
9313 -9251 -9157 0
-9314 9252 0
-9314 9162 0
9314 -9252 -9162 0
-9315 9253 0
-9315 9167 0
9315 -9253 -9167 0
-9316 9254 0
-9316 9171 0
9316 -9254 -9171 0
-9317 9255 0
-9317 9176 0
9317 -9255 -9176 0
-9318 9312 9313 0
-9318 -9312 -9313 0
9318 -9312 9313 0
9318 9312 -9313 0
-9319 9318 9314 0
-9319 -9318 -9314 0
9319 -9318 9314 0
9319 9318 -9314 0
-9320 9319 9315 0
-9320 -9319 -9315 0
9320 -9319 9315 0
9320 9319 -9315 0
-9321 9320 9316 0
-9321 -9320 -9316 0
9321 -9320 9316 0
9321 9320 -9316 0
-9322 9321 9317 0
-9322 -9321 -9317 0
9322 -9321 9317 0
9322 9321 -9317 0
-9323 9177 9250 0
-9323 -9177 -9250 0
9323 -9177 9250 0
9323 9177 -9250 0
-9324 9178 9251 0
-9324 -9178 -9251 0
9324 -9178 9251 0
9324 9178 -9251 0
-9325 9179 9252 0
-9325 -9179 -9252 0
9325 -9179 9252 0
9325 9179 -9252 0
-9326 9180 9253 0
-9326 -9180 -9253 0
9326 -9180 9253 0
9326 9180 -9253 0
-9327 9181 9254 0
-9327 -9181 -9254 0
9327 -9181 9254 0
9327 9181 -9254 0
-9328 9182 9255 0
-9328 -9182 -9255 0
9328 -9182 9255 0
9328 9182 -9255 0
9323 9324 9325 9326 9327 9328 0
9249 9322 0
-9329 37 49 0
-9329 -37 -49 0
9329 -37 49 0
9329 37 -49 0
-9330 -31 67 0
-9330 31 -67 0
9330 31 67 0
9330 -31 -67 0
-9331 37 79 0
-9331 -37 -79 0
9331 -37 79 0
9331 37 -79 0
-9332 43 73 0
-9332 -43 -73 0
9332 -43 73 0
9332 43 -73 0
-9333 49 79 0
-9333 -49 -79 0
9333 -49 79 0
9333 49 -79 0
-9334 38 50 0
-9334 -38 -50 0
9334 -38 50 0
9334 38 -50 0
-9335 32 68 0
-9335 -32 -68 0
9335 -32 68 0
9335 32 -68 0
-9336 -38 80 0
-9336 38 -80 0
9336 38 80 0
9336 -38 -80 0
-9337 44 74 0
-9337 -44 -74 0
9337 -44 74 0
9337 44 -74 0
-9338 50 80 0
-9338 -50 -80 0
9338 -50 80 0
9338 50 -80 0
-9339 39 51 0
-9339 -39 -51 0
9339 -39 51 0
9339 39 -51 0
-9340 33 69 0
-9340 -33 -69 0
9340 -33 69 0
9340 33 -69 0
-9341 39 81 0
-9341 -39 -81 0
9341 -39 81 0
9341 39 -81 0
-9342 -45 75 0
-9342 45 -75 0
9342 45 75 0
9342 -45 -75 0
-9343 51 81 0
-9343 -51 -81 0
9343 -51 81 0
9343 51 -81 0
-9344 40 52 0
-9344 -40 -52 0
9344 -40 52 0
9344 40 -52 0
-9345 34 70 0
-9345 -34 -70 0
9345 -34 70 0
9345 34 -70 0
-9346 40 82 0
-9346 -40 -82 0
9346 -40 82 0
9346 40 -82 0
-9347 46 76 0
-9347 -46 -76 0
9347 -46 76 0
9347 46 -76 0
-9348 -52 82 0
-9348 52 -82 0
9348 52 82 0
9348 -52 -82 0
-9349 41 53 0
-9349 -41 -53 0
9349 -41 53 0
9349 41 -53 0
-9350 35 71 0
-9350 -35 -71 0
9350 -35 71 0
9350 35 -71 0
-9351 41 83 0
-9351 -41 -83 0
9351 -41 83 0
9351 41 -83 0
-9352 47 77 0
-9352 -47 -77 0
9352 -47 77 0
9352 47 -77 0
-9353 53 83 0
-9353 -53 -83 0
9353 -53 83 0
9353 53 -83 0
-9354 42 54 0
-9354 -42 -54 0
9354 -42 54 0
9354 42 -54 0
-9355 36 72 0
-9355 -36 -72 0
9355 -36 72 0
9355 36 -72 0
-9356 42 84 0
-9356 -42 -84 0
9356 -42 84 0
9356 42 -84 0
-9357 48 78 0
-9357 -48 -78 0
9357 -48 78 0
9357 48 -78 0
-9358 54 84 0
-9358 -54 -84 0
9358 -54 84 0
9358 54 -84 0
-9359 97 109 0
-9359 -97 -109 0
9359 -97 109 0
9359 97 -109 0
-9360 9359 121 0
-9360 -9359 -121 0
9360 -9359 121 0
9360 9359 -121 0
-9361 9360 37 0
-9361 -9360 -37 0
9361 -9360 37 0
9361 9360 -37 0
-9362 9361 49 0
-9362 -9361 -49 0
9362 -9361 49 0
9362 9361 -49 0
-9363 9362 79 0
-9363 -9362 -79 0
9363 -9362 79 0
9363 9362 -79 0
-9364 98 110 0
-9364 -98 -110 0
9364 -98 110 0
9364 98 -110 0
-9365 9364 122 0
-9365 -9364 -122 0
9365 -9364 122 0
9365 9364 -122 0
-9366 -9365 38 0
-9366 9365 -38 0
9366 9365 38 0
9366 -9365 -38 0
-9367 9366 50 0
-9367 -9366 -50 0
9367 -9366 50 0
9367 9366 -50 0
-9368 9367 80 0
-9368 -9367 -80 0
9368 -9367 80 0
9368 9367 -80 0
-9369 99 111 0
-9369 -99 -111 0
9369 -99 111 0
9369 99 -111 0
-9370 9369 123 0
-9370 -9369 -123 0
9370 -9369 123 0
9370 9369 -123 0
-9371 9370 39 0
-9371 -9370 -39 0
9371 -9370 39 0
9371 9370 -39 0
-9372 9371 51 0
-9372 -9371 -51 0
9372 -9371 51 0
9372 9371 -51 0
-9373 9372 81 0
-9373 -9372 -81 0
9373 -9372 81 0
9373 9372 -81 0
-9374 100 112 0
-9374 -100 -112 0
9374 -100 112 0
9374 100 -112 0
-9375 9374 124 0
-9375 -9374 -124 0
9375 -9374 124 0
9375 9374 -124 0
-9376 -9375 40 0
-9376 9375 -40 0
9376 9375 40 0
9376 -9375 -40 0
-9377 9376 52 0
-9377 -9376 -52 0
9377 -9376 52 0
9377 9376 -52 0
-9378 9377 82 0
-9378 -9377 -82 0
9378 -9377 82 0
9378 9377 -82 0
-9379 -113 125 0
-9379 113 -125 0
9379 113 125 0
9379 -113 -125 0
-9380 9379 41 0
-9380 -9379 -41 0
9380 -9379 41 0
9380 9379 -41 0
-9381 9380 53 0
-9381 -9380 -53 0
9381 -9380 53 0
9381 9380 -53 0
-9382 9381 83 0
-9382 -9381 -83 0
9382 -9381 83 0
9382 9381 -83 0
-9383 102 114 0
-9383 -102 -114 0
9383 -102 114 0
9383 102 -114 0
-9384 9383 126 0
-9384 -9383 -126 0
9384 -9383 126 0
9384 9383 -126 0
-9385 9384 42 0
-9385 -9384 -42 0
9385 -9384 42 0
9385 9384 -42 0
-9386 9385 54 0
-9386 -9385 -54 0
9386 -9385 54 0
9386 9385 -54 0
-9387 9386 84 0
-9387 -9386 -84 0
9387 -9386 84 0
9387 9386 -84 0
9388 9389 9390 9391 9392 9393 0
-9394 9389 9391 0
-9394 -9389 -9391 0
9394 -9389 9391 0
9394 9389 -9391 0
-9394 0
-9395 9388 0
-9395 9329 0
9395 -9388 -9329 0
-9396 9389 0
-9396 9334 0
9396 -9389 -9334 0
-9397 9390 0
-9397 9339 0
9397 -9390 -9339 0
-9398 9391 0
-9398 9344 0
9398 -9391 -9344 0
-9399 9392 0
-9399 9349 0
9399 -9392 -9349 0
-9400 9393 0
-9400 9354 0
9400 -9393 -9354 0
-9401 9395 9396 0
-9401 -9395 -9396 0
9401 -9395 9396 0
9401 9395 -9396 0
-9402 9401 9397 0
-9402 -9401 -9397 0
9402 -9401 9397 0
9402 9401 -9397 0
-9403 9402 9398 0
-9403 -9402 -9398 0
9403 -9402 9398 0
9403 9402 -9398 0
-9404 9403 9399 0
-9404 -9403 -9399 0
9404 -9403 9399 0
9404 9403 -9399 0
-9405 9404 9400 0
-9405 -9404 -9400 0
9405 -9404 9400 0
9405 9404 -9400 0
-9405 0
-9406 9388 0
-9406 9330 0
9406 -9388 -9330 0
-9407 9389 0
-9407 9335 0
9407 -9389 -9335 0
-9408 9390 0
-9408 9340 0
9408 -9390 -9340 0
-9409 9391 0
-9409 9345 0
9409 -9391 -9345 0
-9410 9392 0
-9410 9350 0
9410 -9392 -9350 0
-9411 9393 0
-9411 9355 0
9411 -9393 -9355 0
-9412 9406 9407 0
-9412 -9406 -9407 0
9412 -9406 9407 0
9412 9406 -9407 0
-9413 9412 9408 0
-9413 -9412 -9408 0
9413 -9412 9408 0
9413 9412 -9408 0
-9414 9413 9409 0
-9414 -9413 -9409 0
9414 -9413 9409 0
9414 9413 -9409 0
-9415 9414 9410 0
-9415 -9414 -9410 0
9415 -9414 9410 0
9415 9414 -9410 0
-9416 9415 9411 0
-9416 -9415 -9411 0
9416 -9415 9411 0
9416 9415 -9411 0
-9416 0
-9417 9388 0
-9417 9331 0
9417 -9388 -9331 0
-9418 9389 0
-9418 9336 0
9418 -9389 -9336 0
-9419 9390 0
-9419 9341 0
9419 -9390 -9341 0
-9420 9391 0
-9420 9346 0
9420 -9391 -9346 0
-9421 9392 0
-9421 9351 0
9421 -9392 -9351 0
-9422 9393 0
-9422 9356 0
9422 -9393 -9356 0
-9423 9417 9418 0
-9423 -9417 -9418 0
9423 -9417 9418 0
9423 9417 -9418 0
-9424 9423 9419 0
-9424 -9423 -9419 0
9424 -9423 9419 0
9424 9423 -9419 0
-9425 9424 9420 0
-9425 -9424 -9420 0
9425 -9424 9420 0
9425 9424 -9420 0
-9426 9425 9421 0
-9426 -9425 -9421 0
9426 -9425 9421 0
9426 9425 -9421 0
-9427 9426 9422 0
-9427 -9426 -9422 0
9427 -9426 9422 0
9427 9426 -9422 0
-9427 0
-9428 9388 0
-9428 9332 0
9428 -9388 -9332 0
-9429 9389 0
-9429 9337 0
9429 -9389 -9337 0
-9430 9390 0
-9430 9342 0
9430 -9390 -9342 0
-9431 9391 0
-9431 9347 0
9431 -9391 -9347 0
-9432 9392 0
-9432 9352 0
9432 -9392 -9352 0
-9433 9393 0
-9433 9357 0
9433 -9393 -9357 0
-9434 9428 9429 0
-9434 -9428 -9429 0
9434 -9428 9429 0
9434 9428 -9429 0
-9435 9434 9430 0
-9435 -9434 -9430 0
9435 -9434 9430 0
9435 9434 -9430 0
-9436 9435 9431 0
-9436 -9435 -9431 0
9436 -9435 9431 0
9436 9435 -9431 0
-9437 9436 9432 0
-9437 -9436 -9432 0
9437 -9436 9432 0
9437 9436 -9432 0
-9438 9437 9433 0
-9438 -9437 -9433 0
9438 -9437 9433 0
9438 9437 -9433 0
-9438 0
-9439 9388 0
-9439 9333 0
9439 -9388 -9333 0
-9440 9389 0
-9440 9338 0
9440 -9389 -9338 0
-9441 9390 0
-9441 9343 0
9441 -9390 -9343 0
-9442 9391 0
-9442 9348 0
9442 -9391 -9348 0
-9443 9392 0
-9443 9353 0
9443 -9392 -9353 0
-9444 9393 0
-9444 9358 0
9444 -9393 -9358 0
-9445 9439 9440 0
-9445 -9439 -9440 0
9445 -9439 9440 0
9445 9439 -9440 0
-9446 9445 9441 0
-9446 -9445 -9441 0
9446 -9445 9441 0
9446 9445 -9441 0
-9447 9446 9442 0
-9447 -9446 -9442 0
9447 -9446 9442 0
9447 9446 -9442 0
-9448 9447 9443 0
-9448 -9447 -9443 0
9448 -9447 9443 0
9448 9447 -9443 0
-9449 9448 9444 0
-9449 -9448 -9444 0
9449 -9448 9444 0
9449 9448 -9444 0
-9449 0
-9450 9388 0
-9450 9363 0
9450 -9388 -9363 0
-9451 9389 0
-9451 9368 0
9451 -9389 -9368 0
-9452 9390 0
-9452 9373 0
9452 -9390 -9373 0
-9453 9391 0
-9453 9378 0
9453 -9391 -9378 0
-9454 9392 0
-9454 9382 0
9454 -9392 -9382 0
-9455 9393 0
-9455 9387 0
9455 -9393 -9387 0
-9456 9450 9451 0
-9456 -9450 -9451 0
9456 -9450 9451 0
9456 9450 -9451 0
-9457 9456 9452 0
-9457 -9456 -9452 0
9457 -9456 9452 0
9457 9456 -9452 0
-9458 9457 9453 0
-9458 -9457 -9453 0
9458 -9457 9453 0
9458 9457 -9453 0
-9459 9458 9454 0
-9459 -9458 -9454 0
9459 -9458 9454 0
9459 9458 -9454 0
-9460 9459 9455 0
-9460 -9459 -9455 0
9460 -9459 9455 0
9460 9459 -9455 0
9461 9462 9463 9464 9465 9466 0
-9467 9462 9464 0
-9467 -9462 -9464 0
9467 -9462 9464 0
9467 9462 -9464 0
-9467 0
-9468 9461 0
-9468 9329 0
9468 -9461 -9329 0
-9469 9462 0
-9469 9334 0
9469 -9462 -9334 0
-9470 9463 0
-9470 9339 0
9470 -9463 -9339 0
-9471 9464 0
-9471 9344 0
9471 -9464 -9344 0
-9472 9465 0
-9472 9349 0
9472 -9465 -9349 0
-9473 9466 0
-9473 9354 0
9473 -9466 -9354 0
-9474 9468 9469 0
-9474 -9468 -9469 0
9474 -9468 9469 0
9474 9468 -9469 0
-9475 9474 9470 0
-9475 -9474 -9470 0
9475 -9474 9470 0
9475 9474 -9470 0
-9476 9475 9471 0
-9476 -9475 -9471 0
9476 -9475 9471 0
9476 9475 -9471 0
-9477 9476 9472 0
-9477 -9476 -9472 0
9477 -9476 9472 0
9477 9476 -9472 0
-9478 9477 9473 0
-9478 -9477 -9473 0
9478 -9477 9473 0
9478 9477 -9473 0
-9478 0
-9479 9461 0
-9479 9330 0
9479 -9461 -9330 0
-9480 9462 0
-9480 9335 0
9480 -9462 -9335 0
-9481 9463 0
-9481 9340 0
9481 -9463 -9340 0
-9482 9464 0
-9482 9345 0
9482 -9464 -9345 0
-9483 9465 0
-9483 9350 0
9483 -9465 -9350 0
-9484 9466 0
-9484 9355 0
9484 -9466 -9355 0
-9485 9479 9480 0
-9485 -9479 -9480 0
9485 -9479 9480 0
9485 9479 -9480 0
-9486 9485 9481 0
-9486 -9485 -9481 0
9486 -9485 9481 0
9486 9485 -9481 0
-9487 9486 9482 0
-9487 -9486 -9482 0
9487 -9486 9482 0
9487 9486 -9482 0
-9488 9487 9483 0
-9488 -9487 -9483 0
9488 -9487 9483 0
9488 9487 -9483 0
-9489 9488 9484 0
-9489 -9488 -9484 0
9489 -9488 9484 0
9489 9488 -9484 0
-9489 0
-9490 9461 0
-9490 9331 0
9490 -9461 -9331 0
-9491 9462 0
-9491 9336 0
9491 -9462 -9336 0
-9492 9463 0
-9492 9341 0
9492 -9463 -9341 0
-9493 9464 0
-9493 9346 0
9493 -9464 -9346 0
-9494 9465 0
-9494 9351 0
9494 -9465 -9351 0
-9495 9466 0
-9495 9356 0
9495 -9466 -9356 0
-9496 9490 9491 0
-9496 -9490 -9491 0
9496 -9490 9491 0
9496 9490 -9491 0
-9497 9496 9492 0
-9497 -9496 -9492 0
9497 -9496 9492 0
9497 9496 -9492 0
-9498 9497 9493 0
-9498 -9497 -9493 0
9498 -9497 9493 0
9498 9497 -9493 0
-9499 9498 9494 0
-9499 -9498 -9494 0
9499 -9498 9494 0
9499 9498 -9494 0
-9500 9499 9495 0
-9500 -9499 -9495 0
9500 -9499 9495 0
9500 9499 -9495 0
-9500 0
-9501 9461 0
-9501 9332 0
9501 -9461 -9332 0
-9502 9462 0
-9502 9337 0
9502 -9462 -9337 0
-9503 9463 0
-9503 9342 0
9503 -9463 -9342 0
-9504 9464 0
-9504 9347 0
9504 -9464 -9347 0
-9505 9465 0
-9505 9352 0
9505 -9465 -9352 0
-9506 9466 0
-9506 9357 0
9506 -9466 -9357 0
-9507 9501 9502 0
-9507 -9501 -9502 0
9507 -9501 9502 0
9507 9501 -9502 0
-9508 9507 9503 0
-9508 -9507 -9503 0
9508 -9507 9503 0
9508 9507 -9503 0
-9509 9508 9504 0
-9509 -9508 -9504 0
9509 -9508 9504 0
9509 9508 -9504 0
-9510 9509 9505 0
-9510 -9509 -9505 0
9510 -9509 9505 0
9510 9509 -9505 0
-9511 9510 9506 0
-9511 -9510 -9506 0
9511 -9510 9506 0
9511 9510 -9506 0
-9511 0
-9512 9461 0
-9512 9333 0
9512 -9461 -9333 0
-9513 9462 0
-9513 9338 0
9513 -9462 -9338 0
-9514 9463 0
-9514 9343 0
9514 -9463 -9343 0
-9515 9464 0
-9515 9348 0
9515 -9464 -9348 0
-9516 9465 0
-9516 9353 0
9516 -9465 -9353 0
-9517 9466 0
-9517 9358 0
9517 -9466 -9358 0
-9518 9512 9513 0
-9518 -9512 -9513 0
9518 -9512 9513 0
9518 9512 -9513 0
-9519 9518 9514 0
-9519 -9518 -9514 0
9519 -9518 9514 0
9519 9518 -9514 0
-9520 9519 9515 0
-9520 -9519 -9515 0
9520 -9519 9515 0
9520 9519 -9515 0
-9521 9520 9516 0
-9521 -9520 -9516 0
9521 -9520 9516 0
9521 9520 -9516 0
-9522 9521 9517 0
-9522 -9521 -9517 0
9522 -9521 9517 0
9522 9521 -9517 0
-9522 0
-9523 9461 0
-9523 9363 0
9523 -9461 -9363 0
-9524 9462 0
-9524 9368 0
9524 -9462 -9368 0
-9525 9463 0
-9525 9373 0
9525 -9463 -9373 0
-9526 9464 0
-9526 9378 0
9526 -9464 -9378 0
-9527 9465 0
-9527 9382 0
9527 -9465 -9382 0
-9528 9466 0
-9528 9387 0
9528 -9466 -9387 0
-9529 9523 9524 0
-9529 -9523 -9524 0
9529 -9523 9524 0
9529 9523 -9524 0
-9530 9529 9525 0
-9530 -9529 -9525 0
9530 -9529 9525 0
9530 9529 -9525 0
-9531 9530 9526 0
-9531 -9530 -9526 0
9531 -9530 9526 0
9531 9530 -9526 0
-9532 9531 9527 0
-9532 -9531 -9527 0
9532 -9531 9527 0
9532 9531 -9527 0
-9533 9532 9528 0
-9533 -9532 -9528 0
9533 -9532 9528 0
9533 9532 -9528 0
-9534 9388 9461 0
-9534 -9388 -9461 0
9534 -9388 9461 0
9534 9388 -9461 0
-9535 9389 9462 0
-9535 -9389 -9462 0
9535 -9389 9462 0
9535 9389 -9462 0
-9536 9390 9463 0
-9536 -9390 -9463 0
9536 -9390 9463 0
9536 9390 -9463 0
-9537 9391 9464 0
-9537 -9391 -9464 0
9537 -9391 9464 0
9537 9391 -9464 0
-9538 9392 9465 0
-9538 -9392 -9465 0
9538 -9392 9465 0
9538 9392 -9465 0
-9539 9393 9466 0
-9539 -9393 -9466 0
9539 -9393 9466 0
9539 9393 -9466 0
9534 9535 9536 9537 9538 9539 0
9460 9533 0
-9540 31 37 0
-9540 -31 -37 0
9540 -31 37 0
9540 31 -37 0
-9541 9540 49 0
-9541 -9540 -49 0
9541 -9540 49 0
9541 9540 -49 0
-9542 61 73 0
-9542 -61 -73 0
9542 -61 73 0
9542 61 -73 0
-9543 67 79 0
-9543 -67 -79 0
9543 -67 79 0
9543 67 -79 0
-9544 32 38 0
-9544 -32 -38 0
9544 -32 38 0
9544 32 -38 0
-9545 9544 50 0
-9545 -9544 -50 0
9545 -9544 50 0
9545 9544 -50 0
-9546 62 74 0
-9546 -62 -74 0
9546 -62 74 0
9546 62 -74 0
-9547 68 80 0
-9547 -68 -80 0
9547 -68 80 0
9547 68 -80 0
-9548 33 39 0
-9548 -33 -39 0
9548 -33 39 0
9548 33 -39 0
-9549 9548 51 0
-9549 -9548 -51 0
9549 -9548 51 0
9549 9548 -51 0
-9550 63 75 0
-9550 -63 -75 0
9550 -63 75 0
9550 63 -75 0
-9551 69 81 0
-9551 -69 -81 0
9551 -69 81 0
9551 69 -81 0
-9552 34 40 0
-9552 -34 -40 0
9552 -34 40 0
9552 34 -40 0
-9553 9552 52 0
-9553 -9552 -52 0
9553 -9552 52 0
9553 9552 -52 0
-9554 64 76 0
-9554 -64 -76 0
9554 -64 76 0
9554 64 -76 0
-9555 70 82 0
-9555 -70 -82 0
9555 -70 82 0
9555 70 -82 0
-9556 35 41 0
-9556 -35 -41 0
9556 -35 41 0
9556 35 -41 0
-9557 9556 53 0
-9557 -9556 -53 0
9557 -9556 53 0
9557 9556 -53 0
-9558 65 77 0
-9558 -65 -77 0
9558 -65 77 0
9558 65 -77 0
-9559 71 83 0
-9559 -71 -83 0
9559 -71 83 0
9559 71 -83 0
-9560 36 42 0
-9560 -36 -42 0
9560 -36 42 0
9560 36 -42 0
-9561 9560 54 0
-9561 -9560 -54 0
9561 -9560 54 0
9561 9560 -54 0
-9562 66 78 0
-9562 -66 -78 0
9562 -66 78 0
9562 66 -78 0
-9563 72 84 0
-9563 -72 -84 0
9563 -72 84 0
9563 72 -84 0
-9564 103 109 0
-9564 -103 -109 0
9564 -103 109 0
9564 103 -109 0
-9565 9564 121 0
-9565 -9564 -121 0
9565 -9564 121 0
9565 9564 -121 0
-9566 9565 67 0
-9566 -9565 -67 0
9566 -9565 67 0
9566 9565 -67 0
-9567 9566 79 0
-9567 -9566 -79 0
9567 -9566 79 0
9567 9566 -79 0
-9568 104 110 0
-9568 -104 -110 0
9568 -104 110 0
9568 104 -110 0
-9569 9568 122 0
-9569 -9568 -122 0
9569 -9568 122 0
9569 9568 -122 0
-9570 9569 68 0
-9570 -9569 -68 0
9570 -9569 68 0
9570 9569 -68 0
-9571 9570 80 0
-9571 -9570 -80 0
9571 -9570 80 0
9571 9570 -80 0
-9572 105 111 0
-9572 -105 -111 0
9572 -105 111 0
9572 105 -111 0
-9573 9572 123 0
-9573 -9572 -123 0
9573 -9572 123 0
9573 9572 -123 0
-9574 9573 69 0
-9574 -9573 -69 0
9574 -9573 69 0
9574 9573 -69 0
-9575 9574 81 0
-9575 -9574 -81 0
9575 -9574 81 0
9575 9574 -81 0
-9576 106 112 0
-9576 -106 -112 0
9576 -106 112 0
9576 106 -112 0
-9577 9576 124 0
-9577 -9576 -124 0
9577 -9576 124 0
9577 9576 -124 0
-9578 9577 70 0
-9578 -9577 -70 0
9578 -9577 70 0
9578 9577 -70 0
-9579 9578 82 0
-9579 -9578 -82 0
9579 -9578 82 0
9579 9578 -82 0
-9580 107 113 0
-9580 -107 -113 0
9580 -107 113 0
9580 107 -113 0
-9581 9580 125 0
-9581 -9580 -125 0
9581 -9580 125 0
9581 9580 -125 0
-9582 9581 71 0
-9582 -9581 -71 0
9582 -9581 71 0
9582 9581 -71 0
-9583 9582 83 0
-9583 -9582 -83 0
9583 -9582 83 0
9583 9582 -83 0
-9584 108 114 0
-9584 -108 -114 0
9584 -108 114 0
9584 108 -114 0
-9585 9584 126 0
-9585 -9584 -126 0
9585 -9584 126 0
9585 9584 -126 0
-9586 9585 72 0
-9586 -9585 -72 0
9586 -9585 72 0
9586 9585 -72 0
-9587 9586 84 0
-9587 -9586 -84 0
9587 -9586 84 0
9587 9586 -84 0
9588 9589 9590 9591 9592 9593 0
-9594 9588 9589 0
-9594 -9588 -9589 0
9594 -9588 9589 0
9594 9588 -9589 0
-9595 9594 9591 0
-9595 -9594 -9591 0
9595 -9594 9591 0
9595 9594 -9591 0
-9595 0
-9596 9588 0
-9596 9541 0
9596 -9588 -9541 0
-9597 9589 0
-9597 9545 0
9597 -9589 -9545 0
-9598 9590 0
-9598 9549 0
9598 -9590 -9549 0
-9599 9591 0
-9599 9553 0
9599 -9591 -9553 0
-9600 9592 0
-9600 9557 0
9600 -9592 -9557 0
-9601 9593 0
-9601 9561 0
9601 -9593 -9561 0
-9602 9596 9597 0
-9602 -9596 -9597 0
9602 -9596 9597 0
9602 9596 -9597 0
-9603 9602 9598 0
-9603 -9602 -9598 0
9603 -9602 9598 0
9603 9602 -9598 0
-9604 9603 9599 0
-9604 -9603 -9599 0
9604 -9603 9599 0
9604 9603 -9599 0
-9605 9604 9600 0
-9605 -9604 -9600 0
9605 -9604 9600 0
9605 9604 -9600 0
-9606 9605 9601 0
-9606 -9605 -9601 0
9606 -9605 9601 0
9606 9605 -9601 0
-9606 0
-9607 9588 0
-9607 67 0
9607 -9588 -67 0
-9608 9589 0
-9608 68 0
9608 -9589 -68 0
-9609 9590 0
-9609 69 0
9609 -9590 -69 0
-9610 9591 0
-9610 70 0
9610 -9591 -70 0
-9611 9592 0
-9611 71 0
9611 -9592 -71 0
-9612 9593 0
-9612 72 0
9612 -9593 -72 0
-9613 9607 9608 0
-9613 -9607 -9608 0
9613 -9607 9608 0
9613 9607 -9608 0
-9614 9613 9609 0
-9614 -9613 -9609 0
9614 -9613 9609 0
9614 9613 -9609 0
-9615 9614 9610 0
-9615 -9614 -9610 0
9615 -9614 9610 0
9615 9614 -9610 0
-9616 9615 9611 0
-9616 -9615 -9611 0
9616 -9615 9611 0
9616 9615 -9611 0
-9617 9616 9612 0
-9617 -9616 -9612 0
9617 -9616 9612 0
9617 9616 -9612 0
-9617 0
-9618 9588 0
-9618 79 0
9618 -9588 -79 0
-9619 9589 0
-9619 80 0
9619 -9589 -80 0
-9620 9590 0
-9620 81 0
9620 -9590 -81 0
-9621 9591 0
-9621 82 0
9621 -9591 -82 0
-9622 9592 0
-9622 83 0
9622 -9592 -83 0
-9623 9593 0
-9623 84 0
9623 -9593 -84 0
-9624 9618 9619 0
-9624 -9618 -9619 0
9624 -9618 9619 0
9624 9618 -9619 0
-9625 9624 9620 0
-9625 -9624 -9620 0
9625 -9624 9620 0
9625 9624 -9620 0
-9626 9625 9621 0
-9626 -9625 -9621 0
9626 -9625 9621 0
9626 9625 -9621 0
-9627 9626 9622 0
-9627 -9626 -9622 0
9627 -9626 9622 0
9627 9626 -9622 0
-9628 9627 9623 0
-9628 -9627 -9623 0
9628 -9627 9623 0
9628 9627 -9623 0
-9628 0
-9629 9588 0
-9629 9542 0
9629 -9588 -9542 0
-9630 9589 0
-9630 9546 0
9630 -9589 -9546 0
-9631 9590 0
-9631 9550 0
9631 -9590 -9550 0
-9632 9591 0
-9632 9554 0
9632 -9591 -9554 0
-9633 9592 0
-9633 9558 0
9633 -9592 -9558 0
-9634 9593 0
-9634 9562 0
9634 -9593 -9562 0
-9635 9629 9630 0
-9635 -9629 -9630 0
9635 -9629 9630 0
9635 9629 -9630 0
-9636 9635 9631 0
-9636 -9635 -9631 0
9636 -9635 9631 0
9636 9635 -9631 0
-9637 9636 9632 0
-9637 -9636 -9632 0
9637 -9636 9632 0
9637 9636 -9632 0
-9638 9637 9633 0
-9638 -9637 -9633 0
9638 -9637 9633 0
9638 9637 -9633 0
-9639 9638 9634 0
-9639 -9638 -9634 0
9639 -9638 9634 0
9639 9638 -9634 0
-9639 0
-9640 9588 0
-9640 9543 0
9640 -9588 -9543 0
-9641 9589 0
-9641 9547 0
9641 -9589 -9547 0
-9642 9590 0
-9642 9551 0
9642 -9590 -9551 0
-9643 9591 0
-9643 9555 0
9643 -9591 -9555 0
-9644 9592 0
-9644 9559 0
9644 -9592 -9559 0
-9645 9593 0
-9645 9563 0
9645 -9593 -9563 0
-9646 9640 9641 0
-9646 -9640 -9641 0
9646 -9640 9641 0
9646 9640 -9641 0
-9647 9646 9642 0
-9647 -9646 -9642 0
9647 -9646 9642 0
9647 9646 -9642 0
-9648 9647 9643 0
-9648 -9647 -9643 0
9648 -9647 9643 0
9648 9647 -9643 0
-9649 9648 9644 0
-9649 -9648 -9644 0
9649 -9648 9644 0
9649 9648 -9644 0
-9650 9649 9645 0
-9650 -9649 -9645 0
9650 -9649 9645 0
9650 9649 -9645 0
-9650 0
-9651 9588 0
-9651 9567 0
9651 -9588 -9567 0
-9652 9589 0
-9652 9571 0
9652 -9589 -9571 0
-9653 9590 0
-9653 9575 0
9653 -9590 -9575 0
-9654 9591 0
-9654 9579 0
9654 -9591 -9579 0
-9655 9592 0
-9655 9583 0
9655 -9592 -9583 0
-9656 9593 0
-9656 9587 0
9656 -9593 -9587 0
-9657 9651 9652 0
-9657 -9651 -9652 0
9657 -9651 9652 0
9657 9651 -9652 0
-9658 9657 9653 0
-9658 -9657 -9653 0
9658 -9657 9653 0
9658 9657 -9653 0
-9659 9658 9654 0
-9659 -9658 -9654 0
9659 -9658 9654 0
9659 9658 -9654 0
-9660 9659 9655 0
-9660 -9659 -9655 0
9660 -9659 9655 0
9660 9659 -9655 0
-9661 9660 9656 0
-9661 -9660 -9656 0
9661 -9660 9656 0
9661 9660 -9656 0
9662 9663 9664 9665 9666 9667 0
-9668 9662 9663 0
-9668 -9662 -9663 0
9668 -9662 9663 0
9668 9662 -9663 0
-9669 9668 9665 0
-9669 -9668 -9665 0
9669 -9668 9665 0
9669 9668 -9665 0
-9669 0
-9670 9662 0
-9670 9541 0
9670 -9662 -9541 0
-9671 9663 0
-9671 9545 0
9671 -9663 -9545 0
-9672 9664 0
-9672 9549 0
9672 -9664 -9549 0
-9673 9665 0
-9673 9553 0
9673 -9665 -9553 0
-9674 9666 0
-9674 9557 0
9674 -9666 -9557 0
-9675 9667 0
-9675 9561 0
9675 -9667 -9561 0
-9676 9670 9671 0
-9676 -9670 -9671 0
9676 -9670 9671 0
9676 9670 -9671 0
-9677 9676 9672 0
-9677 -9676 -9672 0
9677 -9676 9672 0
9677 9676 -9672 0
-9678 9677 9673 0
-9678 -9677 -9673 0
9678 -9677 9673 0
9678 9677 -9673 0
-9679 9678 9674 0
-9679 -9678 -9674 0
9679 -9678 9674 0
9679 9678 -9674 0
-9680 9679 9675 0
-9680 -9679 -9675 0
9680 -9679 9675 0
9680 9679 -9675 0
-9680 0
-9681 9662 0
-9681 67 0
9681 -9662 -67 0
-9682 9663 0
-9682 68 0
9682 -9663 -68 0
-9683 9664 0
-9683 69 0
9683 -9664 -69 0
-9684 9665 0
-9684 70 0
9684 -9665 -70 0
-9685 9666 0
-9685 71 0
9685 -9666 -71 0
-9686 9667 0
-9686 72 0
9686 -9667 -72 0
-9687 9681 9682 0
-9687 -9681 -9682 0
9687 -9681 9682 0
9687 9681 -9682 0
-9688 9687 9683 0
-9688 -9687 -9683 0
9688 -9687 9683 0
9688 9687 -9683 0
-9689 9688 9684 0
-9689 -9688 -9684 0
9689 -9688 9684 0
9689 9688 -9684 0
-9690 9689 9685 0
-9690 -9689 -9685 0
9690 -9689 9685 0
9690 9689 -9685 0
-9691 9690 9686 0
-9691 -9690 -9686 0
9691 -9690 9686 0
9691 9690 -9686 0
-9691 0
-9692 9662 0
-9692 79 0
9692 -9662 -79 0
-9693 9663 0
-9693 80 0
9693 -9663 -80 0
-9694 9664 0
-9694 81 0
9694 -9664 -81 0
-9695 9665 0
-9695 82 0
9695 -9665 -82 0
-9696 9666 0
-9696 83 0
9696 -9666 -83 0
-9697 9667 0
-9697 84 0
9697 -9667 -84 0
-9698 9692 9693 0
-9698 -9692 -9693 0
9698 -9692 9693 0
9698 9692 -9693 0
-9699 9698 9694 0
-9699 -9698 -9694 0
9699 -9698 9694 0
9699 9698 -9694 0
-9700 9699 9695 0
-9700 -9699 -9695 0
9700 -9699 9695 0
9700 9699 -9695 0
-9701 9700 9696 0
-9701 -9700 -9696 0
9701 -9700 9696 0
9701 9700 -9696 0
-9702 9701 9697 0
-9702 -9701 -9697 0
9702 -9701 9697 0
9702 9701 -9697 0
-9702 0
-9703 9662 0
-9703 9542 0
9703 -9662 -9542 0
-9704 9663 0
-9704 9546 0
9704 -9663 -9546 0
-9705 9664 0
-9705 9550 0
9705 -9664 -9550 0
-9706 9665 0
-9706 9554 0
9706 -9665 -9554 0
-9707 9666 0
-9707 9558 0
9707 -9666 -9558 0
-9708 9667 0
-9708 9562 0
9708 -9667 -9562 0
-9709 9703 9704 0
-9709 -9703 -9704 0
9709 -9703 9704 0
9709 9703 -9704 0
-9710 9709 9705 0
-9710 -9709 -9705 0
9710 -9709 9705 0
9710 9709 -9705 0
-9711 9710 9706 0
-9711 -9710 -9706 0
9711 -9710 9706 0
9711 9710 -9706 0
-9712 9711 9707 0
-9712 -9711 -9707 0
9712 -9711 9707 0
9712 9711 -9707 0
-9713 9712 9708 0
-9713 -9712 -9708 0
9713 -9712 9708 0
9713 9712 -9708 0
-9713 0
-9714 9662 0
-9714 9543 0
9714 -9662 -9543 0
-9715 9663 0
-9715 9547 0
9715 -9663 -9547 0
-9716 9664 0
-9716 9551 0
9716 -9664 -9551 0
-9717 9665 0
-9717 9555 0
9717 -9665 -9555 0
-9718 9666 0
-9718 9559 0
9718 -9666 -9559 0
-9719 9667 0
-9719 9563 0
9719 -9667 -9563 0
-9720 9714 9715 0
-9720 -9714 -9715 0
9720 -9714 9715 0
9720 9714 -9715 0
-9721 9720 9716 0
-9721 -9720 -9716 0
9721 -9720 9716 0
9721 9720 -9716 0
-9722 9721 9717 0
-9722 -9721 -9717 0
9722 -9721 9717 0
9722 9721 -9717 0
-9723 9722 9718 0
-9723 -9722 -9718 0
9723 -9722 9718 0
9723 9722 -9718 0
-9724 9723 9719 0
-9724 -9723 -9719 0
9724 -9723 9719 0
9724 9723 -9719 0
-9724 0
-9725 9662 0
-9725 9567 0
9725 -9662 -9567 0
-9726 9663 0
-9726 9571 0
9726 -9663 -9571 0
-9727 9664 0
-9727 9575 0
9727 -9664 -9575 0
-9728 9665 0
-9728 9579 0
9728 -9665 -9579 0
-9729 9666 0
-9729 9583 0
9729 -9666 -9583 0
-9730 9667 0
-9730 9587 0
9730 -9667 -9587 0
-9731 9725 9726 0
-9731 -9725 -9726 0
9731 -9725 9726 0
9731 9725 -9726 0
-9732 9731 9727 0
-9732 -9731 -9727 0
9732 -9731 9727 0
9732 9731 -9727 0
-9733 9732 9728 0
-9733 -9732 -9728 0
9733 -9732 9728 0
9733 9732 -9728 0
-9734 9733 9729 0
-9734 -9733 -9729 0
9734 -9733 9729 0
9734 9733 -9729 0
-9735 9734 9730 0
-9735 -9734 -9730 0
9735 -9734 9730 0
9735 9734 -9730 0
-9736 9588 9662 0
-9736 -9588 -9662 0
9736 -9588 9662 0
9736 9588 -9662 0
-9737 9589 9663 0
-9737 -9589 -9663 0
9737 -9589 9663 0
9737 9589 -9663 0
-9738 9590 9664 0
-9738 -9590 -9664 0
9738 -9590 9664 0
9738 9590 -9664 0
-9739 9591 9665 0
-9739 -9591 -9665 0
9739 -9591 9665 0
9739 9591 -9665 0
-9740 9592 9666 0
-9740 -9592 -9666 0
9740 -9592 9666 0
9740 9592 -9666 0
-9741 9593 9667 0
-9741 -9593 -9667 0
9741 -9593 9667 0
9741 9593 -9667 0
9736 9737 9738 9739 9740 9741 0
9661 9735 0
-9742 31 37 0
-9742 -31 -37 0
9742 -31 37 0
9742 31 -37 0
-9743 9742 49 0
-9743 -9742 -49 0
9743 -9742 49 0
9743 9742 -49 0
-9744 61 73 0
-9744 -61 -73 0
9744 -61 73 0
9744 61 -73 0
-9745 67 79 0
-9745 -67 -79 0
9745 -67 79 0
9745 67 -79 0
-9746 32 38 0
-9746 -32 -38 0
9746 -32 38 0
9746 32 -38 0
-9747 9746 50 0
-9747 -9746 -50 0
9747 -9746 50 0
9747 9746 -50 0
-9748 62 74 0
-9748 -62 -74 0
9748 -62 74 0
9748 62 -74 0
-9749 68 80 0
-9749 -68 -80 0
9749 -68 80 0
9749 68 -80 0
-9750 33 39 0
-9750 -33 -39 0
9750 -33 39 0
9750 33 -39 0
-9751 9750 51 0
-9751 -9750 -51 0
9751 -9750 51 0
9751 9750 -51 0
-9752 -63 75 0
-9752 63 -75 0
9752 63 75 0
9752 -63 -75 0
-9753 69 81 0
-9753 -69 -81 0
9753 -69 81 0
9753 69 -81 0
-9754 34 40 0
-9754 -34 -40 0
9754 -34 40 0
9754 34 -40 0
-9755 9754 52 0
-9755 -9754 -52 0
9755 -9754 52 0
9755 9754 -52 0
-9756 64 76 0
-9756 -64 -76 0
9756 -64 76 0
9756 64 -76 0
-9757 -70 82 0
-9757 70 -82 0
9757 70 82 0
9757 -70 -82 0
-9758 35 41 0
-9758 -35 -41 0
9758 -35 41 0
9758 35 -41 0
-9759 9758 53 0
-9759 -9758 -53 0
9759 -9758 53 0
9759 9758 -53 0
-9760 65 77 0
-9760 -65 -77 0
9760 -65 77 0
9760 65 -77 0
-9761 71 83 0
-9761 -71 -83 0
9761 -71 83 0
9761 71 -83 0
-9762 36 42 0
-9762 -36 -42 0
9762 -36 42 0
9762 36 -42 0
-9763 9762 54 0
-9763 -9762 -54 0
9763 -9762 54 0
9763 9762 -54 0
-9764 66 78 0
-9764 -66 -78 0
9764 -66 78 0
9764 66 -78 0
-9765 72 84 0
-9765 -72 -84 0
9765 -72 84 0
9765 72 -84 0
-9766 103 109 0
-9766 -103 -109 0
9766 -103 109 0
9766 103 -109 0
-9767 9766 121 0
-9767 -9766 -121 0
9767 -9766 121 0
9767 9766 -121 0
-9768 -9767 67 0
-9768 9767 -67 0
9768 9767 67 0
9768 -9767 -67 0
-9769 9768 79 0
-9769 -9768 -79 0
9769 -9768 79 0
9769 9768 -79 0
-9770 104 110 0
-9770 -104 -110 0
9770 -104 110 0
9770 104 -110 0
-9771 9770 122 0
-9771 -9770 -122 0
9771 -9770 122 0
9771 9770 -122 0
-9772 -9771 68 0
-9772 9771 -68 0
9772 9771 68 0
9772 -9771 -68 0
-9773 9772 80 0
-9773 -9772 -80 0
9773 -9772 80 0
9773 9772 -80 0
-9774 105 111 0
-9774 -105 -111 0
9774 -105 111 0
9774 105 -111 0
-9775 9774 123 0
-9775 -9774 -123 0
9775 -9774 123 0
9775 9774 -123 0
-9776 9775 69 0
-9776 -9775 -69 0
9776 -9775 69 0
9776 9775 -69 0
-9777 9776 81 0
-9777 -9776 -81 0
9777 -9776 81 0
9777 9776 -81 0
-9778 106 112 0
-9778 -106 -112 0
9778 -106 112 0
9778 106 -112 0
-9779 9778 124 0
-9779 -9778 -124 0
9779 -9778 124 0
9779 9778 -124 0
-9780 -9779 70 0
-9780 9779 -70 0
9780 9779 70 0
9780 -9779 -70 0
-9781 9780 82 0
-9781 -9780 -82 0
9781 -9780 82 0
9781 9780 -82 0
-9782 -107 113 0
-9782 107 -113 0
9782 107 113 0
9782 -107 -113 0
-9783 9782 125 0
-9783 -9782 -125 0
9783 -9782 125 0
9783 9782 -125 0
-9784 9783 71 0
-9784 -9783 -71 0
9784 -9783 71 0
9784 9783 -71 0
-9785 9784 83 0
-9785 -9784 -83 0
9785 -9784 83 0
9785 9784 -83 0
-9786 108 114 0
-9786 -108 -114 0
9786 -108 114 0
9786 108 -114 0
-9787 9786 126 0
-9787 -9786 -126 0
9787 -9786 126 0
9787 9786 -126 0
-9788 9787 72 0
-9788 -9787 -72 0
9788 -9787 72 0
9788 9787 -72 0
-9789 9788 84 0
-9789 -9788 -84 0
9789 -9788 84 0
9789 9788 -84 0
9790 9791 9792 9793 9794 9795 0
-9796 9790 9791 0
-9796 -9790 -9791 0
9796 -9790 9791 0
9796 9790 -9791 0
-9797 9796 9793 0
-9797 -9796 -9793 0
9797 -9796 9793 0
9797 9796 -9793 0
-9797 0
-9798 9790 0
-9798 9743 0
9798 -9790 -9743 0
-9799 9791 0
-9799 9747 0
9799 -9791 -9747 0
-9800 9792 0
-9800 9751 0
9800 -9792 -9751 0
-9801 9793 0
-9801 9755 0
9801 -9793 -9755 0
-9802 9794 0
-9802 9759 0
9802 -9794 -9759 0
-9803 9795 0
-9803 9763 0
9803 -9795 -9763 0
-9804 9798 9799 0
-9804 -9798 -9799 0
9804 -9798 9799 0
9804 9798 -9799 0
-9805 9804 9800 0
-9805 -9804 -9800 0
9805 -9804 9800 0
9805 9804 -9800 0
-9806 9805 9801 0
-9806 -9805 -9801 0
9806 -9805 9801 0
9806 9805 -9801 0
-9807 9806 9802 0
-9807 -9806 -9802 0
9807 -9806 9802 0
9807 9806 -9802 0
-9808 9807 9803 0
-9808 -9807 -9803 0
9808 -9807 9803 0
9808 9807 -9803 0
-9808 0
-9809 9790 0
-9809 -67 0
9809 -9790 67 0
-9810 9791 0
-9810 68 0
9810 -9791 -68 0
-9811 9792 0
-9811 69 0
9811 -9792 -69 0
-9812 9793 0
-9812 70 0
9812 -9793 -70 0
-9813 9794 0
-9813 71 0
9813 -9794 -71 0
-9814 9795 0
-9814 72 0
9814 -9795 -72 0
-9815 9809 9810 0
-9815 -9809 -9810 0
9815 -9809 9810 0
9815 9809 -9810 0
-9816 9815 9811 0
-9816 -9815 -9811 0
9816 -9815 9811 0
9816 9815 -9811 0
-9817 9816 9812 0
-9817 -9816 -9812 0
9817 -9816 9812 0
9817 9816 -9812 0
-9818 9817 9813 0
-9818 -9817 -9813 0
9818 -9817 9813 0
9818 9817 -9813 0
-9819 9818 9814 0
-9819 -9818 -9814 0
9819 -9818 9814 0
9819 9818 -9814 0
-9819 0
-9820 9790 0
-9820 79 0
9820 -9790 -79 0
-9821 9791 0
-9821 -80 0
9821 -9791 80 0
-9822 9792 0
-9822 81 0
9822 -9792 -81 0
-9823 9793 0
-9823 82 0
9823 -9793 -82 0
-9824 9794 0
-9824 83 0
9824 -9794 -83 0
-9825 9795 0
-9825 84 0
9825 -9795 -84 0
-9826 9820 9821 0
-9826 -9820 -9821 0
9826 -9820 9821 0
9826 9820 -9821 0
-9827 9826 9822 0
-9827 -9826 -9822 0
9827 -9826 9822 0
9827 9826 -9822 0
-9828 9827 9823 0
-9828 -9827 -9823 0
9828 -9827 9823 0
9828 9827 -9823 0
-9829 9828 9824 0
-9829 -9828 -9824 0
9829 -9828 9824 0
9829 9828 -9824 0
-9830 9829 9825 0
-9830 -9829 -9825 0
9830 -9829 9825 0
9830 9829 -9825 0
-9830 0
-9831 9790 0
-9831 9744 0
9831 -9790 -9744 0
-9832 9791 0
-9832 9748 0
9832 -9791 -9748 0
-9833 9792 0
-9833 9752 0
9833 -9792 -9752 0
-9834 9793 0
-9834 9756 0
9834 -9793 -9756 0
-9835 9794 0
-9835 9760 0
9835 -9794 -9760 0
-9836 9795 0
-9836 9764 0
9836 -9795 -9764 0
-9837 9831 9832 0
-9837 -9831 -9832 0
9837 -9831 9832 0
9837 9831 -9832 0
-9838 9837 9833 0
-9838 -9837 -9833 0
9838 -9837 9833 0
9838 9837 -9833 0
-9839 9838 9834 0
-9839 -9838 -9834 0
9839 -9838 9834 0
9839 9838 -9834 0
-9840 9839 9835 0
-9840 -9839 -9835 0
9840 -9839 9835 0
9840 9839 -9835 0
-9841 9840 9836 0
-9841 -9840 -9836 0
9841 -9840 9836 0
9841 9840 -9836 0
-9841 0
-9842 9790 0
-9842 9745 0
9842 -9790 -9745 0
-9843 9791 0
-9843 9749 0
9843 -9791 -9749 0
-9844 9792 0
-9844 9753 0
9844 -9792 -9753 0
-9845 9793 0
-9845 9757 0
9845 -9793 -9757 0
-9846 9794 0
-9846 9761 0
9846 -9794 -9761 0
-9847 9795 0
-9847 9765 0
9847 -9795 -9765 0
-9848 9842 9843 0
-9848 -9842 -9843 0
9848 -9842 9843 0
9848 9842 -9843 0
-9849 9848 9844 0
-9849 -9848 -9844 0
9849 -9848 9844 0
9849 9848 -9844 0
-9850 9849 9845 0
-9850 -9849 -9845 0
9850 -9849 9845 0
9850 9849 -9845 0
-9851 9850 9846 0
-9851 -9850 -9846 0
9851 -9850 9846 0
9851 9850 -9846 0
-9852 9851 9847 0
-9852 -9851 -9847 0
9852 -9851 9847 0
9852 9851 -9847 0
-9852 0
-9853 9790 0
-9853 9769 0
9853 -9790 -9769 0
-9854 9791 0
-9854 9773 0
9854 -9791 -9773 0
-9855 9792 0
-9855 9777 0
9855 -9792 -9777 0
-9856 9793 0
-9856 9781 0
9856 -9793 -9781 0
-9857 9794 0
-9857 9785 0
9857 -9794 -9785 0
-9858 9795 0
-9858 9789 0
9858 -9795 -9789 0
-9859 9853 9854 0
-9859 -9853 -9854 0
9859 -9853 9854 0
9859 9853 -9854 0
-9860 9859 9855 0
-9860 -9859 -9855 0
9860 -9859 9855 0
9860 9859 -9855 0
-9861 9860 9856 0
-9861 -9860 -9856 0
9861 -9860 9856 0
9861 9860 -9856 0
-9862 9861 9857 0
-9862 -9861 -9857 0
9862 -9861 9857 0
9862 9861 -9857 0
-9863 9862 9858 0
-9863 -9862 -9858 0
9863 -9862 9858 0
9863 9862 -9858 0
9864 9865 9866 9867 9868 9869 0
-9870 9864 9865 0
-9870 -9864 -9865 0
9870 -9864 9865 0
9870 9864 -9865 0
-9871 9870 9867 0
-9871 -9870 -9867 0
9871 -9870 9867 0
9871 9870 -9867 0
-9871 0
-9872 9864 0
-9872 9743 0
9872 -9864 -9743 0
-9873 9865 0
-9873 9747 0
9873 -9865 -9747 0
-9874 9866 0
-9874 9751 0
9874 -9866 -9751 0
-9875 9867 0
-9875 9755 0
9875 -9867 -9755 0
-9876 9868 0
-9876 9759 0
9876 -9868 -9759 0
-9877 9869 0
-9877 9763 0
9877 -9869 -9763 0
-9878 9872 9873 0
-9878 -9872 -9873 0
9878 -9872 9873 0
9878 9872 -9873 0
-9879 9878 9874 0
-9879 -9878 -9874 0
9879 -9878 9874 0
9879 9878 -9874 0
-9880 9879 9875 0
-9880 -9879 -9875 0
9880 -9879 9875 0
9880 9879 -9875 0
-9881 9880 9876 0
-9881 -9880 -9876 0
9881 -9880 9876 0
9881 9880 -9876 0
-9882 9881 9877 0
-9882 -9881 -9877 0
9882 -9881 9877 0
9882 9881 -9877 0
-9882 0
-9883 9864 0
-9883 -67 0
9883 -9864 67 0
-9884 9865 0
-9884 68 0
9884 -9865 -68 0
-9885 9866 0
-9885 69 0
9885 -9866 -69 0
-9886 9867 0
-9886 70 0
9886 -9867 -70 0
-9887 9868 0
-9887 71 0
9887 -9868 -71 0
-9888 9869 0
-9888 72 0
9888 -9869 -72 0
-9889 9883 9884 0
-9889 -9883 -9884 0
9889 -9883 9884 0
9889 9883 -9884 0
-9890 9889 9885 0
-9890 -9889 -9885 0
9890 -9889 9885 0
9890 9889 -9885 0
-9891 9890 9886 0
-9891 -9890 -9886 0
9891 -9890 9886 0
9891 9890 -9886 0
-9892 9891 9887 0
-9892 -9891 -9887 0
9892 -9891 9887 0
9892 9891 -9887 0
-9893 9892 9888 0
-9893 -9892 -9888 0
9893 -9892 9888 0
9893 9892 -9888 0
-9893 0
-9894 9864 0
-9894 79 0
9894 -9864 -79 0
-9895 9865 0
-9895 -80 0
9895 -9865 80 0
-9896 9866 0
-9896 81 0
9896 -9866 -81 0
-9897 9867 0
-9897 82 0
9897 -9867 -82 0
-9898 9868 0
-9898 83 0
9898 -9868 -83 0
-9899 9869 0
-9899 84 0
9899 -9869 -84 0
-9900 9894 9895 0
-9900 -9894 -9895 0
9900 -9894 9895 0
9900 9894 -9895 0
-9901 9900 9896 0
-9901 -9900 -9896 0
9901 -9900 9896 0
9901 9900 -9896 0
-9902 9901 9897 0
-9902 -9901 -9897 0
9902 -9901 9897 0
9902 9901 -9897 0
-9903 9902 9898 0
-9903 -9902 -9898 0
9903 -9902 9898 0
9903 9902 -9898 0
-9904 9903 9899 0
-9904 -9903 -9899 0
9904 -9903 9899 0
9904 9903 -9899 0
-9904 0
-9905 9864 0
-9905 9744 0
9905 -9864 -9744 0
-9906 9865 0
-9906 9748 0
9906 -9865 -9748 0
-9907 9866 0
-9907 9752 0
9907 -9866 -9752 0
-9908 9867 0
-9908 9756 0
9908 -9867 -9756 0
-9909 9868 0
-9909 9760 0
9909 -9868 -9760 0
-9910 9869 0
-9910 9764 0
9910 -9869 -9764 0
-9911 9905 9906 0
-9911 -9905 -9906 0
9911 -9905 9906 0
9911 9905 -9906 0
-9912 9911 9907 0
-9912 -9911 -9907 0
9912 -9911 9907 0
9912 9911 -9907 0
-9913 9912 9908 0
-9913 -9912 -9908 0
9913 -9912 9908 0
9913 9912 -9908 0
-9914 9913 9909 0
-9914 -9913 -9909 0
9914 -9913 9909 0
9914 9913 -9909 0
-9915 9914 9910 0
-9915 -9914 -9910 0
9915 -9914 9910 0
9915 9914 -9910 0
-9915 0
-9916 9864 0
-9916 9745 0
9916 -9864 -9745 0
-9917 9865 0
-9917 9749 0
9917 -9865 -9749 0
-9918 9866 0
-9918 9753 0
9918 -9866 -9753 0
-9919 9867 0
-9919 9757 0
9919 -9867 -9757 0
-9920 9868 0
-9920 9761 0
9920 -9868 -9761 0
-9921 9869 0
-9921 9765 0
9921 -9869 -9765 0
-9922 9916 9917 0
-9922 -9916 -9917 0
9922 -9916 9917 0
9922 9916 -9917 0
-9923 9922 9918 0
-9923 -9922 -9918 0
9923 -9922 9918 0
9923 9922 -9918 0
-9924 9923 9919 0
-9924 -9923 -9919 0
9924 -9923 9919 0
9924 9923 -9919 0
-9925 9924 9920 0
-9925 -9924 -9920 0
9925 -9924 9920 0
9925 9924 -9920 0
-9926 9925 9921 0
-9926 -9925 -9921 0
9926 -9925 9921 0
9926 9925 -9921 0
-9926 0
-9927 9864 0
-9927 9769 0
9927 -9864 -9769 0
-9928 9865 0
-9928 9773 0
9928 -9865 -9773 0
-9929 9866 0
-9929 9777 0
9929 -9866 -9777 0
-9930 9867 0
-9930 9781 0
9930 -9867 -9781 0
-9931 9868 0
-9931 9785 0
9931 -9868 -9785 0
-9932 9869 0
-9932 9789 0
9932 -9869 -9789 0
-9933 9927 9928 0
-9933 -9927 -9928 0
9933 -9927 9928 0
9933 9927 -9928 0
-9934 9933 9929 0
-9934 -9933 -9929 0
9934 -9933 9929 0
9934 9933 -9929 0
-9935 9934 9930 0
-9935 -9934 -9930 0
9935 -9934 9930 0
9935 9934 -9930 0
-9936 9935 9931 0
-9936 -9935 -9931 0
9936 -9935 9931 0
9936 9935 -9931 0
-9937 9936 9932 0
-9937 -9936 -9932 0
9937 -9936 9932 0
9937 9936 -9932 0
-9938 9790 9864 0
-9938 -9790 -9864 0
9938 -9790 9864 0
9938 9790 -9864 0
-9939 9791 9865 0
-9939 -9791 -9865 0
9939 -9791 9865 0
9939 9791 -9865 0
-9940 9792 9866 0
-9940 -9792 -9866 0
9940 -9792 9866 0
9940 9792 -9866 0
-9941 9793 9867 0
-9941 -9793 -9867 0
9941 -9793 9867 0
9941 9793 -9867 0
-9942 9794 9868 0
-9942 -9794 -9868 0
9942 -9794 9868 0
9942 9794 -9868 0
-9943 9795 9869 0
-9943 -9795 -9869 0
9943 -9795 9869 0
9943 9795 -9869 0
9938 9939 9940 9941 9942 9943 0
9863 9937 0
-9944 31 37 0
-9944 -31 -37 0
9944 -31 37 0
9944 31 -37 0
-9945 9944 49 0
-9945 -9944 -49 0
9945 -9944 49 0
9945 9944 -49 0
-9946 31 67 0
-9946 -31 -67 0
9946 -31 67 0
9946 31 -67 0
-9947 37 79 0
-9947 -37 -79 0
9947 -37 79 0
9947 37 -79 0
-9948 43 61 0
-9948 -43 -61 0
9948 -43 61 0
9948 43 -61 0
-9949 9948 73 0
-9949 -9948 -73 0
9949 -9948 73 0
9949 9948 -73 0
-9950 49 67 0
-9950 -49 -67 0
9950 -49 67 0
9950 49 -67 0
-9951 9950 79 0
-9951 -9950 -79 0
9951 -9950 79 0
9951 9950 -79 0
-9952 32 38 0
-9952 -32 -38 0
9952 -32 38 0
9952 32 -38 0
-9953 9952 50 0
-9953 -9952 -50 0
9953 -9952 50 0
9953 9952 -50 0
-9954 32 68 0
-9954 -32 -68 0
9954 -32 68 0
9954 32 -68 0
-9955 38 80 0
-9955 -38 -80 0
9955 -38 80 0
9955 38 -80 0
-9956 44 62 0
-9956 -44 -62 0
9956 -44 62 0
9956 44 -62 0
-9957 9956 74 0
-9957 -9956 -74 0
9957 -9956 74 0
9957 9956 -74 0
-9958 50 68 0
-9958 -50 -68 0
9958 -50 68 0
9958 50 -68 0
-9959 9958 80 0
-9959 -9958 -80 0
9959 -9958 80 0
9959 9958 -80 0
-9960 33 39 0
-9960 -33 -39 0
9960 -33 39 0
9960 33 -39 0
-9961 9960 51 0
-9961 -9960 -51 0
9961 -9960 51 0
9961 9960 -51 0
-9962 33 69 0
-9962 -33 -69 0
9962 -33 69 0
9962 33 -69 0
-9963 39 81 0
-9963 -39 -81 0
9963 -39 81 0
9963 39 -81 0
-9964 45 63 0
-9964 -45 -63 0
9964 -45 63 0
9964 45 -63 0
-9965 9964 75 0
-9965 -9964 -75 0
9965 -9964 75 0
9965 9964 -75 0
-9966 51 69 0
-9966 -51 -69 0
9966 -51 69 0
9966 51 -69 0
-9967 9966 81 0
-9967 -9966 -81 0
9967 -9966 81 0
9967 9966 -81 0
-9968 34 40 0
-9968 -34 -40 0
9968 -34 40 0
9968 34 -40 0
-9969 9968 52 0
-9969 -9968 -52 0
9969 -9968 52 0
9969 9968 -52 0
-9970 34 70 0
-9970 -34 -70 0
9970 -34 70 0
9970 34 -70 0
-9971 40 82 0
-9971 -40 -82 0
9971 -40 82 0
9971 40 -82 0
-9972 46 64 0
-9972 -46 -64 0
9972 -46 64 0
9972 46 -64 0
-9973 9972 76 0
-9973 -9972 -76 0
9973 -9972 76 0
9973 9972 -76 0
-9974 52 70 0
-9974 -52 -70 0
9974 -52 70 0
9974 52 -70 0
-9975 9974 82 0
-9975 -9974 -82 0
9975 -9974 82 0
9975 9974 -82 0
-9976 35 41 0
-9976 -35 -41 0
9976 -35 41 0
9976 35 -41 0
-9977 9976 53 0
-9977 -9976 -53 0
9977 -9976 53 0
9977 9976 -53 0
-9978 35 71 0
-9978 -35 -71 0
9978 -35 71 0
9978 35 -71 0
-9979 41 83 0
-9979 -41 -83 0
9979 -41 83 0
9979 41 -83 0
-9980 47 65 0
-9980 -47 -65 0
9980 -47 65 0
9980 47 -65 0
-9981 9980 77 0
-9981 -9980 -77 0
9981 -9980 77 0
9981 9980 -77 0
-9982 53 71 0
-9982 -53 -71 0
9982 -53 71 0
9982 53 -71 0
-9983 9982 83 0
-9983 -9982 -83 0
9983 -9982 83 0
9983 9982 -83 0
-9984 36 42 0
-9984 -36 -42 0
9984 -36 42 0
9984 36 -42 0
-9985 9984 54 0
-9985 -9984 -54 0
9985 -9984 54 0
9985 9984 -54 0
-9986 36 72 0
-9986 -36 -72 0
9986 -36 72 0
9986 36 -72 0
-9987 42 84 0
-9987 -42 -84 0
9987 -42 84 0
9987 42 -84 0
-9988 48 66 0
-9988 -48 -66 0
9988 -48 66 0
9988 48 -66 0
-9989 9988 78 0
-9989 -9988 -78 0
9989 -9988 78 0
9989 9988 -78 0
-9990 54 72 0
-9990 -54 -72 0
9990 -54 72 0
9990 54 -72 0
-9991 9990 84 0
-9991 -9990 -84 0
9991 -9990 84 0
9991 9990 -84 0
-9992 97 103 0
-9992 -97 -103 0
9992 -97 103 0
9992 97 -103 0
-9993 9992 109 0
-9993 -9992 -109 0
9993 -9992 109 0
9993 9992 -109 0
-9994 9993 121 0
-9994 -9993 -121 0
9994 -9993 121 0
9994 9993 -121 0
-9995 9994 31 0
-9995 -9994 -31 0
9995 -9994 31 0
9995 9994 -31 0
-9996 9995 37 0
-9996 -9995 -37 0
9996 -9995 37 0
9996 9995 -37 0
-9997 9996 49 0
-9997 -9996 -49 0
9997 -9996 49 0
9997 9996 -49 0
-9998 9997 67 0
-9998 -9997 -67 0
9998 -9997 67 0
9998 9997 -67 0
-9999 9998 79 0
-9999 -9998 -79 0
9999 -9998 79 0
9999 9998 -79 0
-10000 98 104 0
-10000 -98 -104 0
10000 -98 104 0
10000 98 -104 0
-10001 10000 110 0
-10001 -10000 -110 0
10001 -10000 110 0
10001 10000 -110 0
-10002 10001 122 0
-10002 -10001 -122 0
10002 -10001 122 0
10002 10001 -122 0
-10003 10002 32 0
-10003 -10002 -32 0
10003 -10002 32 0
10003 10002 -32 0
-10004 10003 38 0
-10004 -10003 -38 0
10004 -10003 38 0
10004 10003 -38 0
-10005 10004 50 0
-10005 -10004 -50 0
10005 -10004 50 0
10005 10004 -50 0
-10006 10005 68 0
-10006 -10005 -68 0
10006 -10005 68 0
10006 10005 -68 0
-10007 10006 80 0
-10007 -10006 -80 0
10007 -10006 80 0
10007 10006 -80 0
-10008 99 105 0
-10008 -99 -105 0
10008 -99 105 0
10008 99 -105 0
-10009 10008 111 0
-10009 -10008 -111 0
10009 -10008 111 0
10009 10008 -111 0
-10010 10009 123 0
-10010 -10009 -123 0
10010 -10009 123 0
10010 10009 -123 0
-10011 10010 33 0
-10011 -10010 -33 0
10011 -10010 33 0
10011 10010 -33 0
-10012 10011 39 0
-10012 -10011 -39 0
10012 -10011 39 0
10012 10011 -39 0
-10013 10012 51 0
-10013 -10012 -51 0
10013 -10012 51 0
10013 10012 -51 0
-10014 10013 69 0
-10014 -10013 -69 0
10014 -10013 69 0
10014 10013 -69 0
-10015 10014 81 0
-10015 -10014 -81 0
10015 -10014 81 0
10015 10014 -81 0
-10016 100 106 0
-10016 -100 -106 0
10016 -100 106 0
10016 100 -106 0
-10017 10016 112 0
-10017 -10016 -112 0
10017 -10016 112 0
10017 10016 -112 0
-10018 10017 124 0
-10018 -10017 -124 0
10018 -10017 124 0
10018 10017 -124 0
-10019 10018 34 0
-10019 -10018 -34 0
10019 -10018 34 0
10019 10018 -34 0
-10020 10019 40 0
-10020 -10019 -40 0
10020 -10019 40 0
10020 10019 -40 0
-10021 10020 52 0
-10021 -10020 -52 0
10021 -10020 52 0
10021 10020 -52 0
-10022 10021 70 0
-10022 -10021 -70 0
10022 -10021 70 0
10022 10021 -70 0
-10023 10022 82 0
-10023 -10022 -82 0
10023 -10022 82 0
10023 10022 -82 0
-10024 107 113 0
-10024 -107 -113 0
10024 -107 113 0
10024 107 -113 0
-10025 10024 125 0
-10025 -10024 -125 0
10025 -10024 125 0
10025 10024 -125 0
-10026 10025 35 0
-10026 -10025 -35 0
10026 -10025 35 0
10026 10025 -35 0
-10027 10026 41 0
-10027 -10026 -41 0
10027 -10026 41 0
10027 10026 -41 0
-10028 10027 53 0
-10028 -10027 -53 0
10028 -10027 53 0
10028 10027 -53 0
-10029 10028 71 0
-10029 -10028 -71 0
10029 -10028 71 0
10029 10028 -71 0
-10030 10029 83 0
-10030 -10029 -83 0
10030 -10029 83 0
10030 10029 -83 0
-10031 102 108 0
-10031 -102 -108 0
10031 -102 108 0
10031 102 -108 0
-10032 10031 114 0
-10032 -10031 -114 0
10032 -10031 114 0
10032 10031 -114 0
-10033 10032 126 0
-10033 -10032 -126 0
10033 -10032 126 0
10033 10032 -126 0
-10034 10033 36 0
-10034 -10033 -36 0
10034 -10033 36 0
10034 10033 -36 0
-10035 10034 42 0
-10035 -10034 -42 0
10035 -10034 42 0
10035 10034 -42 0
-10036 10035 54 0
-10036 -10035 -54 0
10036 -10035 54 0
10036 10035 -54 0
-10037 10036 72 0
-10037 -10036 -72 0
10037 -10036 72 0
10037 10036 -72 0
-10038 10037 84 0
-10038 -10037 -84 0
10038 -10037 84 0
10038 10037 -84 0
10039 10040 10041 10042 10043 10044 0
-10045 10039 10040 0
-10045 -10039 -10040 0
10045 -10039 10040 0
10045 10039 -10040 0
-10046 10045 10042 0
-10046 -10045 -10042 0
10046 -10045 10042 0
10046 10045 -10042 0
-10046 0
-10047 10039 0
-10047 9945 0
10047 -10039 -9945 0
-10048 10040 0
-10048 9953 0
10048 -10040 -9953 0
-10049 10041 0
-10049 9961 0
10049 -10041 -9961 0
-10050 10042 0
-10050 9969 0
10050 -10042 -9969 0
-10051 10043 0
-10051 9977 0
10051 -10043 -9977 0
-10052 10044 0
-10052 9985 0
10052 -10044 -9985 0
-10053 10047 10048 0
-10053 -10047 -10048 0
10053 -10047 10048 0
10053 10047 -10048 0
-10054 10053 10049 0
-10054 -10053 -10049 0
10054 -10053 10049 0
10054 10053 -10049 0
-10055 10054 10050 0
-10055 -10054 -10050 0
10055 -10054 10050 0
10055 10054 -10050 0
-10056 10055 10051 0
-10056 -10055 -10051 0
10056 -10055 10051 0
10056 10055 -10051 0
-10057 10056 10052 0
-10057 -10056 -10052 0
10057 -10056 10052 0
10057 10056 -10052 0
-10057 0
-10058 10039 0
-10058 9946 0
10058 -10039 -9946 0
-10059 10040 0
-10059 9954 0
10059 -10040 -9954 0
-10060 10041 0
-10060 9962 0
10060 -10041 -9962 0
-10061 10042 0
-10061 9970 0
10061 -10042 -9970 0
-10062 10043 0
-10062 9978 0
10062 -10043 -9978 0
-10063 10044 0
-10063 9986 0
10063 -10044 -9986 0
-10064 10058 10059 0
-10064 -10058 -10059 0
10064 -10058 10059 0
10064 10058 -10059 0
-10065 10064 10060 0
-10065 -10064 -10060 0
10065 -10064 10060 0
10065 10064 -10060 0
-10066 10065 10061 0
-10066 -10065 -10061 0
10066 -10065 10061 0
10066 10065 -10061 0
-10067 10066 10062 0
-10067 -10066 -10062 0
10067 -10066 10062 0
10067 10066 -10062 0
-10068 10067 10063 0
-10068 -10067 -10063 0
10068 -10067 10063 0
10068 10067 -10063 0
-10068 0
-10069 10039 0
-10069 9947 0
10069 -10039 -9947 0
-10070 10040 0
-10070 9955 0
10070 -10040 -9955 0
-10071 10041 0
-10071 9963 0
10071 -10041 -9963 0
-10072 10042 0
-10072 9971 0
10072 -10042 -9971 0
-10073 10043 0
-10073 9979 0
10073 -10043 -9979 0
-10074 10044 0
-10074 9987 0
10074 -10044 -9987 0
-10075 10069 10070 0
-10075 -10069 -10070 0
10075 -10069 10070 0
10075 10069 -10070 0
-10076 10075 10071 0
-10076 -10075 -10071 0
10076 -10075 10071 0
10076 10075 -10071 0
-10077 10076 10072 0
-10077 -10076 -10072 0
10077 -10076 10072 0
10077 10076 -10072 0
-10078 10077 10073 0
-10078 -10077 -10073 0
10078 -10077 10073 0
10078 10077 -10073 0
-10079 10078 10074 0
-10079 -10078 -10074 0
10079 -10078 10074 0
10079 10078 -10074 0
-10079 0
-10080 10039 0
-10080 9949 0
10080 -10039 -9949 0
-10081 10040 0
-10081 9957 0
10081 -10040 -9957 0
-10082 10041 0
-10082 9965 0
10082 -10041 -9965 0
-10083 10042 0
-10083 9973 0
10083 -10042 -9973 0
-10084 10043 0
-10084 9981 0
10084 -10043 -9981 0
-10085 10044 0
-10085 9989 0
10085 -10044 -9989 0
-10086 10080 10081 0
-10086 -10080 -10081 0
10086 -10080 10081 0
10086 10080 -10081 0
-10087 10086 10082 0
-10087 -10086 -10082 0
10087 -10086 10082 0
10087 10086 -10082 0
-10088 10087 10083 0
-10088 -10087 -10083 0
10088 -10087 10083 0
10088 10087 -10083 0
-10089 10088 10084 0
-10089 -10088 -10084 0
10089 -10088 10084 0
10089 10088 -10084 0
-10090 10089 10085 0
-10090 -10089 -10085 0
10090 -10089 10085 0
10090 10089 -10085 0
-10090 0
-10091 10039 0
-10091 9951 0
10091 -10039 -9951 0
-10092 10040 0
-10092 9959 0
10092 -10040 -9959 0
-10093 10041 0
-10093 9967 0
10093 -10041 -9967 0
-10094 10042 0
-10094 9975 0
10094 -10042 -9975 0
-10095 10043 0
-10095 9983 0
10095 -10043 -9983 0
-10096 10044 0
-10096 9991 0
10096 -10044 -9991 0
-10097 10091 10092 0
-10097 -10091 -10092 0
10097 -10091 10092 0
10097 10091 -10092 0
-10098 10097 10093 0
-10098 -10097 -10093 0
10098 -10097 10093 0
10098 10097 -10093 0
-10099 10098 10094 0
-10099 -10098 -10094 0
10099 -10098 10094 0
10099 10098 -10094 0
-10100 10099 10095 0
-10100 -10099 -10095 0
10100 -10099 10095 0
10100 10099 -10095 0
-10101 10100 10096 0
-10101 -10100 -10096 0
10101 -10100 10096 0
10101 10100 -10096 0
-10101 0
-10102 10039 0
-10102 9999 0
10102 -10039 -9999 0
-10103 10040 0
-10103 10007 0
10103 -10040 -10007 0
-10104 10041 0
-10104 10015 0
10104 -10041 -10015 0
-10105 10042 0
-10105 10023 0
10105 -10042 -10023 0
-10106 10043 0
-10106 10030 0
10106 -10043 -10030 0
-10107 10044 0
-10107 10038 0
10107 -10044 -10038 0
-10108 10102 10103 0
-10108 -10102 -10103 0
10108 -10102 10103 0
10108 10102 -10103 0
-10109 10108 10104 0
-10109 -10108 -10104 0
10109 -10108 10104 0
10109 10108 -10104 0
-10110 10109 10105 0
-10110 -10109 -10105 0
10110 -10109 10105 0
10110 10109 -10105 0
-10111 10110 10106 0
-10111 -10110 -10106 0
10111 -10110 10106 0
10111 10110 -10106 0
-10112 10111 10107 0
-10112 -10111 -10107 0
10112 -10111 10107 0
10112 10111 -10107 0
10113 10114 10115 10116 10117 10118 0
-10119 10113 10114 0
-10119 -10113 -10114 0
10119 -10113 10114 0
10119 10113 -10114 0
-10120 10119 10116 0
-10120 -10119 -10116 0
10120 -10119 10116 0
10120 10119 -10116 0
-10120 0
-10121 10113 0
-10121 9945 0
10121 -10113 -9945 0
-10122 10114 0
-10122 9953 0
10122 -10114 -9953 0
-10123 10115 0
-10123 9961 0
10123 -10115 -9961 0
-10124 10116 0
-10124 9969 0
10124 -10116 -9969 0
-10125 10117 0
-10125 9977 0
10125 -10117 -9977 0
-10126 10118 0
-10126 9985 0
10126 -10118 -9985 0
-10127 10121 10122 0
-10127 -10121 -10122 0
10127 -10121 10122 0
10127 10121 -10122 0
-10128 10127 10123 0
-10128 -10127 -10123 0
10128 -10127 10123 0
10128 10127 -10123 0
-10129 10128 10124 0
-10129 -10128 -10124 0
10129 -10128 10124 0
10129 10128 -10124 0
-10130 10129 10125 0
-10130 -10129 -10125 0
10130 -10129 10125 0
10130 10129 -10125 0
-10131 10130 10126 0
-10131 -10130 -10126 0
10131 -10130 10126 0
10131 10130 -10126 0
-10131 0
-10132 10113 0
-10132 9946 0
10132 -10113 -9946 0
-10133 10114 0
-10133 9954 0
10133 -10114 -9954 0
-10134 10115 0
-10134 9962 0
10134 -10115 -9962 0
-10135 10116 0
-10135 9970 0
10135 -10116 -9970 0
-10136 10117 0
-10136 9978 0
10136 -10117 -9978 0
-10137 10118 0
-10137 9986 0
10137 -10118 -9986 0
-10138 10132 10133 0
-10138 -10132 -10133 0
10138 -10132 10133 0
10138 10132 -10133 0
-10139 10138 10134 0
-10139 -10138 -10134 0
10139 -10138 10134 0
10139 10138 -10134 0
-10140 10139 10135 0
-10140 -10139 -10135 0
10140 -10139 10135 0
10140 10139 -10135 0
-10141 10140 10136 0
-10141 -10140 -10136 0
10141 -10140 10136 0
10141 10140 -10136 0
-10142 10141 10137 0
-10142 -10141 -10137 0
10142 -10141 10137 0
10142 10141 -10137 0
-10142 0
-10143 10113 0
-10143 9947 0
10143 -10113 -9947 0
-10144 10114 0
-10144 9955 0
10144 -10114 -9955 0
-10145 10115 0
-10145 9963 0
10145 -10115 -9963 0
-10146 10116 0
-10146 9971 0
10146 -10116 -9971 0
-10147 10117 0
-10147 9979 0
10147 -10117 -9979 0
-10148 10118 0
-10148 9987 0
10148 -10118 -9987 0
-10149 10143 10144 0
-10149 -10143 -10144 0
10149 -10143 10144 0
10149 10143 -10144 0
-10150 10149 10145 0
-10150 -10149 -10145 0
10150 -10149 10145 0
10150 10149 -10145 0
-10151 10150 10146 0
-10151 -10150 -10146 0
10151 -10150 10146 0
10151 10150 -10146 0
-10152 10151 10147 0
-10152 -10151 -10147 0
10152 -10151 10147 0
10152 10151 -10147 0
-10153 10152 10148 0
-10153 -10152 -10148 0
10153 -10152 10148 0
10153 10152 -10148 0
-10153 0
-10154 10113 0
-10154 9949 0
10154 -10113 -9949 0
-10155 10114 0
-10155 9957 0
10155 -10114 -9957 0
-10156 10115 0
-10156 9965 0
10156 -10115 -9965 0
-10157 10116 0
-10157 9973 0
10157 -10116 -9973 0
-10158 10117 0
-10158 9981 0
10158 -10117 -9981 0
-10159 10118 0
-10159 9989 0
10159 -10118 -9989 0
-10160 10154 10155 0
-10160 -10154 -10155 0
10160 -10154 10155 0
10160 10154 -10155 0
-10161 10160 10156 0
-10161 -10160 -10156 0
10161 -10160 10156 0
10161 10160 -10156 0
-10162 10161 10157 0
-10162 -10161 -10157 0
10162 -10161 10157 0
10162 10161 -10157 0
-10163 10162 10158 0
-10163 -10162 -10158 0
10163 -10162 10158 0
10163 10162 -10158 0
-10164 10163 10159 0
-10164 -10163 -10159 0
10164 -10163 10159 0
10164 10163 -10159 0
-10164 0
-10165 10113 0
-10165 9951 0
10165 -10113 -9951 0
-10166 10114 0
-10166 9959 0
10166 -10114 -9959 0
-10167 10115 0
-10167 9967 0
10167 -10115 -9967 0
-10168 10116 0
-10168 9975 0
10168 -10116 -9975 0
-10169 10117 0
-10169 9983 0
10169 -10117 -9983 0
-10170 10118 0
-10170 9991 0
10170 -10118 -9991 0
-10171 10165 10166 0
-10171 -10165 -10166 0
10171 -10165 10166 0
10171 10165 -10166 0
-10172 10171 10167 0
-10172 -10171 -10167 0
10172 -10171 10167 0
10172 10171 -10167 0
-10173 10172 10168 0
-10173 -10172 -10168 0
10173 -10172 10168 0
10173 10172 -10168 0
-10174 10173 10169 0
-10174 -10173 -10169 0
10174 -10173 10169 0
10174 10173 -10169 0
-10175 10174 10170 0
-10175 -10174 -10170 0
10175 -10174 10170 0
10175 10174 -10170 0
-10175 0
-10176 10113 0
-10176 9999 0
10176 -10113 -9999 0
-10177 10114 0
-10177 10007 0
10177 -10114 -10007 0
-10178 10115 0
-10178 10015 0
10178 -10115 -10015 0
-10179 10116 0
-10179 10023 0
10179 -10116 -10023 0
-10180 10117 0
-10180 10030 0
10180 -10117 -10030 0
-10181 10118 0
-10181 10038 0
10181 -10118 -10038 0
-10182 10176 10177 0
-10182 -10176 -10177 0
10182 -10176 10177 0
10182 10176 -10177 0
-10183 10182 10178 0
-10183 -10182 -10178 0
10183 -10182 10178 0
10183 10182 -10178 0
-10184 10183 10179 0
-10184 -10183 -10179 0
10184 -10183 10179 0
10184 10183 -10179 0
-10185 10184 10180 0
-10185 -10184 -10180 0
10185 -10184 10180 0
10185 10184 -10180 0
-10186 10185 10181 0
-10186 -10185 -10181 0
10186 -10185 10181 0
10186 10185 -10181 0
-10187 10039 10113 0
-10187 -10039 -10113 0
10187 -10039 10113 0
10187 10039 -10113 0
-10188 10040 10114 0
-10188 -10040 -10114 0
10188 -10040 10114 0
10188 10040 -10114 0
-10189 10041 10115 0
-10189 -10041 -10115 0
10189 -10041 10115 0
10189 10041 -10115 0
-10190 10042 10116 0
-10190 -10042 -10116 0
10190 -10042 10116 0
10190 10042 -10116 0
-10191 10043 10117 0
-10191 -10043 -10117 0
10191 -10043 10117 0
10191 10043 -10117 0
-10192 10044 10118 0
-10192 -10044 -10118 0
10192 -10044 10118 0
10192 10044 -10118 0
10187 10188 10189 10190 10191 10192 0
10112 10186 0
-10193 31 37 0
-10193 -31 -37 0
10193 -31 37 0
10193 31 -37 0
-10194 10193 49 0
-10194 -10193 -49 0
10194 -10193 49 0
10194 10193 -49 0
-10195 -31 67 0
-10195 31 -67 0
10195 31 67 0
10195 -31 -67 0
-10196 37 79 0
-10196 -37 -79 0
10196 -37 79 0
10196 37 -79 0
-10197 43 61 0
-10197 -43 -61 0
10197 -43 61 0
10197 43 -61 0
-10198 10197 73 0
-10198 -10197 -73 0
10198 -10197 73 0
10198 10197 -73 0
-10199 49 67 0
-10199 -49 -67 0
10199 -49 67 0
10199 49 -67 0
-10200 10199 79 0
-10200 -10199 -79 0
10200 -10199 79 0
10200 10199 -79 0
-10201 32 38 0
-10201 -32 -38 0
10201 -32 38 0
10201 32 -38 0
-10202 10201 50 0
-10202 -10201 -50 0
10202 -10201 50 0
10202 10201 -50 0
-10203 32 68 0
-10203 -32 -68 0
10203 -32 68 0
10203 32 -68 0
-10204 -38 80 0
-10204 38 -80 0
10204 38 80 0
10204 -38 -80 0
-10205 44 62 0
-10205 -44 -62 0
10205 -44 62 0
10205 44 -62 0
-10206 10205 74 0
-10206 -10205 -74 0
10206 -10205 74 0
10206 10205 -74 0
-10207 50 68 0
-10207 -50 -68 0
10207 -50 68 0
10207 50 -68 0
-10208 10207 80 0
-10208 -10207 -80 0
10208 -10207 80 0
10208 10207 -80 0
-10209 33 39 0
-10209 -33 -39 0
10209 -33 39 0
10209 33 -39 0
-10210 10209 51 0
-10210 -10209 -51 0
10210 -10209 51 0
10210 10209 -51 0
-10211 33 69 0
-10211 -33 -69 0
10211 -33 69 0
10211 33 -69 0
-10212 39 81 0
-10212 -39 -81 0
10212 -39 81 0
10212 39 -81 0
-10213 -45 63 0
-10213 45 -63 0
10213 45 63 0
10213 -45 -63 0
-10214 10213 75 0
-10214 -10213 -75 0
10214 -10213 75 0
10214 10213 -75 0
-10215 51 69 0
-10215 -51 -69 0
10215 -51 69 0
10215 51 -69 0
-10216 10215 81 0
-10216 -10215 -81 0
10216 -10215 81 0
10216 10215 -81 0
-10217 34 40 0
-10217 -34 -40 0
10217 -34 40 0
10217 34 -40 0
-10218 10217 52 0
-10218 -10217 -52 0
10218 -10217 52 0
10218 10217 -52 0
-10219 34 70 0
-10219 -34 -70 0
10219 -34 70 0
10219 34 -70 0
-10220 40 82 0
-10220 -40 -82 0
10220 -40 82 0
10220 40 -82 0
-10221 46 64 0
-10221 -46 -64 0
10221 -46 64 0
10221 46 -64 0
-10222 10221 76 0
-10222 -10221 -76 0
10222 -10221 76 0
10222 10221 -76 0
-10223 -52 70 0
-10223 52 -70 0
10223 52 70 0
10223 -52 -70 0
-10224 10223 82 0
-10224 -10223 -82 0
10224 -10223 82 0
10224 10223 -82 0
-10225 35 41 0
-10225 -35 -41 0
10225 -35 41 0
10225 35 -41 0
-10226 10225 53 0
-10226 -10225 -53 0
10226 -10225 53 0
10226 10225 -53 0
-10227 35 71 0
-10227 -35 -71 0
10227 -35 71 0
10227 35 -71 0
-10228 41 83 0
-10228 -41 -83 0
10228 -41 83 0
10228 41 -83 0
-10229 47 65 0
-10229 -47 -65 0
10229 -47 65 0
10229 47 -65 0
-10230 10229 77 0
-10230 -10229 -77 0
10230 -10229 77 0
10230 10229 -77 0
-10231 53 71 0
-10231 -53 -71 0
10231 -53 71 0
10231 53 -71 0
-10232 10231 83 0
-10232 -10231 -83 0
10232 -10231 83 0
10232 10231 -83 0
-10233 36 42 0
-10233 -36 -42 0
10233 -36 42 0
10233 36 -42 0
-10234 10233 54 0
-10234 -10233 -54 0
10234 -10233 54 0
10234 10233 -54 0
-10235 36 72 0
-10235 -36 -72 0
10235 -36 72 0
10235 36 -72 0
-10236 42 84 0
-10236 -42 -84 0
10236 -42 84 0
10236 42 -84 0
-10237 48 66 0
-10237 -48 -66 0
10237 -48 66 0
10237 48 -66 0
-10238 10237 78 0
-10238 -10237 -78 0
10238 -10237 78 0
10238 10237 -78 0
-10239 54 72 0
-10239 -54 -72 0
10239 -54 72 0
10239 54 -72 0
-10240 10239 84 0
-10240 -10239 -84 0
10240 -10239 84 0
10240 10239 -84 0
-10241 97 103 0
-10241 -97 -103 0
10241 -97 103 0
10241 97 -103 0
-10242 10241 109 0
-10242 -10241 -109 0
10242 -10241 109 0
10242 10241 -109 0
-10243 10242 121 0
-10243 -10242 -121 0
10243 -10242 121 0
10243 10242 -121 0
-10244 -10243 31 0
-10244 10243 -31 0
10244 10243 31 0
10244 -10243 -31 0
-10245 10244 37 0
-10245 -10244 -37 0
10245 -10244 37 0
10245 10244 -37 0
-10246 10245 49 0
-10246 -10245 -49 0
10246 -10245 49 0
10246 10245 -49 0
-10247 10246 67 0
-10247 -10246 -67 0
10247 -10246 67 0
10247 10246 -67 0
-10248 10247 79 0
-10248 -10247 -79 0
10248 -10247 79 0
10248 10247 -79 0
-10249 98 104 0
-10249 -98 -104 0
10249 -98 104 0
10249 98 -104 0
-10250 10249 110 0
-10250 -10249 -110 0
10250 -10249 110 0
10250 10249 -110 0
-10251 10250 122 0
-10251 -10250 -122 0
10251 -10250 122 0
10251 10250 -122 0
-10252 -10251 32 0
-10252 10251 -32 0
10252 10251 32 0
10252 -10251 -32 0
-10253 10252 38 0
-10253 -10252 -38 0
10253 -10252 38 0
10253 10252 -38 0
-10254 10253 50 0
-10254 -10253 -50 0
10254 -10253 50 0
10254 10253 -50 0
-10255 10254 68 0
-10255 -10254 -68 0
10255 -10254 68 0
10255 10254 -68 0
-10256 10255 80 0
-10256 -10255 -80 0
10256 -10255 80 0
10256 10255 -80 0
-10257 99 105 0
-10257 -99 -105 0
10257 -99 105 0
10257 99 -105 0
-10258 10257 111 0
-10258 -10257 -111 0
10258 -10257 111 0
10258 10257 -111 0
-10259 10258 123 0
-10259 -10258 -123 0
10259 -10258 123 0
10259 10258 -123 0
-10260 10259 33 0
-10260 -10259 -33 0
10260 -10259 33 0
10260 10259 -33 0
-10261 10260 39 0
-10261 -10260 -39 0
10261 -10260 39 0
10261 10260 -39 0
-10262 10261 51 0
-10262 -10261 -51 0
10262 -10261 51 0
10262 10261 -51 0
-10263 10262 69 0
-10263 -10262 -69 0
10263 -10262 69 0
10263 10262 -69 0
-10264 10263 81 0
-10264 -10263 -81 0
10264 -10263 81 0
10264 10263 -81 0
-10265 100 106 0
-10265 -100 -106 0
10265 -100 106 0
10265 100 -106 0
-10266 10265 112 0
-10266 -10265 -112 0
10266 -10265 112 0
10266 10265 -112 0
-10267 10266 124 0
-10267 -10266 -124 0
10267 -10266 124 0
10267 10266 -124 0
-10268 -10267 34 0
-10268 10267 -34 0
10268 10267 34 0
10268 -10267 -34 0
-10269 10268 40 0
-10269 -10268 -40 0
10269 -10268 40 0
10269 10268 -40 0
-10270 10269 52 0
-10270 -10269 -52 0
10270 -10269 52 0
10270 10269 -52 0
-10271 10270 70 0
-10271 -10270 -70 0
10271 -10270 70 0
10271 10270 -70 0
-10272 10271 82 0
-10272 -10271 -82 0
10272 -10271 82 0
10272 10271 -82 0
-10273 -107 113 0
-10273 107 -113 0
10273 107 113 0
10273 -107 -113 0
-10274 10273 125 0
-10274 -10273 -125 0
10274 -10273 125 0
10274 10273 -125 0
-10275 10274 35 0
-10275 -10274 -35 0
10275 -10274 35 0
10275 10274 -35 0
-10276 10275 41 0
-10276 -10275 -41 0
10276 -10275 41 0
10276 10275 -41 0
-10277 10276 53 0
-10277 -10276 -53 0
10277 -10276 53 0
10277 10276 -53 0
-10278 10277 71 0
-10278 -10277 -71 0
10278 -10277 71 0
10278 10277 -71 0
-10279 10278 83 0
-10279 -10278 -83 0
10279 -10278 83 0
10279 10278 -83 0
-10280 102 108 0
-10280 -102 -108 0
10280 -102 108 0
10280 102 -108 0
-10281 10280 114 0
-10281 -10280 -114 0
10281 -10280 114 0
10281 10280 -114 0
-10282 10281 126 0
-10282 -10281 -126 0
10282 -10281 126 0
10282 10281 -126 0
-10283 10282 36 0
-10283 -10282 -36 0
10283 -10282 36 0
10283 10282 -36 0
-10284 10283 42 0
-10284 -10283 -42 0
10284 -10283 42 0
10284 10283 -42 0
-10285 10284 54 0
-10285 -10284 -54 0
10285 -10284 54 0
10285 10284 -54 0
-10286 10285 72 0
-10286 -10285 -72 0
10286 -10285 72 0
10286 10285 -72 0
-10287 10286 84 0
-10287 -10286 -84 0
10287 -10286 84 0
10287 10286 -84 0
10288 10289 10290 10291 10292 10293 0
-10294 10288 10289 0
-10294 -10288 -10289 0
10294 -10288 10289 0
10294 10288 -10289 0
-10295 10294 10291 0
-10295 -10294 -10291 0
10295 -10294 10291 0
10295 10294 -10291 0
-10295 0
-10296 10288 0
-10296 10194 0
10296 -10288 -10194 0
-10297 10289 0
-10297 10202 0
10297 -10289 -10202 0
-10298 10290 0
-10298 10210 0
10298 -10290 -10210 0
-10299 10291 0
-10299 10218 0
10299 -10291 -10218 0
-10300 10292 0
-10300 10226 0
10300 -10292 -10226 0
-10301 10293 0
-10301 10234 0
10301 -10293 -10234 0
-10302 10296 10297 0
-10302 -10296 -10297 0
10302 -10296 10297 0
10302 10296 -10297 0
-10303 10302 10298 0
-10303 -10302 -10298 0
10303 -10302 10298 0
10303 10302 -10298 0
-10304 10303 10299 0
-10304 -10303 -10299 0
10304 -10303 10299 0
10304 10303 -10299 0
-10305 10304 10300 0
-10305 -10304 -10300 0
10305 -10304 10300 0
10305 10304 -10300 0
-10306 10305 10301 0
-10306 -10305 -10301 0
10306 -10305 10301 0
10306 10305 -10301 0
-10306 0
-10307 10288 0
-10307 10195 0
10307 -10288 -10195 0
-10308 10289 0
-10308 10203 0
10308 -10289 -10203 0
-10309 10290 0
-10309 10211 0
10309 -10290 -10211 0
-10310 10291 0
-10310 10219 0
10310 -10291 -10219 0
-10311 10292 0
-10311 10227 0
10311 -10292 -10227 0
-10312 10293 0
-10312 10235 0
10312 -10293 -10235 0
-10313 10307 10308 0
-10313 -10307 -10308 0
10313 -10307 10308 0
10313 10307 -10308 0
-10314 10313 10309 0
-10314 -10313 -10309 0
10314 -10313 10309 0
10314 10313 -10309 0
-10315 10314 10310 0
-10315 -10314 -10310 0
10315 -10314 10310 0
10315 10314 -10310 0
-10316 10315 10311 0
-10316 -10315 -10311 0
10316 -10315 10311 0
10316 10315 -10311 0
-10317 10316 10312 0
-10317 -10316 -10312 0
10317 -10316 10312 0
10317 10316 -10312 0
-10317 0
-10318 10288 0
-10318 10196 0
10318 -10288 -10196 0
-10319 10289 0
-10319 10204 0
10319 -10289 -10204 0
-10320 10290 0
-10320 10212 0
10320 -10290 -10212 0
-10321 10291 0
-10321 10220 0
10321 -10291 -10220 0
-10322 10292 0
-10322 10228 0
10322 -10292 -10228 0
-10323 10293 0
-10323 10236 0
10323 -10293 -10236 0
-10324 10318 10319 0
-10324 -10318 -10319 0
10324 -10318 10319 0
10324 10318 -10319 0
-10325 10324 10320 0
-10325 -10324 -10320 0
10325 -10324 10320 0
10325 10324 -10320 0
-10326 10325 10321 0
-10326 -10325 -10321 0
10326 -10325 10321 0
10326 10325 -10321 0
-10327 10326 10322 0
-10327 -10326 -10322 0
10327 -10326 10322 0
10327 10326 -10322 0
-10328 10327 10323 0
-10328 -10327 -10323 0
10328 -10327 10323 0
10328 10327 -10323 0
-10328 0
-10329 10288 0
-10329 10198 0
10329 -10288 -10198 0
-10330 10289 0
-10330 10206 0
10330 -10289 -10206 0
-10331 10290 0
-10331 10214 0
10331 -10290 -10214 0
-10332 10291 0
-10332 10222 0
10332 -10291 -10222 0
-10333 10292 0
-10333 10230 0
10333 -10292 -10230 0
-10334 10293 0
-10334 10238 0
10334 -10293 -10238 0
-10335 10329 10330 0
-10335 -10329 -10330 0
10335 -10329 10330 0
10335 10329 -10330 0
-10336 10335 10331 0
-10336 -10335 -10331 0
10336 -10335 10331 0
10336 10335 -10331 0
-10337 10336 10332 0
-10337 -10336 -10332 0
10337 -10336 10332 0
10337 10336 -10332 0
-10338 10337 10333 0
-10338 -10337 -10333 0
10338 -10337 10333 0
10338 10337 -10333 0
-10339 10338 10334 0
-10339 -10338 -10334 0
10339 -10338 10334 0
10339 10338 -10334 0
-10339 0
-10340 10288 0
-10340 10200 0
10340 -10288 -10200 0
-10341 10289 0
-10341 10208 0
10341 -10289 -10208 0
-10342 10290 0
-10342 10216 0
10342 -10290 -10216 0
-10343 10291 0
-10343 10224 0
10343 -10291 -10224 0
-10344 10292 0
-10344 10232 0
10344 -10292 -10232 0
-10345 10293 0
-10345 10240 0
10345 -10293 -10240 0
-10346 10340 10341 0
-10346 -10340 -10341 0
10346 -10340 10341 0
10346 10340 -10341 0
-10347 10346 10342 0
-10347 -10346 -10342 0
10347 -10346 10342 0
10347 10346 -10342 0
-10348 10347 10343 0
-10348 -10347 -10343 0
10348 -10347 10343 0
10348 10347 -10343 0
-10349 10348 10344 0
-10349 -10348 -10344 0
10349 -10348 10344 0
10349 10348 -10344 0
-10350 10349 10345 0
-10350 -10349 -10345 0
10350 -10349 10345 0
10350 10349 -10345 0
-10350 0
-10351 10288 0
-10351 10248 0
10351 -10288 -10248 0
-10352 10289 0
-10352 10256 0
10352 -10289 -10256 0
-10353 10290 0
-10353 10264 0
10353 -10290 -10264 0
-10354 10291 0
-10354 10272 0
10354 -10291 -10272 0
-10355 10292 0
-10355 10279 0
10355 -10292 -10279 0
-10356 10293 0
-10356 10287 0
10356 -10293 -10287 0
-10357 10351 10352 0
-10357 -10351 -10352 0
10357 -10351 10352 0
10357 10351 -10352 0
-10358 10357 10353 0
-10358 -10357 -10353 0
10358 -10357 10353 0
10358 10357 -10353 0
-10359 10358 10354 0
-10359 -10358 -10354 0
10359 -10358 10354 0
10359 10358 -10354 0
-10360 10359 10355 0
-10360 -10359 -10355 0
10360 -10359 10355 0
10360 10359 -10355 0
-10361 10360 10356 0
-10361 -10360 -10356 0
10361 -10360 10356 0
10361 10360 -10356 0
10362 10363 10364 10365 10366 10367 0
-10368 10362 10363 0
-10368 -10362 -10363 0
10368 -10362 10363 0
10368 10362 -10363 0
-10369 10368 10365 0
-10369 -10368 -10365 0
10369 -10368 10365 0
10369 10368 -10365 0
-10369 0
-10370 10362 0
-10370 10194 0
10370 -10362 -10194 0
-10371 10363 0
-10371 10202 0
10371 -10363 -10202 0
-10372 10364 0
-10372 10210 0
10372 -10364 -10210 0
-10373 10365 0
-10373 10218 0
10373 -10365 -10218 0
-10374 10366 0
-10374 10226 0
10374 -10366 -10226 0
-10375 10367 0
-10375 10234 0
10375 -10367 -10234 0
-10376 10370 10371 0
-10376 -10370 -10371 0
10376 -10370 10371 0
10376 10370 -10371 0
-10377 10376 10372 0
-10377 -10376 -10372 0
10377 -10376 10372 0
10377 10376 -10372 0
-10378 10377 10373 0
-10378 -10377 -10373 0
10378 -10377 10373 0
10378 10377 -10373 0
-10379 10378 10374 0
-10379 -10378 -10374 0
10379 -10378 10374 0
10379 10378 -10374 0
-10380 10379 10375 0
-10380 -10379 -10375 0
10380 -10379 10375 0
10380 10379 -10375 0
-10380 0
-10381 10362 0
-10381 10195 0
10381 -10362 -10195 0
-10382 10363 0
-10382 10203 0
10382 -10363 -10203 0
-10383 10364 0
-10383 10211 0
10383 -10364 -10211 0
-10384 10365 0
-10384 10219 0
10384 -10365 -10219 0
-10385 10366 0
-10385 10227 0
10385 -10366 -10227 0
-10386 10367 0
-10386 10235 0
10386 -10367 -10235 0
-10387 10381 10382 0
-10387 -10381 -10382 0
10387 -10381 10382 0
10387 10381 -10382 0
-10388 10387 10383 0
-10388 -10387 -10383 0
10388 -10387 10383 0
10388 10387 -10383 0
-10389 10388 10384 0
-10389 -10388 -10384 0
10389 -10388 10384 0
10389 10388 -10384 0
-10390 10389 10385 0
-10390 -10389 -10385 0
10390 -10389 10385 0
10390 10389 -10385 0
-10391 10390 10386 0
-10391 -10390 -10386 0
10391 -10390 10386 0
10391 10390 -10386 0
-10391 0
-10392 10362 0
-10392 10196 0
10392 -10362 -10196 0
-10393 10363 0
-10393 10204 0
10393 -10363 -10204 0
-10394 10364 0
-10394 10212 0
10394 -10364 -10212 0
-10395 10365 0
-10395 10220 0
10395 -10365 -10220 0
-10396 10366 0
-10396 10228 0
10396 -10366 -10228 0
-10397 10367 0
-10397 10236 0
10397 -10367 -10236 0
-10398 10392 10393 0
-10398 -10392 -10393 0
10398 -10392 10393 0
10398 10392 -10393 0
-10399 10398 10394 0
-10399 -10398 -10394 0
10399 -10398 10394 0
10399 10398 -10394 0
-10400 10399 10395 0
-10400 -10399 -10395 0
10400 -10399 10395 0
10400 10399 -10395 0
-10401 10400 10396 0
-10401 -10400 -10396 0
10401 -10400 10396 0
10401 10400 -10396 0
-10402 10401 10397 0
-10402 -10401 -10397 0
10402 -10401 10397 0
10402 10401 -10397 0
-10402 0
-10403 10362 0
-10403 10198 0
10403 -10362 -10198 0
-10404 10363 0
-10404 10206 0
10404 -10363 -10206 0
-10405 10364 0
-10405 10214 0
10405 -10364 -10214 0
-10406 10365 0
-10406 10222 0
10406 -10365 -10222 0
-10407 10366 0
-10407 10230 0
10407 -10366 -10230 0
-10408 10367 0
-10408 10238 0
10408 -10367 -10238 0
-10409 10403 10404 0
-10409 -10403 -10404 0
10409 -10403 10404 0
10409 10403 -10404 0
-10410 10409 10405 0
-10410 -10409 -10405 0
10410 -10409 10405 0
10410 10409 -10405 0
-10411 10410 10406 0
-10411 -10410 -10406 0
10411 -10410 10406 0
10411 10410 -10406 0
-10412 10411 10407 0
-10412 -10411 -10407 0
10412 -10411 10407 0
10412 10411 -10407 0
-10413 10412 10408 0
-10413 -10412 -10408 0
10413 -10412 10408 0
10413 10412 -10408 0
-10413 0
-10414 10362 0
-10414 10200 0
10414 -10362 -10200 0
-10415 10363 0
-10415 10208 0
10415 -10363 -10208 0
-10416 10364 0
-10416 10216 0
10416 -10364 -10216 0
-10417 10365 0
-10417 10224 0
10417 -10365 -10224 0
-10418 10366 0
-10418 10232 0
10418 -10366 -10232 0
-10419 10367 0
-10419 10240 0
10419 -10367 -10240 0
-10420 10414 10415 0
-10420 -10414 -10415 0
10420 -10414 10415 0
10420 10414 -10415 0
-10421 10420 10416 0
-10421 -10420 -10416 0
10421 -10420 10416 0
10421 10420 -10416 0
-10422 10421 10417 0
-10422 -10421 -10417 0
10422 -10421 10417 0
10422 10421 -10417 0
-10423 10422 10418 0
-10423 -10422 -10418 0
10423 -10422 10418 0
10423 10422 -10418 0
-10424 10423 10419 0
-10424 -10423 -10419 0
10424 -10423 10419 0
10424 10423 -10419 0
-10424 0
-10425 10362 0
-10425 10248 0
10425 -10362 -10248 0
-10426 10363 0
-10426 10256 0
10426 -10363 -10256 0
-10427 10364 0
-10427 10264 0
10427 -10364 -10264 0
-10428 10365 0
-10428 10272 0
10428 -10365 -10272 0
-10429 10366 0
-10429 10279 0
10429 -10366 -10279 0
-10430 10367 0
-10430 10287 0
10430 -10367 -10287 0
-10431 10425 10426 0
-10431 -10425 -10426 0
10431 -10425 10426 0
10431 10425 -10426 0
-10432 10431 10427 0
-10432 -10431 -10427 0
10432 -10431 10427 0
10432 10431 -10427 0
-10433 10432 10428 0
-10433 -10432 -10428 0
10433 -10432 10428 0
10433 10432 -10428 0
-10434 10433 10429 0
-10434 -10433 -10429 0
10434 -10433 10429 0
10434 10433 -10429 0
-10435 10434 10430 0
-10435 -10434 -10430 0
10435 -10434 10430 0
10435 10434 -10430 0
-10436 10288 10362 0
-10436 -10288 -10362 0
10436 -10288 10362 0
10436 10288 -10362 0
-10437 10289 10363 0
-10437 -10289 -10363 0
10437 -10289 10363 0
10437 10289 -10363 0
-10438 10290 10364 0
-10438 -10290 -10364 0
10438 -10290 10364 0
10438 10290 -10364 0
-10439 10291 10365 0
-10439 -10291 -10365 0
10439 -10291 10365 0
10439 10291 -10365 0
-10440 10292 10366 0
-10440 -10292 -10366 0
10440 -10292 10366 0
10440 10292 -10366 0
-10441 10293 10367 0
-10441 -10293 -10367 0
10441 -10293 10367 0
10441 10293 -10367 0
10436 10437 10438 10439 10440 10441 0
10361 10435 0
-10442 43 49 0
-10442 -43 -49 0
10442 -43 49 0
10442 43 -49 0
-10443 61 67 0
-10443 -61 -67 0
10443 -61 67 0
10443 61 -67 0
-10444 73 79 0
-10444 -73 -79 0
10444 -73 79 0
10444 73 -79 0
-10445 44 50 0
-10445 -44 -50 0
10445 -44 50 0
10445 44 -50 0
-10446 62 68 0
-10446 -62 -68 0
10446 -62 68 0
10446 62 -68 0
-10447 74 80 0
-10447 -74 -80 0
10447 -74 80 0
10447 74 -80 0
-10448 45 51 0
-10448 -45 -51 0
10448 -45 51 0
10448 45 -51 0
-10449 63 69 0
-10449 -63 -69 0
10449 -63 69 0
10449 63 -69 0
-10450 75 81 0
-10450 -75 -81 0
10450 -75 81 0
10450 75 -81 0
-10451 46 52 0
-10451 -46 -52 0
10451 -46 52 0
10451 46 -52 0
-10452 64 70 0
-10452 -64 -70 0
10452 -64 70 0
10452 64 -70 0
-10453 76 82 0
-10453 -76 -82 0
10453 -76 82 0
10453 76 -82 0
-10454 47 53 0
-10454 -47 -53 0
10454 -47 53 0
10454 47 -53 0
-10455 65 71 0
-10455 -65 -71 0
10455 -65 71 0
10455 65 -71 0
-10456 77 83 0
-10456 -77 -83 0
10456 -77 83 0
10456 77 -83 0
-10457 48 54 0
-10457 -48 -54 0
10457 -48 54 0
10457 48 -54 0
-10458 66 72 0
-10458 -66 -72 0
10458 -66 72 0
10458 66 -72 0
-10459 78 84 0
-10459 -78 -84 0
10459 -78 84 0
10459 78 -84 0
-10460 115 121 0
-10460 -115 -121 0
10460 -115 121 0
10460 115 -121 0
-10461 116 122 0
-10461 -116 -122 0
10461 -116 122 0
10461 116 -122 0
-10462 117 123 0
-10462 -117 -123 0
10462 -117 123 0
10462 117 -123 0
-10463 118 124 0
-10463 -118 -124 0
10463 -118 124 0
10463 118 -124 0
-10464 119 125 0
-10464 -119 -125 0
10464 -119 125 0
10464 119 -125 0
-10465 120 126 0
-10465 -120 -126 0
10465 -120 126 0
10465 120 -126 0
10466 10467 10468 10469 10470 10471 0
-10472 10468 10469 0
-10472 -10468 -10469 0
10472 -10468 10469 0
10472 10468 -10469 0
-10472 0
-10473 10466 0
-10473 10442 0
10473 -10466 -10442 0
-10474 10467 0
-10474 10445 0
10474 -10467 -10445 0
-10475 10468 0
-10475 10448 0
10475 -10468 -10448 0
-10476 10469 0
-10476 10451 0
10476 -10469 -10451 0
-10477 10470 0
-10477 10454 0
10477 -10470 -10454 0
-10478 10471 0
-10478 10457 0
10478 -10471 -10457 0
-10479 10473 10474 0
-10479 -10473 -10474 0
10479 -10473 10474 0
10479 10473 -10474 0
-10480 10479 10475 0
-10480 -10479 -10475 0
10480 -10479 10475 0
10480 10479 -10475 0
-10481 10480 10476 0
-10481 -10480 -10476 0
10481 -10480 10476 0
10481 10480 -10476 0
-10482 10481 10477 0
-10482 -10481 -10477 0
10482 -10481 10477 0
10482 10481 -10477 0
-10483 10482 10478 0
-10483 -10482 -10478 0
10483 -10482 10478 0
10483 10482 -10478 0
-10483 0
-10484 10466 0
-10484 10443 0
10484 -10466 -10443 0
-10485 10467 0
-10485 10446 0
10485 -10467 -10446 0
-10486 10468 0
-10486 10449 0
10486 -10468 -10449 0
-10487 10469 0
-10487 10452 0
10487 -10469 -10452 0
-10488 10470 0
-10488 10455 0
10488 -10470 -10455 0
-10489 10471 0
-10489 10458 0
10489 -10471 -10458 0
-10490 10484 10485 0
-10490 -10484 -10485 0
10490 -10484 10485 0
10490 10484 -10485 0
-10491 10490 10486 0
-10491 -10490 -10486 0
10491 -10490 10486 0
10491 10490 -10486 0
-10492 10491 10487 0
-10492 -10491 -10487 0
10492 -10491 10487 0
10492 10491 -10487 0
-10493 10492 10488 0
-10493 -10492 -10488 0
10493 -10492 10488 0
10493 10492 -10488 0
-10494 10493 10489 0
-10494 -10493 -10489 0
10494 -10493 10489 0
10494 10493 -10489 0
-10494 0
-10495 10466 0
-10495 10444 0
10495 -10466 -10444 0
-10496 10467 0
-10496 10447 0
10496 -10467 -10447 0
-10497 10468 0
-10497 10450 0
10497 -10468 -10450 0
-10498 10469 0
-10498 10453 0
10498 -10469 -10453 0
-10499 10470 0
-10499 10456 0
10499 -10470 -10456 0
-10500 10471 0
-10500 10459 0
10500 -10471 -10459 0
-10501 10495 10496 0
-10501 -10495 -10496 0
10501 -10495 10496 0
10501 10495 -10496 0
-10502 10501 10497 0
-10502 -10501 -10497 0
10502 -10501 10497 0
10502 10501 -10497 0
-10503 10502 10498 0
-10503 -10502 -10498 0
10503 -10502 10498 0
10503 10502 -10498 0
-10504 10503 10499 0
-10504 -10503 -10499 0
10504 -10503 10499 0
10504 10503 -10499 0
-10505 10504 10500 0
-10505 -10504 -10500 0
10505 -10504 10500 0
10505 10504 -10500 0
-10505 0
-10506 10466 0
-10506 10460 0
10506 -10466 -10460 0
-10507 10467 0
-10507 10461 0
10507 -10467 -10461 0
-10508 10468 0
-10508 10462 0
10508 -10468 -10462 0
-10509 10469 0
-10509 10463 0
10509 -10469 -10463 0
-10510 10470 0
-10510 10464 0
10510 -10470 -10464 0
-10511 10471 0
-10511 10465 0
10511 -10471 -10465 0
-10512 10506 10507 0
-10512 -10506 -10507 0
10512 -10506 10507 0
10512 10506 -10507 0
-10513 10512 10508 0
-10513 -10512 -10508 0
10513 -10512 10508 0
10513 10512 -10508 0
-10514 10513 10509 0
-10514 -10513 -10509 0
10514 -10513 10509 0
10514 10513 -10509 0
-10515 10514 10510 0
-10515 -10514 -10510 0
10515 -10514 10510 0
10515 10514 -10510 0
-10516 10515 10511 0
-10516 -10515 -10511 0
10516 -10515 10511 0
10516 10515 -10511 0
10517 10518 10519 10520 10521 10522 0
-10523 10519 10520 0
-10523 -10519 -10520 0
10523 -10519 10520 0
10523 10519 -10520 0
-10523 0
-10524 10517 0
-10524 10442 0
10524 -10517 -10442 0
-10525 10518 0
-10525 10445 0
10525 -10518 -10445 0
-10526 10519 0
-10526 10448 0
10526 -10519 -10448 0
-10527 10520 0
-10527 10451 0
10527 -10520 -10451 0
-10528 10521 0
-10528 10454 0
10528 -10521 -10454 0
-10529 10522 0
-10529 10457 0
10529 -10522 -10457 0
-10530 10524 10525 0
-10530 -10524 -10525 0
10530 -10524 10525 0
10530 10524 -10525 0
-10531 10530 10526 0
-10531 -10530 -10526 0
10531 -10530 10526 0
10531 10530 -10526 0
-10532 10531 10527 0
-10532 -10531 -10527 0
10532 -10531 10527 0
10532 10531 -10527 0
-10533 10532 10528 0
-10533 -10532 -10528 0
10533 -10532 10528 0
10533 10532 -10528 0
-10534 10533 10529 0
-10534 -10533 -10529 0
10534 -10533 10529 0
10534 10533 -10529 0
-10534 0
-10535 10517 0
-10535 10443 0
10535 -10517 -10443 0
-10536 10518 0
-10536 10446 0
10536 -10518 -10446 0
-10537 10519 0
-10537 10449 0
10537 -10519 -10449 0
-10538 10520 0
-10538 10452 0
10538 -10520 -10452 0
-10539 10521 0
-10539 10455 0
10539 -10521 -10455 0
-10540 10522 0
-10540 10458 0
10540 -10522 -10458 0
-10541 10535 10536 0
-10541 -10535 -10536 0
10541 -10535 10536 0
10541 10535 -10536 0
-10542 10541 10537 0
-10542 -10541 -10537 0
10542 -10541 10537 0
10542 10541 -10537 0
-10543 10542 10538 0
-10543 -10542 -10538 0
10543 -10542 10538 0
10543 10542 -10538 0
-10544 10543 10539 0
-10544 -10543 -10539 0
10544 -10543 10539 0
10544 10543 -10539 0
-10545 10544 10540 0
-10545 -10544 -10540 0
10545 -10544 10540 0
10545 10544 -10540 0
-10545 0
-10546 10517 0
-10546 10444 0
10546 -10517 -10444 0
-10547 10518 0
-10547 10447 0
10547 -10518 -10447 0
-10548 10519 0
-10548 10450 0
10548 -10519 -10450 0
-10549 10520 0
-10549 10453 0
10549 -10520 -10453 0
-10550 10521 0
-10550 10456 0
10550 -10521 -10456 0
-10551 10522 0
-10551 10459 0
10551 -10522 -10459 0
-10552 10546 10547 0
-10552 -10546 -10547 0
10552 -10546 10547 0
10552 10546 -10547 0
-10553 10552 10548 0
-10553 -10552 -10548 0
10553 -10552 10548 0
10553 10552 -10548 0
-10554 10553 10549 0
-10554 -10553 -10549 0
10554 -10553 10549 0
10554 10553 -10549 0
-10555 10554 10550 0
-10555 -10554 -10550 0
10555 -10554 10550 0
10555 10554 -10550 0
-10556 10555 10551 0
-10556 -10555 -10551 0
10556 -10555 10551 0
10556 10555 -10551 0
-10556 0
-10557 10517 0
-10557 10460 0
10557 -10517 -10460 0
-10558 10518 0
-10558 10461 0
10558 -10518 -10461 0
-10559 10519 0
-10559 10462 0
10559 -10519 -10462 0
-10560 10520 0
-10560 10463 0
10560 -10520 -10463 0
-10561 10521 0
-10561 10464 0
10561 -10521 -10464 0
-10562 10522 0
-10562 10465 0
10562 -10522 -10465 0
-10563 10557 10558 0
-10563 -10557 -10558 0
10563 -10557 10558 0
10563 10557 -10558 0
-10564 10563 10559 0
-10564 -10563 -10559 0
10564 -10563 10559 0
10564 10563 -10559 0
-10565 10564 10560 0
-10565 -10564 -10560 0
10565 -10564 10560 0
10565 10564 -10560 0
-10566 10565 10561 0
-10566 -10565 -10561 0
10566 -10565 10561 0
10566 10565 -10561 0
-10567 10566 10562 0
-10567 -10566 -10562 0
10567 -10566 10562 0
10567 10566 -10562 0
-10568 10466 10517 0
-10568 -10466 -10517 0
10568 -10466 10517 0
10568 10466 -10517 0
-10569 10467 10518 0
-10569 -10467 -10518 0
10569 -10467 10518 0
10569 10467 -10518 0
-10570 10468 10519 0
-10570 -10468 -10519 0
10570 -10468 10519 0
10570 10468 -10519 0
-10571 10469 10520 0
-10571 -10469 -10520 0
10571 -10469 10520 0
10571 10469 -10520 0
-10572 10470 10521 0
-10572 -10470 -10521 0
10572 -10470 10521 0
10572 10470 -10521 0
-10573 10471 10522 0
-10573 -10471 -10522 0
10573 -10471 10522 0
10573 10471 -10522 0
10568 10569 10570 10571 10572 10573 0
10516 10567 0
-10574 43 49 0
-10574 -43 -49 0
10574 -43 49 0
10574 43 -49 0
-10575 -61 67 0
-10575 61 -67 0
10575 61 67 0
10575 -61 -67 0
-10576 73 79 0
-10576 -73 -79 0
10576 -73 79 0
10576 73 -79 0
-10577 44 50 0
-10577 -44 -50 0
10577 -44 50 0
10577 44 -50 0
-10578 62 68 0
-10578 -62 -68 0
10578 -62 68 0
10578 62 -68 0
-10579 -74 80 0
-10579 74 -80 0
10579 74 80 0
10579 -74 -80 0
-10580 45 51 0
-10580 -45 -51 0
10580 -45 51 0
10580 45 -51 0
-10581 63 69 0
-10581 -63 -69 0
10581 -63 69 0
10581 63 -69 0
-10582 75 81 0
-10582 -75 -81 0
10582 -75 81 0
10582 75 -81 0
-10583 46 52 0
-10583 -46 -52 0
10583 -46 52 0
10583 46 -52 0
-10584 64 70 0
-10584 -64 -70 0
10584 -64 70 0
10584 64 -70 0
-10585 76 82 0
-10585 -76 -82 0
10585 -76 82 0
10585 76 -82 0
-10586 47 53 0
-10586 -47 -53 0
10586 -47 53 0
10586 47 -53 0
-10587 65 71 0
-10587 -65 -71 0
10587 -65 71 0
10587 65 -71 0
-10588 77 83 0
-10588 -77 -83 0
10588 -77 83 0
10588 77 -83 0
-10589 48 54 0
-10589 -48 -54 0
10589 -48 54 0
10589 48 -54 0
-10590 66 72 0
-10590 -66 -72 0
10590 -66 72 0
10590 66 -72 0
-10591 78 84 0
-10591 -78 -84 0
10591 -78 84 0
10591 78 -84 0
-10592 115 121 0
-10592 -115 -121 0
10592 -115 121 0
10592 115 -121 0
-10593 116 122 0
-10593 -116 -122 0
10593 -116 122 0
10593 116 -122 0
-10594 117 123 0
-10594 -117 -123 0
10594 -117 123 0
10594 117 -123 0
-10595 118 124 0
-10595 -118 -124 0
10595 -118 124 0
10595 118 -124 0
-10596 -119 125 0
-10596 119 -125 0
10596 119 125 0
10596 -119 -125 0
-10597 120 126 0
-10597 -120 -126 0
10597 -120 126 0
10597 120 -126 0
10598 10599 10600 10601 10602 10603 0
-10604 10600 10601 0
-10604 -10600 -10601 0
10604 -10600 10601 0
10604 10600 -10601 0
-10604 0
-10605 10598 0
-10605 10574 0
10605 -10598 -10574 0
-10606 10599 0
-10606 10577 0
10606 -10599 -10577 0
-10607 10600 0
-10607 10580 0
10607 -10600 -10580 0
-10608 10601 0
-10608 10583 0
10608 -10601 -10583 0
-10609 10602 0
-10609 10586 0
10609 -10602 -10586 0
-10610 10603 0
-10610 10589 0
10610 -10603 -10589 0
-10611 10605 10606 0
-10611 -10605 -10606 0
10611 -10605 10606 0
10611 10605 -10606 0
-10612 10611 10607 0
-10612 -10611 -10607 0
10612 -10611 10607 0
10612 10611 -10607 0
-10613 10612 10608 0
-10613 -10612 -10608 0
10613 -10612 10608 0
10613 10612 -10608 0
-10614 10613 10609 0
-10614 -10613 -10609 0
10614 -10613 10609 0
10614 10613 -10609 0
-10615 10614 10610 0
-10615 -10614 -10610 0
10615 -10614 10610 0
10615 10614 -10610 0
-10615 0
-10616 10598 0
-10616 10575 0
10616 -10598 -10575 0
-10617 10599 0
-10617 10578 0
10617 -10599 -10578 0
-10618 10600 0
-10618 10581 0
10618 -10600 -10581 0
-10619 10601 0
-10619 10584 0
10619 -10601 -10584 0
-10620 10602 0
-10620 10587 0
10620 -10602 -10587 0
-10621 10603 0
-10621 10590 0
10621 -10603 -10590 0
-10622 10616 10617 0
-10622 -10616 -10617 0
10622 -10616 10617 0
10622 10616 -10617 0
-10623 10622 10618 0
-10623 -10622 -10618 0
10623 -10622 10618 0
10623 10622 -10618 0
-10624 10623 10619 0
-10624 -10623 -10619 0
10624 -10623 10619 0
10624 10623 -10619 0
-10625 10624 10620 0
-10625 -10624 -10620 0
10625 -10624 10620 0
10625 10624 -10620 0
-10626 10625 10621 0
-10626 -10625 -10621 0
10626 -10625 10621 0
10626 10625 -10621 0
-10626 0
-10627 10598 0
-10627 10576 0
10627 -10598 -10576 0
-10628 10599 0
-10628 10579 0
10628 -10599 -10579 0
-10629 10600 0
-10629 10582 0
10629 -10600 -10582 0
-10630 10601 0
-10630 10585 0
10630 -10601 -10585 0
-10631 10602 0
-10631 10588 0
10631 -10602 -10588 0
-10632 10603 0
-10632 10591 0
10632 -10603 -10591 0
-10633 10627 10628 0
-10633 -10627 -10628 0
10633 -10627 10628 0
10633 10627 -10628 0
-10634 10633 10629 0
-10634 -10633 -10629 0
10634 -10633 10629 0
10634 10633 -10629 0
-10635 10634 10630 0
-10635 -10634 -10630 0
10635 -10634 10630 0
10635 10634 -10630 0
-10636 10635 10631 0
-10636 -10635 -10631 0
10636 -10635 10631 0
10636 10635 -10631 0
-10637 10636 10632 0
-10637 -10636 -10632 0
10637 -10636 10632 0
10637 10636 -10632 0
-10637 0
-10600 0
-10601 0
-10638 10598 0
-10638 10592 0
10638 -10598 -10592 0
-10639 10599 0
-10639 10593 0
10639 -10599 -10593 0
-10640 10600 0
-10640 -10594 0
10640 -10600 10594 0
-10641 10601 0
-10641 -10595 0
10641 -10601 10595 0
-10642 10602 0
-10642 10596 0
10642 -10602 -10596 0
-10643 10603 0
-10643 10597 0
10643 -10603 -10597 0
-10644 10638 10639 0
-10644 -10638 -10639 0
10644 -10638 10639 0
10644 10638 -10639 0
-10645 10644 10640 0
-10645 -10644 -10640 0
10645 -10644 10640 0
10645 10644 -10640 0
-10646 10645 10641 0
-10646 -10645 -10641 0
10646 -10645 10641 0
10646 10645 -10641 0
-10647 10646 10642 0
-10647 -10646 -10642 0
10647 -10646 10642 0
10647 10646 -10642 0
-10648 10647 10643 0
-10648 -10647 -10643 0
10648 -10647 10643 0
10648 10647 -10643 0
10649 10650 10651 10652 10653 10654 0
-10655 10651 10652 0
-10655 -10651 -10652 0
10655 -10651 10652 0
10655 10651 -10652 0
-10655 0
-10656 10649 0
-10656 10574 0
10656 -10649 -10574 0
-10657 10650 0
-10657 10577 0
10657 -10650 -10577 0
-10658 10651 0
-10658 10580 0
10658 -10651 -10580 0
-10659 10652 0
-10659 10583 0
10659 -10652 -10583 0
-10660 10653 0
-10660 10586 0
10660 -10653 -10586 0
-10661 10654 0
-10661 10589 0
10661 -10654 -10589 0
-10662 10656 10657 0
-10662 -10656 -10657 0
10662 -10656 10657 0
10662 10656 -10657 0
-10663 10662 10658 0
-10663 -10662 -10658 0
10663 -10662 10658 0
10663 10662 -10658 0
-10664 10663 10659 0
-10664 -10663 -10659 0
10664 -10663 10659 0
10664 10663 -10659 0
-10665 10664 10660 0
-10665 -10664 -10660 0
10665 -10664 10660 0
10665 10664 -10660 0
-10666 10665 10661 0
-10666 -10665 -10661 0
10666 -10665 10661 0
10666 10665 -10661 0
-10666 0
-10667 10649 0
-10667 10575 0
10667 -10649 -10575 0
-10668 10650 0
-10668 10578 0
10668 -10650 -10578 0
-10669 10651 0
-10669 10581 0
10669 -10651 -10581 0
-10670 10652 0
-10670 10584 0
10670 -10652 -10584 0
-10671 10653 0
-10671 10587 0
10671 -10653 -10587 0
-10672 10654 0
-10672 10590 0
10672 -10654 -10590 0
-10673 10667 10668 0
-10673 -10667 -10668 0
10673 -10667 10668 0
10673 10667 -10668 0
-10674 10673 10669 0
-10674 -10673 -10669 0
10674 -10673 10669 0
10674 10673 -10669 0
-10675 10674 10670 0
-10675 -10674 -10670 0
10675 -10674 10670 0
10675 10674 -10670 0
-10676 10675 10671 0
-10676 -10675 -10671 0
10676 -10675 10671 0
10676 10675 -10671 0
-10677 10676 10672 0
-10677 -10676 -10672 0
10677 -10676 10672 0
10677 10676 -10672 0
-10677 0
-10678 10649 0
-10678 10576 0
10678 -10649 -10576 0
-10679 10650 0
-10679 10579 0
10679 -10650 -10579 0
-10680 10651 0
-10680 10582 0
10680 -10651 -10582 0
-10681 10652 0
-10681 10585 0
10681 -10652 -10585 0
-10682 10653 0
-10682 10588 0
10682 -10653 -10588 0
-10683 10654 0
-10683 10591 0
10683 -10654 -10591 0
-10684 10678 10679 0
-10684 -10678 -10679 0
10684 -10678 10679 0
10684 10678 -10679 0
-10685 10684 10680 0
-10685 -10684 -10680 0
10685 -10684 10680 0
10685 10684 -10680 0
-10686 10685 10681 0
-10686 -10685 -10681 0
10686 -10685 10681 0
10686 10685 -10681 0
-10687 10686 10682 0
-10687 -10686 -10682 0
10687 -10686 10682 0
10687 10686 -10682 0
-10688 10687 10683 0
-10688 -10687 -10683 0
10688 -10687 10683 0
10688 10687 -10683 0
-10688 0
-10651 0
-10652 0
-10689 10649 0
-10689 10592 0
10689 -10649 -10592 0
-10690 10650 0
-10690 10593 0
10690 -10650 -10593 0
-10691 10651 0
-10691 -10594 0
10691 -10651 10594 0
-10692 10652 0
-10692 -10595 0
10692 -10652 10595 0
-10693 10653 0
-10693 10596 0
10693 -10653 -10596 0
-10694 10654 0
-10694 10597 0
10694 -10654 -10597 0
-10695 10689 10690 0
-10695 -10689 -10690 0
10695 -10689 10690 0
10695 10689 -10690 0
-10696 10695 10691 0
-10696 -10695 -10691 0
10696 -10695 10691 0
10696 10695 -10691 0
-10697 10696 10692 0
-10697 -10696 -10692 0
10697 -10696 10692 0
10697 10696 -10692 0
-10698 10697 10693 0
-10698 -10697 -10693 0
10698 -10697 10693 0
10698 10697 -10693 0
-10699 10698 10694 0
-10699 -10698 -10694 0
10699 -10698 10694 0
10699 10698 -10694 0
-10700 10598 10649 0
-10700 -10598 -10649 0
10700 -10598 10649 0
10700 10598 -10649 0
-10701 10599 10650 0
-10701 -10599 -10650 0
10701 -10599 10650 0
10701 10599 -10650 0
-10702 10600 10651 0
-10702 -10600 -10651 0
10702 -10600 10651 0
10702 10600 -10651 0
-10703 10601 10652 0
-10703 -10601 -10652 0
10703 -10601 10652 0
10703 10601 -10652 0
-10704 10602 10653 0
-10704 -10602 -10653 0
10704 -10602 10653 0
10704 10602 -10653 0
-10705 10603 10654 0
-10705 -10603 -10654 0
10705 -10603 10654 0
10705 10603 -10654 0
10700 10701 10702 10703 10704 10705 0
10648 10699 0
-10706 43 49 0
-10706 -43 -49 0
10706 -43 49 0
10706 43 -49 0
-10707 31 61 0
-10707 -31 -61 0
10707 -31 61 0
10707 31 -61 0
-10708 10707 67 0
-10708 -10707 -67 0
10708 -10707 67 0
10708 10707 -67 0
-10709 37 73 0
-10709 -37 -73 0
10709 -37 73 0
10709 37 -73 0
-10710 10709 79 0
-10710 -10709 -79 0
10710 -10709 79 0
10710 10709 -79 0
-10711 44 50 0
-10711 -44 -50 0
10711 -44 50 0
10711 44 -50 0
-10712 32 62 0
-10712 -32 -62 0
10712 -32 62 0
10712 32 -62 0
-10713 10712 68 0
-10713 -10712 -68 0
10713 -10712 68 0
10713 10712 -68 0
-10714 38 74 0
-10714 -38 -74 0
10714 -38 74 0
10714 38 -74 0
-10715 10714 80 0
-10715 -10714 -80 0
10715 -10714 80 0
10715 10714 -80 0
-10716 45 51 0
-10716 -45 -51 0
10716 -45 51 0
10716 45 -51 0
-10717 33 63 0
-10717 -33 -63 0
10717 -33 63 0
10717 33 -63 0
-10718 10717 69 0
-10718 -10717 -69 0
10718 -10717 69 0
10718 10717 -69 0
-10719 39 75 0
-10719 -39 -75 0
10719 -39 75 0
10719 39 -75 0
-10720 10719 81 0
-10720 -10719 -81 0
10720 -10719 81 0
10720 10719 -81 0
-10721 46 52 0
-10721 -46 -52 0
10721 -46 52 0
10721 46 -52 0
-10722 34 64 0
-10722 -34 -64 0
10722 -34 64 0
10722 34 -64 0
-10723 10722 70 0
-10723 -10722 -70 0
10723 -10722 70 0
10723 10722 -70 0
-10724 40 76 0
-10724 -40 -76 0
10724 -40 76 0
10724 40 -76 0
-10725 10724 82 0
-10725 -10724 -82 0
10725 -10724 82 0
10725 10724 -82 0
-10726 47 53 0
-10726 -47 -53 0
10726 -47 53 0
10726 47 -53 0
-10727 35 65 0
-10727 -35 -65 0
10727 -35 65 0
10727 35 -65 0
-10728 10727 71 0
-10728 -10727 -71 0
10728 -10727 71 0
10728 10727 -71 0
-10729 41 77 0
-10729 -41 -77 0
10729 -41 77 0
10729 41 -77 0
-10730 10729 83 0
-10730 -10729 -83 0
10730 -10729 83 0
10730 10729 -83 0
-10731 48 54 0
-10731 -48 -54 0
10731 -48 54 0
10731 48 -54 0
-10732 36 66 0
-10732 -36 -66 0
10732 -36 66 0
10732 36 -66 0
-10733 10732 72 0
-10733 -10732 -72 0
10733 -10732 72 0
10733 10732 -72 0
-10734 42 78 0
-10734 -42 -78 0
10734 -42 78 0
10734 42 -78 0
-10735 10734 84 0
-10735 -10734 -84 0
10735 -10734 84 0
10735 10734 -84 0
-10736 97 115 0
-10736 -97 -115 0
10736 -97 115 0
10736 97 -115 0
-10737 10736 121 0
-10737 -10736 -121 0
10737 -10736 121 0
10737 10736 -121 0
-10738 10737 43 0
-10738 -10737 -43 0
10738 -10737 43 0
10738 10737 -43 0
-10739 10738 49 0
-10739 -10738 -49 0
10739 -10738 49 0
10739 10738 -49 0
-10740 98 116 0
-10740 -98 -116 0
10740 -98 116 0
10740 98 -116 0
-10741 10740 122 0
-10741 -10740 -122 0
10741 -10740 122 0
10741 10740 -122 0
-10742 10741 44 0
-10742 -10741 -44 0
10742 -10741 44 0
10742 10741 -44 0
-10743 10742 50 0
-10743 -10742 -50 0
10743 -10742 50 0
10743 10742 -50 0
-10744 99 117 0
-10744 -99 -117 0
10744 -99 117 0
10744 99 -117 0
-10745 10744 123 0
-10745 -10744 -123 0
10745 -10744 123 0
10745 10744 -123 0
-10746 10745 45 0
-10746 -10745 -45 0
10746 -10745 45 0
10746 10745 -45 0
-10747 10746 51 0
-10747 -10746 -51 0
10747 -10746 51 0
10747 10746 -51 0
-10748 100 118 0
-10748 -100 -118 0
10748 -100 118 0
10748 100 -118 0
-10749 10748 124 0
-10749 -10748 -124 0
10749 -10748 124 0
10749 10748 -124 0
-10750 10749 46 0
-10750 -10749 -46 0
10750 -10749 46 0
10750 10749 -46 0
-10751 10750 52 0
-10751 -10750 -52 0
10751 -10750 52 0
10751 10750 -52 0
-10752 119 125 0
-10752 -119 -125 0
10752 -119 125 0
10752 119 -125 0
-10753 10752 47 0
-10753 -10752 -47 0
10753 -10752 47 0
10753 10752 -47 0
-10754 10753 53 0
-10754 -10753 -53 0
10754 -10753 53 0
10754 10753 -53 0
-10755 102 120 0
-10755 -102 -120 0
10755 -102 120 0
10755 102 -120 0
-10756 10755 126 0
-10756 -10755 -126 0
10756 -10755 126 0
10756 10755 -126 0
-10757 10756 48 0
-10757 -10756 -48 0
10757 -10756 48 0
10757 10756 -48 0
-10758 10757 54 0
-10758 -10757 -54 0
10758 -10757 54 0
10758 10757 -54 0
10759 10760 10761 10762 10763 10764 0
-10765 10761 10762 0
-10765 -10761 -10762 0
10765 -10761 10762 0
10765 10761 -10762 0
-10765 0
-10766 10759 0
-10766 10706 0
10766 -10759 -10706 0
-10767 10760 0
-10767 10711 0
10767 -10760 -10711 0
-10768 10761 0
-10768 10716 0
10768 -10761 -10716 0
-10769 10762 0
-10769 10721 0
10769 -10762 -10721 0
-10770 10763 0
-10770 10726 0
10770 -10763 -10726 0
-10771 10764 0
-10771 10731 0
10771 -10764 -10731 0
-10772 10766 10767 0
-10772 -10766 -10767 0
10772 -10766 10767 0
10772 10766 -10767 0
-10773 10772 10768 0
-10773 -10772 -10768 0
10773 -10772 10768 0
10773 10772 -10768 0
-10774 10773 10769 0
-10774 -10773 -10769 0
10774 -10773 10769 0
10774 10773 -10769 0
-10775 10774 10770 0
-10775 -10774 -10770 0
10775 -10774 10770 0
10775 10774 -10770 0
-10776 10775 10771 0
-10776 -10775 -10771 0
10776 -10775 10771 0
10776 10775 -10771 0
-10776 0
-10777 10759 0
-10777 10708 0
10777 -10759 -10708 0
-10778 10760 0
-10778 10713 0
10778 -10760 -10713 0
-10779 10761 0
-10779 10718 0
10779 -10761 -10718 0
-10780 10762 0
-10780 10723 0
10780 -10762 -10723 0
-10781 10763 0
-10781 10728 0
10781 -10763 -10728 0
-10782 10764 0
-10782 10733 0
10782 -10764 -10733 0
-10783 10777 10778 0
-10783 -10777 -10778 0
10783 -10777 10778 0
10783 10777 -10778 0
-10784 10783 10779 0
-10784 -10783 -10779 0
10784 -10783 10779 0
10784 10783 -10779 0
-10785 10784 10780 0
-10785 -10784 -10780 0
10785 -10784 10780 0
10785 10784 -10780 0
-10786 10785 10781 0
-10786 -10785 -10781 0
10786 -10785 10781 0
10786 10785 -10781 0
-10787 10786 10782 0
-10787 -10786 -10782 0
10787 -10786 10782 0
10787 10786 -10782 0
-10787 0
-10788 10759 0
-10788 10710 0
10788 -10759 -10710 0
-10789 10760 0
-10789 10715 0
10789 -10760 -10715 0
-10790 10761 0
-10790 10720 0
10790 -10761 -10720 0
-10791 10762 0
-10791 10725 0
10791 -10762 -10725 0
-10792 10763 0
-10792 10730 0
10792 -10763 -10730 0
-10793 10764 0
-10793 10735 0
10793 -10764 -10735 0
-10794 10788 10789 0
-10794 -10788 -10789 0
10794 -10788 10789 0
10794 10788 -10789 0
-10795 10794 10790 0
-10795 -10794 -10790 0
10795 -10794 10790 0
10795 10794 -10790 0
-10796 10795 10791 0
-10796 -10795 -10791 0
10796 -10795 10791 0
10796 10795 -10791 0
-10797 10796 10792 0
-10797 -10796 -10792 0
10797 -10796 10792 0
10797 10796 -10792 0
-10798 10797 10793 0
-10798 -10797 -10793 0
10798 -10797 10793 0
10798 10797 -10793 0
-10798 0
-10799 10759 0
-10799 43 0
10799 -10759 -43 0
-10800 10760 0
-10800 44 0
10800 -10760 -44 0
-10801 10761 0
-10801 45 0
10801 -10761 -45 0
-10802 10762 0
-10802 46 0
10802 -10762 -46 0
-10803 10763 0
-10803 47 0
10803 -10763 -47 0
-10804 10764 0
-10804 48 0
10804 -10764 -48 0
-10805 10799 10800 0
-10805 -10799 -10800 0
10805 -10799 10800 0
10805 10799 -10800 0
-10806 10805 10801 0
-10806 -10805 -10801 0
10806 -10805 10801 0
10806 10805 -10801 0
-10807 10806 10802 0
-10807 -10806 -10802 0
10807 -10806 10802 0
10807 10806 -10802 0
-10808 10807 10803 0
-10808 -10807 -10803 0
10808 -10807 10803 0
10808 10807 -10803 0
-10809 10808 10804 0
-10809 -10808 -10804 0
10809 -10808 10804 0
10809 10808 -10804 0
-10809 0
-10810 10759 0
-10810 49 0
10810 -10759 -49 0
-10811 10760 0
-10811 50 0
10811 -10760 -50 0
-10812 10761 0
-10812 51 0
10812 -10761 -51 0
-10813 10762 0
-10813 52 0
10813 -10762 -52 0
-10814 10763 0
-10814 53 0
10814 -10763 -53 0
-10815 10764 0
-10815 54 0
10815 -10764 -54 0
-10816 10810 10811 0
-10816 -10810 -10811 0
10816 -10810 10811 0
10816 10810 -10811 0
-10817 10816 10812 0
-10817 -10816 -10812 0
10817 -10816 10812 0
10817 10816 -10812 0
-10818 10817 10813 0
-10818 -10817 -10813 0
10818 -10817 10813 0
10818 10817 -10813 0
-10819 10818 10814 0
-10819 -10818 -10814 0
10819 -10818 10814 0
10819 10818 -10814 0
-10820 10819 10815 0
-10820 -10819 -10815 0
10820 -10819 10815 0
10820 10819 -10815 0
-10820 0
-10821 10759 0
-10821 10739 0
10821 -10759 -10739 0
-10822 10760 0
-10822 10743 0
10822 -10760 -10743 0
-10823 10761 0
-10823 10747 0
10823 -10761 -10747 0
-10824 10762 0
-10824 10751 0
10824 -10762 -10751 0
-10825 10763 0
-10825 10754 0
10825 -10763 -10754 0
-10826 10764 0
-10826 10758 0
10826 -10764 -10758 0
-10827 10821 10822 0
-10827 -10821 -10822 0
10827 -10821 10822 0
10827 10821 -10822 0
-10828 10827 10823 0
-10828 -10827 -10823 0
10828 -10827 10823 0
10828 10827 -10823 0
-10829 10828 10824 0
-10829 -10828 -10824 0
10829 -10828 10824 0
10829 10828 -10824 0
-10830 10829 10825 0
-10830 -10829 -10825 0
10830 -10829 10825 0
10830 10829 -10825 0
-10831 10830 10826 0
-10831 -10830 -10826 0
10831 -10830 10826 0
10831 10830 -10826 0
10832 10833 10834 10835 10836 10837 0
-10838 10834 10835 0
-10838 -10834 -10835 0
10838 -10834 10835 0
10838 10834 -10835 0
-10838 0
-10839 10832 0
-10839 10706 0
10839 -10832 -10706 0
-10840 10833 0
-10840 10711 0
10840 -10833 -10711 0
-10841 10834 0
-10841 10716 0
10841 -10834 -10716 0
-10842 10835 0
-10842 10721 0
10842 -10835 -10721 0
-10843 10836 0
-10843 10726 0
10843 -10836 -10726 0
-10844 10837 0
-10844 10731 0
10844 -10837 -10731 0
-10845 10839 10840 0
-10845 -10839 -10840 0
10845 -10839 10840 0
10845 10839 -10840 0
-10846 10845 10841 0
-10846 -10845 -10841 0
10846 -10845 10841 0
10846 10845 -10841 0
-10847 10846 10842 0
-10847 -10846 -10842 0
10847 -10846 10842 0
10847 10846 -10842 0
-10848 10847 10843 0
-10848 -10847 -10843 0
10848 -10847 10843 0
10848 10847 -10843 0
-10849 10848 10844 0
-10849 -10848 -10844 0
10849 -10848 10844 0
10849 10848 -10844 0
-10849 0
-10850 10832 0
-10850 10708 0
10850 -10832 -10708 0
-10851 10833 0
-10851 10713 0
10851 -10833 -10713 0
-10852 10834 0
-10852 10718 0
10852 -10834 -10718 0
-10853 10835 0
-10853 10723 0
10853 -10835 -10723 0
-10854 10836 0
-10854 10728 0
10854 -10836 -10728 0
-10855 10837 0
-10855 10733 0
10855 -10837 -10733 0
-10856 10850 10851 0
-10856 -10850 -10851 0
10856 -10850 10851 0
10856 10850 -10851 0
-10857 10856 10852 0
-10857 -10856 -10852 0
10857 -10856 10852 0
10857 10856 -10852 0
-10858 10857 10853 0
-10858 -10857 -10853 0
10858 -10857 10853 0
10858 10857 -10853 0
-10859 10858 10854 0
-10859 -10858 -10854 0
10859 -10858 10854 0
10859 10858 -10854 0
-10860 10859 10855 0
-10860 -10859 -10855 0
10860 -10859 10855 0
10860 10859 -10855 0
-10860 0
-10861 10832 0
-10861 10710 0
10861 -10832 -10710 0
-10862 10833 0
-10862 10715 0
10862 -10833 -10715 0
-10863 10834 0
-10863 10720 0
10863 -10834 -10720 0
-10864 10835 0
-10864 10725 0
10864 -10835 -10725 0
-10865 10836 0
-10865 10730 0
10865 -10836 -10730 0
-10866 10837 0
-10866 10735 0
10866 -10837 -10735 0
-10867 10861 10862 0
-10867 -10861 -10862 0
10867 -10861 10862 0
10867 10861 -10862 0
-10868 10867 10863 0
-10868 -10867 -10863 0
10868 -10867 10863 0
10868 10867 -10863 0
-10869 10868 10864 0
-10869 -10868 -10864 0
10869 -10868 10864 0
10869 10868 -10864 0
-10870 10869 10865 0
-10870 -10869 -10865 0
10870 -10869 10865 0
10870 10869 -10865 0
-10871 10870 10866 0
-10871 -10870 -10866 0
10871 -10870 10866 0
10871 10870 -10866 0
-10871 0
-10872 10832 0
-10872 43 0
10872 -10832 -43 0
-10873 10833 0
-10873 44 0
10873 -10833 -44 0
-10874 10834 0
-10874 45 0
10874 -10834 -45 0
-10875 10835 0
-10875 46 0
10875 -10835 -46 0
-10876 10836 0
-10876 47 0
10876 -10836 -47 0
-10877 10837 0
-10877 48 0
10877 -10837 -48 0
-10878 10872 10873 0
-10878 -10872 -10873 0
10878 -10872 10873 0
10878 10872 -10873 0
-10879 10878 10874 0
-10879 -10878 -10874 0
10879 -10878 10874 0
10879 10878 -10874 0
-10880 10879 10875 0
-10880 -10879 -10875 0
10880 -10879 10875 0
10880 10879 -10875 0
-10881 10880 10876 0
-10881 -10880 -10876 0
10881 -10880 10876 0
10881 10880 -10876 0
-10882 10881 10877 0
-10882 -10881 -10877 0
10882 -10881 10877 0
10882 10881 -10877 0
-10882 0
-10883 10832 0
-10883 49 0
10883 -10832 -49 0
-10884 10833 0
-10884 50 0
10884 -10833 -50 0
-10885 10834 0
-10885 51 0
10885 -10834 -51 0
-10886 10835 0
-10886 52 0
10886 -10835 -52 0
-10887 10836 0
-10887 53 0
10887 -10836 -53 0
-10888 10837 0
-10888 54 0
10888 -10837 -54 0
-10889 10883 10884 0
-10889 -10883 -10884 0
10889 -10883 10884 0
10889 10883 -10884 0
-10890 10889 10885 0
-10890 -10889 -10885 0
10890 -10889 10885 0
10890 10889 -10885 0
-10891 10890 10886 0
-10891 -10890 -10886 0
10891 -10890 10886 0
10891 10890 -10886 0
-10892 10891 10887 0
-10892 -10891 -10887 0
10892 -10891 10887 0
10892 10891 -10887 0
-10893 10892 10888 0
-10893 -10892 -10888 0
10893 -10892 10888 0
10893 10892 -10888 0
-10893 0
-10894 10832 0
-10894 10739 0
10894 -10832 -10739 0
-10895 10833 0
-10895 10743 0
10895 -10833 -10743 0
-10896 10834 0
-10896 10747 0
10896 -10834 -10747 0
-10897 10835 0
-10897 10751 0
10897 -10835 -10751 0
-10898 10836 0
-10898 10754 0
10898 -10836 -10754 0
-10899 10837 0
-10899 10758 0
10899 -10837 -10758 0
-10900 10894 10895 0
-10900 -10894 -10895 0
10900 -10894 10895 0
10900 10894 -10895 0
-10901 10900 10896 0
-10901 -10900 -10896 0
10901 -10900 10896 0
10901 10900 -10896 0
-10902 10901 10897 0
-10902 -10901 -10897 0
10902 -10901 10897 0
10902 10901 -10897 0
-10903 10902 10898 0
-10903 -10902 -10898 0
10903 -10902 10898 0
10903 10902 -10898 0
-10904 10903 10899 0
-10904 -10903 -10899 0
10904 -10903 10899 0
10904 10903 -10899 0
-10905 10759 10832 0
-10905 -10759 -10832 0
10905 -10759 10832 0
10905 10759 -10832 0
-10906 10760 10833 0
-10906 -10760 -10833 0
10906 -10760 10833 0
10906 10760 -10833 0
-10907 10761 10834 0
-10907 -10761 -10834 0
10907 -10761 10834 0
10907 10761 -10834 0
-10908 10762 10835 0
-10908 -10762 -10835 0
10908 -10762 10835 0
10908 10762 -10835 0
-10909 10763 10836 0
-10909 -10763 -10836 0
10909 -10763 10836 0
10909 10763 -10836 0
-10910 10764 10837 0
-10910 -10764 -10837 0
10910 -10764 10837 0
10910 10764 -10837 0
10905 10906 10907 10908 10909 10910 0
10831 10904 0
-10911 43 49 0
-10911 -43 -49 0
10911 -43 49 0
10911 43 -49 0
-10912 -31 61 0
-10912 31 -61 0
10912 31 61 0
10912 -31 -61 0
-10913 10912 67 0
-10913 -10912 -67 0
10913 -10912 67 0
10913 10912 -67 0
-10914 37 73 0
-10914 -37 -73 0
10914 -37 73 0
10914 37 -73 0
-10915 10914 79 0
-10915 -10914 -79 0
10915 -10914 79 0
10915 10914 -79 0
-10916 44 50 0
-10916 -44 -50 0
10916 -44 50 0
10916 44 -50 0
-10917 32 62 0
-10917 -32 -62 0
10917 -32 62 0
10917 32 -62 0
-10918 10917 68 0
-10918 -10917 -68 0
10918 -10917 68 0
10918 10917 -68 0
-10919 -38 74 0
-10919 38 -74 0
10919 38 74 0
10919 -38 -74 0
-10920 10919 80 0
-10920 -10919 -80 0
10920 -10919 80 0
10920 10919 -80 0
-10921 45 51 0
-10921 -45 -51 0
10921 -45 51 0
10921 45 -51 0
-10922 33 63 0
-10922 -33 -63 0
10922 -33 63 0
10922 33 -63 0
-10923 10922 69 0
-10923 -10922 -69 0
10923 -10922 69 0
10923 10922 -69 0
-10924 39 75 0
-10924 -39 -75 0
10924 -39 75 0
10924 39 -75 0
-10925 10924 81 0
-10925 -10924 -81 0
10925 -10924 81 0
10925 10924 -81 0
-10926 46 52 0
-10926 -46 -52 0
10926 -46 52 0
10926 46 -52 0
-10927 34 64 0
-10927 -34 -64 0
10927 -34 64 0
10927 34 -64 0
-10928 10927 70 0
-10928 -10927 -70 0
10928 -10927 70 0
10928 10927 -70 0
-10929 40 76 0
-10929 -40 -76 0
10929 -40 76 0
10929 40 -76 0
-10930 10929 82 0
-10930 -10929 -82 0
10930 -10929 82 0
10930 10929 -82 0
-10931 47 53 0
-10931 -47 -53 0
10931 -47 53 0
10931 47 -53 0
-10932 35 65 0
-10932 -35 -65 0
10932 -35 65 0
10932 35 -65 0
-10933 10932 71 0
-10933 -10932 -71 0
10933 -10932 71 0
10933 10932 -71 0
-10934 41 77 0
-10934 -41 -77 0
10934 -41 77 0
10934 41 -77 0
-10935 10934 83 0
-10935 -10934 -83 0
10935 -10934 83 0
10935 10934 -83 0
-10936 48 54 0
-10936 -48 -54 0
10936 -48 54 0
10936 48 -54 0
-10937 36 66 0
-10937 -36 -66 0
10937 -36 66 0
10937 36 -66 0
-10938 10937 72 0
-10938 -10937 -72 0
10938 -10937 72 0
10938 10937 -72 0
-10939 42 78 0
-10939 -42 -78 0
10939 -42 78 0
10939 42 -78 0
-10940 10939 84 0
-10940 -10939 -84 0
10940 -10939 84 0
10940 10939 -84 0
-10941 97 115 0
-10941 -97 -115 0
10941 -97 115 0
10941 97 -115 0
-10942 10941 121 0
-10942 -10941 -121 0
10942 -10941 121 0
10942 10941 -121 0
-10943 10942 43 0
-10943 -10942 -43 0
10943 -10942 43 0
10943 10942 -43 0
-10944 10943 49 0
-10944 -10943 -49 0
10944 -10943 49 0
10944 10943 -49 0
-10945 98 116 0
-10945 -98 -116 0
10945 -98 116 0
10945 98 -116 0
-10946 10945 122 0
-10946 -10945 -122 0
10946 -10945 122 0
10946 10945 -122 0
-10947 10946 44 0
-10947 -10946 -44 0
10947 -10946 44 0
10947 10946 -44 0
-10948 10947 50 0
-10948 -10947 -50 0
10948 -10947 50 0
10948 10947 -50 0
-10949 99 117 0
-10949 -99 -117 0
10949 -99 117 0
10949 99 -117 0
-10950 10949 123 0
-10950 -10949 -123 0
10950 -10949 123 0
10950 10949 -123 0
-10951 -10950 45 0
-10951 10950 -45 0
10951 10950 45 0
10951 -10950 -45 0
-10952 10951 51 0
-10952 -10951 -51 0
10952 -10951 51 0
10952 10951 -51 0
-10953 100 118 0
-10953 -100 -118 0
10953 -100 118 0
10953 100 -118 0
-10954 10953 124 0
-10954 -10953 -124 0
10954 -10953 124 0
10954 10953 -124 0
-10955 -10954 46 0
-10955 10954 -46 0
10955 10954 46 0
10955 -10954 -46 0
-10956 10955 52 0
-10956 -10955 -52 0
10956 -10955 52 0
10956 10955 -52 0
-10957 -119 125 0
-10957 119 -125 0
10957 119 125 0
10957 -119 -125 0
-10958 10957 47 0
-10958 -10957 -47 0
10958 -10957 47 0
10958 10957 -47 0
-10959 10958 53 0
-10959 -10958 -53 0
10959 -10958 53 0
10959 10958 -53 0
-10960 102 120 0
-10960 -102 -120 0
10960 -102 120 0
10960 102 -120 0
-10961 10960 126 0
-10961 -10960 -126 0
10961 -10960 126 0
10961 10960 -126 0
-10962 10961 48 0
-10962 -10961 -48 0
10962 -10961 48 0
10962 10961 -48 0
-10963 10962 54 0
-10963 -10962 -54 0
10963 -10962 54 0
10963 10962 -54 0
10964 10965 10966 10967 10968 10969 0
-10970 10966 10967 0
-10970 -10966 -10967 0
10970 -10966 10967 0
10970 10966 -10967 0
-10970 0
-10971 10964 0
-10971 10911 0
10971 -10964 -10911 0
-10972 10965 0
-10972 10916 0
10972 -10965 -10916 0
-10973 10966 0
-10973 10921 0
10973 -10966 -10921 0
-10974 10967 0
-10974 10926 0
10974 -10967 -10926 0
-10975 10968 0
-10975 10931 0
10975 -10968 -10931 0
-10976 10969 0
-10976 10936 0
10976 -10969 -10936 0
-10977 10971 10972 0
-10977 -10971 -10972 0
10977 -10971 10972 0
10977 10971 -10972 0
-10978 10977 10973 0
-10978 -10977 -10973 0
10978 -10977 10973 0
10978 10977 -10973 0
-10979 10978 10974 0
-10979 -10978 -10974 0
10979 -10978 10974 0
10979 10978 -10974 0
-10980 10979 10975 0
-10980 -10979 -10975 0
10980 -10979 10975 0
10980 10979 -10975 0
-10981 10980 10976 0
-10981 -10980 -10976 0
10981 -10980 10976 0
10981 10980 -10976 0
-10981 0
-10982 10964 0
-10982 10913 0
10982 -10964 -10913 0
-10983 10965 0
-10983 10918 0
10983 -10965 -10918 0
-10984 10966 0
-10984 10923 0
10984 -10966 -10923 0
-10985 10967 0
-10985 10928 0
10985 -10967 -10928 0
-10986 10968 0
-10986 10933 0
10986 -10968 -10933 0
-10987 10969 0
-10987 10938 0
10987 -10969 -10938 0
-10988 10982 10983 0
-10988 -10982 -10983 0
10988 -10982 10983 0
10988 10982 -10983 0
-10989 10988 10984 0
-10989 -10988 -10984 0
10989 -10988 10984 0
10989 10988 -10984 0
-10990 10989 10985 0
-10990 -10989 -10985 0
10990 -10989 10985 0
10990 10989 -10985 0
-10991 10990 10986 0
-10991 -10990 -10986 0
10991 -10990 10986 0
10991 10990 -10986 0
-10992 10991 10987 0
-10992 -10991 -10987 0
10992 -10991 10987 0
10992 10991 -10987 0
-10992 0
-10993 10964 0
-10993 10915 0
10993 -10964 -10915 0
-10994 10965 0
-10994 10920 0
10994 -10965 -10920 0
-10995 10966 0
-10995 10925 0
10995 -10966 -10925 0
-10996 10967 0
-10996 10930 0
10996 -10967 -10930 0
-10997 10968 0
-10997 10935 0
10997 -10968 -10935 0
-10998 10969 0
-10998 10940 0
10998 -10969 -10940 0
-10999 10993 10994 0
-10999 -10993 -10994 0
10999 -10993 10994 0
10999 10993 -10994 0
-11000 10999 10995 0
-11000 -10999 -10995 0
11000 -10999 10995 0
11000 10999 -10995 0
-11001 11000 10996 0
-11001 -11000 -10996 0
11001 -11000 10996 0
11001 11000 -10996 0
-11002 11001 10997 0
-11002 -11001 -10997 0
11002 -11001 10997 0
11002 11001 -10997 0
-11003 11002 10998 0
-11003 -11002 -10998 0
11003 -11002 10998 0
11003 11002 -10998 0
-11003 0
-11004 10964 0
-11004 43 0
11004 -10964 -43 0
-11005 10965 0
-11005 44 0
11005 -10965 -44 0
-11006 10966 0
-11006 -45 0
11006 -10966 45 0
-11007 10967 0
-11007 46 0
11007 -10967 -46 0
-11008 10968 0
-11008 47 0
11008 -10968 -47 0
-11009 10969 0
-11009 48 0
11009 -10969 -48 0
-11010 11004 11005 0
-11010 -11004 -11005 0
11010 -11004 11005 0
11010 11004 -11005 0
-11011 11010 11006 0
-11011 -11010 -11006 0
11011 -11010 11006 0
11011 11010 -11006 0
-11012 11011 11007 0
-11012 -11011 -11007 0
11012 -11011 11007 0
11012 11011 -11007 0
-11013 11012 11008 0
-11013 -11012 -11008 0
11013 -11012 11008 0
11013 11012 -11008 0
-11014 11013 11009 0
-11014 -11013 -11009 0
11014 -11013 11009 0
11014 11013 -11009 0
-11014 0
-11015 10964 0
-11015 49 0
11015 -10964 -49 0
-11016 10965 0
-11016 50 0
11016 -10965 -50 0
-11017 10966 0
-11017 51 0
11017 -10966 -51 0
-11018 10967 0
-11018 -52 0
11018 -10967 52 0
-11019 10968 0
-11019 53 0
11019 -10968 -53 0
-11020 10969 0
-11020 54 0
11020 -10969 -54 0
-11021 11015 11016 0
-11021 -11015 -11016 0
11021 -11015 11016 0
11021 11015 -11016 0
-11022 11021 11017 0
-11022 -11021 -11017 0
11022 -11021 11017 0
11022 11021 -11017 0
-11023 11022 11018 0
-11023 -11022 -11018 0
11023 -11022 11018 0
11023 11022 -11018 0
-11024 11023 11019 0
-11024 -11023 -11019 0
11024 -11023 11019 0
11024 11023 -11019 0
-11025 11024 11020 0
-11025 -11024 -11020 0
11025 -11024 11020 0
11025 11024 -11020 0
-11025 0
-11026 10964 0
-11026 10944 0
11026 -10964 -10944 0
-11027 10965 0
-11027 10948 0
11027 -10965 -10948 0
-11028 10966 0
-11028 10952 0
11028 -10966 -10952 0
-11029 10967 0
-11029 10956 0
11029 -10967 -10956 0
-11030 10968 0
-11030 10959 0
11030 -10968 -10959 0
-11031 10969 0
-11031 10963 0
11031 -10969 -10963 0
-11032 11026 11027 0
-11032 -11026 -11027 0
11032 -11026 11027 0
11032 11026 -11027 0
-11033 11032 11028 0
-11033 -11032 -11028 0
11033 -11032 11028 0
11033 11032 -11028 0
-11034 11033 11029 0
-11034 -11033 -11029 0
11034 -11033 11029 0
11034 11033 -11029 0
-11035 11034 11030 0
-11035 -11034 -11030 0
11035 -11034 11030 0
11035 11034 -11030 0
-11036 11035 11031 0
-11036 -11035 -11031 0
11036 -11035 11031 0
11036 11035 -11031 0
11037 11038 11039 11040 11041 11042 0
-11043 11039 11040 0
-11043 -11039 -11040 0
11043 -11039 11040 0
11043 11039 -11040 0
-11043 0
-11044 11037 0
-11044 10911 0
11044 -11037 -10911 0
-11045 11038 0
-11045 10916 0
11045 -11038 -10916 0
-11046 11039 0
-11046 10921 0
11046 -11039 -10921 0
-11047 11040 0
-11047 10926 0
11047 -11040 -10926 0
-11048 11041 0
-11048 10931 0
11048 -11041 -10931 0
-11049 11042 0
-11049 10936 0
11049 -11042 -10936 0
-11050 11044 11045 0
-11050 -11044 -11045 0
11050 -11044 11045 0
11050 11044 -11045 0
-11051 11050 11046 0
-11051 -11050 -11046 0
11051 -11050 11046 0
11051 11050 -11046 0
-11052 11051 11047 0
-11052 -11051 -11047 0
11052 -11051 11047 0
11052 11051 -11047 0
-11053 11052 11048 0
-11053 -11052 -11048 0
11053 -11052 11048 0
11053 11052 -11048 0
-11054 11053 11049 0
-11054 -11053 -11049 0
11054 -11053 11049 0
11054 11053 -11049 0
-11054 0
-11055 11037 0
-11055 10913 0
11055 -11037 -10913 0
-11056 11038 0
-11056 10918 0
11056 -11038 -10918 0
-11057 11039 0
-11057 10923 0
11057 -11039 -10923 0
-11058 11040 0
-11058 10928 0
11058 -11040 -10928 0
-11059 11041 0
-11059 10933 0
11059 -11041 -10933 0
-11060 11042 0
-11060 10938 0
11060 -11042 -10938 0
-11061 11055 11056 0
-11061 -11055 -11056 0
11061 -11055 11056 0
11061 11055 -11056 0
-11062 11061 11057 0
-11062 -11061 -11057 0
11062 -11061 11057 0
11062 11061 -11057 0
-11063 11062 11058 0
-11063 -11062 -11058 0
11063 -11062 11058 0
11063 11062 -11058 0
-11064 11063 11059 0
-11064 -11063 -11059 0
11064 -11063 11059 0
11064 11063 -11059 0
-11065 11064 11060 0
-11065 -11064 -11060 0
11065 -11064 11060 0
11065 11064 -11060 0
-11065 0
-11066 11037 0
-11066 10915 0
11066 -11037 -10915 0
-11067 11038 0
-11067 10920 0
11067 -11038 -10920 0
-11068 11039 0
-11068 10925 0
11068 -11039 -10925 0
-11069 11040 0
-11069 10930 0
11069 -11040 -10930 0
-11070 11041 0
-11070 10935 0
11070 -11041 -10935 0
-11071 11042 0
-11071 10940 0
11071 -11042 -10940 0
-11072 11066 11067 0
-11072 -11066 -11067 0
11072 -11066 11067 0
11072 11066 -11067 0
-11073 11072 11068 0
-11073 -11072 -11068 0
11073 -11072 11068 0
11073 11072 -11068 0
-11074 11073 11069 0
-11074 -11073 -11069 0
11074 -11073 11069 0
11074 11073 -11069 0
-11075 11074 11070 0
-11075 -11074 -11070 0
11075 -11074 11070 0
11075 11074 -11070 0
-11076 11075 11071 0
-11076 -11075 -11071 0
11076 -11075 11071 0
11076 11075 -11071 0
-11076 0
-11077 11037 0
-11077 43 0
11077 -11037 -43 0
-11078 11038 0
-11078 44 0
11078 -11038 -44 0
-11079 11039 0
-11079 -45 0
11079 -11039 45 0
-11080 11040 0
-11080 46 0
11080 -11040 -46 0
-11081 11041 0
-11081 47 0
11081 -11041 -47 0
-11082 11042 0
-11082 48 0
11082 -11042 -48 0
-11083 11077 11078 0
-11083 -11077 -11078 0
11083 -11077 11078 0
11083 11077 -11078 0
-11084 11083 11079 0
-11084 -11083 -11079 0
11084 -11083 11079 0
11084 11083 -11079 0
-11085 11084 11080 0
-11085 -11084 -11080 0
11085 -11084 11080 0
11085 11084 -11080 0
-11086 11085 11081 0
-11086 -11085 -11081 0
11086 -11085 11081 0
11086 11085 -11081 0
-11087 11086 11082 0
-11087 -11086 -11082 0
11087 -11086 11082 0
11087 11086 -11082 0
-11087 0
-11088 11037 0
-11088 49 0
11088 -11037 -49 0
-11089 11038 0
-11089 50 0
11089 -11038 -50 0
-11090 11039 0
-11090 51 0
11090 -11039 -51 0
-11091 11040 0
-11091 -52 0
11091 -11040 52 0
-11092 11041 0
-11092 53 0
11092 -11041 -53 0
-11093 11042 0
-11093 54 0
11093 -11042 -54 0
-11094 11088 11089 0
-11094 -11088 -11089 0
11094 -11088 11089 0
11094 11088 -11089 0
-11095 11094 11090 0
-11095 -11094 -11090 0
11095 -11094 11090 0
11095 11094 -11090 0
-11096 11095 11091 0
-11096 -11095 -11091 0
11096 -11095 11091 0
11096 11095 -11091 0
-11097 11096 11092 0
-11097 -11096 -11092 0
11097 -11096 11092 0
11097 11096 -11092 0
-11098 11097 11093 0
-11098 -11097 -11093 0
11098 -11097 11093 0
11098 11097 -11093 0
-11098 0
-11099 11037 0
-11099 10944 0
11099 -11037 -10944 0
-11100 11038 0
-11100 10948 0
11100 -11038 -10948 0
-11101 11039 0
-11101 10952 0
11101 -11039 -10952 0
-11102 11040 0
-11102 10956 0
11102 -11040 -10956 0
-11103 11041 0
-11103 10959 0
11103 -11041 -10959 0
-11104 11042 0
-11104 10963 0
11104 -11042 -10963 0
-11105 11099 11100 0
-11105 -11099 -11100 0
11105 -11099 11100 0
11105 11099 -11100 0
-11106 11105 11101 0
-11106 -11105 -11101 0
11106 -11105 11101 0
11106 11105 -11101 0
-11107 11106 11102 0
-11107 -11106 -11102 0
11107 -11106 11102 0
11107 11106 -11102 0
-11108 11107 11103 0
-11108 -11107 -11103 0
11108 -11107 11103 0
11108 11107 -11103 0
-11109 11108 11104 0
-11109 -11108 -11104 0
11109 -11108 11104 0
11109 11108 -11104 0
-11110 10964 11037 0
-11110 -10964 -11037 0
11110 -10964 11037 0
11110 10964 -11037 0
-11111 10965 11038 0
-11111 -10965 -11038 0
11111 -10965 11038 0
11111 10965 -11038 0
-11112 10966 11039 0
-11112 -10966 -11039 0
11112 -10966 11039 0
11112 10966 -11039 0
-11113 10967 11040 0
-11113 -10967 -11040 0
11113 -10967 11040 0
11113 10967 -11040 0
-11114 10968 11041 0
-11114 -10968 -11041 0
11114 -10968 11041 0
11114 10968 -11041 0
-11115 10969 11042 0
-11115 -10969 -11042 0
11115 -10969 11042 0
11115 10969 -11042 0
11110 11111 11112 11113 11114 11115 0
11036 11109 0
-11116 31 43 0
-11116 -31 -43 0
11116 -31 43 0
11116 31 -43 0
-11117 11116 49 0
-11117 -11116 -49 0
11117 -11116 49 0
11117 11116 -49 0
-11118 61 67 0
-11118 -61 -67 0
11118 -61 67 0
11118 61 -67 0
-11119 73 79 0
-11119 -73 -79 0
11119 -73 79 0
11119 73 -79 0
-11120 32 44 0
-11120 -32 -44 0
11120 -32 44 0
11120 32 -44 0
-11121 11120 50 0
-11121 -11120 -50 0
11121 -11120 50 0
11121 11120 -50 0
-11122 62 68 0
-11122 -62 -68 0
11122 -62 68 0
11122 62 -68 0
-11123 74 80 0
-11123 -74 -80 0
11123 -74 80 0
11123 74 -80 0
-11124 33 45 0
-11124 -33 -45 0
11124 -33 45 0
11124 33 -45 0
-11125 11124 51 0
-11125 -11124 -51 0
11125 -11124 51 0
11125 11124 -51 0
-11126 63 69 0
-11126 -63 -69 0
11126 -63 69 0
11126 63 -69 0
-11127 75 81 0
-11127 -75 -81 0
11127 -75 81 0
11127 75 -81 0
-11128 34 46 0
-11128 -34 -46 0
11128 -34 46 0
11128 34 -46 0
-11129 11128 52 0
-11129 -11128 -52 0
11129 -11128 52 0
11129 11128 -52 0
-11130 64 70 0
-11130 -64 -70 0
11130 -64 70 0
11130 64 -70 0
-11131 76 82 0
-11131 -76 -82 0
11131 -76 82 0
11131 76 -82 0
-11132 35 47 0
-11132 -35 -47 0
11132 -35 47 0
11132 35 -47 0
-11133 11132 53 0
-11133 -11132 -53 0
11133 -11132 53 0
11133 11132 -53 0
-11134 65 71 0
-11134 -65 -71 0
11134 -65 71 0
11134 65 -71 0
-11135 77 83 0
-11135 -77 -83 0
11135 -77 83 0
11135 77 -83 0
-11136 36 48 0
-11136 -36 -48 0
11136 -36 48 0
11136 36 -48 0
-11137 11136 54 0
-11137 -11136 -54 0
11137 -11136 54 0
11137 11136 -54 0
-11138 66 72 0
-11138 -66 -72 0
11138 -66 72 0
11138 66 -72 0
-11139 78 84 0
-11139 -78 -84 0
11139 -78 84 0
11139 78 -84 0
-11140 103 115 0
-11140 -103 -115 0
11140 -103 115 0
11140 103 -115 0
-11141 11140 121 0
-11141 -11140 -121 0
11141 -11140 121 0
11141 11140 -121 0
-11142 11141 61 0
-11142 -11141 -61 0
11142 -11141 61 0
11142 11141 -61 0
-11143 11142 67 0
-11143 -11142 -67 0
11143 -11142 67 0
11143 11142 -67 0
-11144 104 116 0
-11144 -104 -116 0
11144 -104 116 0
11144 104 -116 0
-11145 11144 122 0
-11145 -11144 -122 0
11145 -11144 122 0
11145 11144 -122 0
-11146 11145 62 0
-11146 -11145 -62 0
11146 -11145 62 0
11146 11145 -62 0
-11147 11146 68 0
-11147 -11146 -68 0
11147 -11146 68 0
11147 11146 -68 0
-11148 105 117 0
-11148 -105 -117 0
11148 -105 117 0
11148 105 -117 0
-11149 11148 123 0
-11149 -11148 -123 0
11149 -11148 123 0
11149 11148 -123 0
-11150 11149 63 0
-11150 -11149 -63 0
11150 -11149 63 0
11150 11149 -63 0
-11151 11150 69 0
-11151 -11150 -69 0
11151 -11150 69 0
11151 11150 -69 0
-11152 106 118 0
-11152 -106 -118 0
11152 -106 118 0
11152 106 -118 0
-11153 11152 124 0
-11153 -11152 -124 0
11153 -11152 124 0
11153 11152 -124 0
-11154 11153 64 0
-11154 -11153 -64 0
11154 -11153 64 0
11154 11153 -64 0
-11155 11154 70 0
-11155 -11154 -70 0
11155 -11154 70 0
11155 11154 -70 0
-11156 107 119 0
-11156 -107 -119 0
11156 -107 119 0
11156 107 -119 0
-11157 11156 125 0
-11157 -11156 -125 0
11157 -11156 125 0
11157 11156 -125 0
-11158 11157 65 0
-11158 -11157 -65 0
11158 -11157 65 0
11158 11157 -65 0
-11159 11158 71 0
-11159 -11158 -71 0
11159 -11158 71 0
11159 11158 -71 0
-11160 108 120 0
-11160 -108 -120 0
11160 -108 120 0
11160 108 -120 0
-11161 11160 126 0
-11161 -11160 -126 0
11161 -11160 126 0
11161 11160 -126 0
-11162 11161 66 0
-11162 -11161 -66 0
11162 -11161 66 0
11162 11161 -66 0
-11163 11162 72 0
-11163 -11162 -72 0
11163 -11162 72 0
11163 11162 -72 0
11164 11165 11166 11167 11168 11169 0
-11170 11164 11166 0
-11170 -11164 -11166 0
11170 -11164 11166 0
11170 11164 -11166 0
-11171 11170 11167 0
-11171 -11170 -11167 0
11171 -11170 11167 0
11171 11170 -11167 0
-11171 0
-11172 11164 0
-11172 11117 0
11172 -11164 -11117 0
-11173 11165 0
-11173 11121 0
11173 -11165 -11121 0
-11174 11166 0
-11174 11125 0
11174 -11166 -11125 0
-11175 11167 0
-11175 11129 0
11175 -11167 -11129 0
-11176 11168 0
-11176 11133 0
11176 -11168 -11133 0
-11177 11169 0
-11177 11137 0
11177 -11169 -11137 0
-11178 11172 11173 0
-11178 -11172 -11173 0
11178 -11172 11173 0
11178 11172 -11173 0
-11179 11178 11174 0
-11179 -11178 -11174 0
11179 -11178 11174 0
11179 11178 -11174 0
-11180 11179 11175 0
-11180 -11179 -11175 0
11180 -11179 11175 0
11180 11179 -11175 0
-11181 11180 11176 0
-11181 -11180 -11176 0
11181 -11180 11176 0
11181 11180 -11176 0
-11182 11181 11177 0
-11182 -11181 -11177 0
11182 -11181 11177 0
11182 11181 -11177 0
-11182 0
-11183 11164 0
-11183 11118 0
11183 -11164 -11118 0
-11184 11165 0
-11184 11122 0
11184 -11165 -11122 0
-11185 11166 0
-11185 11126 0
11185 -11166 -11126 0
-11186 11167 0
-11186 11130 0
11186 -11167 -11130 0
-11187 11168 0
-11187 11134 0
11187 -11168 -11134 0
-11188 11169 0
-11188 11138 0
11188 -11169 -11138 0
-11189 11183 11184 0
-11189 -11183 -11184 0
11189 -11183 11184 0
11189 11183 -11184 0
-11190 11189 11185 0
-11190 -11189 -11185 0
11190 -11189 11185 0
11190 11189 -11185 0
-11191 11190 11186 0
-11191 -11190 -11186 0
11191 -11190 11186 0
11191 11190 -11186 0
-11192 11191 11187 0
-11192 -11191 -11187 0
11192 -11191 11187 0
11192 11191 -11187 0
-11193 11192 11188 0
-11193 -11192 -11188 0
11193 -11192 11188 0
11193 11192 -11188 0
-11193 0
-11194 11164 0
-11194 11119 0
11194 -11164 -11119 0
-11195 11165 0
-11195 11123 0
11195 -11165 -11123 0
-11196 11166 0
-11196 11127 0
11196 -11166 -11127 0
-11197 11167 0
-11197 11131 0
11197 -11167 -11131 0
-11198 11168 0
-11198 11135 0
11198 -11168 -11135 0
-11199 11169 0
-11199 11139 0
11199 -11169 -11139 0
-11200 11194 11195 0
-11200 -11194 -11195 0
11200 -11194 11195 0
11200 11194 -11195 0
-11201 11200 11196 0
-11201 -11200 -11196 0
11201 -11200 11196 0
11201 11200 -11196 0
-11202 11201 11197 0
-11202 -11201 -11197 0
11202 -11201 11197 0
11202 11201 -11197 0
-11203 11202 11198 0
-11203 -11202 -11198 0
11203 -11202 11198 0
11203 11202 -11198 0
-11204 11203 11199 0
-11204 -11203 -11199 0
11204 -11203 11199 0
11204 11203 -11199 0
-11204 0
-11205 11164 0
-11205 61 0
11205 -11164 -61 0
-11206 11165 0
-11206 62 0
11206 -11165 -62 0
-11207 11166 0
-11207 63 0
11207 -11166 -63 0
-11208 11167 0
-11208 64 0
11208 -11167 -64 0
-11209 11168 0
-11209 65 0
11209 -11168 -65 0
-11210 11169 0
-11210 66 0
11210 -11169 -66 0
-11211 11205 11206 0
-11211 -11205 -11206 0
11211 -11205 11206 0
11211 11205 -11206 0
-11212 11211 11207 0
-11212 -11211 -11207 0
11212 -11211 11207 0
11212 11211 -11207 0
-11213 11212 11208 0
-11213 -11212 -11208 0
11213 -11212 11208 0
11213 11212 -11208 0
-11214 11213 11209 0
-11214 -11213 -11209 0
11214 -11213 11209 0
11214 11213 -11209 0
-11215 11214 11210 0
-11215 -11214 -11210 0
11215 -11214 11210 0
11215 11214 -11210 0
-11215 0
-11216 11164 0
-11216 67 0
11216 -11164 -67 0
-11217 11165 0
-11217 68 0
11217 -11165 -68 0
-11218 11166 0
-11218 69 0
11218 -11166 -69 0
-11219 11167 0
-11219 70 0
11219 -11167 -70 0
-11220 11168 0
-11220 71 0
11220 -11168 -71 0
-11221 11169 0
-11221 72 0
11221 -11169 -72 0
-11222 11216 11217 0
-11222 -11216 -11217 0
11222 -11216 11217 0
11222 11216 -11217 0
-11223 11222 11218 0
-11223 -11222 -11218 0
11223 -11222 11218 0
11223 11222 -11218 0
-11224 11223 11219 0
-11224 -11223 -11219 0
11224 -11223 11219 0
11224 11223 -11219 0
-11225 11224 11220 0
-11225 -11224 -11220 0
11225 -11224 11220 0
11225 11224 -11220 0
-11226 11225 11221 0
-11226 -11225 -11221 0
11226 -11225 11221 0
11226 11225 -11221 0
-11226 0
-11227 11164 0
-11227 11143 0
11227 -11164 -11143 0
-11228 11165 0
-11228 11147 0
11228 -11165 -11147 0
-11229 11166 0
-11229 11151 0
11229 -11166 -11151 0
-11230 11167 0
-11230 11155 0
11230 -11167 -11155 0
-11231 11168 0
-11231 11159 0
11231 -11168 -11159 0
-11232 11169 0
-11232 11163 0
11232 -11169 -11163 0
-11233 11227 11228 0
-11233 -11227 -11228 0
11233 -11227 11228 0
11233 11227 -11228 0
-11234 11233 11229 0
-11234 -11233 -11229 0
11234 -11233 11229 0
11234 11233 -11229 0
-11235 11234 11230 0
-11235 -11234 -11230 0
11235 -11234 11230 0
11235 11234 -11230 0
-11236 11235 11231 0
-11236 -11235 -11231 0
11236 -11235 11231 0
11236 11235 -11231 0
-11237 11236 11232 0
-11237 -11236 -11232 0
11237 -11236 11232 0
11237 11236 -11232 0
11238 11239 11240 11241 11242 11243 0
-11244 11238 11240 0
-11244 -11238 -11240 0
11244 -11238 11240 0
11244 11238 -11240 0
-11245 11244 11241 0
-11245 -11244 -11241 0
11245 -11244 11241 0
11245 11244 -11241 0
-11245 0
-11246 11238 0
-11246 11117 0
11246 -11238 -11117 0
-11247 11239 0
-11247 11121 0
11247 -11239 -11121 0
-11248 11240 0
-11248 11125 0
11248 -11240 -11125 0
-11249 11241 0
-11249 11129 0
11249 -11241 -11129 0
-11250 11242 0
-11250 11133 0
11250 -11242 -11133 0
-11251 11243 0
-11251 11137 0
11251 -11243 -11137 0
-11252 11246 11247 0
-11252 -11246 -11247 0
11252 -11246 11247 0
11252 11246 -11247 0
-11253 11252 11248 0
-11253 -11252 -11248 0
11253 -11252 11248 0
11253 11252 -11248 0
-11254 11253 11249 0
-11254 -11253 -11249 0
11254 -11253 11249 0
11254 11253 -11249 0
-11255 11254 11250 0
-11255 -11254 -11250 0
11255 -11254 11250 0
11255 11254 -11250 0
-11256 11255 11251 0
-11256 -11255 -11251 0
11256 -11255 11251 0
11256 11255 -11251 0
-11256 0
-11257 11238 0
-11257 11118 0
11257 -11238 -11118 0
-11258 11239 0
-11258 11122 0
11258 -11239 -11122 0
-11259 11240 0
-11259 11126 0
11259 -11240 -11126 0
-11260 11241 0
-11260 11130 0
11260 -11241 -11130 0
-11261 11242 0
-11261 11134 0
11261 -11242 -11134 0
-11262 11243 0
-11262 11138 0
11262 -11243 -11138 0
-11263 11257 11258 0
-11263 -11257 -11258 0
11263 -11257 11258 0
11263 11257 -11258 0
-11264 11263 11259 0
-11264 -11263 -11259 0
11264 -11263 11259 0
11264 11263 -11259 0
-11265 11264 11260 0
-11265 -11264 -11260 0
11265 -11264 11260 0
11265 11264 -11260 0
-11266 11265 11261 0
-11266 -11265 -11261 0
11266 -11265 11261 0
11266 11265 -11261 0
-11267 11266 11262 0
-11267 -11266 -11262 0
11267 -11266 11262 0
11267 11266 -11262 0
-11267 0
-11268 11238 0
-11268 11119 0
11268 -11238 -11119 0
-11269 11239 0
-11269 11123 0
11269 -11239 -11123 0
-11270 11240 0
-11270 11127 0
11270 -11240 -11127 0
-11271 11241 0
-11271 11131 0
11271 -11241 -11131 0
-11272 11242 0
-11272 11135 0
11272 -11242 -11135 0
-11273 11243 0
-11273 11139 0
11273 -11243 -11139 0
-11274 11268 11269 0
-11274 -11268 -11269 0
11274 -11268 11269 0
11274 11268 -11269 0
-11275 11274 11270 0
-11275 -11274 -11270 0
11275 -11274 11270 0
11275 11274 -11270 0
-11276 11275 11271 0
-11276 -11275 -11271 0
11276 -11275 11271 0
11276 11275 -11271 0
-11277 11276 11272 0
-11277 -11276 -11272 0
11277 -11276 11272 0
11277 11276 -11272 0
-11278 11277 11273 0
-11278 -11277 -11273 0
11278 -11277 11273 0
11278 11277 -11273 0
-11278 0
-11279 11238 0
-11279 61 0
11279 -11238 -61 0
-11280 11239 0
-11280 62 0
11280 -11239 -62 0
-11281 11240 0
-11281 63 0
11281 -11240 -63 0
-11282 11241 0
-11282 64 0
11282 -11241 -64 0
-11283 11242 0
-11283 65 0
11283 -11242 -65 0
-11284 11243 0
-11284 66 0
11284 -11243 -66 0
-11285 11279 11280 0
-11285 -11279 -11280 0
11285 -11279 11280 0
11285 11279 -11280 0
-11286 11285 11281 0
-11286 -11285 -11281 0
11286 -11285 11281 0
11286 11285 -11281 0
-11287 11286 11282 0
-11287 -11286 -11282 0
11287 -11286 11282 0
11287 11286 -11282 0
-11288 11287 11283 0
-11288 -11287 -11283 0
11288 -11287 11283 0
11288 11287 -11283 0
-11289 11288 11284 0
-11289 -11288 -11284 0
11289 -11288 11284 0
11289 11288 -11284 0
-11289 0
-11290 11238 0
-11290 67 0
11290 -11238 -67 0
-11291 11239 0
-11291 68 0
11291 -11239 -68 0
-11292 11240 0
-11292 69 0
11292 -11240 -69 0
-11293 11241 0
-11293 70 0
11293 -11241 -70 0
-11294 11242 0
-11294 71 0
11294 -11242 -71 0
-11295 11243 0
-11295 72 0
11295 -11243 -72 0
-11296 11290 11291 0
-11296 -11290 -11291 0
11296 -11290 11291 0
11296 11290 -11291 0
-11297 11296 11292 0
-11297 -11296 -11292 0
11297 -11296 11292 0
11297 11296 -11292 0
-11298 11297 11293 0
-11298 -11297 -11293 0
11298 -11297 11293 0
11298 11297 -11293 0
-11299 11298 11294 0
-11299 -11298 -11294 0
11299 -11298 11294 0
11299 11298 -11294 0
-11300 11299 11295 0
-11300 -11299 -11295 0
11300 -11299 11295 0
11300 11299 -11295 0
-11300 0
-11301 11238 0
-11301 11143 0
11301 -11238 -11143 0
-11302 11239 0
-11302 11147 0
11302 -11239 -11147 0
-11303 11240 0
-11303 11151 0
11303 -11240 -11151 0
-11304 11241 0
-11304 11155 0
11304 -11241 -11155 0
-11305 11242 0
-11305 11159 0
11305 -11242 -11159 0
-11306 11243 0
-11306 11163 0
11306 -11243 -11163 0
-11307 11301 11302 0
-11307 -11301 -11302 0
11307 -11301 11302 0
11307 11301 -11302 0
-11308 11307 11303 0
-11308 -11307 -11303 0
11308 -11307 11303 0
11308 11307 -11303 0
-11309 11308 11304 0
-11309 -11308 -11304 0
11309 -11308 11304 0
11309 11308 -11304 0
-11310 11309 11305 0
-11310 -11309 -11305 0
11310 -11309 11305 0
11310 11309 -11305 0
-11311 11310 11306 0
-11311 -11310 -11306 0
11311 -11310 11306 0
11311 11310 -11306 0
-11312 11164 11238 0
-11312 -11164 -11238 0
11312 -11164 11238 0
11312 11164 -11238 0
-11313 11165 11239 0
-11313 -11165 -11239 0
11313 -11165 11239 0
11313 11165 -11239 0
-11314 11166 11240 0
-11314 -11166 -11240 0
11314 -11166 11240 0
11314 11166 -11240 0
-11315 11167 11241 0
-11315 -11167 -11241 0
11315 -11167 11241 0
11315 11167 -11241 0
-11316 11168 11242 0
-11316 -11168 -11242 0
11316 -11168 11242 0
11316 11168 -11242 0
-11317 11169 11243 0
-11317 -11169 -11243 0
11317 -11169 11243 0
11317 11169 -11243 0
11312 11313 11314 11315 11316 11317 0
11237 11311 0
-11318 31 43 0
-11318 -31 -43 0
11318 -31 43 0
11318 31 -43 0
-11319 11318 49 0
-11319 -11318 -49 0
11319 -11318 49 0
11319 11318 -49 0
-11320 -61 67 0
-11320 61 -67 0
11320 61 67 0
11320 -61 -67 0
-11321 73 79 0
-11321 -73 -79 0
11321 -73 79 0
11321 73 -79 0
-11322 32 44 0
-11322 -32 -44 0
11322 -32 44 0
11322 32 -44 0
-11323 11322 50 0
-11323 -11322 -50 0
11323 -11322 50 0
11323 11322 -50 0
-11324 62 68 0
-11324 -62 -68 0
11324 -62 68 0
11324 62 -68 0
-11325 -74 80 0
-11325 74 -80 0
11325 74 80 0
11325 -74 -80 0
-11326 33 45 0
-11326 -33 -45 0
11326 -33 45 0
11326 33 -45 0
-11327 11326 51 0
-11327 -11326 -51 0
11327 -11326 51 0
11327 11326 -51 0
-11328 63 69 0
-11328 -63 -69 0
11328 -63 69 0
11328 63 -69 0
-11329 75 81 0
-11329 -75 -81 0
11329 -75 81 0
11329 75 -81 0
-11330 34 46 0
-11330 -34 -46 0
11330 -34 46 0
11330 34 -46 0
-11331 11330 52 0
-11331 -11330 -52 0
11331 -11330 52 0
11331 11330 -52 0
-11332 64 70 0
-11332 -64 -70 0
11332 -64 70 0
11332 64 -70 0
-11333 76 82 0
-11333 -76 -82 0
11333 -76 82 0
11333 76 -82 0
-11334 35 47 0
-11334 -35 -47 0
11334 -35 47 0
11334 35 -47 0
-11335 11334 53 0
-11335 -11334 -53 0
11335 -11334 53 0
11335 11334 -53 0
-11336 65 71 0
-11336 -65 -71 0
11336 -65 71 0
11336 65 -71 0
-11337 77 83 0
-11337 -77 -83 0
11337 -77 83 0
11337 77 -83 0
-11338 36 48 0
-11338 -36 -48 0
11338 -36 48 0
11338 36 -48 0
-11339 11338 54 0
-11339 -11338 -54 0
11339 -11338 54 0
11339 11338 -54 0
-11340 66 72 0
-11340 -66 -72 0
11340 -66 72 0
11340 66 -72 0
-11341 78 84 0
-11341 -78 -84 0
11341 -78 84 0
11341 78 -84 0
-11342 103 115 0
-11342 -103 -115 0
11342 -103 115 0
11342 103 -115 0
-11343 11342 121 0
-11343 -11342 -121 0
11343 -11342 121 0
11343 11342 -121 0
-11344 -11343 61 0
-11344 11343 -61 0
11344 11343 61 0
11344 -11343 -61 0
-11345 11344 67 0
-11345 -11344 -67 0
11345 -11344 67 0
11345 11344 -67 0
-11346 104 116 0
-11346 -104 -116 0
11346 -104 116 0
11346 104 -116 0
-11347 11346 122 0
-11347 -11346 -122 0
11347 -11346 122 0
11347 11346 -122 0
-11348 11347 62 0
-11348 -11347 -62 0
11348 -11347 62 0
11348 11347 -62 0
-11349 11348 68 0
-11349 -11348 -68 0
11349 -11348 68 0
11349 11348 -68 0
-11350 105 117 0
-11350 -105 -117 0
11350 -105 117 0
11350 105 -117 0
-11351 11350 123 0
-11351 -11350 -123 0
11351 -11350 123 0
11351 11350 -123 0
-11352 -11351 63 0
-11352 11351 -63 0
11352 11351 63 0
11352 -11351 -63 0
-11353 11352 69 0
-11353 -11352 -69 0
11353 -11352 69 0
11353 11352 -69 0
-11354 106 118 0
-11354 -106 -118 0
11354 -106 118 0
11354 106 -118 0
-11355 11354 124 0
-11355 -11354 -124 0
11355 -11354 124 0
11355 11354 -124 0
-11356 -11355 64 0
-11356 11355 -64 0
11356 11355 64 0
11356 -11355 -64 0
-11357 11356 70 0
-11357 -11356 -70 0
11357 -11356 70 0
11357 11356 -70 0
-11358 -107 119 0
-11358 107 -119 0
11358 107 119 0
11358 -107 -119 0
-11359 11358 125 0
-11359 -11358 -125 0
11359 -11358 125 0
11359 11358 -125 0
-11360 11359 65 0
-11360 -11359 -65 0
11360 -11359 65 0
11360 11359 -65 0
-11361 11360 71 0
-11361 -11360 -71 0
11361 -11360 71 0
11361 11360 -71 0
-11362 108 120 0
-11362 -108 -120 0
11362 -108 120 0
11362 108 -120 0
-11363 11362 126 0
-11363 -11362 -126 0
11363 -11362 126 0
11363 11362 -126 0
-11364 11363 66 0
-11364 -11363 -66 0
11364 -11363 66 0
11364 11363 -66 0
-11365 11364 72 0
-11365 -11364 -72 0
11365 -11364 72 0
11365 11364 -72 0
11366 11367 11368 11369 11370 11371 0
-11372 11366 11368 0
-11372 -11366 -11368 0
11372 -11366 11368 0
11372 11366 -11368 0
-11373 11372 11369 0
-11373 -11372 -11369 0
11373 -11372 11369 0
11373 11372 -11369 0
-11373 0
-11374 11366 0
-11374 11319 0
11374 -11366 -11319 0
-11375 11367 0
-11375 11323 0
11375 -11367 -11323 0
-11376 11368 0
-11376 11327 0
11376 -11368 -11327 0
-11377 11369 0
-11377 11331 0
11377 -11369 -11331 0
-11378 11370 0
-11378 11335 0
11378 -11370 -11335 0
-11379 11371 0
-11379 11339 0
11379 -11371 -11339 0
-11380 11374 11375 0
-11380 -11374 -11375 0
11380 -11374 11375 0
11380 11374 -11375 0
-11381 11380 11376 0
-11381 -11380 -11376 0
11381 -11380 11376 0
11381 11380 -11376 0
-11382 11381 11377 0
-11382 -11381 -11377 0
11382 -11381 11377 0
11382 11381 -11377 0
-11383 11382 11378 0
-11383 -11382 -11378 0
11383 -11382 11378 0
11383 11382 -11378 0
-11384 11383 11379 0
-11384 -11383 -11379 0
11384 -11383 11379 0
11384 11383 -11379 0
-11384 0
-11385 11366 0
-11385 11320 0
11385 -11366 -11320 0
-11386 11367 0
-11386 11324 0
11386 -11367 -11324 0
-11387 11368 0
-11387 11328 0
11387 -11368 -11328 0
-11388 11369 0
-11388 11332 0
11388 -11369 -11332 0
-11389 11370 0
-11389 11336 0
11389 -11370 -11336 0
-11390 11371 0
-11390 11340 0
11390 -11371 -11340 0
-11391 11385 11386 0
-11391 -11385 -11386 0
11391 -11385 11386 0
11391 11385 -11386 0
-11392 11391 11387 0
-11392 -11391 -11387 0
11392 -11391 11387 0
11392 11391 -11387 0
-11393 11392 11388 0
-11393 -11392 -11388 0
11393 -11392 11388 0
11393 11392 -11388 0
-11394 11393 11389 0
-11394 -11393 -11389 0
11394 -11393 11389 0
11394 11393 -11389 0
-11395 11394 11390 0
-11395 -11394 -11390 0
11395 -11394 11390 0
11395 11394 -11390 0
-11395 0
-11396 11366 0
-11396 11321 0
11396 -11366 -11321 0
-11397 11367 0
-11397 11325 0
11397 -11367 -11325 0
-11398 11368 0
-11398 11329 0
11398 -11368 -11329 0
-11399 11369 0
-11399 11333 0
11399 -11369 -11333 0
-11400 11370 0
-11400 11337 0
11400 -11370 -11337 0
-11401 11371 0
-11401 11341 0
11401 -11371 -11341 0
-11402 11396 11397 0
-11402 -11396 -11397 0
11402 -11396 11397 0
11402 11396 -11397 0
-11403 11402 11398 0
-11403 -11402 -11398 0
11403 -11402 11398 0
11403 11402 -11398 0
-11404 11403 11399 0
-11404 -11403 -11399 0
11404 -11403 11399 0
11404 11403 -11399 0
-11405 11404 11400 0
-11405 -11404 -11400 0
11405 -11404 11400 0
11405 11404 -11400 0
-11406 11405 11401 0
-11406 -11405 -11401 0
11406 -11405 11401 0
11406 11405 -11401 0
-11406 0
-11407 11366 0
-11407 61 0
11407 -11366 -61 0
-11408 11367 0
-11408 62 0
11408 -11367 -62 0
-11409 11368 0
-11409 -63 0
11409 -11368 63 0
-11410 11369 0
-11410 64 0
11410 -11369 -64 0
-11411 11370 0
-11411 65 0
11411 -11370 -65 0
-11412 11371 0
-11412 66 0
11412 -11371 -66 0
-11413 11407 11408 0
-11413 -11407 -11408 0
11413 -11407 11408 0
11413 11407 -11408 0
-11414 11413 11409 0
-11414 -11413 -11409 0
11414 -11413 11409 0
11414 11413 -11409 0
-11415 11414 11410 0
-11415 -11414 -11410 0
11415 -11414 11410 0
11415 11414 -11410 0
-11416 11415 11411 0
-11416 -11415 -11411 0
11416 -11415 11411 0
11416 11415 -11411 0
-11417 11416 11412 0
-11417 -11416 -11412 0
11417 -11416 11412 0
11417 11416 -11412 0
-11417 0
-11418 11366 0
-11418 67 0
11418 -11366 -67 0
-11419 11367 0
-11419 68 0
11419 -11367 -68 0
-11420 11368 0
-11420 69 0
11420 -11368 -69 0
-11421 11369 0
-11421 -70 0
11421 -11369 70 0
-11422 11370 0
-11422 71 0
11422 -11370 -71 0
-11423 11371 0
-11423 72 0
11423 -11371 -72 0
-11424 11418 11419 0
-11424 -11418 -11419 0
11424 -11418 11419 0
11424 11418 -11419 0
-11425 11424 11420 0
-11425 -11424 -11420 0
11425 -11424 11420 0
11425 11424 -11420 0
-11426 11425 11421 0
-11426 -11425 -11421 0
11426 -11425 11421 0
11426 11425 -11421 0
-11427 11426 11422 0
-11427 -11426 -11422 0
11427 -11426 11422 0
11427 11426 -11422 0
-11428 11427 11423 0
-11428 -11427 -11423 0
11428 -11427 11423 0
11428 11427 -11423 0
-11428 0
-11429 11366 0
-11429 11345 0
11429 -11366 -11345 0
-11430 11367 0
-11430 11349 0
11430 -11367 -11349 0
-11431 11368 0
-11431 11353 0
11431 -11368 -11353 0
-11432 11369 0
-11432 11357 0
11432 -11369 -11357 0
-11433 11370 0
-11433 11361 0
11433 -11370 -11361 0
-11434 11371 0
-11434 11365 0
11434 -11371 -11365 0
-11435 11429 11430 0
-11435 -11429 -11430 0
11435 -11429 11430 0
11435 11429 -11430 0
-11436 11435 11431 0
-11436 -11435 -11431 0
11436 -11435 11431 0
11436 11435 -11431 0
-11437 11436 11432 0
-11437 -11436 -11432 0
11437 -11436 11432 0
11437 11436 -11432 0
-11438 11437 11433 0
-11438 -11437 -11433 0
11438 -11437 11433 0
11438 11437 -11433 0
-11439 11438 11434 0
-11439 -11438 -11434 0
11439 -11438 11434 0
11439 11438 -11434 0
11440 11441 11442 11443 11444 11445 0
-11446 11440 11442 0
-11446 -11440 -11442 0
11446 -11440 11442 0
11446 11440 -11442 0
-11447 11446 11443 0
-11447 -11446 -11443 0
11447 -11446 11443 0
11447 11446 -11443 0
-11447 0
-11448 11440 0
-11448 11319 0
11448 -11440 -11319 0
-11449 11441 0
-11449 11323 0
11449 -11441 -11323 0
-11450 11442 0
-11450 11327 0
11450 -11442 -11327 0
-11451 11443 0
-11451 11331 0
11451 -11443 -11331 0
-11452 11444 0
-11452 11335 0
11452 -11444 -11335 0
-11453 11445 0
-11453 11339 0
11453 -11445 -11339 0
-11454 11448 11449 0
-11454 -11448 -11449 0
11454 -11448 11449 0
11454 11448 -11449 0
-11455 11454 11450 0
-11455 -11454 -11450 0
11455 -11454 11450 0
11455 11454 -11450 0
-11456 11455 11451 0
-11456 -11455 -11451 0
11456 -11455 11451 0
11456 11455 -11451 0
-11457 11456 11452 0
-11457 -11456 -11452 0
11457 -11456 11452 0
11457 11456 -11452 0
-11458 11457 11453 0
-11458 -11457 -11453 0
11458 -11457 11453 0
11458 11457 -11453 0
-11458 0
-11459 11440 0
-11459 11320 0
11459 -11440 -11320 0
-11460 11441 0
-11460 11324 0
11460 -11441 -11324 0
-11461 11442 0
-11461 11328 0
11461 -11442 -11328 0
-11462 11443 0
-11462 11332 0
11462 -11443 -11332 0
-11463 11444 0
-11463 11336 0
11463 -11444 -11336 0
-11464 11445 0
-11464 11340 0
11464 -11445 -11340 0
-11465 11459 11460 0
-11465 -11459 -11460 0
11465 -11459 11460 0
11465 11459 -11460 0
-11466 11465 11461 0
-11466 -11465 -11461 0
11466 -11465 11461 0
11466 11465 -11461 0
-11467 11466 11462 0
-11467 -11466 -11462 0
11467 -11466 11462 0
11467 11466 -11462 0
-11468 11467 11463 0
-11468 -11467 -11463 0
11468 -11467 11463 0
11468 11467 -11463 0
-11469 11468 11464 0
-11469 -11468 -11464 0
11469 -11468 11464 0
11469 11468 -11464 0
-11469 0
-11470 11440 0
-11470 11321 0
11470 -11440 -11321 0
-11471 11441 0
-11471 11325 0
11471 -11441 -11325 0
-11472 11442 0
-11472 11329 0
11472 -11442 -11329 0
-11473 11443 0
-11473 11333 0
11473 -11443 -11333 0
-11474 11444 0
-11474 11337 0
11474 -11444 -11337 0
-11475 11445 0
-11475 11341 0
11475 -11445 -11341 0
-11476 11470 11471 0
-11476 -11470 -11471 0
11476 -11470 11471 0
11476 11470 -11471 0
-11477 11476 11472 0
-11477 -11476 -11472 0
11477 -11476 11472 0
11477 11476 -11472 0
-11478 11477 11473 0
-11478 -11477 -11473 0
11478 -11477 11473 0
11478 11477 -11473 0
-11479 11478 11474 0
-11479 -11478 -11474 0
11479 -11478 11474 0
11479 11478 -11474 0
-11480 11479 11475 0
-11480 -11479 -11475 0
11480 -11479 11475 0
11480 11479 -11475 0
-11480 0
-11481 11440 0
-11481 61 0
11481 -11440 -61 0
-11482 11441 0
-11482 62 0
11482 -11441 -62 0
-11483 11442 0
-11483 -63 0
11483 -11442 63 0
-11484 11443 0
-11484 64 0
11484 -11443 -64 0
-11485 11444 0
-11485 65 0
11485 -11444 -65 0
-11486 11445 0
-11486 66 0
11486 -11445 -66 0
-11487 11481 11482 0
-11487 -11481 -11482 0
11487 -11481 11482 0
11487 11481 -11482 0
-11488 11487 11483 0
-11488 -11487 -11483 0
11488 -11487 11483 0
11488 11487 -11483 0
-11489 11488 11484 0
-11489 -11488 -11484 0
11489 -11488 11484 0
11489 11488 -11484 0
-11490 11489 11485 0
-11490 -11489 -11485 0
11490 -11489 11485 0
11490 11489 -11485 0
-11491 11490 11486 0
-11491 -11490 -11486 0
11491 -11490 11486 0
11491 11490 -11486 0
-11491 0
-11492 11440 0
-11492 67 0
11492 -11440 -67 0
-11493 11441 0
-11493 68 0
11493 -11441 -68 0
-11494 11442 0
-11494 69 0
11494 -11442 -69 0
-11495 11443 0
-11495 -70 0
11495 -11443 70 0
-11496 11444 0
-11496 71 0
11496 -11444 -71 0
-11497 11445 0
-11497 72 0
11497 -11445 -72 0
-11498 11492 11493 0
-11498 -11492 -11493 0
11498 -11492 11493 0
11498 11492 -11493 0
-11499 11498 11494 0
-11499 -11498 -11494 0
11499 -11498 11494 0
11499 11498 -11494 0
-11500 11499 11495 0
-11500 -11499 -11495 0
11500 -11499 11495 0
11500 11499 -11495 0
-11501 11500 11496 0
-11501 -11500 -11496 0
11501 -11500 11496 0
11501 11500 -11496 0
-11502 11501 11497 0
-11502 -11501 -11497 0
11502 -11501 11497 0
11502 11501 -11497 0
-11502 0
-11503 11440 0
-11503 11345 0
11503 -11440 -11345 0
-11504 11441 0
-11504 11349 0
11504 -11441 -11349 0
-11505 11442 0
-11505 11353 0
11505 -11442 -11353 0
-11506 11443 0
-11506 11357 0
11506 -11443 -11357 0
-11507 11444 0
-11507 11361 0
11507 -11444 -11361 0
-11508 11445 0
-11508 11365 0
11508 -11445 -11365 0
-11509 11503 11504 0
-11509 -11503 -11504 0
11509 -11503 11504 0
11509 11503 -11504 0
-11510 11509 11505 0
-11510 -11509 -11505 0
11510 -11509 11505 0
11510 11509 -11505 0
-11511 11510 11506 0
-11511 -11510 -11506 0
11511 -11510 11506 0
11511 11510 -11506 0
-11512 11511 11507 0
-11512 -11511 -11507 0
11512 -11511 11507 0
11512 11511 -11507 0
-11513 11512 11508 0
-11513 -11512 -11508 0
11513 -11512 11508 0
11513 11512 -11508 0
-11514 11366 11440 0
-11514 -11366 -11440 0
11514 -11366 11440 0
11514 11366 -11440 0
-11515 11367 11441 0
-11515 -11367 -11441 0
11515 -11367 11441 0
11515 11367 -11441 0
-11516 11368 11442 0
-11516 -11368 -11442 0
11516 -11368 11442 0
11516 11368 -11442 0
-11517 11369 11443 0
-11517 -11369 -11443 0
11517 -11369 11443 0
11517 11369 -11443 0
-11518 11370 11444 0
-11518 -11370 -11444 0
11518 -11370 11444 0
11518 11370 -11444 0
-11519 11371 11445 0
-11519 -11371 -11445 0
11519 -11371 11445 0
11519 11371 -11445 0
11514 11515 11516 11517 11518 11519 0
11439 11513 0
-11520 31 43 0
-11520 -31 -43 0
11520 -31 43 0
11520 31 -43 0
-11521 11520 49 0
-11521 -11520 -49 0
11521 -11520 49 0
11521 11520 -49 0
-11522 31 61 0
-11522 -31 -61 0
11522 -31 61 0
11522 31 -61 0
-11523 11522 67 0
-11523 -11522 -67 0
11523 -11522 67 0
11523 11522 -67 0
-11524 37 73 0
-11524 -37 -73 0
11524 -37 73 0
11524 37 -73 0
-11525 11524 79 0
-11525 -11524 -79 0
11525 -11524 79 0
11525 11524 -79 0
-11526 43 61 0
-11526 -43 -61 0
11526 -43 61 0
11526 43 -61 0
-11527 49 67 0
-11527 -49 -67 0
11527 -49 67 0
11527 49 -67 0
-11528 32 44 0
-11528 -32 -44 0
11528 -32 44 0
11528 32 -44 0
-11529 11528 50 0
-11529 -11528 -50 0
11529 -11528 50 0
11529 11528 -50 0
-11530 32 62 0
-11530 -32 -62 0
11530 -32 62 0
11530 32 -62 0
-11531 11530 68 0
-11531 -11530 -68 0
11531 -11530 68 0
11531 11530 -68 0
-11532 38 74 0
-11532 -38 -74 0
11532 -38 74 0
11532 38 -74 0
-11533 11532 80 0
-11533 -11532 -80 0
11533 -11532 80 0
11533 11532 -80 0
-11534 44 62 0
-11534 -44 -62 0
11534 -44 62 0
11534 44 -62 0
-11535 50 68 0
-11535 -50 -68 0
11535 -50 68 0
11535 50 -68 0
-11536 33 45 0
-11536 -33 -45 0
11536 -33 45 0
11536 33 -45 0
-11537 11536 51 0
-11537 -11536 -51 0
11537 -11536 51 0
11537 11536 -51 0
-11538 33 63 0
-11538 -33 -63 0
11538 -33 63 0
11538 33 -63 0
-11539 11538 69 0
-11539 -11538 -69 0
11539 -11538 69 0
11539 11538 -69 0
-11540 39 75 0
-11540 -39 -75 0
11540 -39 75 0
11540 39 -75 0
-11541 11540 81 0
-11541 -11540 -81 0
11541 -11540 81 0
11541 11540 -81 0
-11542 45 63 0
-11542 -45 -63 0
11542 -45 63 0
11542 45 -63 0
-11543 51 69 0
-11543 -51 -69 0
11543 -51 69 0
11543 51 -69 0
-11544 34 46 0
-11544 -34 -46 0
11544 -34 46 0
11544 34 -46 0
-11545 11544 52 0
-11545 -11544 -52 0
11545 -11544 52 0
11545 11544 -52 0
-11546 34 64 0
-11546 -34 -64 0
11546 -34 64 0
11546 34 -64 0
-11547 11546 70 0
-11547 -11546 -70 0
11547 -11546 70 0
11547 11546 -70 0
-11548 40 76 0
-11548 -40 -76 0
11548 -40 76 0
11548 40 -76 0
-11549 11548 82 0
-11549 -11548 -82 0
11549 -11548 82 0
11549 11548 -82 0
-11550 46 64 0
-11550 -46 -64 0
11550 -46 64 0
11550 46 -64 0
-11551 52 70 0
-11551 -52 -70 0
11551 -52 70 0
11551 52 -70 0
-11552 35 47 0
-11552 -35 -47 0
11552 -35 47 0
11552 35 -47 0
-11553 11552 53 0
-11553 -11552 -53 0
11553 -11552 53 0
11553 11552 -53 0
-11554 35 65 0
-11554 -35 -65 0
11554 -35 65 0
11554 35 -65 0
-11555 11554 71 0
-11555 -11554 -71 0
11555 -11554 71 0
11555 11554 -71 0
-11556 41 77 0
-11556 -41 -77 0
11556 -41 77 0
11556 41 -77 0
-11557 11556 83 0
-11557 -11556 -83 0
11557 -11556 83 0
11557 11556 -83 0
-11558 47 65 0
-11558 -47 -65 0
11558 -47 65 0
11558 47 -65 0
-11559 53 71 0
-11559 -53 -71 0
11559 -53 71 0
11559 53 -71 0
-11560 36 48 0
-11560 -36 -48 0
11560 -36 48 0
11560 36 -48 0
-11561 11560 54 0
-11561 -11560 -54 0
11561 -11560 54 0
11561 11560 -54 0
-11562 36 66 0
-11562 -36 -66 0
11562 -36 66 0
11562 36 -66 0
-11563 11562 72 0
-11563 -11562 -72 0
11563 -11562 72 0
11563 11562 -72 0
-11564 42 78 0
-11564 -42 -78 0
11564 -42 78 0
11564 42 -78 0
-11565 11564 84 0
-11565 -11564 -84 0
11565 -11564 84 0
11565 11564 -84 0
-11566 48 66 0
-11566 -48 -66 0
11566 -48 66 0
11566 48 -66 0
-11567 54 72 0
-11567 -54 -72 0
11567 -54 72 0
11567 54 -72 0
-11568 97 103 0
-11568 -97 -103 0
11568 -97 103 0
11568 97 -103 0
-11569 11568 115 0
-11569 -11568 -115 0
11569 -11568 115 0
11569 11568 -115 0
-11570 11569 121 0
-11570 -11569 -121 0
11570 -11569 121 0
11570 11569 -121 0
-11571 11570 31 0
-11571 -11570 -31 0
11571 -11570 31 0
11571 11570 -31 0
-11572 11571 43 0
-11572 -11571 -43 0
11572 -11571 43 0
11572 11571 -43 0
-11573 11572 49 0
-11573 -11572 -49 0
11573 -11572 49 0
11573 11572 -49 0
-11574 11573 61 0
-11574 -11573 -61 0
11574 -11573 61 0
11574 11573 -61 0
-11575 11574 67 0
-11575 -11574 -67 0
11575 -11574 67 0
11575 11574 -67 0
-11576 98 104 0
-11576 -98 -104 0
11576 -98 104 0
11576 98 -104 0
-11577 11576 116 0
-11577 -11576 -116 0
11577 -11576 116 0
11577 11576 -116 0
-11578 11577 122 0
-11578 -11577 -122 0
11578 -11577 122 0
11578 11577 -122 0
-11579 11578 32 0
-11579 -11578 -32 0
11579 -11578 32 0
11579 11578 -32 0
-11580 11579 44 0
-11580 -11579 -44 0
11580 -11579 44 0
11580 11579 -44 0
-11581 11580 50 0
-11581 -11580 -50 0
11581 -11580 50 0
11581 11580 -50 0
-11582 11581 62 0
-11582 -11581 -62 0
11582 -11581 62 0
11582 11581 -62 0
-11583 11582 68 0
-11583 -11582 -68 0
11583 -11582 68 0
11583 11582 -68 0
-11584 99 105 0
-11584 -99 -105 0
11584 -99 105 0
11584 99 -105 0
-11585 11584 117 0
-11585 -11584 -117 0
11585 -11584 117 0
11585 11584 -117 0
-11586 11585 123 0
-11586 -11585 -123 0
11586 -11585 123 0
11586 11585 -123 0
-11587 11586 33 0
-11587 -11586 -33 0
11587 -11586 33 0
11587 11586 -33 0
-11588 11587 45 0
-11588 -11587 -45 0
11588 -11587 45 0
11588 11587 -45 0
-11589 11588 51 0
-11589 -11588 -51 0
11589 -11588 51 0
11589 11588 -51 0
-11590 11589 63 0
-11590 -11589 -63 0
11590 -11589 63 0
11590 11589 -63 0
-11591 11590 69 0
-11591 -11590 -69 0
11591 -11590 69 0
11591 11590 -69 0
-11592 100 106 0
-11592 -100 -106 0
11592 -100 106 0
11592 100 -106 0
-11593 11592 118 0
-11593 -11592 -118 0
11593 -11592 118 0
11593 11592 -118 0
-11594 11593 124 0
-11594 -11593 -124 0
11594 -11593 124 0
11594 11593 -124 0
-11595 11594 34 0
-11595 -11594 -34 0
11595 -11594 34 0
11595 11594 -34 0
-11596 11595 46 0
-11596 -11595 -46 0
11596 -11595 46 0
11596 11595 -46 0
-11597 11596 52 0
-11597 -11596 -52 0
11597 -11596 52 0
11597 11596 -52 0
-11598 11597 64 0
-11598 -11597 -64 0
11598 -11597 64 0
11598 11597 -64 0
-11599 11598 70 0
-11599 -11598 -70 0
11599 -11598 70 0
11599 11598 -70 0
-11600 107 119 0
-11600 -107 -119 0
11600 -107 119 0
11600 107 -119 0
-11601 11600 125 0
-11601 -11600 -125 0
11601 -11600 125 0
11601 11600 -125 0
-11602 11601 35 0
-11602 -11601 -35 0
11602 -11601 35 0
11602 11601 -35 0
-11603 11602 47 0
-11603 -11602 -47 0
11603 -11602 47 0
11603 11602 -47 0
-11604 11603 53 0
-11604 -11603 -53 0
11604 -11603 53 0
11604 11603 -53 0
-11605 11604 65 0
-11605 -11604 -65 0
11605 -11604 65 0
11605 11604 -65 0
-11606 11605 71 0
-11606 -11605 -71 0
11606 -11605 71 0
11606 11605 -71 0
-11607 102 108 0
-11607 -102 -108 0
11607 -102 108 0
11607 102 -108 0
-11608 11607 120 0
-11608 -11607 -120 0
11608 -11607 120 0
11608 11607 -120 0
-11609 11608 126 0
-11609 -11608 -126 0
11609 -11608 126 0
11609 11608 -126 0
-11610 11609 36 0
-11610 -11609 -36 0
11610 -11609 36 0
11610 11609 -36 0
-11611 11610 48 0
-11611 -11610 -48 0
11611 -11610 48 0
11611 11610 -48 0
-11612 11611 54 0
-11612 -11611 -54 0
11612 -11611 54 0
11612 11611 -54 0
-11613 11612 66 0
-11613 -11612 -66 0
11613 -11612 66 0
11613 11612 -66 0
-11614 11613 72 0
-11614 -11613 -72 0
11614 -11613 72 0
11614 11613 -72 0
11615 11616 11617 11618 11619 11620 0
-11621 11615 11617 0
-11621 -11615 -11617 0
11621 -11615 11617 0
11621 11615 -11617 0
-11622 11621 11618 0
-11622 -11621 -11618 0
11622 -11621 11618 0
11622 11621 -11618 0
-11622 0
-11623 11615 0
-11623 11521 0
11623 -11615 -11521 0
-11624 11616 0
-11624 11529 0
11624 -11616 -11529 0
-11625 11617 0
-11625 11537 0
11625 -11617 -11537 0
-11626 11618 0
-11626 11545 0
11626 -11618 -11545 0
-11627 11619 0
-11627 11553 0
11627 -11619 -11553 0
-11628 11620 0
-11628 11561 0
11628 -11620 -11561 0
-11629 11623 11624 0
-11629 -11623 -11624 0
11629 -11623 11624 0
11629 11623 -11624 0
-11630 11629 11625 0
-11630 -11629 -11625 0
11630 -11629 11625 0
11630 11629 -11625 0
-11631 11630 11626 0
-11631 -11630 -11626 0
11631 -11630 11626 0
11631 11630 -11626 0
-11632 11631 11627 0
-11632 -11631 -11627 0
11632 -11631 11627 0
11632 11631 -11627 0
-11633 11632 11628 0
-11633 -11632 -11628 0
11633 -11632 11628 0
11633 11632 -11628 0
-11633 0
-11634 11615 0
-11634 11523 0
11634 -11615 -11523 0
-11635 11616 0
-11635 11531 0
11635 -11616 -11531 0
-11636 11617 0
-11636 11539 0
11636 -11617 -11539 0
-11637 11618 0
-11637 11547 0
11637 -11618 -11547 0
-11638 11619 0
-11638 11555 0
11638 -11619 -11555 0
-11639 11620 0
-11639 11563 0
11639 -11620 -11563 0
-11640 11634 11635 0
-11640 -11634 -11635 0
11640 -11634 11635 0
11640 11634 -11635 0
-11641 11640 11636 0
-11641 -11640 -11636 0
11641 -11640 11636 0
11641 11640 -11636 0
-11642 11641 11637 0
-11642 -11641 -11637 0
11642 -11641 11637 0
11642 11641 -11637 0
-11643 11642 11638 0
-11643 -11642 -11638 0
11643 -11642 11638 0
11643 11642 -11638 0
-11644 11643 11639 0
-11644 -11643 -11639 0
11644 -11643 11639 0
11644 11643 -11639 0
-11644 0
-11645 11615 0
-11645 11525 0
11645 -11615 -11525 0
-11646 11616 0
-11646 11533 0
11646 -11616 -11533 0
-11647 11617 0
-11647 11541 0
11647 -11617 -11541 0
-11648 11618 0
-11648 11549 0
11648 -11618 -11549 0
-11649 11619 0
-11649 11557 0
11649 -11619 -11557 0
-11650 11620 0
-11650 11565 0
11650 -11620 -11565 0
-11651 11645 11646 0
-11651 -11645 -11646 0
11651 -11645 11646 0
11651 11645 -11646 0
-11652 11651 11647 0
-11652 -11651 -11647 0
11652 -11651 11647 0
11652 11651 -11647 0
-11653 11652 11648 0
-11653 -11652 -11648 0
11653 -11652 11648 0
11653 11652 -11648 0
-11654 11653 11649 0
-11654 -11653 -11649 0
11654 -11653 11649 0
11654 11653 -11649 0
-11655 11654 11650 0
-11655 -11654 -11650 0
11655 -11654 11650 0
11655 11654 -11650 0
-11655 0
-11656 11615 0
-11656 11526 0
11656 -11615 -11526 0
-11657 11616 0
-11657 11534 0
11657 -11616 -11534 0
-11658 11617 0
-11658 11542 0
11658 -11617 -11542 0
-11659 11618 0
-11659 11550 0
11659 -11618 -11550 0
-11660 11619 0
-11660 11558 0
11660 -11619 -11558 0
-11661 11620 0
-11661 11566 0
11661 -11620 -11566 0
-11662 11656 11657 0
-11662 -11656 -11657 0
11662 -11656 11657 0
11662 11656 -11657 0
-11663 11662 11658 0
-11663 -11662 -11658 0
11663 -11662 11658 0
11663 11662 -11658 0
-11664 11663 11659 0
-11664 -11663 -11659 0
11664 -11663 11659 0
11664 11663 -11659 0
-11665 11664 11660 0
-11665 -11664 -11660 0
11665 -11664 11660 0
11665 11664 -11660 0
-11666 11665 11661 0
-11666 -11665 -11661 0
11666 -11665 11661 0
11666 11665 -11661 0
-11666 0
-11667 11615 0
-11667 11527 0
11667 -11615 -11527 0
-11668 11616 0
-11668 11535 0
11668 -11616 -11535 0
-11669 11617 0
-11669 11543 0
11669 -11617 -11543 0
-11670 11618 0
-11670 11551 0
11670 -11618 -11551 0
-11671 11619 0
-11671 11559 0
11671 -11619 -11559 0
-11672 11620 0
-11672 11567 0
11672 -11620 -11567 0
-11673 11667 11668 0
-11673 -11667 -11668 0
11673 -11667 11668 0
11673 11667 -11668 0
-11674 11673 11669 0
-11674 -11673 -11669 0
11674 -11673 11669 0
11674 11673 -11669 0
-11675 11674 11670 0
-11675 -11674 -11670 0
11675 -11674 11670 0
11675 11674 -11670 0
-11676 11675 11671 0
-11676 -11675 -11671 0
11676 -11675 11671 0
11676 11675 -11671 0
-11677 11676 11672 0
-11677 -11676 -11672 0
11677 -11676 11672 0
11677 11676 -11672 0
-11677 0
-11678 11615 0
-11678 11575 0
11678 -11615 -11575 0
-11679 11616 0
-11679 11583 0
11679 -11616 -11583 0
-11680 11617 0
-11680 11591 0
11680 -11617 -11591 0
-11681 11618 0
-11681 11599 0
11681 -11618 -11599 0
-11682 11619 0
-11682 11606 0
11682 -11619 -11606 0
-11683 11620 0
-11683 11614 0
11683 -11620 -11614 0
-11684 11678 11679 0
-11684 -11678 -11679 0
11684 -11678 11679 0
11684 11678 -11679 0
-11685 11684 11680 0
-11685 -11684 -11680 0
11685 -11684 11680 0
11685 11684 -11680 0
-11686 11685 11681 0
-11686 -11685 -11681 0
11686 -11685 11681 0
11686 11685 -11681 0
-11687 11686 11682 0
-11687 -11686 -11682 0
11687 -11686 11682 0
11687 11686 -11682 0
-11688 11687 11683 0
-11688 -11687 -11683 0
11688 -11687 11683 0
11688 11687 -11683 0
11689 11690 11691 11692 11693 11694 0
-11695 11689 11691 0
-11695 -11689 -11691 0
11695 -11689 11691 0
11695 11689 -11691 0
-11696 11695 11692 0
-11696 -11695 -11692 0
11696 -11695 11692 0
11696 11695 -11692 0
-11696 0
-11697 11689 0
-11697 11521 0
11697 -11689 -11521 0
-11698 11690 0
-11698 11529 0
11698 -11690 -11529 0
-11699 11691 0
-11699 11537 0
11699 -11691 -11537 0
-11700 11692 0
-11700 11545 0
11700 -11692 -11545 0
-11701 11693 0
-11701 11553 0
11701 -11693 -11553 0
-11702 11694 0
-11702 11561 0
11702 -11694 -11561 0
-11703 11697 11698 0
-11703 -11697 -11698 0
11703 -11697 11698 0
11703 11697 -11698 0
-11704 11703 11699 0
-11704 -11703 -11699 0
11704 -11703 11699 0
11704 11703 -11699 0
-11705 11704 11700 0
-11705 -11704 -11700 0
11705 -11704 11700 0
11705 11704 -11700 0
-11706 11705 11701 0
-11706 -11705 -11701 0
11706 -11705 11701 0
11706 11705 -11701 0
-11707 11706 11702 0
-11707 -11706 -11702 0
11707 -11706 11702 0
11707 11706 -11702 0
-11707 0
-11708 11689 0
-11708 11523 0
11708 -11689 -11523 0
-11709 11690 0
-11709 11531 0
11709 -11690 -11531 0
-11710 11691 0
-11710 11539 0
11710 -11691 -11539 0
-11711 11692 0
-11711 11547 0
11711 -11692 -11547 0
-11712 11693 0
-11712 11555 0
11712 -11693 -11555 0
-11713 11694 0
-11713 11563 0
11713 -11694 -11563 0
-11714 11708 11709 0
-11714 -11708 -11709 0
11714 -11708 11709 0
11714 11708 -11709 0
-11715 11714 11710 0
-11715 -11714 -11710 0
11715 -11714 11710 0
11715 11714 -11710 0
-11716 11715 11711 0
-11716 -11715 -11711 0
11716 -11715 11711 0
11716 11715 -11711 0
-11717 11716 11712 0
-11717 -11716 -11712 0
11717 -11716 11712 0
11717 11716 -11712 0
-11718 11717 11713 0
-11718 -11717 -11713 0
11718 -11717 11713 0
11718 11717 -11713 0
-11718 0
-11719 11689 0
-11719 11525 0
11719 -11689 -11525 0
-11720 11690 0
-11720 11533 0
11720 -11690 -11533 0
-11721 11691 0
-11721 11541 0
11721 -11691 -11541 0
-11722 11692 0
-11722 11549 0
11722 -11692 -11549 0
-11723 11693 0
-11723 11557 0
11723 -11693 -11557 0
-11724 11694 0
-11724 11565 0
11724 -11694 -11565 0
-11725 11719 11720 0
-11725 -11719 -11720 0
11725 -11719 11720 0
11725 11719 -11720 0
-11726 11725 11721 0
-11726 -11725 -11721 0
11726 -11725 11721 0
11726 11725 -11721 0
-11727 11726 11722 0
-11727 -11726 -11722 0
11727 -11726 11722 0
11727 11726 -11722 0
-11728 11727 11723 0
-11728 -11727 -11723 0
11728 -11727 11723 0
11728 11727 -11723 0
-11729 11728 11724 0
-11729 -11728 -11724 0
11729 -11728 11724 0
11729 11728 -11724 0
-11729 0
-11730 11689 0
-11730 11526 0
11730 -11689 -11526 0
-11731 11690 0
-11731 11534 0
11731 -11690 -11534 0
-11732 11691 0
-11732 11542 0
11732 -11691 -11542 0
-11733 11692 0
-11733 11550 0
11733 -11692 -11550 0
-11734 11693 0
-11734 11558 0
11734 -11693 -11558 0
-11735 11694 0
-11735 11566 0
11735 -11694 -11566 0
-11736 11730 11731 0
-11736 -11730 -11731 0
11736 -11730 11731 0
11736 11730 -11731 0
-11737 11736 11732 0
-11737 -11736 -11732 0
11737 -11736 11732 0
11737 11736 -11732 0
-11738 11737 11733 0
-11738 -11737 -11733 0
11738 -11737 11733 0
11738 11737 -11733 0
-11739 11738 11734 0
-11739 -11738 -11734 0
11739 -11738 11734 0
11739 11738 -11734 0
-11740 11739 11735 0
-11740 -11739 -11735 0
11740 -11739 11735 0
11740 11739 -11735 0
-11740 0
-11741 11689 0
-11741 11527 0
11741 -11689 -11527 0
-11742 11690 0
-11742 11535 0
11742 -11690 -11535 0
-11743 11691 0
-11743 11543 0
11743 -11691 -11543 0
-11744 11692 0
-11744 11551 0
11744 -11692 -11551 0
-11745 11693 0
-11745 11559 0
11745 -11693 -11559 0
-11746 11694 0
-11746 11567 0
11746 -11694 -11567 0
-11747 11741 11742 0
-11747 -11741 -11742 0
11747 -11741 11742 0
11747 11741 -11742 0
-11748 11747 11743 0
-11748 -11747 -11743 0
11748 -11747 11743 0
11748 11747 -11743 0
-11749 11748 11744 0
-11749 -11748 -11744 0
11749 -11748 11744 0
11749 11748 -11744 0
-11750 11749 11745 0
-11750 -11749 -11745 0
11750 -11749 11745 0
11750 11749 -11745 0
-11751 11750 11746 0
-11751 -11750 -11746 0
11751 -11750 11746 0
11751 11750 -11746 0
-11751 0
-11752 11689 0
-11752 11575 0
11752 -11689 -11575 0
-11753 11690 0
-11753 11583 0
11753 -11690 -11583 0
-11754 11691 0
-11754 11591 0
11754 -11691 -11591 0
-11755 11692 0
-11755 11599 0
11755 -11692 -11599 0
-11756 11693 0
-11756 11606 0
11756 -11693 -11606 0
-11757 11694 0
-11757 11614 0
11757 -11694 -11614 0
-11758 11752 11753 0
-11758 -11752 -11753 0
11758 -11752 11753 0
11758 11752 -11753 0
-11759 11758 11754 0
-11759 -11758 -11754 0
11759 -11758 11754 0
11759 11758 -11754 0
-11760 11759 11755 0
-11760 -11759 -11755 0
11760 -11759 11755 0
11760 11759 -11755 0
-11761 11760 11756 0
-11761 -11760 -11756 0
11761 -11760 11756 0
11761 11760 -11756 0
-11762 11761 11757 0
-11762 -11761 -11757 0
11762 -11761 11757 0
11762 11761 -11757 0
-11763 11615 11689 0
-11763 -11615 -11689 0
11763 -11615 11689 0
11763 11615 -11689 0
-11764 11616 11690 0
-11764 -11616 -11690 0
11764 -11616 11690 0
11764 11616 -11690 0
-11765 11617 11691 0
-11765 -11617 -11691 0
11765 -11617 11691 0
11765 11617 -11691 0
-11766 11618 11692 0
-11766 -11618 -11692 0
11766 -11618 11692 0
11766 11618 -11692 0
-11767 11619 11693 0
-11767 -11619 -11693 0
11767 -11619 11693 0
11767 11619 -11693 0
-11768 11620 11694 0
-11768 -11620 -11694 0
11768 -11620 11694 0
11768 11620 -11694 0
11763 11764 11765 11766 11767 11768 0
11688 11762 0
-11769 31 43 0
-11769 -31 -43 0
11769 -31 43 0
11769 31 -43 0
-11770 11769 49 0
-11770 -11769 -49 0
11770 -11769 49 0
11770 11769 -49 0
-11771 -31 61 0
-11771 31 -61 0
11771 31 61 0
11771 -31 -61 0
-11772 11771 67 0
-11772 -11771 -67 0
11772 -11771 67 0
11772 11771 -67 0
-11773 37 73 0
-11773 -37 -73 0
11773 -37 73 0
11773 37 -73 0
-11774 11773 79 0
-11774 -11773 -79 0
11774 -11773 79 0
11774 11773 -79 0
-11775 43 61 0
-11775 -43 -61 0
11775 -43 61 0
11775 43 -61 0
-11776 49 67 0
-11776 -49 -67 0
11776 -49 67 0
11776 49 -67 0
-11777 32 44 0
-11777 -32 -44 0
11777 -32 44 0
11777 32 -44 0
-11778 11777 50 0
-11778 -11777 -50 0
11778 -11777 50 0
11778 11777 -50 0
-11779 32 62 0
-11779 -32 -62 0
11779 -32 62 0
11779 32 -62 0
-11780 11779 68 0
-11780 -11779 -68 0
11780 -11779 68 0
11780 11779 -68 0
-11781 -38 74 0
-11781 38 -74 0
11781 38 74 0
11781 -38 -74 0
-11782 11781 80 0
-11782 -11781 -80 0
11782 -11781 80 0
11782 11781 -80 0
-11783 44 62 0
-11783 -44 -62 0
11783 -44 62 0
11783 44 -62 0
-11784 50 68 0
-11784 -50 -68 0
11784 -50 68 0
11784 50 -68 0
-11785 33 45 0
-11785 -33 -45 0
11785 -33 45 0
11785 33 -45 0
-11786 11785 51 0
-11786 -11785 -51 0
11786 -11785 51 0
11786 11785 -51 0
-11787 33 63 0
-11787 -33 -63 0
11787 -33 63 0
11787 33 -63 0
-11788 11787 69 0
-11788 -11787 -69 0
11788 -11787 69 0
11788 11787 -69 0
-11789 39 75 0
-11789 -39 -75 0
11789 -39 75 0
11789 39 -75 0
-11790 11789 81 0
-11790 -11789 -81 0
11790 -11789 81 0
11790 11789 -81 0
-11791 -45 63 0
-11791 45 -63 0
11791 45 63 0
11791 -45 -63 0
-11792 51 69 0
-11792 -51 -69 0
11792 -51 69 0
11792 51 -69 0
-11793 34 46 0
-11793 -34 -46 0
11793 -34 46 0
11793 34 -46 0
-11794 11793 52 0
-11794 -11793 -52 0
11794 -11793 52 0
11794 11793 -52 0
-11795 34 64 0
-11795 -34 -64 0
11795 -34 64 0
11795 34 -64 0
-11796 11795 70 0
-11796 -11795 -70 0
11796 -11795 70 0
11796 11795 -70 0
-11797 40 76 0
-11797 -40 -76 0
11797 -40 76 0
11797 40 -76 0
-11798 11797 82 0
-11798 -11797 -82 0
11798 -11797 82 0
11798 11797 -82 0
-11799 46 64 0
-11799 -46 -64 0
11799 -46 64 0
11799 46 -64 0
-11800 -52 70 0
-11800 52 -70 0
11800 52 70 0
11800 -52 -70 0
-11801 35 47 0
-11801 -35 -47 0
11801 -35 47 0
11801 35 -47 0
-11802 11801 53 0
-11802 -11801 -53 0
11802 -11801 53 0
11802 11801 -53 0
-11803 35 65 0
-11803 -35 -65 0
11803 -35 65 0
11803 35 -65 0
-11804 11803 71 0
-11804 -11803 -71 0
11804 -11803 71 0
11804 11803 -71 0
-11805 41 77 0
-11805 -41 -77 0
11805 -41 77 0
11805 41 -77 0
-11806 11805 83 0
-11806 -11805 -83 0
11806 -11805 83 0
11806 11805 -83 0
-11807 47 65 0
-11807 -47 -65 0
11807 -47 65 0
11807 47 -65 0
-11808 53 71 0
-11808 -53 -71 0
11808 -53 71 0
11808 53 -71 0
-11809 36 48 0
-11809 -36 -48 0
11809 -36 48 0
11809 36 -48 0
-11810 11809 54 0
-11810 -11809 -54 0
11810 -11809 54 0
11810 11809 -54 0
-11811 36 66 0
-11811 -36 -66 0
11811 -36 66 0
11811 36 -66 0
-11812 11811 72 0
-11812 -11811 -72 0
11812 -11811 72 0
11812 11811 -72 0
-11813 42 78 0
-11813 -42 -78 0
11813 -42 78 0
11813 42 -78 0
-11814 11813 84 0
-11814 -11813 -84 0
11814 -11813 84 0
11814 11813 -84 0
-11815 48 66 0
-11815 -48 -66 0
11815 -48 66 0
11815 48 -66 0
-11816 54 72 0
-11816 -54 -72 0
11816 -54 72 0
11816 54 -72 0
-11817 97 103 0
-11817 -97 -103 0
11817 -97 103 0
11817 97 -103 0
-11818 11817 115 0
-11818 -11817 -115 0
11818 -11817 115 0
11818 11817 -115 0
-11819 11818 121 0
-11819 -11818 -121 0
11819 -11818 121 0
11819 11818 -121 0
-11820 -11819 31 0
-11820 11819 -31 0
11820 11819 31 0
11820 -11819 -31 0
-11821 11820 43 0
-11821 -11820 -43 0
11821 -11820 43 0
11821 11820 -43 0
-11822 11821 49 0
-11822 -11821 -49 0
11822 -11821 49 0
11822 11821 -49 0
-11823 11822 61 0
-11823 -11822 -61 0
11823 -11822 61 0
11823 11822 -61 0
-11824 11823 67 0
-11824 -11823 -67 0
11824 -11823 67 0
11824 11823 -67 0
-11825 98 104 0
-11825 -98 -104 0
11825 -98 104 0
11825 98 -104 0
-11826 11825 116 0
-11826 -11825 -116 0
11826 -11825 116 0
11826 11825 -116 0
-11827 11826 122 0
-11827 -11826 -122 0
11827 -11826 122 0
11827 11826 -122 0
-11828 11827 32 0
-11828 -11827 -32 0
11828 -11827 32 0
11828 11827 -32 0
-11829 11828 44 0
-11829 -11828 -44 0
11829 -11828 44 0
11829 11828 -44 0
-11830 11829 50 0
-11830 -11829 -50 0
11830 -11829 50 0
11830 11829 -50 0
-11831 11830 62 0
-11831 -11830 -62 0
11831 -11830 62 0
11831 11830 -62 0
-11832 11831 68 0
-11832 -11831 -68 0
11832 -11831 68 0
11832 11831 -68 0
-11833 99 105 0
-11833 -99 -105 0
11833 -99 105 0
11833 99 -105 0
-11834 11833 117 0
-11834 -11833 -117 0
11834 -11833 117 0
11834 11833 -117 0
-11835 11834 123 0
-11835 -11834 -123 0
11835 -11834 123 0
11835 11834 -123 0
-11836 -11835 33 0
-11836 11835 -33 0
11836 11835 33 0
11836 -11835 -33 0
-11837 11836 45 0
-11837 -11836 -45 0
11837 -11836 45 0
11837 11836 -45 0
-11838 11837 51 0
-11838 -11837 -51 0
11838 -11837 51 0
11838 11837 -51 0
-11839 11838 63 0
-11839 -11838 -63 0
11839 -11838 63 0
11839 11838 -63 0
-11840 11839 69 0
-11840 -11839 -69 0
11840 -11839 69 0
11840 11839 -69 0
-11841 100 106 0
-11841 -100 -106 0
11841 -100 106 0
11841 100 -106 0
-11842 11841 118 0
-11842 -11841 -118 0
11842 -11841 118 0
11842 11841 -118 0
-11843 11842 124 0
-11843 -11842 -124 0
11843 -11842 124 0
11843 11842 -124 0
-11844 -11843 34 0
-11844 11843 -34 0
11844 11843 34 0
11844 -11843 -34 0
-11845 11844 46 0
-11845 -11844 -46 0
11845 -11844 46 0
11845 11844 -46 0
-11846 11845 52 0
-11846 -11845 -52 0
11846 -11845 52 0
11846 11845 -52 0
-11847 11846 64 0
-11847 -11846 -64 0
11847 -11846 64 0
11847 11846 -64 0
-11848 11847 70 0
-11848 -11847 -70 0
11848 -11847 70 0
11848 11847 -70 0
-11849 -107 119 0
-11849 107 -119 0
11849 107 119 0
11849 -107 -119 0
-11850 11849 125 0
-11850 -11849 -125 0
11850 -11849 125 0
11850 11849 -125 0
-11851 11850 35 0
-11851 -11850 -35 0
11851 -11850 35 0
11851 11850 -35 0
-11852 11851 47 0
-11852 -11851 -47 0
11852 -11851 47 0
11852 11851 -47 0
-11853 11852 53 0
-11853 -11852 -53 0
11853 -11852 53 0
11853 11852 -53 0
-11854 11853 65 0
-11854 -11853 -65 0
11854 -11853 65 0
11854 11853 -65 0
-11855 11854 71 0
-11855 -11854 -71 0
11855 -11854 71 0
11855 11854 -71 0
-11856 102 108 0
-11856 -102 -108 0
11856 -102 108 0
11856 102 -108 0
-11857 11856 120 0
-11857 -11856 -120 0
11857 -11856 120 0
11857 11856 -120 0
-11858 11857 126 0
-11858 -11857 -126 0
11858 -11857 126 0
11858 11857 -126 0
-11859 11858 36 0
-11859 -11858 -36 0
11859 -11858 36 0
11859 11858 -36 0
-11860 11859 48 0
-11860 -11859 -48 0
11860 -11859 48 0
11860 11859 -48 0
-11861 11860 54 0
-11861 -11860 -54 0
11861 -11860 54 0
11861 11860 -54 0
-11862 11861 66 0
-11862 -11861 -66 0
11862 -11861 66 0
11862 11861 -66 0
-11863 11862 72 0
-11863 -11862 -72 0
11863 -11862 72 0
11863 11862 -72 0
11864 11865 11866 11867 11868 11869 0
-11870 11864 11866 0
-11870 -11864 -11866 0
11870 -11864 11866 0
11870 11864 -11866 0
-11871 11870 11867 0
-11871 -11870 -11867 0
11871 -11870 11867 0
11871 11870 -11867 0
-11871 0
-11872 11864 0
-11872 11770 0
11872 -11864 -11770 0
-11873 11865 0
-11873 11778 0
11873 -11865 -11778 0
-11874 11866 0
-11874 11786 0
11874 -11866 -11786 0
-11875 11867 0
-11875 11794 0
11875 -11867 -11794 0
-11876 11868 0
-11876 11802 0
11876 -11868 -11802 0
-11877 11869 0
-11877 11810 0
11877 -11869 -11810 0
-11878 11872 11873 0
-11878 -11872 -11873 0
11878 -11872 11873 0
11878 11872 -11873 0
-11879 11878 11874 0
-11879 -11878 -11874 0
11879 -11878 11874 0
11879 11878 -11874 0
-11880 11879 11875 0
-11880 -11879 -11875 0
11880 -11879 11875 0
11880 11879 -11875 0
-11881 11880 11876 0
-11881 -11880 -11876 0
11881 -11880 11876 0
11881 11880 -11876 0
-11882 11881 11877 0
-11882 -11881 -11877 0
11882 -11881 11877 0
11882 11881 -11877 0
-11882 0
-11883 11864 0
-11883 11772 0
11883 -11864 -11772 0
-11884 11865 0
-11884 11780 0
11884 -11865 -11780 0
-11885 11866 0
-11885 11788 0
11885 -11866 -11788 0
-11886 11867 0
-11886 11796 0
11886 -11867 -11796 0
-11887 11868 0
-11887 11804 0
11887 -11868 -11804 0
-11888 11869 0
-11888 11812 0
11888 -11869 -11812 0
-11889 11883 11884 0
-11889 -11883 -11884 0
11889 -11883 11884 0
11889 11883 -11884 0
-11890 11889 11885 0
-11890 -11889 -11885 0
11890 -11889 11885 0
11890 11889 -11885 0
-11891 11890 11886 0
-11891 -11890 -11886 0
11891 -11890 11886 0
11891 11890 -11886 0
-11892 11891 11887 0
-11892 -11891 -11887 0
11892 -11891 11887 0
11892 11891 -11887 0
-11893 11892 11888 0
-11893 -11892 -11888 0
11893 -11892 11888 0
11893 11892 -11888 0
-11893 0
-11894 11864 0
-11894 11774 0
11894 -11864 -11774 0
-11895 11865 0
-11895 11782 0
11895 -11865 -11782 0
-11896 11866 0
-11896 11790 0
11896 -11866 -11790 0
-11897 11867 0
-11897 11798 0
11897 -11867 -11798 0
-11898 11868 0
-11898 11806 0
11898 -11868 -11806 0
-11899 11869 0
-11899 11814 0
11899 -11869 -11814 0
-11900 11894 11895 0
-11900 -11894 -11895 0
11900 -11894 11895 0
11900 11894 -11895 0
-11901 11900 11896 0
-11901 -11900 -11896 0
11901 -11900 11896 0
11901 11900 -11896 0
-11902 11901 11897 0
-11902 -11901 -11897 0
11902 -11901 11897 0
11902 11901 -11897 0
-11903 11902 11898 0
-11903 -11902 -11898 0
11903 -11902 11898 0
11903 11902 -11898 0
-11904 11903 11899 0
-11904 -11903 -11899 0
11904 -11903 11899 0
11904 11903 -11899 0
-11904 0
-11905 11864 0
-11905 11775 0
11905 -11864 -11775 0
-11906 11865 0
-11906 11783 0
11906 -11865 -11783 0
-11907 11866 0
-11907 11791 0
11907 -11866 -11791 0
-11908 11867 0
-11908 11799 0
11908 -11867 -11799 0
-11909 11868 0
-11909 11807 0
11909 -11868 -11807 0
-11910 11869 0
-11910 11815 0
11910 -11869 -11815 0
-11911 11905 11906 0
-11911 -11905 -11906 0
11911 -11905 11906 0
11911 11905 -11906 0
-11912 11911 11907 0
-11912 -11911 -11907 0
11912 -11911 11907 0
11912 11911 -11907 0
-11913 11912 11908 0
-11913 -11912 -11908 0
11913 -11912 11908 0
11913 11912 -11908 0
-11914 11913 11909 0
-11914 -11913 -11909 0
11914 -11913 11909 0
11914 11913 -11909 0
-11915 11914 11910 0
-11915 -11914 -11910 0
11915 -11914 11910 0
11915 11914 -11910 0
-11915 0
-11916 11864 0
-11916 11776 0
11916 -11864 -11776 0
-11917 11865 0
-11917 11784 0
11917 -11865 -11784 0
-11918 11866 0
-11918 11792 0
11918 -11866 -11792 0
-11919 11867 0
-11919 11800 0
11919 -11867 -11800 0
-11920 11868 0
-11920 11808 0
11920 -11868 -11808 0
-11921 11869 0
-11921 11816 0
11921 -11869 -11816 0
-11922 11916 11917 0
-11922 -11916 -11917 0
11922 -11916 11917 0
11922 11916 -11917 0
-11923 11922 11918 0
-11923 -11922 -11918 0
11923 -11922 11918 0
11923 11922 -11918 0
-11924 11923 11919 0
-11924 -11923 -11919 0
11924 -11923 11919 0
11924 11923 -11919 0
-11925 11924 11920 0
-11925 -11924 -11920 0
11925 -11924 11920 0
11925 11924 -11920 0
-11926 11925 11921 0
-11926 -11925 -11921 0
11926 -11925 11921 0
11926 11925 -11921 0
-11926 0
-11927 11864 0
-11927 11824 0
11927 -11864 -11824 0
-11928 11865 0
-11928 11832 0
11928 -11865 -11832 0
-11929 11866 0
-11929 11840 0
11929 -11866 -11840 0
-11930 11867 0
-11930 11848 0
11930 -11867 -11848 0
-11931 11868 0
-11931 11855 0
11931 -11868 -11855 0
-11932 11869 0
-11932 11863 0
11932 -11869 -11863 0
-11933 11927 11928 0
-11933 -11927 -11928 0
11933 -11927 11928 0
11933 11927 -11928 0
-11934 11933 11929 0
-11934 -11933 -11929 0
11934 -11933 11929 0
11934 11933 -11929 0
-11935 11934 11930 0
-11935 -11934 -11930 0
11935 -11934 11930 0
11935 11934 -11930 0
-11936 11935 11931 0
-11936 -11935 -11931 0
11936 -11935 11931 0
11936 11935 -11931 0
-11937 11936 11932 0
-11937 -11936 -11932 0
11937 -11936 11932 0
11937 11936 -11932 0
11938 11939 11940 11941 11942 11943 0
-11944 11938 11940 0
-11944 -11938 -11940 0
11944 -11938 11940 0
11944 11938 -11940 0
-11945 11944 11941 0
-11945 -11944 -11941 0
11945 -11944 11941 0
11945 11944 -11941 0
-11945 0
-11946 11938 0
-11946 11770 0
11946 -11938 -11770 0
-11947 11939 0
-11947 11778 0
11947 -11939 -11778 0
-11948 11940 0
-11948 11786 0
11948 -11940 -11786 0
-11949 11941 0
-11949 11794 0
11949 -11941 -11794 0
-11950 11942 0
-11950 11802 0
11950 -11942 -11802 0
-11951 11943 0
-11951 11810 0
11951 -11943 -11810 0
-11952 11946 11947 0
-11952 -11946 -11947 0
11952 -11946 11947 0
11952 11946 -11947 0
-11953 11952 11948 0
-11953 -11952 -11948 0
11953 -11952 11948 0
11953 11952 -11948 0
-11954 11953 11949 0
-11954 -11953 -11949 0
11954 -11953 11949 0
11954 11953 -11949 0
-11955 11954 11950 0
-11955 -11954 -11950 0
11955 -11954 11950 0
11955 11954 -11950 0
-11956 11955 11951 0
-11956 -11955 -11951 0
11956 -11955 11951 0
11956 11955 -11951 0
-11956 0
-11957 11938 0
-11957 11772 0
11957 -11938 -11772 0
-11958 11939 0
-11958 11780 0
11958 -11939 -11780 0
-11959 11940 0
-11959 11788 0
11959 -11940 -11788 0
-11960 11941 0
-11960 11796 0
11960 -11941 -11796 0
-11961 11942 0
-11961 11804 0
11961 -11942 -11804 0
-11962 11943 0
-11962 11812 0
11962 -11943 -11812 0
-11963 11957 11958 0
-11963 -11957 -11958 0
11963 -11957 11958 0
11963 11957 -11958 0
-11964 11963 11959 0
-11964 -11963 -11959 0
11964 -11963 11959 0
11964 11963 -11959 0
-11965 11964 11960 0
-11965 -11964 -11960 0
11965 -11964 11960 0
11965 11964 -11960 0
-11966 11965 11961 0
-11966 -11965 -11961 0
11966 -11965 11961 0
11966 11965 -11961 0
-11967 11966 11962 0
-11967 -11966 -11962 0
11967 -11966 11962 0
11967 11966 -11962 0
-11967 0
-11968 11938 0
-11968 11774 0
11968 -11938 -11774 0
-11969 11939 0
-11969 11782 0
11969 -11939 -11782 0
-11970 11940 0
-11970 11790 0
11970 -11940 -11790 0
-11971 11941 0
-11971 11798 0
11971 -11941 -11798 0
-11972 11942 0
-11972 11806 0
11972 -11942 -11806 0
-11973 11943 0
-11973 11814 0
11973 -11943 -11814 0
-11974 11968 11969 0
-11974 -11968 -11969 0
11974 -11968 11969 0
11974 11968 -11969 0
-11975 11974 11970 0
-11975 -11974 -11970 0
11975 -11974 11970 0
11975 11974 -11970 0
-11976 11975 11971 0
-11976 -11975 -11971 0
11976 -11975 11971 0
11976 11975 -11971 0
-11977 11976 11972 0
-11977 -11976 -11972 0
11977 -11976 11972 0
11977 11976 -11972 0
-11978 11977 11973 0
-11978 -11977 -11973 0
11978 -11977 11973 0
11978 11977 -11973 0
-11978 0
-11979 11938 0
-11979 11775 0
11979 -11938 -11775 0
-11980 11939 0
-11980 11783 0
11980 -11939 -11783 0
-11981 11940 0
-11981 11791 0
11981 -11940 -11791 0
-11982 11941 0
-11982 11799 0
11982 -11941 -11799 0
-11983 11942 0
-11983 11807 0
11983 -11942 -11807 0
-11984 11943 0
-11984 11815 0
11984 -11943 -11815 0
-11985 11979 11980 0
-11985 -11979 -11980 0
11985 -11979 11980 0
11985 11979 -11980 0
-11986 11985 11981 0
-11986 -11985 -11981 0
11986 -11985 11981 0
11986 11985 -11981 0
-11987 11986 11982 0
-11987 -11986 -11982 0
11987 -11986 11982 0
11987 11986 -11982 0
-11988 11987 11983 0
-11988 -11987 -11983 0
11988 -11987 11983 0
11988 11987 -11983 0
-11989 11988 11984 0
-11989 -11988 -11984 0
11989 -11988 11984 0
11989 11988 -11984 0
-11989 0
-11990 11938 0
-11990 11776 0
11990 -11938 -11776 0
-11991 11939 0
-11991 11784 0
11991 -11939 -11784 0
-11992 11940 0
-11992 11792 0
11992 -11940 -11792 0
-11993 11941 0
-11993 11800 0
11993 -11941 -11800 0
-11994 11942 0
-11994 11808 0
11994 -11942 -11808 0
-11995 11943 0
-11995 11816 0
11995 -11943 -11816 0
-11996 11990 11991 0
-11996 -11990 -11991 0
11996 -11990 11991 0
11996 11990 -11991 0
-11997 11996 11992 0
-11997 -11996 -11992 0
11997 -11996 11992 0
11997 11996 -11992 0
-11998 11997 11993 0
-11998 -11997 -11993 0
11998 -11997 11993 0
11998 11997 -11993 0
-11999 11998 11994 0
-11999 -11998 -11994 0
11999 -11998 11994 0
11999 11998 -11994 0
-12000 11999 11995 0
-12000 -11999 -11995 0
12000 -11999 11995 0
12000 11999 -11995 0
-12000 0
-12001 11938 0
-12001 11824 0
12001 -11938 -11824 0
-12002 11939 0
-12002 11832 0
12002 -11939 -11832 0
-12003 11940 0
-12003 11840 0
12003 -11940 -11840 0
-12004 11941 0
-12004 11848 0
12004 -11941 -11848 0
-12005 11942 0
-12005 11855 0
12005 -11942 -11855 0
-12006 11943 0
-12006 11863 0
12006 -11943 -11863 0
-12007 12001 12002 0
-12007 -12001 -12002 0
12007 -12001 12002 0
12007 12001 -12002 0
-12008 12007 12003 0
-12008 -12007 -12003 0
12008 -12007 12003 0
12008 12007 -12003 0
-12009 12008 12004 0
-12009 -12008 -12004 0
12009 -12008 12004 0
12009 12008 -12004 0
-12010 12009 12005 0
-12010 -12009 -12005 0
12010 -12009 12005 0
12010 12009 -12005 0
-12011 12010 12006 0
-12011 -12010 -12006 0
12011 -12010 12006 0
12011 12010 -12006 0
-12012 11864 11938 0
-12012 -11864 -11938 0
12012 -11864 11938 0
12012 11864 -11938 0
-12013 11865 11939 0
-12013 -11865 -11939 0
12013 -11865 11939 0
12013 11865 -11939 0
-12014 11866 11940 0
-12014 -11866 -11940 0
12014 -11866 11940 0
12014 11866 -11940 0
-12015 11867 11941 0
-12015 -11867 -11941 0
12015 -11867 11941 0
12015 11867 -11941 0
-12016 11868 11942 0
-12016 -11868 -11942 0
12016 -11868 11942 0
12016 11868 -11942 0
-12017 11869 11943 0
-12017 -11869 -11943 0
12017 -11869 11943 0
12017 11869 -11943 0
12012 12013 12014 12015 12016 12017 0
11937 12011 0
-12018 37 43 0
-12018 -37 -43 0
12018 -37 43 0
12018 37 -43 0
-12019 12018 49 0
-12019 -12018 -49 0
12019 -12018 49 0
12019 12018 -49 0
-12020 61 67 0
-12020 -61 -67 0
12020 -61 67 0
12020 61 -67 0
-12021 73 79 0
-12021 -73 -79 0
12021 -73 79 0
12021 73 -79 0
-12022 38 44 0
-12022 -38 -44 0
12022 -38 44 0
12022 38 -44 0
-12023 12022 50 0
-12023 -12022 -50 0
12023 -12022 50 0
12023 12022 -50 0
-12024 62 68 0
-12024 -62 -68 0
12024 -62 68 0
12024 62 -68 0
-12025 74 80 0
-12025 -74 -80 0
12025 -74 80 0
12025 74 -80 0
-12026 39 45 0
-12026 -39 -45 0
12026 -39 45 0
12026 39 -45 0
-12027 12026 51 0
-12027 -12026 -51 0
12027 -12026 51 0
12027 12026 -51 0
-12028 63 69 0
-12028 -63 -69 0
12028 -63 69 0
12028 63 -69 0
-12029 75 81 0
-12029 -75 -81 0
12029 -75 81 0
12029 75 -81 0
-12030 40 46 0
-12030 -40 -46 0
12030 -40 46 0
12030 40 -46 0
-12031 12030 52 0
-12031 -12030 -52 0
12031 -12030 52 0
12031 12030 -52 0
-12032 64 70 0
-12032 -64 -70 0
12032 -64 70 0
12032 64 -70 0
-12033 76 82 0
-12033 -76 -82 0
12033 -76 82 0
12033 76 -82 0
-12034 41 47 0
-12034 -41 -47 0
12034 -41 47 0
12034 41 -47 0
-12035 12034 53 0
-12035 -12034 -53 0
12035 -12034 53 0
12035 12034 -53 0
-12036 65 71 0
-12036 -65 -71 0
12036 -65 71 0
12036 65 -71 0
-12037 77 83 0
-12037 -77 -83 0
12037 -77 83 0
12037 77 -83 0
-12038 42 48 0
-12038 -42 -48 0
12038 -42 48 0
12038 42 -48 0
-12039 12038 54 0
-12039 -12038 -54 0
12039 -12038 54 0
12039 12038 -54 0
-12040 66 72 0
-12040 -66 -72 0
12040 -66 72 0
12040 66 -72 0
-12041 78 84 0
-12041 -78 -84 0
12041 -78 84 0
12041 78 -84 0
-12042 109 115 0
-12042 -109 -115 0
12042 -109 115 0
12042 109 -115 0
-12043 12042 121 0
-12043 -12042 -121 0
12043 -12042 121 0
12043 12042 -121 0
-12044 12043 73 0
-12044 -12043 -73 0
12044 -12043 73 0
12044 12043 -73 0
-12045 12044 79 0
-12045 -12044 -79 0
12045 -12044 79 0
12045 12044 -79 0
-12046 110 116 0
-12046 -110 -116 0
12046 -110 116 0
12046 110 -116 0
-12047 12046 122 0
-12047 -12046 -122 0
12047 -12046 122 0
12047 12046 -122 0
-12048 12047 74 0
-12048 -12047 -74 0
12048 -12047 74 0
12048 12047 -74 0
-12049 12048 80 0
-12049 -12048 -80 0
12049 -12048 80 0
12049 12048 -80 0
-12050 111 117 0
-12050 -111 -117 0
12050 -111 117 0
12050 111 -117 0
-12051 12050 123 0
-12051 -12050 -123 0
12051 -12050 123 0
12051 12050 -123 0
-12052 12051 75 0
-12052 -12051 -75 0
12052 -12051 75 0
12052 12051 -75 0
-12053 12052 81 0
-12053 -12052 -81 0
12053 -12052 81 0
12053 12052 -81 0
-12054 112 118 0
-12054 -112 -118 0
12054 -112 118 0
12054 112 -118 0
-12055 12054 124 0
-12055 -12054 -124 0
12055 -12054 124 0
12055 12054 -124 0
-12056 12055 76 0
-12056 -12055 -76 0
12056 -12055 76 0
12056 12055 -76 0
-12057 12056 82 0
-12057 -12056 -82 0
12057 -12056 82 0
12057 12056 -82 0
-12058 113 119 0
-12058 -113 -119 0
12058 -113 119 0
12058 113 -119 0
-12059 12058 125 0
-12059 -12058 -125 0
12059 -12058 125 0
12059 12058 -125 0
-12060 12059 77 0
-12060 -12059 -77 0
12060 -12059 77 0
12060 12059 -77 0
-12061 12060 83 0
-12061 -12060 -83 0
12061 -12060 83 0
12061 12060 -83 0
-12062 114 120 0
-12062 -114 -120 0
12062 -114 120 0
12062 114 -120 0
-12063 12062 126 0
-12063 -12062 -126 0
12063 -12062 126 0
12063 12062 -126 0
-12064 12063 78 0
-12064 -12063 -78 0
12064 -12063 78 0
12064 12063 -78 0
-12065 12064 84 0
-12065 -12064 -84 0
12065 -12064 84 0
12065 12064 -84 0
12066 12067 12068 12069 12070 12071 0
-12072 12067 12068 0
-12072 -12067 -12068 0
12072 -12067 12068 0
12072 12067 -12068 0
-12073 12072 12069 0
-12073 -12072 -12069 0
12073 -12072 12069 0
12073 12072 -12069 0
-12073 0
-12074 12066 0
-12074 12019 0
12074 -12066 -12019 0
-12075 12067 0
-12075 12023 0
12075 -12067 -12023 0
-12076 12068 0
-12076 12027 0
12076 -12068 -12027 0
-12077 12069 0
-12077 12031 0
12077 -12069 -12031 0
-12078 12070 0
-12078 12035 0
12078 -12070 -12035 0
-12079 12071 0
-12079 12039 0
12079 -12071 -12039 0
-12080 12074 12075 0
-12080 -12074 -12075 0
12080 -12074 12075 0
12080 12074 -12075 0
-12081 12080 12076 0
-12081 -12080 -12076 0
12081 -12080 12076 0
12081 12080 -12076 0
-12082 12081 12077 0
-12082 -12081 -12077 0
12082 -12081 12077 0
12082 12081 -12077 0
-12083 12082 12078 0
-12083 -12082 -12078 0
12083 -12082 12078 0
12083 12082 -12078 0
-12084 12083 12079 0
-12084 -12083 -12079 0
12084 -12083 12079 0
12084 12083 -12079 0
-12084 0
-12085 12066 0
-12085 12020 0
12085 -12066 -12020 0
-12086 12067 0
-12086 12024 0
12086 -12067 -12024 0
-12087 12068 0
-12087 12028 0
12087 -12068 -12028 0
-12088 12069 0
-12088 12032 0
12088 -12069 -12032 0
-12089 12070 0
-12089 12036 0
12089 -12070 -12036 0
-12090 12071 0
-12090 12040 0
12090 -12071 -12040 0
-12091 12085 12086 0
-12091 -12085 -12086 0
12091 -12085 12086 0
12091 12085 -12086 0
-12092 12091 12087 0
-12092 -12091 -12087 0
12092 -12091 12087 0
12092 12091 -12087 0
-12093 12092 12088 0
-12093 -12092 -12088 0
12093 -12092 12088 0
12093 12092 -12088 0
-12094 12093 12089 0
-12094 -12093 -12089 0
12094 -12093 12089 0
12094 12093 -12089 0
-12095 12094 12090 0
-12095 -12094 -12090 0
12095 -12094 12090 0
12095 12094 -12090 0
-12095 0
-12096 12066 0
-12096 12021 0
12096 -12066 -12021 0
-12097 12067 0
-12097 12025 0
12097 -12067 -12025 0
-12098 12068 0
-12098 12029 0
12098 -12068 -12029 0
-12099 12069 0
-12099 12033 0
12099 -12069 -12033 0
-12100 12070 0
-12100 12037 0
12100 -12070 -12037 0
-12101 12071 0
-12101 12041 0
12101 -12071 -12041 0
-12102 12096 12097 0
-12102 -12096 -12097 0
12102 -12096 12097 0
12102 12096 -12097 0
-12103 12102 12098 0
-12103 -12102 -12098 0
12103 -12102 12098 0
12103 12102 -12098 0
-12104 12103 12099 0
-12104 -12103 -12099 0
12104 -12103 12099 0
12104 12103 -12099 0
-12105 12104 12100 0
-12105 -12104 -12100 0
12105 -12104 12100 0
12105 12104 -12100 0
-12106 12105 12101 0
-12106 -12105 -12101 0
12106 -12105 12101 0
12106 12105 -12101 0
-12106 0
-12107 12066 0
-12107 73 0
12107 -12066 -73 0
-12108 12067 0
-12108 74 0
12108 -12067 -74 0
-12109 12068 0
-12109 75 0
12109 -12068 -75 0
-12110 12069 0
-12110 76 0
12110 -12069 -76 0
-12111 12070 0
-12111 77 0
12111 -12070 -77 0
-12112 12071 0
-12112 78 0
12112 -12071 -78 0
-12113 12107 12108 0
-12113 -12107 -12108 0
12113 -12107 12108 0
12113 12107 -12108 0
-12114 12113 12109 0
-12114 -12113 -12109 0
12114 -12113 12109 0
12114 12113 -12109 0
-12115 12114 12110 0
-12115 -12114 -12110 0
12115 -12114 12110 0
12115 12114 -12110 0
-12116 12115 12111 0
-12116 -12115 -12111 0
12116 -12115 12111 0
12116 12115 -12111 0
-12117 12116 12112 0
-12117 -12116 -12112 0
12117 -12116 12112 0
12117 12116 -12112 0
-12117 0
-12118 12066 0
-12118 79 0
12118 -12066 -79 0
-12119 12067 0
-12119 80 0
12119 -12067 -80 0
-12120 12068 0
-12120 81 0
12120 -12068 -81 0
-12121 12069 0
-12121 82 0
12121 -12069 -82 0
-12122 12070 0
-12122 83 0
12122 -12070 -83 0
-12123 12071 0
-12123 84 0
12123 -12071 -84 0
-12124 12118 12119 0
-12124 -12118 -12119 0
12124 -12118 12119 0
12124 12118 -12119 0
-12125 12124 12120 0
-12125 -12124 -12120 0
12125 -12124 12120 0
12125 12124 -12120 0
-12126 12125 12121 0
-12126 -12125 -12121 0
12126 -12125 12121 0
12126 12125 -12121 0
-12127 12126 12122 0
-12127 -12126 -12122 0
12127 -12126 12122 0
12127 12126 -12122 0
-12128 12127 12123 0
-12128 -12127 -12123 0
12128 -12127 12123 0
12128 12127 -12123 0
-12128 0
-12129 12066 0
-12129 12045 0
12129 -12066 -12045 0
-12130 12067 0
-12130 12049 0
12130 -12067 -12049 0
-12131 12068 0
-12131 12053 0
12131 -12068 -12053 0
-12132 12069 0
-12132 12057 0
12132 -12069 -12057 0
-12133 12070 0
-12133 12061 0
12133 -12070 -12061 0
-12134 12071 0
-12134 12065 0
12134 -12071 -12065 0
-12135 12129 12130 0
-12135 -12129 -12130 0
12135 -12129 12130 0
12135 12129 -12130 0
-12136 12135 12131 0
-12136 -12135 -12131 0
12136 -12135 12131 0
12136 12135 -12131 0
-12137 12136 12132 0
-12137 -12136 -12132 0
12137 -12136 12132 0
12137 12136 -12132 0
-12138 12137 12133 0
-12138 -12137 -12133 0
12138 -12137 12133 0
12138 12137 -12133 0
-12139 12138 12134 0
-12139 -12138 -12134 0
12139 -12138 12134 0
12139 12138 -12134 0
12140 12141 12142 12143 12144 12145 0
-12146 12141 12142 0
-12146 -12141 -12142 0
12146 -12141 12142 0
12146 12141 -12142 0
-12147 12146 12143 0
-12147 -12146 -12143 0
12147 -12146 12143 0
12147 12146 -12143 0
-12147 0
-12148 12140 0
-12148 12019 0
12148 -12140 -12019 0
-12149 12141 0
-12149 12023 0
12149 -12141 -12023 0
-12150 12142 0
-12150 12027 0
12150 -12142 -12027 0
-12151 12143 0
-12151 12031 0
12151 -12143 -12031 0
-12152 12144 0
-12152 12035 0
12152 -12144 -12035 0
-12153 12145 0
-12153 12039 0
12153 -12145 -12039 0
-12154 12148 12149 0
-12154 -12148 -12149 0
12154 -12148 12149 0
12154 12148 -12149 0
-12155 12154 12150 0
-12155 -12154 -12150 0
12155 -12154 12150 0
12155 12154 -12150 0
-12156 12155 12151 0
-12156 -12155 -12151 0
12156 -12155 12151 0
12156 12155 -12151 0
-12157 12156 12152 0
-12157 -12156 -12152 0
12157 -12156 12152 0
12157 12156 -12152 0
-12158 12157 12153 0
-12158 -12157 -12153 0
12158 -12157 12153 0
12158 12157 -12153 0
-12158 0
-12159 12140 0
-12159 12020 0
12159 -12140 -12020 0
-12160 12141 0
-12160 12024 0
12160 -12141 -12024 0
-12161 12142 0
-12161 12028 0
12161 -12142 -12028 0
-12162 12143 0
-12162 12032 0
12162 -12143 -12032 0
-12163 12144 0
-12163 12036 0
12163 -12144 -12036 0
-12164 12145 0
-12164 12040 0
12164 -12145 -12040 0
-12165 12159 12160 0
-12165 -12159 -12160 0
12165 -12159 12160 0
12165 12159 -12160 0
-12166 12165 12161 0
-12166 -12165 -12161 0
12166 -12165 12161 0
12166 12165 -12161 0
-12167 12166 12162 0
-12167 -12166 -12162 0
12167 -12166 12162 0
12167 12166 -12162 0
-12168 12167 12163 0
-12168 -12167 -12163 0
12168 -12167 12163 0
12168 12167 -12163 0
-12169 12168 12164 0
-12169 -12168 -12164 0
12169 -12168 12164 0
12169 12168 -12164 0
-12169 0
-12170 12140 0
-12170 12021 0
12170 -12140 -12021 0
-12171 12141 0
-12171 12025 0
12171 -12141 -12025 0
-12172 12142 0
-12172 12029 0
12172 -12142 -12029 0
-12173 12143 0
-12173 12033 0
12173 -12143 -12033 0
-12174 12144 0
-12174 12037 0
12174 -12144 -12037 0
-12175 12145 0
-12175 12041 0
12175 -12145 -12041 0
-12176 12170 12171 0
-12176 -12170 -12171 0
12176 -12170 12171 0
12176 12170 -12171 0
-12177 12176 12172 0
-12177 -12176 -12172 0
12177 -12176 12172 0
12177 12176 -12172 0
-12178 12177 12173 0
-12178 -12177 -12173 0
12178 -12177 12173 0
12178 12177 -12173 0
-12179 12178 12174 0
-12179 -12178 -12174 0
12179 -12178 12174 0
12179 12178 -12174 0
-12180 12179 12175 0
-12180 -12179 -12175 0
12180 -12179 12175 0
12180 12179 -12175 0
-12180 0
-12181 12140 0
-12181 73 0
12181 -12140 -73 0
-12182 12141 0
-12182 74 0
12182 -12141 -74 0
-12183 12142 0
-12183 75 0
12183 -12142 -75 0
-12184 12143 0
-12184 76 0
12184 -12143 -76 0
-12185 12144 0
-12185 77 0
12185 -12144 -77 0
-12186 12145 0
-12186 78 0
12186 -12145 -78 0
-12187 12181 12182 0
-12187 -12181 -12182 0
12187 -12181 12182 0
12187 12181 -12182 0
-12188 12187 12183 0
-12188 -12187 -12183 0
12188 -12187 12183 0
12188 12187 -12183 0
-12189 12188 12184 0
-12189 -12188 -12184 0
12189 -12188 12184 0
12189 12188 -12184 0
-12190 12189 12185 0
-12190 -12189 -12185 0
12190 -12189 12185 0
12190 12189 -12185 0
-12191 12190 12186 0
-12191 -12190 -12186 0
12191 -12190 12186 0
12191 12190 -12186 0
-12191 0
-12192 12140 0
-12192 79 0
12192 -12140 -79 0
-12193 12141 0
-12193 80 0
12193 -12141 -80 0
-12194 12142 0
-12194 81 0
12194 -12142 -81 0
-12195 12143 0
-12195 82 0
12195 -12143 -82 0
-12196 12144 0
-12196 83 0
12196 -12144 -83 0
-12197 12145 0
-12197 84 0
12197 -12145 -84 0
-12198 12192 12193 0
-12198 -12192 -12193 0
12198 -12192 12193 0
12198 12192 -12193 0
-12199 12198 12194 0
-12199 -12198 -12194 0
12199 -12198 12194 0
12199 12198 -12194 0
-12200 12199 12195 0
-12200 -12199 -12195 0
12200 -12199 12195 0
12200 12199 -12195 0
-12201 12200 12196 0
-12201 -12200 -12196 0
12201 -12200 12196 0
12201 12200 -12196 0
-12202 12201 12197 0
-12202 -12201 -12197 0
12202 -12201 12197 0
12202 12201 -12197 0
-12202 0
-12203 12140 0
-12203 12045 0
12203 -12140 -12045 0
-12204 12141 0
-12204 12049 0
12204 -12141 -12049 0
-12205 12142 0
-12205 12053 0
12205 -12142 -12053 0
-12206 12143 0
-12206 12057 0
12206 -12143 -12057 0
-12207 12144 0
-12207 12061 0
12207 -12144 -12061 0
-12208 12145 0
-12208 12065 0
12208 -12145 -12065 0
-12209 12203 12204 0
-12209 -12203 -12204 0
12209 -12203 12204 0
12209 12203 -12204 0
-12210 12209 12205 0
-12210 -12209 -12205 0
12210 -12209 12205 0
12210 12209 -12205 0
-12211 12210 12206 0
-12211 -12210 -12206 0
12211 -12210 12206 0
12211 12210 -12206 0
-12212 12211 12207 0
-12212 -12211 -12207 0
12212 -12211 12207 0
12212 12211 -12207 0
-12213 12212 12208 0
-12213 -12212 -12208 0
12213 -12212 12208 0
12213 12212 -12208 0
-12214 12066 12140 0
-12214 -12066 -12140 0
12214 -12066 12140 0
12214 12066 -12140 0
-12215 12067 12141 0
-12215 -12067 -12141 0
12215 -12067 12141 0
12215 12067 -12141 0
-12216 12068 12142 0
-12216 -12068 -12142 0
12216 -12068 12142 0
12216 12068 -12142 0
-12217 12069 12143 0
-12217 -12069 -12143 0
12217 -12069 12143 0
12217 12069 -12143 0
-12218 12070 12144 0
-12218 -12070 -12144 0
12218 -12070 12144 0
12218 12070 -12144 0
-12219 12071 12145 0
-12219 -12071 -12145 0
12219 -12071 12145 0
12219 12071 -12145 0
12214 12215 12216 12217 12218 12219 0
12139 12213 0
-12220 37 43 0
-12220 -37 -43 0
12220 -37 43 0
12220 37 -43 0
-12221 12220 49 0
-12221 -12220 -49 0
12221 -12220 49 0
12221 12220 -49 0
-12222 -61 67 0
-12222 61 -67 0
12222 61 67 0
12222 -61 -67 0
-12223 73 79 0
-12223 -73 -79 0
12223 -73 79 0
12223 73 -79 0
-12224 38 44 0
-12224 -38 -44 0
12224 -38 44 0
12224 38 -44 0
-12225 12224 50 0
-12225 -12224 -50 0
12225 -12224 50 0
12225 12224 -50 0
-12226 62 68 0
-12226 -62 -68 0
12226 -62 68 0
12226 62 -68 0
-12227 -74 80 0
-12227 74 -80 0
12227 74 80 0
12227 -74 -80 0
-12228 39 45 0
-12228 -39 -45 0
12228 -39 45 0
12228 39 -45 0
-12229 12228 51 0
-12229 -12228 -51 0
12229 -12228 51 0
12229 12228 -51 0
-12230 63 69 0
-12230 -63 -69 0
12230 -63 69 0
12230 63 -69 0
-12231 75 81 0
-12231 -75 -81 0
12231 -75 81 0
12231 75 -81 0
-12232 40 46 0
-12232 -40 -46 0
12232 -40 46 0
12232 40 -46 0
-12233 12232 52 0
-12233 -12232 -52 0
12233 -12232 52 0
12233 12232 -52 0
-12234 64 70 0
-12234 -64 -70 0
12234 -64 70 0
12234 64 -70 0
-12235 76 82 0
-12235 -76 -82 0
12235 -76 82 0
12235 76 -82 0
-12236 41 47 0
-12236 -41 -47 0
12236 -41 47 0
12236 41 -47 0
-12237 12236 53 0
-12237 -12236 -53 0
12237 -12236 53 0
12237 12236 -53 0
-12238 65 71 0
-12238 -65 -71 0
12238 -65 71 0
12238 65 -71 0
-12239 77 83 0
-12239 -77 -83 0
12239 -77 83 0
12239 77 -83 0
-12240 42 48 0
-12240 -42 -48 0
12240 -42 48 0
12240 42 -48 0
-12241 12240 54 0
-12241 -12240 -54 0
12241 -12240 54 0
12241 12240 -54 0
-12242 66 72 0
-12242 -66 -72 0
12242 -66 72 0
12242 66 -72 0
-12243 78 84 0
-12243 -78 -84 0
12243 -78 84 0
12243 78 -84 0
-12244 109 115 0
-12244 -109 -115 0
12244 -109 115 0
12244 109 -115 0
-12245 12244 121 0
-12245 -12244 -121 0
12245 -12244 121 0
12245 12244 -121 0
-12246 12245 73 0
-12246 -12245 -73 0
12246 -12245 73 0
12246 12245 -73 0
-12247 12246 79 0
-12247 -12246 -79 0
12247 -12246 79 0
12247 12246 -79 0
-12248 110 116 0
-12248 -110 -116 0
12248 -110 116 0
12248 110 -116 0
-12249 12248 122 0
-12249 -12248 -122 0
12249 -12248 122 0
12249 12248 -122 0
-12250 -12249 74 0
-12250 12249 -74 0
12250 12249 74 0
12250 -12249 -74 0
-12251 12250 80 0
-12251 -12250 -80 0
12251 -12250 80 0
12251 12250 -80 0
-12252 111 117 0
-12252 -111 -117 0
12252 -111 117 0
12252 111 -117 0
-12253 12252 123 0
-12253 -12252 -123 0
12253 -12252 123 0
12253 12252 -123 0
-12254 -12253 75 0
-12254 12253 -75 0
12254 12253 75 0
12254 -12253 -75 0
-12255 12254 81 0
-12255 -12254 -81 0
12255 -12254 81 0
12255 12254 -81 0
-12256 112 118 0
-12256 -112 -118 0
12256 -112 118 0
12256 112 -118 0
-12257 12256 124 0
-12257 -12256 -124 0
12257 -12256 124 0
12257 12256 -124 0
-12258 -12257 76 0
-12258 12257 -76 0
12258 12257 76 0
12258 -12257 -76 0
-12259 12258 82 0
-12259 -12258 -82 0
12259 -12258 82 0
12259 12258 -82 0
-12260 -113 119 0
-12260 113 -119 0
12260 113 119 0
12260 -113 -119 0
-12261 12260 125 0
-12261 -12260 -125 0
12261 -12260 125 0
12261 12260 -125 0
-12262 12261 77 0
-12262 -12261 -77 0
12262 -12261 77 0
12262 12261 -77 0
-12263 12262 83 0
-12263 -12262 -83 0
12263 -12262 83 0
12263 12262 -83 0
-12264 114 120 0
-12264 -114 -120 0
12264 -114 120 0
12264 114 -120 0
-12265 12264 126 0
-12265 -12264 -126 0
12265 -12264 126 0
12265 12264 -126 0
-12266 12265 78 0
-12266 -12265 -78 0
12266 -12265 78 0
12266 12265 -78 0
-12267 12266 84 0
-12267 -12266 -84 0
12267 -12266 84 0
12267 12266 -84 0
12268 12269 12270 12271 12272 12273 0
-12274 12269 12270 0
-12274 -12269 -12270 0
12274 -12269 12270 0
12274 12269 -12270 0
-12275 12274 12271 0
-12275 -12274 -12271 0
12275 -12274 12271 0
12275 12274 -12271 0
-12275 0
-12276 12268 0
-12276 12221 0
12276 -12268 -12221 0
-12277 12269 0
-12277 12225 0
12277 -12269 -12225 0
-12278 12270 0
-12278 12229 0
12278 -12270 -12229 0
-12279 12271 0
-12279 12233 0
12279 -12271 -12233 0
-12280 12272 0
-12280 12237 0
12280 -12272 -12237 0
-12281 12273 0
-12281 12241 0
12281 -12273 -12241 0
-12282 12276 12277 0
-12282 -12276 -12277 0
12282 -12276 12277 0
12282 12276 -12277 0
-12283 12282 12278 0
-12283 -12282 -12278 0
12283 -12282 12278 0
12283 12282 -12278 0
-12284 12283 12279 0
-12284 -12283 -12279 0
12284 -12283 12279 0
12284 12283 -12279 0
-12285 12284 12280 0
-12285 -12284 -12280 0
12285 -12284 12280 0
12285 12284 -12280 0
-12286 12285 12281 0
-12286 -12285 -12281 0
12286 -12285 12281 0
12286 12285 -12281 0
-12286 0
-12287 12268 0
-12287 12222 0
12287 -12268 -12222 0
-12288 12269 0
-12288 12226 0
12288 -12269 -12226 0
-12289 12270 0
-12289 12230 0
12289 -12270 -12230 0
-12290 12271 0
-12290 12234 0
12290 -12271 -12234 0
-12291 12272 0
-12291 12238 0
12291 -12272 -12238 0
-12292 12273 0
-12292 12242 0
12292 -12273 -12242 0
-12293 12287 12288 0
-12293 -12287 -12288 0
12293 -12287 12288 0
12293 12287 -12288 0
-12294 12293 12289 0
-12294 -12293 -12289 0
12294 -12293 12289 0
12294 12293 -12289 0
-12295 12294 12290 0
-12295 -12294 -12290 0
12295 -12294 12290 0
12295 12294 -12290 0
-12296 12295 12291 0
-12296 -12295 -12291 0
12296 -12295 12291 0
12296 12295 -12291 0
-12297 12296 12292 0
-12297 -12296 -12292 0
12297 -12296 12292 0
12297 12296 -12292 0
-12297 0
-12298 12268 0
-12298 12223 0
12298 -12268 -12223 0
-12299 12269 0
-12299 12227 0
12299 -12269 -12227 0
-12300 12270 0
-12300 12231 0
12300 -12270 -12231 0
-12301 12271 0
-12301 12235 0
12301 -12271 -12235 0
-12302 12272 0
-12302 12239 0
12302 -12272 -12239 0
-12303 12273 0
-12303 12243 0
12303 -12273 -12243 0
-12304 12298 12299 0
-12304 -12298 -12299 0
12304 -12298 12299 0
12304 12298 -12299 0
-12305 12304 12300 0
-12305 -12304 -12300 0
12305 -12304 12300 0
12305 12304 -12300 0
-12306 12305 12301 0
-12306 -12305 -12301 0
12306 -12305 12301 0
12306 12305 -12301 0
-12307 12306 12302 0
-12307 -12306 -12302 0
12307 -12306 12302 0
12307 12306 -12302 0
-12308 12307 12303 0
-12308 -12307 -12303 0
12308 -12307 12303 0
12308 12307 -12303 0
-12308 0
-12309 12268 0
-12309 73 0
12309 -12268 -73 0
-12310 12269 0
-12310 74 0
12310 -12269 -74 0
-12311 12270 0
-12311 -75 0
12311 -12270 75 0
-12312 12271 0
-12312 76 0
12312 -12271 -76 0
-12313 12272 0
-12313 77 0
12313 -12272 -77 0
-12314 12273 0
-12314 78 0
12314 -12273 -78 0
-12315 12309 12310 0
-12315 -12309 -12310 0
12315 -12309 12310 0
12315 12309 -12310 0
-12316 12315 12311 0
-12316 -12315 -12311 0
12316 -12315 12311 0
12316 12315 -12311 0
-12317 12316 12312 0
-12317 -12316 -12312 0
12317 -12316 12312 0
12317 12316 -12312 0
-12318 12317 12313 0
-12318 -12317 -12313 0
12318 -12317 12313 0
12318 12317 -12313 0
-12319 12318 12314 0
-12319 -12318 -12314 0
12319 -12318 12314 0
12319 12318 -12314 0
-12319 0
-12320 12268 0
-12320 79 0
12320 -12268 -79 0
-12321 12269 0
-12321 80 0
12321 -12269 -80 0
-12322 12270 0
-12322 81 0
12322 -12270 -81 0
-12323 12271 0
-12323 -82 0
12323 -12271 82 0
-12324 12272 0
-12324 83 0
12324 -12272 -83 0
-12325 12273 0
-12325 84 0
12325 -12273 -84 0
-12326 12320 12321 0
-12326 -12320 -12321 0
12326 -12320 12321 0
12326 12320 -12321 0
-12327 12326 12322 0
-12327 -12326 -12322 0
12327 -12326 12322 0
12327 12326 -12322 0
-12328 12327 12323 0
-12328 -12327 -12323 0
12328 -12327 12323 0
12328 12327 -12323 0
-12329 12328 12324 0
-12329 -12328 -12324 0
12329 -12328 12324 0
12329 12328 -12324 0
-12330 12329 12325 0
-12330 -12329 -12325 0
12330 -12329 12325 0
12330 12329 -12325 0
-12330 0
-12331 12268 0
-12331 12247 0
12331 -12268 -12247 0
-12332 12269 0
-12332 12251 0
12332 -12269 -12251 0
-12333 12270 0
-12333 12255 0
12333 -12270 -12255 0
-12334 12271 0
-12334 12259 0
12334 -12271 -12259 0
-12335 12272 0
-12335 12263 0
12335 -12272 -12263 0
-12336 12273 0
-12336 12267 0
12336 -12273 -12267 0
-12337 12331 12332 0
-12337 -12331 -12332 0
12337 -12331 12332 0
12337 12331 -12332 0
-12338 12337 12333 0
-12338 -12337 -12333 0
12338 -12337 12333 0
12338 12337 -12333 0
-12339 12338 12334 0
-12339 -12338 -12334 0
12339 -12338 12334 0
12339 12338 -12334 0
-12340 12339 12335 0
-12340 -12339 -12335 0
12340 -12339 12335 0
12340 12339 -12335 0
-12341 12340 12336 0
-12341 -12340 -12336 0
12341 -12340 12336 0
12341 12340 -12336 0
12342 12343 12344 12345 12346 12347 0
-12348 12343 12344 0
-12348 -12343 -12344 0
12348 -12343 12344 0
12348 12343 -12344 0
-12349 12348 12345 0
-12349 -12348 -12345 0
12349 -12348 12345 0
12349 12348 -12345 0
-12349 0
-12350 12342 0
-12350 12221 0
12350 -12342 -12221 0
-12351 12343 0
-12351 12225 0
12351 -12343 -12225 0
-12352 12344 0
-12352 12229 0
12352 -12344 -12229 0
-12353 12345 0
-12353 12233 0
12353 -12345 -12233 0
-12354 12346 0
-12354 12237 0
12354 -12346 -12237 0
-12355 12347 0
-12355 12241 0
12355 -12347 -12241 0
-12356 12350 12351 0
-12356 -12350 -12351 0
12356 -12350 12351 0
12356 12350 -12351 0
-12357 12356 12352 0
-12357 -12356 -12352 0
12357 -12356 12352 0
12357 12356 -12352 0
-12358 12357 12353 0
-12358 -12357 -12353 0
12358 -12357 12353 0
12358 12357 -12353 0
-12359 12358 12354 0
-12359 -12358 -12354 0
12359 -12358 12354 0
12359 12358 -12354 0
-12360 12359 12355 0
-12360 -12359 -12355 0
12360 -12359 12355 0
12360 12359 -12355 0
-12360 0
-12361 12342 0
-12361 12222 0
12361 -12342 -12222 0
-12362 12343 0
-12362 12226 0
12362 -12343 -12226 0
-12363 12344 0
-12363 12230 0
12363 -12344 -12230 0
-12364 12345 0
-12364 12234 0
12364 -12345 -12234 0
-12365 12346 0
-12365 12238 0
12365 -12346 -12238 0
-12366 12347 0
-12366 12242 0
12366 -12347 -12242 0
-12367 12361 12362 0
-12367 -12361 -12362 0
12367 -12361 12362 0
12367 12361 -12362 0
-12368 12367 12363 0
-12368 -12367 -12363 0
12368 -12367 12363 0
12368 12367 -12363 0
-12369 12368 12364 0
-12369 -12368 -12364 0
12369 -12368 12364 0
12369 12368 -12364 0
-12370 12369 12365 0
-12370 -12369 -12365 0
12370 -12369 12365 0
12370 12369 -12365 0
-12371 12370 12366 0
-12371 -12370 -12366 0
12371 -12370 12366 0
12371 12370 -12366 0
-12371 0
-12372 12342 0
-12372 12223 0
12372 -12342 -12223 0
-12373 12343 0
-12373 12227 0
12373 -12343 -12227 0
-12374 12344 0
-12374 12231 0
12374 -12344 -12231 0
-12375 12345 0
-12375 12235 0
12375 -12345 -12235 0
-12376 12346 0
-12376 12239 0
12376 -12346 -12239 0
-12377 12347 0
-12377 12243 0
12377 -12347 -12243 0
-12378 12372 12373 0
-12378 -12372 -12373 0
12378 -12372 12373 0
12378 12372 -12373 0
-12379 12378 12374 0
-12379 -12378 -12374 0
12379 -12378 12374 0
12379 12378 -12374 0
-12380 12379 12375 0
-12380 -12379 -12375 0
12380 -12379 12375 0
12380 12379 -12375 0
-12381 12380 12376 0
-12381 -12380 -12376 0
12381 -12380 12376 0
12381 12380 -12376 0
-12382 12381 12377 0
-12382 -12381 -12377 0
12382 -12381 12377 0
12382 12381 -12377 0
-12382 0
-12383 12342 0
-12383 73 0
12383 -12342 -73 0
-12384 12343 0
-12384 74 0
12384 -12343 -74 0
-12385 12344 0
-12385 -75 0
12385 -12344 75 0
-12386 12345 0
-12386 76 0
12386 -12345 -76 0
-12387 12346 0
-12387 77 0
12387 -12346 -77 0
-12388 12347 0
-12388 78 0
12388 -12347 -78 0
-12389 12383 12384 0
-12389 -12383 -12384 0
12389 -12383 12384 0
12389 12383 -12384 0
-12390 12389 12385 0
-12390 -12389 -12385 0
12390 -12389 12385 0
12390 12389 -12385 0
-12391 12390 12386 0
-12391 -12390 -12386 0
12391 -12390 12386 0
12391 12390 -12386 0
-12392 12391 12387 0
-12392 -12391 -12387 0
12392 -12391 12387 0
12392 12391 -12387 0
-12393 12392 12388 0
-12393 -12392 -12388 0
12393 -12392 12388 0
12393 12392 -12388 0
-12393 0
-12394 12342 0
-12394 79 0
12394 -12342 -79 0
-12395 12343 0
-12395 80 0
12395 -12343 -80 0
-12396 12344 0
-12396 81 0
12396 -12344 -81 0
-12397 12345 0
-12397 -82 0
12397 -12345 82 0
-12398 12346 0
-12398 83 0
12398 -12346 -83 0
-12399 12347 0
-12399 84 0
12399 -12347 -84 0
-12400 12394 12395 0
-12400 -12394 -12395 0
12400 -12394 12395 0
12400 12394 -12395 0
-12401 12400 12396 0
-12401 -12400 -12396 0
12401 -12400 12396 0
12401 12400 -12396 0
-12402 12401 12397 0
-12402 -12401 -12397 0
12402 -12401 12397 0
12402 12401 -12397 0
-12403 12402 12398 0
-12403 -12402 -12398 0
12403 -12402 12398 0
12403 12402 -12398 0
-12404 12403 12399 0
-12404 -12403 -12399 0
12404 -12403 12399 0
12404 12403 -12399 0
-12404 0
-12405 12342 0
-12405 12247 0
12405 -12342 -12247 0
-12406 12343 0
-12406 12251 0
12406 -12343 -12251 0
-12407 12344 0
-12407 12255 0
12407 -12344 -12255 0
-12408 12345 0
-12408 12259 0
12408 -12345 -12259 0
-12409 12346 0
-12409 12263 0
12409 -12346 -12263 0
-12410 12347 0
-12410 12267 0
12410 -12347 -12267 0
-12411 12405 12406 0
-12411 -12405 -12406 0
12411 -12405 12406 0
12411 12405 -12406 0
-12412 12411 12407 0
-12412 -12411 -12407 0
12412 -12411 12407 0
12412 12411 -12407 0
-12413 12412 12408 0
-12413 -12412 -12408 0
12413 -12412 12408 0
12413 12412 -12408 0
-12414 12413 12409 0
-12414 -12413 -12409 0
12414 -12413 12409 0
12414 12413 -12409 0
-12415 12414 12410 0
-12415 -12414 -12410 0
12415 -12414 12410 0
12415 12414 -12410 0
-12416 12268 12342 0
-12416 -12268 -12342 0
12416 -12268 12342 0
12416 12268 -12342 0
-12417 12269 12343 0
-12417 -12269 -12343 0
12417 -12269 12343 0
12417 12269 -12343 0
-12418 12270 12344 0
-12418 -12270 -12344 0
12418 -12270 12344 0
12418 12270 -12344 0
-12419 12271 12345 0
-12419 -12271 -12345 0
12419 -12271 12345 0
12419 12271 -12345 0
-12420 12272 12346 0
-12420 -12272 -12346 0
12420 -12272 12346 0
12420 12272 -12346 0
-12421 12273 12347 0
-12421 -12273 -12347 0
12421 -12273 12347 0
12421 12273 -12347 0
12416 12417 12418 12419 12420 12421 0
12341 12415 0
-12422 37 43 0
-12422 -37 -43 0
12422 -37 43 0
12422 37 -43 0
-12423 12422 49 0
-12423 -12422 -49 0
12423 -12422 49 0
12423 12422 -49 0
-12424 31 61 0
-12424 -31 -61 0
12424 -31 61 0
12424 31 -61 0
-12425 12424 67 0
-12425 -12424 -67 0
12425 -12424 67 0
12425 12424 -67 0
-12426 37 73 0
-12426 -37 -73 0
12426 -37 73 0
12426 37 -73 0
-12427 12426 79 0
-12427 -12426 -79 0
12427 -12426 79 0
12427 12426 -79 0
-12428 43 73 0
-12428 -43 -73 0
12428 -43 73 0
12428 43 -73 0
-12429 49 79 0
-12429 -49 -79 0
12429 -49 79 0
12429 49 -79 0
-12430 38 44 0
-12430 -38 -44 0
12430 -38 44 0
12430 38 -44 0
-12431 12430 50 0
-12431 -12430 -50 0
12431 -12430 50 0
12431 12430 -50 0
-12432 32 62 0
-12432 -32 -62 0
12432 -32 62 0
12432 32 -62 0
-12433 12432 68 0
-12433 -12432 -68 0
12433 -12432 68 0
12433 12432 -68 0
-12434 38 74 0
-12434 -38 -74 0
12434 -38 74 0
12434 38 -74 0
-12435 12434 80 0
-12435 -12434 -80 0
12435 -12434 80 0
12435 12434 -80 0
-12436 44 74 0
-12436 -44 -74 0
12436 -44 74 0
12436 44 -74 0
-12437 50 80 0
-12437 -50 -80 0
12437 -50 80 0
12437 50 -80 0
-12438 39 45 0
-12438 -39 -45 0
12438 -39 45 0
12438 39 -45 0
-12439 12438 51 0
-12439 -12438 -51 0
12439 -12438 51 0
12439 12438 -51 0
-12440 33 63 0
-12440 -33 -63 0
12440 -33 63 0
12440 33 -63 0
-12441 12440 69 0
-12441 -12440 -69 0
12441 -12440 69 0
12441 12440 -69 0
-12442 39 75 0
-12442 -39 -75 0
12442 -39 75 0
12442 39 -75 0
-12443 12442 81 0
-12443 -12442 -81 0
12443 -12442 81 0
12443 12442 -81 0
-12444 45 75 0
-12444 -45 -75 0
12444 -45 75 0
12444 45 -75 0
-12445 51 81 0
-12445 -51 -81 0
12445 -51 81 0
12445 51 -81 0
-12446 40 46 0
-12446 -40 -46 0
12446 -40 46 0
12446 40 -46 0
-12447 12446 52 0
-12447 -12446 -52 0
12447 -12446 52 0
12447 12446 -52 0
-12448 34 64 0
-12448 -34 -64 0
12448 -34 64 0
12448 34 -64 0
-12449 12448 70 0
-12449 -12448 -70 0
12449 -12448 70 0
12449 12448 -70 0
-12450 40 76 0
-12450 -40 -76 0
12450 -40 76 0
12450 40 -76 0
-12451 12450 82 0
-12451 -12450 -82 0
12451 -12450 82 0
12451 12450 -82 0
-12452 46 76 0
-12452 -46 -76 0
12452 -46 76 0
12452 46 -76 0
-12453 52 82 0
-12453 -52 -82 0
12453 -52 82 0
12453 52 -82 0
-12454 41 47 0
-12454 -41 -47 0
12454 -41 47 0
12454 41 -47 0
-12455 12454 53 0
-12455 -12454 -53 0
12455 -12454 53 0
12455 12454 -53 0
-12456 35 65 0
-12456 -35 -65 0
12456 -35 65 0
12456 35 -65 0
-12457 12456 71 0
-12457 -12456 -71 0
12457 -12456 71 0
12457 12456 -71 0
-12458 41 77 0
-12458 -41 -77 0
12458 -41 77 0
12458 41 -77 0
-12459 12458 83 0
-12459 -12458 -83 0
12459 -12458 83 0
12459 12458 -83 0
-12460 47 77 0
-12460 -47 -77 0
12460 -47 77 0
12460 47 -77 0
-12461 53 83 0
-12461 -53 -83 0
12461 -53 83 0
12461 53 -83 0
-12462 42 48 0
-12462 -42 -48 0
12462 -42 48 0
12462 42 -48 0
-12463 12462 54 0
-12463 -12462 -54 0
12463 -12462 54 0
12463 12462 -54 0
-12464 36 66 0
-12464 -36 -66 0
12464 -36 66 0
12464 36 -66 0
-12465 12464 72 0
-12465 -12464 -72 0
12465 -12464 72 0
12465 12464 -72 0
-12466 42 78 0
-12466 -42 -78 0
12466 -42 78 0
12466 42 -78 0
-12467 12466 84 0
-12467 -12466 -84 0
12467 -12466 84 0
12467 12466 -84 0
-12468 48 78 0
-12468 -48 -78 0
12468 -48 78 0
12468 48 -78 0
-12469 54 84 0
-12469 -54 -84 0
12469 -54 84 0
12469 54 -84 0
-12470 97 109 0
-12470 -97 -109 0
12470 -97 109 0
12470 97 -109 0
-12471 12470 115 0
-12471 -12470 -115 0
12471 -12470 115 0
12471 12470 -115 0
-12472 12471 121 0
-12472 -12471 -121 0
12472 -12471 121 0
12472 12471 -121 0
-12473 12472 37 0
-12473 -12472 -37 0
12473 -12472 37 0
12473 12472 -37 0
-12474 12473 43 0
-12474 -12473 -43 0
12474 -12473 43 0
12474 12473 -43 0
-12475 12474 49 0
-12475 -12474 -49 0
12475 -12474 49 0
12475 12474 -49 0
-12476 12475 73 0
-12476 -12475 -73 0
12476 -12475 73 0
12476 12475 -73 0
-12477 12476 79 0
-12477 -12476 -79 0
12477 -12476 79 0
12477 12476 -79 0
-12478 98 110 0
-12478 -98 -110 0
12478 -98 110 0
12478 98 -110 0
-12479 12478 116 0
-12479 -12478 -116 0
12479 -12478 116 0
12479 12478 -116 0
-12480 12479 122 0
-12480 -12479 -122 0
12480 -12479 122 0
12480 12479 -122 0
-12481 12480 38 0
-12481 -12480 -38 0
12481 -12480 38 0
12481 12480 -38 0
-12482 12481 44 0
-12482 -12481 -44 0
12482 -12481 44 0
12482 12481 -44 0
-12483 12482 50 0
-12483 -12482 -50 0
12483 -12482 50 0
12483 12482 -50 0
-12484 12483 74 0
-12484 -12483 -74 0
12484 -12483 74 0
12484 12483 -74 0
-12485 12484 80 0
-12485 -12484 -80 0
12485 -12484 80 0
12485 12484 -80 0
-12486 99 111 0
-12486 -99 -111 0
12486 -99 111 0
12486 99 -111 0
-12487 12486 117 0
-12487 -12486 -117 0
12487 -12486 117 0
12487 12486 -117 0
-12488 12487 123 0
-12488 -12487 -123 0
12488 -12487 123 0
12488 12487 -123 0
-12489 12488 39 0
-12489 -12488 -39 0
12489 -12488 39 0
12489 12488 -39 0
-12490 12489 45 0
-12490 -12489 -45 0
12490 -12489 45 0
12490 12489 -45 0
-12491 12490 51 0
-12491 -12490 -51 0
12491 -12490 51 0
12491 12490 -51 0
-12492 12491 75 0
-12492 -12491 -75 0
12492 -12491 75 0
12492 12491 -75 0
-12493 12492 81 0
-12493 -12492 -81 0
12493 -12492 81 0
12493 12492 -81 0
-12494 100 112 0
-12494 -100 -112 0
12494 -100 112 0
12494 100 -112 0
-12495 12494 118 0
-12495 -12494 -118 0
12495 -12494 118 0
12495 12494 -118 0
-12496 12495 124 0
-12496 -12495 -124 0
12496 -12495 124 0
12496 12495 -124 0
-12497 12496 40 0
-12497 -12496 -40 0
12497 -12496 40 0
12497 12496 -40 0
-12498 12497 46 0
-12498 -12497 -46 0
12498 -12497 46 0
12498 12497 -46 0
-12499 12498 52 0
-12499 -12498 -52 0
12499 -12498 52 0
12499 12498 -52 0
-12500 12499 76 0
-12500 -12499 -76 0
12500 -12499 76 0
12500 12499 -76 0
-12501 12500 82 0
-12501 -12500 -82 0
12501 -12500 82 0
12501 12500 -82 0
-12502 113 119 0
-12502 -113 -119 0
12502 -113 119 0
12502 113 -119 0
-12503 12502 125 0
-12503 -12502 -125 0
12503 -12502 125 0
12503 12502 -125 0
-12504 12503 41 0
-12504 -12503 -41 0
12504 -12503 41 0
12504 12503 -41 0
-12505 12504 47 0
-12505 -12504 -47 0
12505 -12504 47 0
12505 12504 -47 0
-12506 12505 53 0
-12506 -12505 -53 0
12506 -12505 53 0
12506 12505 -53 0
-12507 12506 77 0
-12507 -12506 -77 0
12507 -12506 77 0
12507 12506 -77 0
-12508 12507 83 0
-12508 -12507 -83 0
12508 -12507 83 0
12508 12507 -83 0
-12509 102 114 0
-12509 -102 -114 0
12509 -102 114 0
12509 102 -114 0
-12510 12509 120 0
-12510 -12509 -120 0
12510 -12509 120 0
12510 12509 -120 0
-12511 12510 126 0
-12511 -12510 -126 0
12511 -12510 126 0
12511 12510 -126 0
-12512 12511 42 0
-12512 -12511 -42 0
12512 -12511 42 0
12512 12511 -42 0
-12513 12512 48 0
-12513 -12512 -48 0
12513 -12512 48 0
12513 12512 -48 0
-12514 12513 54 0
-12514 -12513 -54 0
12514 -12513 54 0
12514 12513 -54 0
-12515 12514 78 0
-12515 -12514 -78 0
12515 -12514 78 0
12515 12514 -78 0
-12516 12515 84 0
-12516 -12515 -84 0
12516 -12515 84 0
12516 12515 -84 0
12517 12518 12519 12520 12521 12522 0
-12523 12518 12519 0
-12523 -12518 -12519 0
12523 -12518 12519 0
12523 12518 -12519 0
-12524 12523 12520 0
-12524 -12523 -12520 0
12524 -12523 12520 0
12524 12523 -12520 0
-12524 0
-12525 12517 0
-12525 12423 0
12525 -12517 -12423 0
-12526 12518 0
-12526 12431 0
12526 -12518 -12431 0
-12527 12519 0
-12527 12439 0
12527 -12519 -12439 0
-12528 12520 0
-12528 12447 0
12528 -12520 -12447 0
-12529 12521 0
-12529 12455 0
12529 -12521 -12455 0
-12530 12522 0
-12530 12463 0
12530 -12522 -12463 0
-12531 12525 12526 0
-12531 -12525 -12526 0
12531 -12525 12526 0
12531 12525 -12526 0
-12532 12531 12527 0
-12532 -12531 -12527 0
12532 -12531 12527 0
12532 12531 -12527 0
-12533 12532 12528 0
-12533 -12532 -12528 0
12533 -12532 12528 0
12533 12532 -12528 0
-12534 12533 12529 0
-12534 -12533 -12529 0
12534 -12533 12529 0
12534 12533 -12529 0
-12535 12534 12530 0
-12535 -12534 -12530 0
12535 -12534 12530 0
12535 12534 -12530 0
-12535 0
-12536 12517 0
-12536 12425 0
12536 -12517 -12425 0
-12537 12518 0
-12537 12433 0
12537 -12518 -12433 0
-12538 12519 0
-12538 12441 0
12538 -12519 -12441 0
-12539 12520 0
-12539 12449 0
12539 -12520 -12449 0
-12540 12521 0
-12540 12457 0
12540 -12521 -12457 0
-12541 12522 0
-12541 12465 0
12541 -12522 -12465 0
-12542 12536 12537 0
-12542 -12536 -12537 0
12542 -12536 12537 0
12542 12536 -12537 0
-12543 12542 12538 0
-12543 -12542 -12538 0
12543 -12542 12538 0
12543 12542 -12538 0
-12544 12543 12539 0
-12544 -12543 -12539 0
12544 -12543 12539 0
12544 12543 -12539 0
-12545 12544 12540 0
-12545 -12544 -12540 0
12545 -12544 12540 0
12545 12544 -12540 0
-12546 12545 12541 0
-12546 -12545 -12541 0
12546 -12545 12541 0
12546 12545 -12541 0
-12546 0
-12547 12517 0
-12547 12427 0
12547 -12517 -12427 0
-12548 12518 0
-12548 12435 0
12548 -12518 -12435 0
-12549 12519 0
-12549 12443 0
12549 -12519 -12443 0
-12550 12520 0
-12550 12451 0
12550 -12520 -12451 0
-12551 12521 0
-12551 12459 0
12551 -12521 -12459 0
-12552 12522 0
-12552 12467 0
12552 -12522 -12467 0
-12553 12547 12548 0
-12553 -12547 -12548 0
12553 -12547 12548 0
12553 12547 -12548 0
-12554 12553 12549 0
-12554 -12553 -12549 0
12554 -12553 12549 0
12554 12553 -12549 0
-12555 12554 12550 0
-12555 -12554 -12550 0
12555 -12554 12550 0
12555 12554 -12550 0
-12556 12555 12551 0
-12556 -12555 -12551 0
12556 -12555 12551 0
12556 12555 -12551 0
-12557 12556 12552 0
-12557 -12556 -12552 0
12557 -12556 12552 0
12557 12556 -12552 0
-12557 0
-12558 12517 0
-12558 12428 0
12558 -12517 -12428 0
-12559 12518 0
-12559 12436 0
12559 -12518 -12436 0
-12560 12519 0
-12560 12444 0
12560 -12519 -12444 0
-12561 12520 0
-12561 12452 0
12561 -12520 -12452 0
-12562 12521 0
-12562 12460 0
12562 -12521 -12460 0
-12563 12522 0
-12563 12468 0
12563 -12522 -12468 0
-12564 12558 12559 0
-12564 -12558 -12559 0
12564 -12558 12559 0
12564 12558 -12559 0
-12565 12564 12560 0
-12565 -12564 -12560 0
12565 -12564 12560 0
12565 12564 -12560 0
-12566 12565 12561 0
-12566 -12565 -12561 0
12566 -12565 12561 0
12566 12565 -12561 0
-12567 12566 12562 0
-12567 -12566 -12562 0
12567 -12566 12562 0
12567 12566 -12562 0
-12568 12567 12563 0
-12568 -12567 -12563 0
12568 -12567 12563 0
12568 12567 -12563 0
-12568 0
-12569 12517 0
-12569 12429 0
12569 -12517 -12429 0
-12570 12518 0
-12570 12437 0
12570 -12518 -12437 0
-12571 12519 0
-12571 12445 0
12571 -12519 -12445 0
-12572 12520 0
-12572 12453 0
12572 -12520 -12453 0
-12573 12521 0
-12573 12461 0
12573 -12521 -12461 0
-12574 12522 0
-12574 12469 0
12574 -12522 -12469 0
-12575 12569 12570 0
-12575 -12569 -12570 0
12575 -12569 12570 0
12575 12569 -12570 0
-12576 12575 12571 0
-12576 -12575 -12571 0
12576 -12575 12571 0
12576 12575 -12571 0
-12577 12576 12572 0
-12577 -12576 -12572 0
12577 -12576 12572 0
12577 12576 -12572 0
-12578 12577 12573 0
-12578 -12577 -12573 0
12578 -12577 12573 0
12578 12577 -12573 0
-12579 12578 12574 0
-12579 -12578 -12574 0
12579 -12578 12574 0
12579 12578 -12574 0
-12579 0
-12580 12517 0
-12580 12477 0
12580 -12517 -12477 0
-12581 12518 0
-12581 12485 0
12581 -12518 -12485 0
-12582 12519 0
-12582 12493 0
12582 -12519 -12493 0
-12583 12520 0
-12583 12501 0
12583 -12520 -12501 0
-12584 12521 0
-12584 12508 0
12584 -12521 -12508 0
-12585 12522 0
-12585 12516 0
12585 -12522 -12516 0
-12586 12580 12581 0
-12586 -12580 -12581 0
12586 -12580 12581 0
12586 12580 -12581 0
-12587 12586 12582 0
-12587 -12586 -12582 0
12587 -12586 12582 0
12587 12586 -12582 0
-12588 12587 12583 0
-12588 -12587 -12583 0
12588 -12587 12583 0
12588 12587 -12583 0
-12589 12588 12584 0
-12589 -12588 -12584 0
12589 -12588 12584 0
12589 12588 -12584 0
-12590 12589 12585 0
-12590 -12589 -12585 0
12590 -12589 12585 0
12590 12589 -12585 0
12591 12592 12593 12594 12595 12596 0
-12597 12592 12593 0
-12597 -12592 -12593 0
12597 -12592 12593 0
12597 12592 -12593 0
-12598 12597 12594 0
-12598 -12597 -12594 0
12598 -12597 12594 0
12598 12597 -12594 0
-12598 0
-12599 12591 0
-12599 12423 0
12599 -12591 -12423 0
-12600 12592 0
-12600 12431 0
12600 -12592 -12431 0
-12601 12593 0
-12601 12439 0
12601 -12593 -12439 0
-12602 12594 0
-12602 12447 0
12602 -12594 -12447 0
-12603 12595 0
-12603 12455 0
12603 -12595 -12455 0
-12604 12596 0
-12604 12463 0
12604 -12596 -12463 0
-12605 12599 12600 0
-12605 -12599 -12600 0
12605 -12599 12600 0
12605 12599 -12600 0
-12606 12605 12601 0
-12606 -12605 -12601 0
12606 -12605 12601 0
12606 12605 -12601 0
-12607 12606 12602 0
-12607 -12606 -12602 0
12607 -12606 12602 0
12607 12606 -12602 0
-12608 12607 12603 0
-12608 -12607 -12603 0
12608 -12607 12603 0
12608 12607 -12603 0
-12609 12608 12604 0
-12609 -12608 -12604 0
12609 -12608 12604 0
12609 12608 -12604 0
-12609 0
-12610 12591 0
-12610 12425 0
12610 -12591 -12425 0
-12611 12592 0
-12611 12433 0
12611 -12592 -12433 0
-12612 12593 0
-12612 12441 0
12612 -12593 -12441 0
-12613 12594 0
-12613 12449 0
12613 -12594 -12449 0
-12614 12595 0
-12614 12457 0
12614 -12595 -12457 0
-12615 12596 0
-12615 12465 0
12615 -12596 -12465 0
-12616 12610 12611 0
-12616 -12610 -12611 0
12616 -12610 12611 0
12616 12610 -12611 0
-12617 12616 12612 0
-12617 -12616 -12612 0
12617 -12616 12612 0
12617 12616 -12612 0
-12618 12617 12613 0
-12618 -12617 -12613 0
12618 -12617 12613 0
12618 12617 -12613 0
-12619 12618 12614 0
-12619 -12618 -12614 0
12619 -12618 12614 0
12619 12618 -12614 0
-12620 12619 12615 0
-12620 -12619 -12615 0
12620 -12619 12615 0
12620 12619 -12615 0
-12620 0
-12621 12591 0
-12621 12427 0
12621 -12591 -12427 0
-12622 12592 0
-12622 12435 0
12622 -12592 -12435 0
-12623 12593 0
-12623 12443 0
12623 -12593 -12443 0
-12624 12594 0
-12624 12451 0
12624 -12594 -12451 0
-12625 12595 0
-12625 12459 0
12625 -12595 -12459 0
-12626 12596 0
-12626 12467 0
12626 -12596 -12467 0
-12627 12621 12622 0
-12627 -12621 -12622 0
12627 -12621 12622 0
12627 12621 -12622 0
-12628 12627 12623 0
-12628 -12627 -12623 0
12628 -12627 12623 0
12628 12627 -12623 0
-12629 12628 12624 0
-12629 -12628 -12624 0
12629 -12628 12624 0
12629 12628 -12624 0
-12630 12629 12625 0
-12630 -12629 -12625 0
12630 -12629 12625 0
12630 12629 -12625 0
-12631 12630 12626 0
-12631 -12630 -12626 0
12631 -12630 12626 0
12631 12630 -12626 0
-12631 0
-12632 12591 0
-12632 12428 0
12632 -12591 -12428 0
-12633 12592 0
-12633 12436 0
12633 -12592 -12436 0
-12634 12593 0
-12634 12444 0
12634 -12593 -12444 0
-12635 12594 0
-12635 12452 0
12635 -12594 -12452 0
-12636 12595 0
-12636 12460 0
12636 -12595 -12460 0
-12637 12596 0
-12637 12468 0
12637 -12596 -12468 0
-12638 12632 12633 0
-12638 -12632 -12633 0
12638 -12632 12633 0
12638 12632 -12633 0
-12639 12638 12634 0
-12639 -12638 -12634 0
12639 -12638 12634 0
12639 12638 -12634 0
-12640 12639 12635 0
-12640 -12639 -12635 0
12640 -12639 12635 0
12640 12639 -12635 0
-12641 12640 12636 0
-12641 -12640 -12636 0
12641 -12640 12636 0
12641 12640 -12636 0
-12642 12641 12637 0
-12642 -12641 -12637 0
12642 -12641 12637 0
12642 12641 -12637 0
-12642 0
-12643 12591 0
-12643 12429 0
12643 -12591 -12429 0
-12644 12592 0
-12644 12437 0
12644 -12592 -12437 0
-12645 12593 0
-12645 12445 0
12645 -12593 -12445 0
-12646 12594 0
-12646 12453 0
12646 -12594 -12453 0
-12647 12595 0
-12647 12461 0
12647 -12595 -12461 0
-12648 12596 0
-12648 12469 0
12648 -12596 -12469 0
-12649 12643 12644 0
-12649 -12643 -12644 0
12649 -12643 12644 0
12649 12643 -12644 0
-12650 12649 12645 0
-12650 -12649 -12645 0
12650 -12649 12645 0
12650 12649 -12645 0
-12651 12650 12646 0
-12651 -12650 -12646 0
12651 -12650 12646 0
12651 12650 -12646 0
-12652 12651 12647 0
-12652 -12651 -12647 0
12652 -12651 12647 0
12652 12651 -12647 0
-12653 12652 12648 0
-12653 -12652 -12648 0
12653 -12652 12648 0
12653 12652 -12648 0
-12653 0
-12654 12591 0
-12654 12477 0
12654 -12591 -12477 0
-12655 12592 0
-12655 12485 0
12655 -12592 -12485 0
-12656 12593 0
-12656 12493 0
12656 -12593 -12493 0
-12657 12594 0
-12657 12501 0
12657 -12594 -12501 0
-12658 12595 0
-12658 12508 0
12658 -12595 -12508 0
-12659 12596 0
-12659 12516 0
12659 -12596 -12516 0
-12660 12654 12655 0
-12660 -12654 -12655 0
12660 -12654 12655 0
12660 12654 -12655 0
-12661 12660 12656 0
-12661 -12660 -12656 0
12661 -12660 12656 0
12661 12660 -12656 0
-12662 12661 12657 0
-12662 -12661 -12657 0
12662 -12661 12657 0
12662 12661 -12657 0
-12663 12662 12658 0
-12663 -12662 -12658 0
12663 -12662 12658 0
12663 12662 -12658 0
-12664 12663 12659 0
-12664 -12663 -12659 0
12664 -12663 12659 0
12664 12663 -12659 0
-12665 12517 12591 0
-12665 -12517 -12591 0
12665 -12517 12591 0
12665 12517 -12591 0
-12666 12518 12592 0
-12666 -12518 -12592 0
12666 -12518 12592 0
12666 12518 -12592 0
-12667 12519 12593 0
-12667 -12519 -12593 0
12667 -12519 12593 0
12667 12519 -12593 0
-12668 12520 12594 0
-12668 -12520 -12594 0
12668 -12520 12594 0
12668 12520 -12594 0
-12669 12521 12595 0
-12669 -12521 -12595 0
12669 -12521 12595 0
12669 12521 -12595 0
-12670 12522 12596 0
-12670 -12522 -12596 0
12670 -12522 12596 0
12670 12522 -12596 0
12665 12666 12667 12668 12669 12670 0
12590 12664 0
-12671 37 43 0
-12671 -37 -43 0
12671 -37 43 0
12671 37 -43 0
-12672 12671 49 0
-12672 -12671 -49 0
12672 -12671 49 0
12672 12671 -49 0
-12673 -31 61 0
-12673 31 -61 0
12673 31 61 0
12673 -31 -61 0
-12674 12673 67 0
-12674 -12673 -67 0
12674 -12673 67 0
12674 12673 -67 0
-12675 37 73 0
-12675 -37 -73 0
12675 -37 73 0
12675 37 -73 0
-12676 12675 79 0
-12676 -12675 -79 0
12676 -12675 79 0
12676 12675 -79 0
-12677 43 73 0
-12677 -43 -73 0
12677 -43 73 0
12677 43 -73 0
-12678 49 79 0
-12678 -49 -79 0
12678 -49 79 0
12678 49 -79 0
-12679 38 44 0
-12679 -38 -44 0
12679 -38 44 0
12679 38 -44 0
-12680 12679 50 0
-12680 -12679 -50 0
12680 -12679 50 0
12680 12679 -50 0
-12681 32 62 0
-12681 -32 -62 0
12681 -32 62 0
12681 32 -62 0
-12682 12681 68 0
-12682 -12681 -68 0
12682 -12681 68 0
12682 12681 -68 0
-12683 -38 74 0
-12683 38 -74 0
12683 38 74 0
12683 -38 -74 0
-12684 12683 80 0
-12684 -12683 -80 0
12684 -12683 80 0
12684 12683 -80 0
-12685 44 74 0
-12685 -44 -74 0
12685 -44 74 0
12685 44 -74 0
-12686 50 80 0
-12686 -50 -80 0
12686 -50 80 0
12686 50 -80 0
-12687 39 45 0
-12687 -39 -45 0
12687 -39 45 0
12687 39 -45 0
-12688 12687 51 0
-12688 -12687 -51 0
12688 -12687 51 0
12688 12687 -51 0
-12689 33 63 0
-12689 -33 -63 0
12689 -33 63 0
12689 33 -63 0
-12690 12689 69 0
-12690 -12689 -69 0
12690 -12689 69 0
12690 12689 -69 0
-12691 39 75 0
-12691 -39 -75 0
12691 -39 75 0
12691 39 -75 0
-12692 12691 81 0
-12692 -12691 -81 0
12692 -12691 81 0
12692 12691 -81 0
-12693 -45 75 0
-12693 45 -75 0
12693 45 75 0
12693 -45 -75 0
-12694 51 81 0
-12694 -51 -81 0
12694 -51 81 0
12694 51 -81 0
-12695 40 46 0
-12695 -40 -46 0
12695 -40 46 0
12695 40 -46 0
-12696 12695 52 0
-12696 -12695 -52 0
12696 -12695 52 0
12696 12695 -52 0
-12697 34 64 0
-12697 -34 -64 0
12697 -34 64 0
12697 34 -64 0
-12698 12697 70 0
-12698 -12697 -70 0
12698 -12697 70 0
12698 12697 -70 0
-12699 40 76 0
-12699 -40 -76 0
12699 -40 76 0
12699 40 -76 0
-12700 12699 82 0
-12700 -12699 -82 0
12700 -12699 82 0
12700 12699 -82 0
-12701 46 76 0
-12701 -46 -76 0
12701 -46 76 0
12701 46 -76 0
-12702 -52 82 0
-12702 52 -82 0
12702 52 82 0
12702 -52 -82 0
-12703 41 47 0
-12703 -41 -47 0
12703 -41 47 0
12703 41 -47 0
-12704 12703 53 0
-12704 -12703 -53 0
12704 -12703 53 0
12704 12703 -53 0
-12705 35 65 0
-12705 -35 -65 0
12705 -35 65 0
12705 35 -65 0
-12706 12705 71 0
-12706 -12705 -71 0
12706 -12705 71 0
12706 12705 -71 0
-12707 41 77 0
-12707 -41 -77 0
12707 -41 77 0
12707 41 -77 0
-12708 12707 83 0
-12708 -12707 -83 0
12708 -12707 83 0
12708 12707 -83 0
-12709 47 77 0
-12709 -47 -77 0
12709 -47 77 0
12709 47 -77 0
-12710 53 83 0
-12710 -53 -83 0
12710 -53 83 0
12710 53 -83 0
-12711 42 48 0
-12711 -42 -48 0
12711 -42 48 0
12711 42 -48 0
-12712 12711 54 0
-12712 -12711 -54 0
12712 -12711 54 0
12712 12711 -54 0
-12713 36 66 0
-12713 -36 -66 0
12713 -36 66 0
12713 36 -66 0
-12714 12713 72 0
-12714 -12713 -72 0
12714 -12713 72 0
12714 12713 -72 0
-12715 42 78 0
-12715 -42 -78 0
12715 -42 78 0
12715 42 -78 0
-12716 12715 84 0
-12716 -12715 -84 0
12716 -12715 84 0
12716 12715 -84 0
-12717 48 78 0
-12717 -48 -78 0
12717 -48 78 0
12717 48 -78 0
-12718 54 84 0
-12718 -54 -84 0
12718 -54 84 0
12718 54 -84 0
-12719 97 109 0
-12719 -97 -109 0
12719 -97 109 0
12719 97 -109 0
-12720 12719 115 0
-12720 -12719 -115 0
12720 -12719 115 0
12720 12719 -115 0
-12721 12720 121 0
-12721 -12720 -121 0
12721 -12720 121 0
12721 12720 -121 0
-12722 12721 37 0
-12722 -12721 -37 0
12722 -12721 37 0
12722 12721 -37 0
-12723 12722 43 0
-12723 -12722 -43 0
12723 -12722 43 0
12723 12722 -43 0
-12724 12723 49 0
-12724 -12723 -49 0
12724 -12723 49 0
12724 12723 -49 0
-12725 12724 73 0
-12725 -12724 -73 0
12725 -12724 73 0
12725 12724 -73 0
-12726 12725 79 0
-12726 -12725 -79 0
12726 -12725 79 0
12726 12725 -79 0
-12727 98 110 0
-12727 -98 -110 0
12727 -98 110 0
12727 98 -110 0
-12728 12727 116 0
-12728 -12727 -116 0
12728 -12727 116 0
12728 12727 -116 0
-12729 12728 122 0
-12729 -12728 -122 0
12729 -12728 122 0
12729 12728 -122 0
-12730 -12729 38 0
-12730 12729 -38 0
12730 12729 38 0
12730 -12729 -38 0
-12731 12730 44 0
-12731 -12730 -44 0
12731 -12730 44 0
12731 12730 -44 0
-12732 12731 50 0
-12732 -12731 -50 0
12732 -12731 50 0
12732 12731 -50 0
-12733 12732 74 0
-12733 -12732 -74 0
12733 -12732 74 0
12733 12732 -74 0
-12734 12733 80 0
-12734 -12733 -80 0
12734 -12733 80 0
12734 12733 -80 0
-12735 99 111 0
-12735 -99 -111 0
12735 -99 111 0
12735 99 -111 0
-12736 12735 117 0
-12736 -12735 -117 0
12736 -12735 117 0
12736 12735 -117 0
-12737 12736 123 0
-12737 -12736 -123 0
12737 -12736 123 0
12737 12736 -123 0
-12738 -12737 39 0
-12738 12737 -39 0
12738 12737 39 0
12738 -12737 -39 0
-12739 12738 45 0
-12739 -12738 -45 0
12739 -12738 45 0
12739 12738 -45 0
-12740 12739 51 0
-12740 -12739 -51 0
12740 -12739 51 0
12740 12739 -51 0
-12741 12740 75 0
-12741 -12740 -75 0
12741 -12740 75 0
12741 12740 -75 0
-12742 12741 81 0
-12742 -12741 -81 0
12742 -12741 81 0
12742 12741 -81 0
-12743 100 112 0
-12743 -100 -112 0
12743 -100 112 0
12743 100 -112 0
-12744 12743 118 0
-12744 -12743 -118 0
12744 -12743 118 0
12744 12743 -118 0
-12745 12744 124 0
-12745 -12744 -124 0
12745 -12744 124 0
12745 12744 -124 0
-12746 -12745 40 0
-12746 12745 -40 0
12746 12745 40 0
12746 -12745 -40 0
-12747 12746 46 0
-12747 -12746 -46 0
12747 -12746 46 0
12747 12746 -46 0
-12748 12747 52 0
-12748 -12747 -52 0
12748 -12747 52 0
12748 12747 -52 0
-12749 12748 76 0
-12749 -12748 -76 0
12749 -12748 76 0
12749 12748 -76 0
-12750 12749 82 0
-12750 -12749 -82 0
12750 -12749 82 0
12750 12749 -82 0
-12751 -113 119 0
-12751 113 -119 0
12751 113 119 0
12751 -113 -119 0
-12752 12751 125 0
-12752 -12751 -125 0
12752 -12751 125 0
12752 12751 -125 0
-12753 12752 41 0
-12753 -12752 -41 0
12753 -12752 41 0
12753 12752 -41 0
-12754 12753 47 0
-12754 -12753 -47 0
12754 -12753 47 0
12754 12753 -47 0
-12755 12754 53 0
-12755 -12754 -53 0
12755 -12754 53 0
12755 12754 -53 0
-12756 12755 77 0
-12756 -12755 -77 0
12756 -12755 77 0
12756 12755 -77 0
-12757 12756 83 0
-12757 -12756 -83 0
12757 -12756 83 0
12757 12756 -83 0
-12758 102 114 0
-12758 -102 -114 0
12758 -102 114 0
12758 102 -114 0
-12759 12758 120 0
-12759 -12758 -120 0
12759 -12758 120 0
12759 12758 -120 0
-12760 12759 126 0
-12760 -12759 -126 0
12760 -12759 126 0
12760 12759 -126 0
-12761 12760 42 0
-12761 -12760 -42 0
12761 -12760 42 0
12761 12760 -42 0
-12762 12761 48 0
-12762 -12761 -48 0
12762 -12761 48 0
12762 12761 -48 0
-12763 12762 54 0
-12763 -12762 -54 0
12763 -12762 54 0
12763 12762 -54 0
-12764 12763 78 0
-12764 -12763 -78 0
12764 -12763 78 0
12764 12763 -78 0
-12765 12764 84 0
-12765 -12764 -84 0
12765 -12764 84 0
12765 12764 -84 0
12766 12767 12768 12769 12770 12771 0
-12772 12767 12768 0
-12772 -12767 -12768 0
12772 -12767 12768 0
12772 12767 -12768 0
-12773 12772 12769 0
-12773 -12772 -12769 0
12773 -12772 12769 0
12773 12772 -12769 0
-12773 0
-12774 12766 0
-12774 12672 0
12774 -12766 -12672 0
-12775 12767 0
-12775 12680 0
12775 -12767 -12680 0
-12776 12768 0
-12776 12688 0
12776 -12768 -12688 0
-12777 12769 0
-12777 12696 0
12777 -12769 -12696 0
-12778 12770 0
-12778 12704 0
12778 -12770 -12704 0
-12779 12771 0
-12779 12712 0
12779 -12771 -12712 0
-12780 12774 12775 0
-12780 -12774 -12775 0
12780 -12774 12775 0
12780 12774 -12775 0
-12781 12780 12776 0
-12781 -12780 -12776 0
12781 -12780 12776 0
12781 12780 -12776 0
-12782 12781 12777 0
-12782 -12781 -12777 0
12782 -12781 12777 0
12782 12781 -12777 0
-12783 12782 12778 0
-12783 -12782 -12778 0
12783 -12782 12778 0
12783 12782 -12778 0
-12784 12783 12779 0
-12784 -12783 -12779 0
12784 -12783 12779 0
12784 12783 -12779 0
-12784 0
-12785 12766 0
-12785 12674 0
12785 -12766 -12674 0
-12786 12767 0
-12786 12682 0
12786 -12767 -12682 0
-12787 12768 0
-12787 12690 0
12787 -12768 -12690 0
-12788 12769 0
-12788 12698 0
12788 -12769 -12698 0
-12789 12770 0
-12789 12706 0
12789 -12770 -12706 0
-12790 12771 0
-12790 12714 0
12790 -12771 -12714 0
-12791 12785 12786 0
-12791 -12785 -12786 0
12791 -12785 12786 0
12791 12785 -12786 0
-12792 12791 12787 0
-12792 -12791 -12787 0
12792 -12791 12787 0
12792 12791 -12787 0
-12793 12792 12788 0
-12793 -12792 -12788 0
12793 -12792 12788 0
12793 12792 -12788 0
-12794 12793 12789 0
-12794 -12793 -12789 0
12794 -12793 12789 0
12794 12793 -12789 0
-12795 12794 12790 0
-12795 -12794 -12790 0
12795 -12794 12790 0
12795 12794 -12790 0
-12795 0
-12796 12766 0
-12796 12676 0
12796 -12766 -12676 0
-12797 12767 0
-12797 12684 0
12797 -12767 -12684 0
-12798 12768 0
-12798 12692 0
12798 -12768 -12692 0
-12799 12769 0
-12799 12700 0
12799 -12769 -12700 0
-12800 12770 0
-12800 12708 0
12800 -12770 -12708 0
-12801 12771 0
-12801 12716 0
12801 -12771 -12716 0
-12802 12796 12797 0
-12802 -12796 -12797 0
12802 -12796 12797 0
12802 12796 -12797 0
-12803 12802 12798 0
-12803 -12802 -12798 0
12803 -12802 12798 0
12803 12802 -12798 0
-12804 12803 12799 0
-12804 -12803 -12799 0
12804 -12803 12799 0
12804 12803 -12799 0
-12805 12804 12800 0
-12805 -12804 -12800 0
12805 -12804 12800 0
12805 12804 -12800 0
-12806 12805 12801 0
-12806 -12805 -12801 0
12806 -12805 12801 0
12806 12805 -12801 0
-12806 0
-12807 12766 0
-12807 12677 0
12807 -12766 -12677 0
-12808 12767 0
-12808 12685 0
12808 -12767 -12685 0
-12809 12768 0
-12809 12693 0
12809 -12768 -12693 0
-12810 12769 0
-12810 12701 0
12810 -12769 -12701 0
-12811 12770 0
-12811 12709 0
12811 -12770 -12709 0
-12812 12771 0
-12812 12717 0
12812 -12771 -12717 0
-12813 12807 12808 0
-12813 -12807 -12808 0
12813 -12807 12808 0
12813 12807 -12808 0
-12814 12813 12809 0
-12814 -12813 -12809 0
12814 -12813 12809 0
12814 12813 -12809 0
-12815 12814 12810 0
-12815 -12814 -12810 0
12815 -12814 12810 0
12815 12814 -12810 0
-12816 12815 12811 0
-12816 -12815 -12811 0
12816 -12815 12811 0
12816 12815 -12811 0
-12817 12816 12812 0
-12817 -12816 -12812 0
12817 -12816 12812 0
12817 12816 -12812 0
-12817 0
-12818 12766 0
-12818 12678 0
12818 -12766 -12678 0
-12819 12767 0
-12819 12686 0
12819 -12767 -12686 0
-12820 12768 0
-12820 12694 0
12820 -12768 -12694 0
-12821 12769 0
-12821 12702 0
12821 -12769 -12702 0
-12822 12770 0
-12822 12710 0
12822 -12770 -12710 0
-12823 12771 0
-12823 12718 0
12823 -12771 -12718 0
-12824 12818 12819 0
-12824 -12818 -12819 0
12824 -12818 12819 0
12824 12818 -12819 0
-12825 12824 12820 0
-12825 -12824 -12820 0
12825 -12824 12820 0
12825 12824 -12820 0
-12826 12825 12821 0
-12826 -12825 -12821 0
12826 -12825 12821 0
12826 12825 -12821 0
-12827 12826 12822 0
-12827 -12826 -12822 0
12827 -12826 12822 0
12827 12826 -12822 0
-12828 12827 12823 0
-12828 -12827 -12823 0
12828 -12827 12823 0
12828 12827 -12823 0
-12828 0
-12829 12766 0
-12829 12726 0
12829 -12766 -12726 0
-12830 12767 0
-12830 12734 0
12830 -12767 -12734 0
-12831 12768 0
-12831 12742 0
12831 -12768 -12742 0
-12832 12769 0
-12832 12750 0
12832 -12769 -12750 0
-12833 12770 0
-12833 12757 0
12833 -12770 -12757 0
-12834 12771 0
-12834 12765 0
12834 -12771 -12765 0
-12835 12829 12830 0
-12835 -12829 -12830 0
12835 -12829 12830 0
12835 12829 -12830 0
-12836 12835 12831 0
-12836 -12835 -12831 0
12836 -12835 12831 0
12836 12835 -12831 0
-12837 12836 12832 0
-12837 -12836 -12832 0
12837 -12836 12832 0
12837 12836 -12832 0
-12838 12837 12833 0
-12838 -12837 -12833 0
12838 -12837 12833 0
12838 12837 -12833 0
-12839 12838 12834 0
-12839 -12838 -12834 0
12839 -12838 12834 0
12839 12838 -12834 0
12840 12841 12842 12843 12844 12845 0
-12846 12841 12842 0
-12846 -12841 -12842 0
12846 -12841 12842 0
12846 12841 -12842 0
-12847 12846 12843 0
-12847 -12846 -12843 0
12847 -12846 12843 0
12847 12846 -12843 0
-12847 0
-12848 12840 0
-12848 12672 0
12848 -12840 -12672 0
-12849 12841 0
-12849 12680 0
12849 -12841 -12680 0
-12850 12842 0
-12850 12688 0
12850 -12842 -12688 0
-12851 12843 0
-12851 12696 0
12851 -12843 -12696 0
-12852 12844 0
-12852 12704 0
12852 -12844 -12704 0
-12853 12845 0
-12853 12712 0
12853 -12845 -12712 0
-12854 12848 12849 0
-12854 -12848 -12849 0
12854 -12848 12849 0
12854 12848 -12849 0
-12855 12854 12850 0
-12855 -12854 -12850 0
12855 -12854 12850 0
12855 12854 -12850 0
-12856 12855 12851 0
-12856 -12855 -12851 0
12856 -12855 12851 0
12856 12855 -12851 0
-12857 12856 12852 0
-12857 -12856 -12852 0
12857 -12856 12852 0
12857 12856 -12852 0
-12858 12857 12853 0
-12858 -12857 -12853 0
12858 -12857 12853 0
12858 12857 -12853 0
-12858 0
-12859 12840 0
-12859 12674 0
12859 -12840 -12674 0
-12860 12841 0
-12860 12682 0
12860 -12841 -12682 0
-12861 12842 0
-12861 12690 0
12861 -12842 -12690 0
-12862 12843 0
-12862 12698 0
12862 -12843 -12698 0
-12863 12844 0
-12863 12706 0
12863 -12844 -12706 0
-12864 12845 0
-12864 12714 0
12864 -12845 -12714 0
-12865 12859 12860 0
-12865 -12859 -12860 0
12865 -12859 12860 0
12865 12859 -12860 0
-12866 12865 12861 0
-12866 -12865 -12861 0
12866 -12865 12861 0
12866 12865 -12861 0
-12867 12866 12862 0
-12867 -12866 -12862 0
12867 -12866 12862 0
12867 12866 -12862 0
-12868 12867 12863 0
-12868 -12867 -12863 0
12868 -12867 12863 0
12868 12867 -12863 0
-12869 12868 12864 0
-12869 -12868 -12864 0
12869 -12868 12864 0
12869 12868 -12864 0
-12869 0
-12870 12840 0
-12870 12676 0
12870 -12840 -12676 0
-12871 12841 0
-12871 12684 0
12871 -12841 -12684 0
-12872 12842 0
-12872 12692 0
12872 -12842 -12692 0
-12873 12843 0
-12873 12700 0
12873 -12843 -12700 0
-12874 12844 0
-12874 12708 0
12874 -12844 -12708 0
-12875 12845 0
-12875 12716 0
12875 -12845 -12716 0
-12876 12870 12871 0
-12876 -12870 -12871 0
12876 -12870 12871 0
12876 12870 -12871 0
-12877 12876 12872 0
-12877 -12876 -12872 0
12877 -12876 12872 0
12877 12876 -12872 0
-12878 12877 12873 0
-12878 -12877 -12873 0
12878 -12877 12873 0
12878 12877 -12873 0
-12879 12878 12874 0
-12879 -12878 -12874 0
12879 -12878 12874 0
12879 12878 -12874 0
-12880 12879 12875 0
-12880 -12879 -12875 0
12880 -12879 12875 0
12880 12879 -12875 0
-12880 0
-12881 12840 0
-12881 12677 0
12881 -12840 -12677 0
-12882 12841 0
-12882 12685 0
12882 -12841 -12685 0
-12883 12842 0
-12883 12693 0
12883 -12842 -12693 0
-12884 12843 0
-12884 12701 0
12884 -12843 -12701 0
-12885 12844 0
-12885 12709 0
12885 -12844 -12709 0
-12886 12845 0
-12886 12717 0
12886 -12845 -12717 0
-12887 12881 12882 0
-12887 -12881 -12882 0
12887 -12881 12882 0
12887 12881 -12882 0
-12888 12887 12883 0
-12888 -12887 -12883 0
12888 -12887 12883 0
12888 12887 -12883 0
-12889 12888 12884 0
-12889 -12888 -12884 0
12889 -12888 12884 0
12889 12888 -12884 0
-12890 12889 12885 0
-12890 -12889 -12885 0
12890 -12889 12885 0
12890 12889 -12885 0
-12891 12890 12886 0
-12891 -12890 -12886 0
12891 -12890 12886 0
12891 12890 -12886 0
-12891 0
-12892 12840 0
-12892 12678 0
12892 -12840 -12678 0
-12893 12841 0
-12893 12686 0
12893 -12841 -12686 0
-12894 12842 0
-12894 12694 0
12894 -12842 -12694 0
-12895 12843 0
-12895 12702 0
12895 -12843 -12702 0
-12896 12844 0
-12896 12710 0
12896 -12844 -12710 0
-12897 12845 0
-12897 12718 0
12897 -12845 -12718 0
-12898 12892 12893 0
-12898 -12892 -12893 0
12898 -12892 12893 0
12898 12892 -12893 0
-12899 12898 12894 0
-12899 -12898 -12894 0
12899 -12898 12894 0
12899 12898 -12894 0
-12900 12899 12895 0
-12900 -12899 -12895 0
12900 -12899 12895 0
12900 12899 -12895 0
-12901 12900 12896 0
-12901 -12900 -12896 0
12901 -12900 12896 0
12901 12900 -12896 0
-12902 12901 12897 0
-12902 -12901 -12897 0
12902 -12901 12897 0
12902 12901 -12897 0
-12902 0
-12903 12840 0
-12903 12726 0
12903 -12840 -12726 0
-12904 12841 0
-12904 12734 0
12904 -12841 -12734 0
-12905 12842 0
-12905 12742 0
12905 -12842 -12742 0
-12906 12843 0
-12906 12750 0
12906 -12843 -12750 0
-12907 12844 0
-12907 12757 0
12907 -12844 -12757 0
-12908 12845 0
-12908 12765 0
12908 -12845 -12765 0
-12909 12903 12904 0
-12909 -12903 -12904 0
12909 -12903 12904 0
12909 12903 -12904 0
-12910 12909 12905 0
-12910 -12909 -12905 0
12910 -12909 12905 0
12910 12909 -12905 0
-12911 12910 12906 0
-12911 -12910 -12906 0
12911 -12910 12906 0
12911 12910 -12906 0
-12912 12911 12907 0
-12912 -12911 -12907 0
12912 -12911 12907 0
12912 12911 -12907 0
-12913 12912 12908 0
-12913 -12912 -12908 0
12913 -12912 12908 0
12913 12912 -12908 0
-12914 12766 12840 0
-12914 -12766 -12840 0
12914 -12766 12840 0
12914 12766 -12840 0
-12915 12767 12841 0
-12915 -12767 -12841 0
12915 -12767 12841 0
12915 12767 -12841 0
-12916 12768 12842 0
-12916 -12768 -12842 0
12916 -12768 12842 0
12916 12768 -12842 0
-12917 12769 12843 0
-12917 -12769 -12843 0
12917 -12769 12843 0
12917 12769 -12843 0
-12918 12770 12844 0
-12918 -12770 -12844 0
12918 -12770 12844 0
12918 12770 -12844 0
-12919 12771 12845 0
-12919 -12771 -12845 0
12919 -12771 12845 0
12919 12771 -12845 0
12914 12915 12916 12917 12918 12919 0
12839 12913 0
-12920 31 37 0
-12920 -31 -37 0
12920 -31 37 0
12920 31 -37 0
-12921 12920 43 0
-12921 -12920 -43 0
12921 -12920 43 0
12921 12920 -43 0
-12922 12921 49 0
-12922 -12921 -49 0
12922 -12921 49 0
12922 12921 -49 0
-12923 61 67 0
-12923 -61 -67 0
12923 -61 67 0
12923 61 -67 0
-12924 73 79 0
-12924 -73 -79 0
12924 -73 79 0
12924 73 -79 0
-12925 61 73 0
-12925 -61 -73 0
12925 -61 73 0
12925 61 -73 0
-12926 67 79 0
-12926 -67 -79 0
12926 -67 79 0
12926 67 -79 0
-12927 32 38 0
-12927 -32 -38 0
12927 -32 38 0
12927 32 -38 0
-12928 12927 44 0
-12928 -12927 -44 0
12928 -12927 44 0
12928 12927 -44 0
-12929 12928 50 0
-12929 -12928 -50 0
12929 -12928 50 0
12929 12928 -50 0
-12930 62 68 0
-12930 -62 -68 0
12930 -62 68 0
12930 62 -68 0
-12931 74 80 0
-12931 -74 -80 0
12931 -74 80 0
12931 74 -80 0
-12932 62 74 0
-12932 -62 -74 0
12932 -62 74 0
12932 62 -74 0
-12933 68 80 0
-12933 -68 -80 0
12933 -68 80 0
12933 68 -80 0
-12934 33 39 0
-12934 -33 -39 0
12934 -33 39 0
12934 33 -39 0
-12935 12934 45 0
-12935 -12934 -45 0
12935 -12934 45 0
12935 12934 -45 0
-12936 12935 51 0
-12936 -12935 -51 0
12936 -12935 51 0
12936 12935 -51 0
-12937 63 69 0
-12937 -63 -69 0
12937 -63 69 0
12937 63 -69 0
-12938 75 81 0
-12938 -75 -81 0
12938 -75 81 0
12938 75 -81 0
-12939 63 75 0
-12939 -63 -75 0
12939 -63 75 0
12939 63 -75 0
-12940 69 81 0
-12940 -69 -81 0
12940 -69 81 0
12940 69 -81 0
-12941 34 40 0
-12941 -34 -40 0
12941 -34 40 0
12941 34 -40 0
-12942 12941 46 0
-12942 -12941 -46 0
12942 -12941 46 0
12942 12941 -46 0
-12943 12942 52 0
-12943 -12942 -52 0
12943 -12942 52 0
12943 12942 -52 0
-12944 64 70 0
-12944 -64 -70 0
12944 -64 70 0
12944 64 -70 0
-12945 76 82 0
-12945 -76 -82 0
12945 -76 82 0
12945 76 -82 0
-12946 64 76 0
-12946 -64 -76 0
12946 -64 76 0
12946 64 -76 0
-12947 70 82 0
-12947 -70 -82 0
12947 -70 82 0
12947 70 -82 0
-12948 35 41 0
-12948 -35 -41 0
12948 -35 41 0
12948 35 -41 0
-12949 12948 47 0
-12949 -12948 -47 0
12949 -12948 47 0
12949 12948 -47 0
-12950 12949 53 0
-12950 -12949 -53 0
12950 -12949 53 0
12950 12949 -53 0
-12951 65 71 0
-12951 -65 -71 0
12951 -65 71 0
12951 65 -71 0
-12952 77 83 0
-12952 -77 -83 0
12952 -77 83 0
12952 77 -83 0
-12953 65 77 0
-12953 -65 -77 0
12953 -65 77 0
12953 65 -77 0
-12954 71 83 0
-12954 -71 -83 0
12954 -71 83 0
12954 71 -83 0
-12955 36 42 0
-12955 -36 -42 0
12955 -36 42 0
12955 36 -42 0
-12956 12955 48 0
-12956 -12955 -48 0
12956 -12955 48 0
12956 12955 -48 0
-12957 12956 54 0
-12957 -12956 -54 0
12957 -12956 54 0
12957 12956 -54 0
-12958 66 72 0
-12958 -66 -72 0
12958 -66 72 0
12958 66 -72 0
-12959 78 84 0
-12959 -78 -84 0
12959 -78 84 0
12959 78 -84 0
-12960 66 78 0
-12960 -66 -78 0
12960 -66 78 0
12960 66 -78 0
-12961 72 84 0
-12961 -72 -84 0
12961 -72 84 0
12961 72 -84 0
-12962 103 109 0
-12962 -103 -109 0
12962 -103 109 0
12962 103 -109 0
-12963 12962 115 0
-12963 -12962 -115 0
12963 -12962 115 0
12963 12962 -115 0
-12964 12963 121 0
-12964 -12963 -121 0
12964 -12963 121 0
12964 12963 -121 0
-12965 12964 61 0
-12965 -12964 -61 0
12965 -12964 61 0
12965 12964 -61 0
-12966 12965 67 0
-12966 -12965 -67 0
12966 -12965 67 0
12966 12965 -67 0
-12967 12966 73 0
-12967 -12966 -73 0
12967 -12966 73 0
12967 12966 -73 0
-12968 12967 79 0
-12968 -12967 -79 0
12968 -12967 79 0
12968 12967 -79 0
-12969 104 110 0
-12969 -104 -110 0
12969 -104 110 0
12969 104 -110 0
-12970 12969 116 0
-12970 -12969 -116 0
12970 -12969 116 0
12970 12969 -116 0
-12971 12970 122 0
-12971 -12970 -122 0
12971 -12970 122 0
12971 12970 -122 0
-12972 12971 62 0
-12972 -12971 -62 0
12972 -12971 62 0
12972 12971 -62 0
-12973 12972 68 0
-12973 -12972 -68 0
12973 -12972 68 0
12973 12972 -68 0
-12974 12973 74 0
-12974 -12973 -74 0
12974 -12973 74 0
12974 12973 -74 0
-12975 12974 80 0
-12975 -12974 -80 0
12975 -12974 80 0
12975 12974 -80 0
-12976 105 111 0
-12976 -105 -111 0
12976 -105 111 0
12976 105 -111 0
-12977 12976 117 0
-12977 -12976 -117 0
12977 -12976 117 0
12977 12976 -117 0
-12978 12977 123 0
-12978 -12977 -123 0
12978 -12977 123 0
12978 12977 -123 0
-12979 12978 63 0
-12979 -12978 -63 0
12979 -12978 63 0
12979 12978 -63 0
-12980 12979 69 0
-12980 -12979 -69 0
12980 -12979 69 0
12980 12979 -69 0
-12981 12980 75 0
-12981 -12980 -75 0
12981 -12980 75 0
12981 12980 -75 0
-12982 12981 81 0
-12982 -12981 -81 0
12982 -12981 81 0
12982 12981 -81 0
-12983 106 112 0
-12983 -106 -112 0
12983 -106 112 0
12983 106 -112 0
-12984 12983 118 0
-12984 -12983 -118 0
12984 -12983 118 0
12984 12983 -118 0
-12985 12984 124 0
-12985 -12984 -124 0
12985 -12984 124 0
12985 12984 -124 0
-12986 12985 64 0
-12986 -12985 -64 0
12986 -12985 64 0
12986 12985 -64 0
-12987 12986 70 0
-12987 -12986 -70 0
12987 -12986 70 0
12987 12986 -70 0
-12988 12987 76 0
-12988 -12987 -76 0
12988 -12987 76 0
12988 12987 -76 0
-12989 12988 82 0
-12989 -12988 -82 0
12989 -12988 82 0
12989 12988 -82 0
-12990 107 113 0
-12990 -107 -113 0
12990 -107 113 0
12990 107 -113 0
-12991 12990 119 0
-12991 -12990 -119 0
12991 -12990 119 0
12991 12990 -119 0
-12992 12991 125 0
-12992 -12991 -125 0
12992 -12991 125 0
12992 12991 -125 0
-12993 12992 65 0
-12993 -12992 -65 0
12993 -12992 65 0
12993 12992 -65 0
-12994 12993 71 0
-12994 -12993 -71 0
12994 -12993 71 0
12994 12993 -71 0
-12995 12994 77 0
-12995 -12994 -77 0
12995 -12994 77 0
12995 12994 -77 0
-12996 12995 83 0
-12996 -12995 -83 0
12996 -12995 83 0
12996 12995 -83 0
-12997 108 114 0
-12997 -108 -114 0
12997 -108 114 0
12997 108 -114 0
-12998 12997 120 0
-12998 -12997 -120 0
12998 -12997 120 0
12998 12997 -120 0
-12999 12998 126 0
-12999 -12998 -126 0
12999 -12998 126 0
12999 12998 -126 0
-13000 12999 66 0
-13000 -12999 -66 0
13000 -12999 66 0
13000 12999 -66 0
-13001 13000 72 0
-13001 -13000 -72 0
13001 -13000 72 0
13001 13000 -72 0
-13002 13001 78 0
-13002 -13001 -78 0
13002 -13001 78 0
13002 13001 -78 0
-13003 13002 84 0
-13003 -13002 -84 0
13003 -13002 84 0
13003 13002 -84 0
13004 13005 13006 13007 13008 13009 0
-13010 13004 13005 0
-13010 -13004 -13005 0
13010 -13004 13005 0
13010 13004 -13005 0
-13011 13010 13006 0
-13011 -13010 -13006 0
13011 -13010 13006 0
13011 13010 -13006 0
-13012 13011 13007 0
-13012 -13011 -13007 0
13012 -13011 13007 0
13012 13011 -13007 0
-13012 0
-13013 13004 0
-13013 12922 0
13013 -13004 -12922 0
-13014 13005 0
-13014 12929 0
13014 -13005 -12929 0
-13015 13006 0
-13015 12936 0
13015 -13006 -12936 0
-13016 13007 0
-13016 12943 0
13016 -13007 -12943 0
-13017 13008 0
-13017 12950 0
13017 -13008 -12950 0
-13018 13009 0
-13018 12957 0
13018 -13009 -12957 0
-13019 13013 13014 0
-13019 -13013 -13014 0
13019 -13013 13014 0
13019 13013 -13014 0
-13020 13019 13015 0
-13020 -13019 -13015 0
13020 -13019 13015 0
13020 13019 -13015 0
-13021 13020 13016 0
-13021 -13020 -13016 0
13021 -13020 13016 0
13021 13020 -13016 0
-13022 13021 13017 0
-13022 -13021 -13017 0
13022 -13021 13017 0
13022 13021 -13017 0
-13023 13022 13018 0
-13023 -13022 -13018 0
13023 -13022 13018 0
13023 13022 -13018 0
-13023 0
-13024 13004 0
-13024 12923 0
13024 -13004 -12923 0
-13025 13005 0
-13025 12930 0
13025 -13005 -12930 0
-13026 13006 0
-13026 12937 0
13026 -13006 -12937 0
-13027 13007 0
-13027 12944 0
13027 -13007 -12944 0
-13028 13008 0
-13028 12951 0
13028 -13008 -12951 0
-13029 13009 0
-13029 12958 0
13029 -13009 -12958 0
-13030 13024 13025 0
-13030 -13024 -13025 0
13030 -13024 13025 0
13030 13024 -13025 0
-13031 13030 13026 0
-13031 -13030 -13026 0
13031 -13030 13026 0
13031 13030 -13026 0
-13032 13031 13027 0
-13032 -13031 -13027 0
13032 -13031 13027 0
13032 13031 -13027 0
-13033 13032 13028 0
-13033 -13032 -13028 0
13033 -13032 13028 0
13033 13032 -13028 0
-13034 13033 13029 0
-13034 -13033 -13029 0
13034 -13033 13029 0
13034 13033 -13029 0
-13034 0
-13035 13004 0
-13035 12924 0
13035 -13004 -12924 0
-13036 13005 0
-13036 12931 0
13036 -13005 -12931 0
-13037 13006 0
-13037 12938 0
13037 -13006 -12938 0
-13038 13007 0
-13038 12945 0
13038 -13007 -12945 0
-13039 13008 0
-13039 12952 0
13039 -13008 -12952 0
-13040 13009 0
-13040 12959 0
13040 -13009 -12959 0
-13041 13035 13036 0
-13041 -13035 -13036 0
13041 -13035 13036 0
13041 13035 -13036 0
-13042 13041 13037 0
-13042 -13041 -13037 0
13042 -13041 13037 0
13042 13041 -13037 0
-13043 13042 13038 0
-13043 -13042 -13038 0
13043 -13042 13038 0
13043 13042 -13038 0
-13044 13043 13039 0
-13044 -13043 -13039 0
13044 -13043 13039 0
13044 13043 -13039 0
-13045 13044 13040 0
-13045 -13044 -13040 0
13045 -13044 13040 0
13045 13044 -13040 0
-13045 0
-13046 13004 0
-13046 12925 0
13046 -13004 -12925 0
-13047 13005 0
-13047 12932 0
13047 -13005 -12932 0
-13048 13006 0
-13048 12939 0
13048 -13006 -12939 0
-13049 13007 0
-13049 12946 0
13049 -13007 -12946 0
-13050 13008 0
-13050 12953 0
13050 -13008 -12953 0
-13051 13009 0
-13051 12960 0
13051 -13009 -12960 0
-13052 13046 13047 0
-13052 -13046 -13047 0
13052 -13046 13047 0
13052 13046 -13047 0
-13053 13052 13048 0
-13053 -13052 -13048 0
13053 -13052 13048 0
13053 13052 -13048 0
-13054 13053 13049 0
-13054 -13053 -13049 0
13054 -13053 13049 0
13054 13053 -13049 0
-13055 13054 13050 0
-13055 -13054 -13050 0
13055 -13054 13050 0
13055 13054 -13050 0
-13056 13055 13051 0
-13056 -13055 -13051 0
13056 -13055 13051 0
13056 13055 -13051 0
-13056 0
-13057 13004 0
-13057 12926 0
13057 -13004 -12926 0
-13058 13005 0
-13058 12933 0
13058 -13005 -12933 0
-13059 13006 0
-13059 12940 0
13059 -13006 -12940 0
-13060 13007 0
-13060 12947 0
13060 -13007 -12947 0
-13061 13008 0
-13061 12954 0
13061 -13008 -12954 0
-13062 13009 0
-13062 12961 0
13062 -13009 -12961 0
-13063 13057 13058 0
-13063 -13057 -13058 0
13063 -13057 13058 0
13063 13057 -13058 0
-13064 13063 13059 0
-13064 -13063 -13059 0
13064 -13063 13059 0
13064 13063 -13059 0
-13065 13064 13060 0
-13065 -13064 -13060 0
13065 -13064 13060 0
13065 13064 -13060 0
-13066 13065 13061 0
-13066 -13065 -13061 0
13066 -13065 13061 0
13066 13065 -13061 0
-13067 13066 13062 0
-13067 -13066 -13062 0
13067 -13066 13062 0
13067 13066 -13062 0
-13067 0
-13068 13004 0
-13068 12968 0
13068 -13004 -12968 0
-13069 13005 0
-13069 12975 0
13069 -13005 -12975 0
-13070 13006 0
-13070 12982 0
13070 -13006 -12982 0
-13071 13007 0
-13071 12989 0
13071 -13007 -12989 0
-13072 13008 0
-13072 12996 0
13072 -13008 -12996 0
-13073 13009 0
-13073 13003 0
13073 -13009 -13003 0
-13074 13068 13069 0
-13074 -13068 -13069 0
13074 -13068 13069 0
13074 13068 -13069 0
-13075 13074 13070 0
-13075 -13074 -13070 0
13075 -13074 13070 0
13075 13074 -13070 0
-13076 13075 13071 0
-13076 -13075 -13071 0
13076 -13075 13071 0
13076 13075 -13071 0
-13077 13076 13072 0
-13077 -13076 -13072 0
13077 -13076 13072 0
13077 13076 -13072 0
-13078 13077 13073 0
-13078 -13077 -13073 0
13078 -13077 13073 0
13078 13077 -13073 0
13079 13080 13081 13082 13083 13084 0
-13085 13079 13080 0
-13085 -13079 -13080 0
13085 -13079 13080 0
13085 13079 -13080 0
-13086 13085 13081 0
-13086 -13085 -13081 0
13086 -13085 13081 0
13086 13085 -13081 0
-13087 13086 13082 0
-13087 -13086 -13082 0
13087 -13086 13082 0
13087 13086 -13082 0
-13087 0
-13088 13079 0
-13088 12922 0
13088 -13079 -12922 0
-13089 13080 0
-13089 12929 0
13089 -13080 -12929 0
-13090 13081 0
-13090 12936 0
13090 -13081 -12936 0
-13091 13082 0
-13091 12943 0
13091 -13082 -12943 0
-13092 13083 0
-13092 12950 0
13092 -13083 -12950 0
-13093 13084 0
-13093 12957 0
13093 -13084 -12957 0
-13094 13088 13089 0
-13094 -13088 -13089 0
13094 -13088 13089 0
13094 13088 -13089 0
-13095 13094 13090 0
-13095 -13094 -13090 0
13095 -13094 13090 0
13095 13094 -13090 0
-13096 13095 13091 0
-13096 -13095 -13091 0
13096 -13095 13091 0
13096 13095 -13091 0
-13097 13096 13092 0
-13097 -13096 -13092 0
13097 -13096 13092 0
13097 13096 -13092 0
-13098 13097 13093 0
-13098 -13097 -13093 0
13098 -13097 13093 0
13098 13097 -13093 0
-13098 0
-13099 13079 0
-13099 12923 0
13099 -13079 -12923 0
-13100 13080 0
-13100 12930 0
13100 -13080 -12930 0
-13101 13081 0
-13101 12937 0
13101 -13081 -12937 0
-13102 13082 0
-13102 12944 0
13102 -13082 -12944 0
-13103 13083 0
-13103 12951 0
13103 -13083 -12951 0
-13104 13084 0
-13104 12958 0
13104 -13084 -12958 0
-13105 13099 13100 0
-13105 -13099 -13100 0
13105 -13099 13100 0
13105 13099 -13100 0
-13106 13105 13101 0
-13106 -13105 -13101 0
13106 -13105 13101 0
13106 13105 -13101 0
-13107 13106 13102 0
-13107 -13106 -13102 0
13107 -13106 13102 0
13107 13106 -13102 0
-13108 13107 13103 0
-13108 -13107 -13103 0
13108 -13107 13103 0
13108 13107 -13103 0
-13109 13108 13104 0
-13109 -13108 -13104 0
13109 -13108 13104 0
13109 13108 -13104 0
-13109 0
-13110 13079 0
-13110 12924 0
13110 -13079 -12924 0
-13111 13080 0
-13111 12931 0
13111 -13080 -12931 0
-13112 13081 0
-13112 12938 0
13112 -13081 -12938 0
-13113 13082 0
-13113 12945 0
13113 -13082 -12945 0
-13114 13083 0
-13114 12952 0
13114 -13083 -12952 0
-13115 13084 0
-13115 12959 0
13115 -13084 -12959 0
-13116 13110 13111 0
-13116 -13110 -13111 0
13116 -13110 13111 0
13116 13110 -13111 0
-13117 13116 13112 0
-13117 -13116 -13112 0
13117 -13116 13112 0
13117 13116 -13112 0
-13118 13117 13113 0
-13118 -13117 -13113 0
13118 -13117 13113 0
13118 13117 -13113 0
-13119 13118 13114 0
-13119 -13118 -13114 0
13119 -13118 13114 0
13119 13118 -13114 0
-13120 13119 13115 0
-13120 -13119 -13115 0
13120 -13119 13115 0
13120 13119 -13115 0
-13120 0
-13121 13079 0
-13121 12925 0
13121 -13079 -12925 0
-13122 13080 0
-13122 12932 0
13122 -13080 -12932 0
-13123 13081 0
-13123 12939 0
13123 -13081 -12939 0
-13124 13082 0
-13124 12946 0
13124 -13082 -12946 0
-13125 13083 0
-13125 12953 0
13125 -13083 -12953 0
-13126 13084 0
-13126 12960 0
13126 -13084 -12960 0
-13127 13121 13122 0
-13127 -13121 -13122 0
13127 -13121 13122 0
13127 13121 -13122 0
-13128 13127 13123 0
-13128 -13127 -13123 0
13128 -13127 13123 0
13128 13127 -13123 0
-13129 13128 13124 0
-13129 -13128 -13124 0
13129 -13128 13124 0
13129 13128 -13124 0
-13130 13129 13125 0
-13130 -13129 -13125 0
13130 -13129 13125 0
13130 13129 -13125 0
-13131 13130 13126 0
-13131 -13130 -13126 0
13131 -13130 13126 0
13131 13130 -13126 0
-13131 0
-13132 13079 0
-13132 12926 0
13132 -13079 -12926 0
-13133 13080 0
-13133 12933 0
13133 -13080 -12933 0
-13134 13081 0
-13134 12940 0
13134 -13081 -12940 0
-13135 13082 0
-13135 12947 0
13135 -13082 -12947 0
-13136 13083 0
-13136 12954 0
13136 -13083 -12954 0
-13137 13084 0
-13137 12961 0
13137 -13084 -12961 0
-13138 13132 13133 0
-13138 -13132 -13133 0
13138 -13132 13133 0
13138 13132 -13133 0
-13139 13138 13134 0
-13139 -13138 -13134 0
13139 -13138 13134 0
13139 13138 -13134 0
-13140 13139 13135 0
-13140 -13139 -13135 0
13140 -13139 13135 0
13140 13139 -13135 0
-13141 13140 13136 0
-13141 -13140 -13136 0
13141 -13140 13136 0
13141 13140 -13136 0
-13142 13141 13137 0
-13142 -13141 -13137 0
13142 -13141 13137 0
13142 13141 -13137 0
-13142 0
-13143 13079 0
-13143 12968 0
13143 -13079 -12968 0
-13144 13080 0
-13144 12975 0
13144 -13080 -12975 0
-13145 13081 0
-13145 12982 0
13145 -13081 -12982 0
-13146 13082 0
-13146 12989 0
13146 -13082 -12989 0
-13147 13083 0
-13147 12996 0
13147 -13083 -12996 0
-13148 13084 0
-13148 13003 0
13148 -13084 -13003 0
-13149 13143 13144 0
-13149 -13143 -13144 0
13149 -13143 13144 0
13149 13143 -13144 0
-13150 13149 13145 0
-13150 -13149 -13145 0
13150 -13149 13145 0
13150 13149 -13145 0
-13151 13150 13146 0
-13151 -13150 -13146 0
13151 -13150 13146 0
13151 13150 -13146 0
-13152 13151 13147 0
-13152 -13151 -13147 0
13152 -13151 13147 0
13152 13151 -13147 0
-13153 13152 13148 0
-13153 -13152 -13148 0
13153 -13152 13148 0
13153 13152 -13148 0
-13154 13004 13079 0
-13154 -13004 -13079 0
13154 -13004 13079 0
13154 13004 -13079 0
-13155 13005 13080 0
-13155 -13005 -13080 0
13155 -13005 13080 0
13155 13005 -13080 0
-13156 13006 13081 0
-13156 -13006 -13081 0
13156 -13006 13081 0
13156 13006 -13081 0
-13157 13007 13082 0
-13157 -13007 -13082 0
13157 -13007 13082 0
13157 13007 -13082 0
-13158 13008 13083 0
-13158 -13008 -13083 0
13158 -13008 13083 0
13158 13008 -13083 0
-13159 13009 13084 0
-13159 -13009 -13084 0
13159 -13009 13084 0
13159 13009 -13084 0
13154 13155 13156 13157 13158 13159 0
13078 13153 0
-13160 31 37 0
-13160 -31 -37 0
13160 -31 37 0
13160 31 -37 0
-13161 13160 43 0
-13161 -13160 -43 0
13161 -13160 43 0
13161 13160 -43 0
-13162 13161 49 0
-13162 -13161 -49 0
13162 -13161 49 0
13162 13161 -49 0
-13163 -61 67 0
-13163 61 -67 0
13163 61 67 0
13163 -61 -67 0
-13164 73 79 0
-13164 -73 -79 0
13164 -73 79 0
13164 73 -79 0
-13165 61 73 0
-13165 -61 -73 0
13165 -61 73 0
13165 61 -73 0
-13166 67 79 0
-13166 -67 -79 0
13166 -67 79 0
13166 67 -79 0
-13167 32 38 0
-13167 -32 -38 0
13167 -32 38 0
13167 32 -38 0
-13168 13167 44 0
-13168 -13167 -44 0
13168 -13167 44 0
13168 13167 -44 0
-13169 13168 50 0
-13169 -13168 -50 0
13169 -13168 50 0
13169 13168 -50 0
-13170 62 68 0
-13170 -62 -68 0
13170 -62 68 0
13170 62 -68 0
-13171 -74 80 0
-13171 74 -80 0
13171 74 80 0
13171 -74 -80 0
-13172 62 74 0
-13172 -62 -74 0
13172 -62 74 0
13172 62 -74 0
-13173 68 80 0
-13173 -68 -80 0
13173 -68 80 0
13173 68 -80 0
-13174 33 39 0
-13174 -33 -39 0
13174 -33 39 0
13174 33 -39 0
-13175 13174 45 0
-13175 -13174 -45 0
13175 -13174 45 0
13175 13174 -45 0
-13176 13175 51 0
-13176 -13175 -51 0
13176 -13175 51 0
13176 13175 -51 0
-13177 63 69 0
-13177 -63 -69 0
13177 -63 69 0
13177 63 -69 0
-13178 75 81 0
-13178 -75 -81 0
13178 -75 81 0
13178 75 -81 0
-13179 -63 75 0
-13179 63 -75 0
13179 63 75 0
13179 -63 -75 0
-13180 69 81 0
-13180 -69 -81 0
13180 -69 81 0
13180 69 -81 0
-13181 34 40 0
-13181 -34 -40 0
13181 -34 40 0
13181 34 -40 0
-13182 13181 46 0
-13182 -13181 -46 0
13182 -13181 46 0
13182 13181 -46 0
-13183 13182 52 0
-13183 -13182 -52 0
13183 -13182 52 0
13183 13182 -52 0
-13184 64 70 0
-13184 -64 -70 0
13184 -64 70 0
13184 64 -70 0
-13185 76 82 0
-13185 -76 -82 0
13185 -76 82 0
13185 76 -82 0
-13186 64 76 0
-13186 -64 -76 0
13186 -64 76 0
13186 64 -76 0
-13187 -70 82 0
-13187 70 -82 0
13187 70 82 0
13187 -70 -82 0
-13188 35 41 0
-13188 -35 -41 0
13188 -35 41 0
13188 35 -41 0
-13189 13188 47 0
-13189 -13188 -47 0
13189 -13188 47 0
13189 13188 -47 0
-13190 13189 53 0
-13190 -13189 -53 0
13190 -13189 53 0
13190 13189 -53 0
-13191 65 71 0
-13191 -65 -71 0
13191 -65 71 0
13191 65 -71 0
-13192 77 83 0
-13192 -77 -83 0
13192 -77 83 0
13192 77 -83 0
-13193 65 77 0
-13193 -65 -77 0
13193 -65 77 0
13193 65 -77 0
-13194 71 83 0
-13194 -71 -83 0
13194 -71 83 0
13194 71 -83 0
-13195 36 42 0
-13195 -36 -42 0
13195 -36 42 0
13195 36 -42 0
-13196 13195 48 0
-13196 -13195 -48 0
13196 -13195 48 0
13196 13195 -48 0
-13197 13196 54 0
-13197 -13196 -54 0
13197 -13196 54 0
13197 13196 -54 0
-13198 66 72 0
-13198 -66 -72 0
13198 -66 72 0
13198 66 -72 0
-13199 78 84 0
-13199 -78 -84 0
13199 -78 84 0
13199 78 -84 0
-13200 66 78 0
-13200 -66 -78 0
13200 -66 78 0
13200 66 -78 0
-13201 72 84 0
-13201 -72 -84 0
13201 -72 84 0
13201 72 -84 0
-13202 103 109 0
-13202 -103 -109 0
13202 -103 109 0
13202 103 -109 0
-13203 13202 115 0
-13203 -13202 -115 0
13203 -13202 115 0
13203 13202 -115 0
-13204 13203 121 0
-13204 -13203 -121 0
13204 -13203 121 0
13204 13203 -121 0
-13205 -13204 61 0
-13205 13204 -61 0
13205 13204 61 0
13205 -13204 -61 0
-13206 13205 67 0
-13206 -13205 -67 0
13206 -13205 67 0
13206 13205 -67 0
-13207 13206 73 0
-13207 -13206 -73 0
13207 -13206 73 0
13207 13206 -73 0
-13208 13207 79 0
-13208 -13207 -79 0
13208 -13207 79 0
13208 13207 -79 0
-13209 104 110 0
-13209 -104 -110 0
13209 -104 110 0
13209 104 -110 0
-13210 13209 116 0
-13210 -13209 -116 0
13210 -13209 116 0
13210 13209 -116 0
-13211 13210 122 0
-13211 -13210 -122 0
13211 -13210 122 0
13211 13210 -122 0
-13212 -13211 62 0
-13212 13211 -62 0
13212 13211 62 0
13212 -13211 -62 0
-13213 13212 68 0
-13213 -13212 -68 0
13213 -13212 68 0
13213 13212 -68 0
-13214 13213 74 0
-13214 -13213 -74 0
13214 -13213 74 0
13214 13213 -74 0
-13215 13214 80 0
-13215 -13214 -80 0
13215 -13214 80 0
13215 13214 -80 0
-13216 105 111 0
-13216 -105 -111 0
13216 -105 111 0
13216 105 -111 0
-13217 13216 117 0
-13217 -13216 -117 0
13217 -13216 117 0
13217 13216 -117 0
-13218 13217 123 0
-13218 -13217 -123 0
13218 -13217 123 0
13218 13217 -123 0
-13219 -13218 63 0
-13219 13218 -63 0
13219 13218 63 0
13219 -13218 -63 0
-13220 13219 69 0
-13220 -13219 -69 0
13220 -13219 69 0
13220 13219 -69 0
-13221 13220 75 0
-13221 -13220 -75 0
13221 -13220 75 0
13221 13220 -75 0
-13222 13221 81 0
-13222 -13221 -81 0
13222 -13221 81 0
13222 13221 -81 0
-13223 106 112 0
-13223 -106 -112 0
13223 -106 112 0
13223 106 -112 0
-13224 13223 118 0
-13224 -13223 -118 0
13224 -13223 118 0
13224 13223 -118 0
-13225 13224 124 0
-13225 -13224 -124 0
13225 -13224 124 0
13225 13224 -124 0
-13226 -13225 64 0
-13226 13225 -64 0
13226 13225 64 0
13226 -13225 -64 0
-13227 13226 70 0
-13227 -13226 -70 0
13227 -13226 70 0
13227 13226 -70 0
-13228 13227 76 0
-13228 -13227 -76 0
13228 -13227 76 0
13228 13227 -76 0
-13229 13228 82 0
-13229 -13228 -82 0
13229 -13228 82 0
13229 13228 -82 0
-13230 -107 113 0
-13230 107 -113 0
13230 107 113 0
13230 -107 -113 0
-13231 13230 119 0
-13231 -13230 -119 0
13231 -13230 119 0
13231 13230 -119 0
-13232 13231 125 0
-13232 -13231 -125 0
13232 -13231 125 0
13232 13231 -125 0
-13233 13232 65 0
-13233 -13232 -65 0
13233 -13232 65 0
13233 13232 -65 0
-13234 13233 71 0
-13234 -13233 -71 0
13234 -13233 71 0
13234 13233 -71 0
-13235 13234 77 0
-13235 -13234 -77 0
13235 -13234 77 0
13235 13234 -77 0
-13236 13235 83 0
-13236 -13235 -83 0
13236 -13235 83 0
13236 13235 -83 0
-13237 108 114 0
-13237 -108 -114 0
13237 -108 114 0
13237 108 -114 0
-13238 13237 120 0
-13238 -13237 -120 0
13238 -13237 120 0
13238 13237 -120 0
-13239 13238 126 0
-13239 -13238 -126 0
13239 -13238 126 0
13239 13238 -126 0
-13240 13239 66 0
-13240 -13239 -66 0
13240 -13239 66 0
13240 13239 -66 0
-13241 13240 72 0
-13241 -13240 -72 0
13241 -13240 72 0
13241 13240 -72 0
-13242 13241 78 0
-13242 -13241 -78 0
13242 -13241 78 0
13242 13241 -78 0
-13243 13242 84 0
-13243 -13242 -84 0
13243 -13242 84 0
13243 13242 -84 0
13244 13245 13246 13247 13248 13249 0
-13250 13244 13245 0
-13250 -13244 -13245 0
13250 -13244 13245 0
13250 13244 -13245 0
-13251 13250 13246 0
-13251 -13250 -13246 0
13251 -13250 13246 0
13251 13250 -13246 0
-13252 13251 13247 0
-13252 -13251 -13247 0
13252 -13251 13247 0
13252 13251 -13247 0
-13252 0
-13253 13244 0
-13253 13162 0
13253 -13244 -13162 0
-13254 13245 0
-13254 13169 0
13254 -13245 -13169 0
-13255 13246 0
-13255 13176 0
13255 -13246 -13176 0
-13256 13247 0
-13256 13183 0
13256 -13247 -13183 0
-13257 13248 0
-13257 13190 0
13257 -13248 -13190 0
-13258 13249 0
-13258 13197 0
13258 -13249 -13197 0
-13259 13253 13254 0
-13259 -13253 -13254 0
13259 -13253 13254 0
13259 13253 -13254 0
-13260 13259 13255 0
-13260 -13259 -13255 0
13260 -13259 13255 0
13260 13259 -13255 0
-13261 13260 13256 0
-13261 -13260 -13256 0
13261 -13260 13256 0
13261 13260 -13256 0
-13262 13261 13257 0
-13262 -13261 -13257 0
13262 -13261 13257 0
13262 13261 -13257 0
-13263 13262 13258 0
-13263 -13262 -13258 0
13263 -13262 13258 0
13263 13262 -13258 0
-13263 0
-13264 13244 0
-13264 13163 0
13264 -13244 -13163 0
-13265 13245 0
-13265 13170 0
13265 -13245 -13170 0
-13266 13246 0
-13266 13177 0
13266 -13246 -13177 0
-13267 13247 0
-13267 13184 0
13267 -13247 -13184 0
-13268 13248 0
-13268 13191 0
13268 -13248 -13191 0
-13269 13249 0
-13269 13198 0
13269 -13249 -13198 0
-13270 13264 13265 0
-13270 -13264 -13265 0
13270 -13264 13265 0
13270 13264 -13265 0
-13271 13270 13266 0
-13271 -13270 -13266 0
13271 -13270 13266 0
13271 13270 -13266 0
-13272 13271 13267 0
-13272 -13271 -13267 0
13272 -13271 13267 0
13272 13271 -13267 0
-13273 13272 13268 0
-13273 -13272 -13268 0
13273 -13272 13268 0
13273 13272 -13268 0
-13274 13273 13269 0
-13274 -13273 -13269 0
13274 -13273 13269 0
13274 13273 -13269 0
-13274 0
-13275 13244 0
-13275 13164 0
13275 -13244 -13164 0
-13276 13245 0
-13276 13171 0
13276 -13245 -13171 0
-13277 13246 0
-13277 13178 0
13277 -13246 -13178 0
-13278 13247 0
-13278 13185 0
13278 -13247 -13185 0
-13279 13248 0
-13279 13192 0
13279 -13248 -13192 0
-13280 13249 0
-13280 13199 0
13280 -13249 -13199 0
-13281 13275 13276 0
-13281 -13275 -13276 0
13281 -13275 13276 0
13281 13275 -13276 0
-13282 13281 13277 0
-13282 -13281 -13277 0
13282 -13281 13277 0
13282 13281 -13277 0
-13283 13282 13278 0
-13283 -13282 -13278 0
13283 -13282 13278 0
13283 13282 -13278 0
-13284 13283 13279 0
-13284 -13283 -13279 0
13284 -13283 13279 0
13284 13283 -13279 0
-13285 13284 13280 0
-13285 -13284 -13280 0
13285 -13284 13280 0
13285 13284 -13280 0
-13285 0
-13286 13244 0
-13286 13165 0
13286 -13244 -13165 0
-13287 13245 0
-13287 13172 0
13287 -13245 -13172 0
-13288 13246 0
-13288 13179 0
13288 -13246 -13179 0
-13289 13247 0
-13289 13186 0
13289 -13247 -13186 0
-13290 13248 0
-13290 13193 0
13290 -13248 -13193 0
-13291 13249 0
-13291 13200 0
13291 -13249 -13200 0
-13292 13286 13287 0
-13292 -13286 -13287 0
13292 -13286 13287 0
13292 13286 -13287 0
-13293 13292 13288 0
-13293 -13292 -13288 0
13293 -13292 13288 0
13293 13292 -13288 0
-13294 13293 13289 0
-13294 -13293 -13289 0
13294 -13293 13289 0
13294 13293 -13289 0
-13295 13294 13290 0
-13295 -13294 -13290 0
13295 -13294 13290 0
13295 13294 -13290 0
-13296 13295 13291 0
-13296 -13295 -13291 0
13296 -13295 13291 0
13296 13295 -13291 0
-13296 0
-13297 13244 0
-13297 13166 0
13297 -13244 -13166 0
-13298 13245 0
-13298 13173 0
13298 -13245 -13173 0
-13299 13246 0
-13299 13180 0
13299 -13246 -13180 0
-13300 13247 0
-13300 13187 0
13300 -13247 -13187 0
-13301 13248 0
-13301 13194 0
13301 -13248 -13194 0
-13302 13249 0
-13302 13201 0
13302 -13249 -13201 0
-13303 13297 13298 0
-13303 -13297 -13298 0
13303 -13297 13298 0
13303 13297 -13298 0
-13304 13303 13299 0
-13304 -13303 -13299 0
13304 -13303 13299 0
13304 13303 -13299 0
-13305 13304 13300 0
-13305 -13304 -13300 0
13305 -13304 13300 0
13305 13304 -13300 0
-13306 13305 13301 0
-13306 -13305 -13301 0
13306 -13305 13301 0
13306 13305 -13301 0
-13307 13306 13302 0
-13307 -13306 -13302 0
13307 -13306 13302 0
13307 13306 -13302 0
-13307 0
-13308 13244 0
-13308 13208 0
13308 -13244 -13208 0
-13309 13245 0
-13309 13215 0
13309 -13245 -13215 0
-13310 13246 0
-13310 13222 0
13310 -13246 -13222 0
-13311 13247 0
-13311 13229 0
13311 -13247 -13229 0
-13312 13248 0
-13312 13236 0
13312 -13248 -13236 0
-13313 13249 0
-13313 13243 0
13313 -13249 -13243 0
-13314 13308 13309 0
-13314 -13308 -13309 0
13314 -13308 13309 0
13314 13308 -13309 0
-13315 13314 13310 0
-13315 -13314 -13310 0
13315 -13314 13310 0
13315 13314 -13310 0
-13316 13315 13311 0
-13316 -13315 -13311 0
13316 -13315 13311 0
13316 13315 -13311 0
-13317 13316 13312 0
-13317 -13316 -13312 0
13317 -13316 13312 0
13317 13316 -13312 0
-13318 13317 13313 0
-13318 -13317 -13313 0
13318 -13317 13313 0
13318 13317 -13313 0
13319 13320 13321 13322 13323 13324 0
-13325 13319 13320 0
-13325 -13319 -13320 0
13325 -13319 13320 0
13325 13319 -13320 0
-13326 13325 13321 0
-13326 -13325 -13321 0
13326 -13325 13321 0
13326 13325 -13321 0
-13327 13326 13322 0
-13327 -13326 -13322 0
13327 -13326 13322 0
13327 13326 -13322 0
-13327 0
-13328 13319 0
-13328 13162 0
13328 -13319 -13162 0
-13329 13320 0
-13329 13169 0
13329 -13320 -13169 0
-13330 13321 0
-13330 13176 0
13330 -13321 -13176 0
-13331 13322 0
-13331 13183 0
13331 -13322 -13183 0
-13332 13323 0
-13332 13190 0
13332 -13323 -13190 0
-13333 13324 0
-13333 13197 0
13333 -13324 -13197 0
-13334 13328 13329 0
-13334 -13328 -13329 0
13334 -13328 13329 0
13334 13328 -13329 0
-13335 13334 13330 0
-13335 -13334 -13330 0
13335 -13334 13330 0
13335 13334 -13330 0
-13336 13335 13331 0
-13336 -13335 -13331 0
13336 -13335 13331 0
13336 13335 -13331 0
-13337 13336 13332 0
-13337 -13336 -13332 0
13337 -13336 13332 0
13337 13336 -13332 0
-13338 13337 13333 0
-13338 -13337 -13333 0
13338 -13337 13333 0
13338 13337 -13333 0
-13338 0
-13339 13319 0
-13339 13163 0
13339 -13319 -13163 0
-13340 13320 0
-13340 13170 0
13340 -13320 -13170 0
-13341 13321 0
-13341 13177 0
13341 -13321 -13177 0
-13342 13322 0
-13342 13184 0
13342 -13322 -13184 0
-13343 13323 0
-13343 13191 0
13343 -13323 -13191 0
-13344 13324 0
-13344 13198 0
13344 -13324 -13198 0
-13345 13339 13340 0
-13345 -13339 -13340 0
13345 -13339 13340 0
13345 13339 -13340 0
-13346 13345 13341 0
-13346 -13345 -13341 0
13346 -13345 13341 0
13346 13345 -13341 0
-13347 13346 13342 0
-13347 -13346 -13342 0
13347 -13346 13342 0
13347 13346 -13342 0
-13348 13347 13343 0
-13348 -13347 -13343 0
13348 -13347 13343 0
13348 13347 -13343 0
-13349 13348 13344 0
-13349 -13348 -13344 0
13349 -13348 13344 0
13349 13348 -13344 0
-13349 0
-13350 13319 0
-13350 13164 0
13350 -13319 -13164 0
-13351 13320 0
-13351 13171 0
13351 -13320 -13171 0
-13352 13321 0
-13352 13178 0
13352 -13321 -13178 0
-13353 13322 0
-13353 13185 0
13353 -13322 -13185 0
-13354 13323 0
-13354 13192 0
13354 -13323 -13192 0
-13355 13324 0
-13355 13199 0
13355 -13324 -13199 0
-13356 13350 13351 0
-13356 -13350 -13351 0
13356 -13350 13351 0
13356 13350 -13351 0
-13357 13356 13352 0
-13357 -13356 -13352 0
13357 -13356 13352 0
13357 13356 -13352 0
-13358 13357 13353 0
-13358 -13357 -13353 0
13358 -13357 13353 0
13358 13357 -13353 0
-13359 13358 13354 0
-13359 -13358 -13354 0
13359 -13358 13354 0
13359 13358 -13354 0
-13360 13359 13355 0
-13360 -13359 -13355 0
13360 -13359 13355 0
13360 13359 -13355 0
-13360 0
-13361 13319 0
-13361 13165 0
13361 -13319 -13165 0
-13362 13320 0
-13362 13172 0
13362 -13320 -13172 0
-13363 13321 0
-13363 13179 0
13363 -13321 -13179 0
-13364 13322 0
-13364 13186 0
13364 -13322 -13186 0
-13365 13323 0
-13365 13193 0
13365 -13323 -13193 0
-13366 13324 0
-13366 13200 0
13366 -13324 -13200 0
-13367 13361 13362 0
-13367 -13361 -13362 0
13367 -13361 13362 0
13367 13361 -13362 0
-13368 13367 13363 0
-13368 -13367 -13363 0
13368 -13367 13363 0
13368 13367 -13363 0
-13369 13368 13364 0
-13369 -13368 -13364 0
13369 -13368 13364 0
13369 13368 -13364 0
-13370 13369 13365 0
-13370 -13369 -13365 0
13370 -13369 13365 0
13370 13369 -13365 0
-13371 13370 13366 0
-13371 -13370 -13366 0
13371 -13370 13366 0
13371 13370 -13366 0
-13371 0
-13372 13319 0
-13372 13166 0
13372 -13319 -13166 0
-13373 13320 0
-13373 13173 0
13373 -13320 -13173 0
-13374 13321 0
-13374 13180 0
13374 -13321 -13180 0
-13375 13322 0
-13375 13187 0
13375 -13322 -13187 0
-13376 13323 0
-13376 13194 0
13376 -13323 -13194 0
-13377 13324 0
-13377 13201 0
13377 -13324 -13201 0
-13378 13372 13373 0
-13378 -13372 -13373 0
13378 -13372 13373 0
13378 13372 -13373 0
-13379 13378 13374 0
-13379 -13378 -13374 0
13379 -13378 13374 0
13379 13378 -13374 0
-13380 13379 13375 0
-13380 -13379 -13375 0
13380 -13379 13375 0
13380 13379 -13375 0
-13381 13380 13376 0
-13381 -13380 -13376 0
13381 -13380 13376 0
13381 13380 -13376 0
-13382 13381 13377 0
-13382 -13381 -13377 0
13382 -13381 13377 0
13382 13381 -13377 0
-13382 0
-13383 13319 0
-13383 13208 0
13383 -13319 -13208 0
-13384 13320 0
-13384 13215 0
13384 -13320 -13215 0
-13385 13321 0
-13385 13222 0
13385 -13321 -13222 0
-13386 13322 0
-13386 13229 0
13386 -13322 -13229 0
-13387 13323 0
-13387 13236 0
13387 -13323 -13236 0
-13388 13324 0
-13388 13243 0
13388 -13324 -13243 0
-13389 13383 13384 0
-13389 -13383 -13384 0
13389 -13383 13384 0
13389 13383 -13384 0
-13390 13389 13385 0
-13390 -13389 -13385 0
13390 -13389 13385 0
13390 13389 -13385 0
-13391 13390 13386 0
-13391 -13390 -13386 0
13391 -13390 13386 0
13391 13390 -13386 0
-13392 13391 13387 0
-13392 -13391 -13387 0
13392 -13391 13387 0
13392 13391 -13387 0
-13393 13392 13388 0
-13393 -13392 -13388 0
13393 -13392 13388 0
13393 13392 -13388 0
-13394 13244 13319 0
-13394 -13244 -13319 0
13394 -13244 13319 0
13394 13244 -13319 0
-13395 13245 13320 0
-13395 -13245 -13320 0
13395 -13245 13320 0
13395 13245 -13320 0
-13396 13246 13321 0
-13396 -13246 -13321 0
13396 -13246 13321 0
13396 13246 -13321 0
-13397 13247 13322 0
-13397 -13247 -13322 0
13397 -13247 13322 0
13397 13247 -13322 0
-13398 13248 13323 0
-13398 -13248 -13323 0
13398 -13248 13323 0
13398 13248 -13323 0
-13399 13249 13324 0
-13399 -13249 -13324 0
13399 -13249 13324 0
13399 13249 -13324 0
13394 13395 13396 13397 13398 13399 0
13318 13393 0
-13400 31 37 0
-13400 -31 -37 0
13400 -31 37 0
13400 31 -37 0
-13401 13400 43 0
-13401 -13400 -43 0
13401 -13400 43 0
13401 13400 -43 0
-13402 13401 49 0
-13402 -13401 -49 0
13402 -13401 49 0
13402 13401 -49 0
-13403 31 61 0
-13403 -31 -61 0
13403 -31 61 0
13403 31 -61 0
-13404 13403 67 0
-13404 -13403 -67 0
13404 -13403 67 0
13404 13403 -67 0
-13405 37 73 0
-13405 -37 -73 0
13405 -37 73 0
13405 37 -73 0
-13406 13405 79 0
-13406 -13405 -79 0
13406 -13405 79 0
13406 13405 -79 0
-13407 43 61 0
-13407 -43 -61 0
13407 -43 61 0
13407 43 -61 0
-13408 13407 73 0
-13408 -13407 -73 0
13408 -13407 73 0
13408 13407 -73 0
-13409 49 67 0
-13409 -49 -67 0
13409 -49 67 0
13409 49 -67 0
-13410 13409 79 0
-13410 -13409 -79 0
13410 -13409 79 0
13410 13409 -79 0
-13411 32 38 0
-13411 -32 -38 0
13411 -32 38 0
13411 32 -38 0
-13412 13411 44 0
-13412 -13411 -44 0
13412 -13411 44 0
13412 13411 -44 0
-13413 13412 50 0
-13413 -13412 -50 0
13413 -13412 50 0
13413 13412 -50 0
-13414 32 62 0
-13414 -32 -62 0
13414 -32 62 0
13414 32 -62 0
-13415 13414 68 0
-13415 -13414 -68 0
13415 -13414 68 0
13415 13414 -68 0
-13416 38 74 0
-13416 -38 -74 0
13416 -38 74 0
13416 38 -74 0
-13417 13416 80 0
-13417 -13416 -80 0
13417 -13416 80 0
13417 13416 -80 0
-13418 44 62 0
-13418 -44 -62 0
13418 -44 62 0
13418 44 -62 0
-13419 13418 74 0
-13419 -13418 -74 0
13419 -13418 74 0
13419 13418 -74 0
-13420 50 68 0
-13420 -50 -68 0
13420 -50 68 0
13420 50 -68 0
-13421 13420 80 0
-13421 -13420 -80 0
13421 -13420 80 0
13421 13420 -80 0
-13422 33 39 0
-13422 -33 -39 0
13422 -33 39 0
13422 33 -39 0
-13423 13422 45 0
-13423 -13422 -45 0
13423 -13422 45 0
13423 13422 -45 0
-13424 13423 51 0
-13424 -13423 -51 0
13424 -13423 51 0
13424 13423 -51 0
-13425 33 63 0
-13425 -33 -63 0
13425 -33 63 0
13425 33 -63 0
-13426 13425 69 0
-13426 -13425 -69 0
13426 -13425 69 0
13426 13425 -69 0
-13427 39 75 0
-13427 -39 -75 0
13427 -39 75 0
13427 39 -75 0
-13428 13427 81 0
-13428 -13427 -81 0
13428 -13427 81 0
13428 13427 -81 0
-13429 45 63 0
-13429 -45 -63 0
13429 -45 63 0
13429 45 -63 0
-13430 13429 75 0
-13430 -13429 -75 0
13430 -13429 75 0
13430 13429 -75 0
-13431 51 69 0
-13431 -51 -69 0
13431 -51 69 0
13431 51 -69 0
-13432 13431 81 0
-13432 -13431 -81 0
13432 -13431 81 0
13432 13431 -81 0
-13433 34 40 0
-13433 -34 -40 0
13433 -34 40 0
13433 34 -40 0
-13434 13433 46 0
-13434 -13433 -46 0
13434 -13433 46 0
13434 13433 -46 0
-13435 13434 52 0
-13435 -13434 -52 0
13435 -13434 52 0
13435 13434 -52 0
-13436 34 64 0
-13436 -34 -64 0
13436 -34 64 0
13436 34 -64 0
-13437 13436 70 0
-13437 -13436 -70 0
13437 -13436 70 0
13437 13436 -70 0
-13438 40 76 0
-13438 -40 -76 0
13438 -40 76 0
13438 40 -76 0
-13439 13438 82 0
-13439 -13438 -82 0
13439 -13438 82 0
13439 13438 -82 0
-13440 46 64 0
-13440 -46 -64 0
13440 -46 64 0
13440 46 -64 0
-13441 13440 76 0
-13441 -13440 -76 0
13441 -13440 76 0
13441 13440 -76 0
-13442 52 70 0
-13442 -52 -70 0
13442 -52 70 0
13442 52 -70 0
-13443 13442 82 0
-13443 -13442 -82 0
13443 -13442 82 0
13443 13442 -82 0
-13444 35 41 0
-13444 -35 -41 0
13444 -35 41 0
13444 35 -41 0
-13445 13444 47 0
-13445 -13444 -47 0
13445 -13444 47 0
13445 13444 -47 0
-13446 13445 53 0
-13446 -13445 -53 0
13446 -13445 53 0
13446 13445 -53 0
-13447 35 65 0
-13447 -35 -65 0
13447 -35 65 0
13447 35 -65 0
-13448 13447 71 0
-13448 -13447 -71 0
13448 -13447 71 0
13448 13447 -71 0
-13449 41 77 0
-13449 -41 -77 0
13449 -41 77 0
13449 41 -77 0
-13450 13449 83 0
-13450 -13449 -83 0
13450 -13449 83 0
13450 13449 -83 0
-13451 47 65 0
-13451 -47 -65 0
13451 -47 65 0
13451 47 -65 0
-13452 13451 77 0
-13452 -13451 -77 0
13452 -13451 77 0
13452 13451 -77 0
-13453 53 71 0
-13453 -53 -71 0
13453 -53 71 0
13453 53 -71 0
-13454 13453 83 0
-13454 -13453 -83 0
13454 -13453 83 0
13454 13453 -83 0
-13455 36 42 0
-13455 -36 -42 0
13455 -36 42 0
13455 36 -42 0
-13456 13455 48 0
-13456 -13455 -48 0
13456 -13455 48 0
13456 13455 -48 0
-13457 13456 54 0
-13457 -13456 -54 0
13457 -13456 54 0
13457 13456 -54 0
-13458 36 66 0
-13458 -36 -66 0
13458 -36 66 0
13458 36 -66 0
-13459 13458 72 0
-13459 -13458 -72 0
13459 -13458 72 0
13459 13458 -72 0
-13460 42 78 0
-13460 -42 -78 0
13460 -42 78 0
13460 42 -78 0
-13461 13460 84 0
-13461 -13460 -84 0
13461 -13460 84 0
13461 13460 -84 0
-13462 48 66 0
-13462 -48 -66 0
13462 -48 66 0
13462 48 -66 0
-13463 13462 78 0
-13463 -13462 -78 0
13463 -13462 78 0
13463 13462 -78 0
-13464 54 72 0
-13464 -54 -72 0
13464 -54 72 0
13464 54 -72 0
-13465 13464 84 0
-13465 -13464 -84 0
13465 -13464 84 0
13465 13464 -84 0
-13466 97 103 0
-13466 -97 -103 0
13466 -97 103 0
13466 97 -103 0
-13467 13466 109 0
-13467 -13466 -109 0
13467 -13466 109 0
13467 13466 -109 0
-13468 13467 115 0
-13468 -13467 -115 0
13468 -13467 115 0
13468 13467 -115 0
-13469 13468 121 0
-13469 -13468 -121 0
13469 -13468 121 0
13469 13468 -121 0
-13470 13469 31 0
-13470 -13469 -31 0
13470 -13469 31 0
13470 13469 -31 0
-13471 13470 37 0
-13471 -13470 -37 0
13471 -13470 37 0
13471 13470 -37 0
-13472 13471 43 0
-13472 -13471 -43 0
13472 -13471 43 0
13472 13471 -43 0
-13473 13472 49 0
-13473 -13472 -49 0
13473 -13472 49 0
13473 13472 -49 0
-13474 13473 61 0
-13474 -13473 -61 0
13474 -13473 61 0
13474 13473 -61 0
-13475 13474 67 0
-13475 -13474 -67 0
13475 -13474 67 0
13475 13474 -67 0
-13476 13475 73 0
-13476 -13475 -73 0
13476 -13475 73 0
13476 13475 -73 0
-13477 13476 79 0
-13477 -13476 -79 0
13477 -13476 79 0
13477 13476 -79 0
-13478 98 104 0
-13478 -98 -104 0
13478 -98 104 0
13478 98 -104 0
-13479 13478 110 0
-13479 -13478 -110 0
13479 -13478 110 0
13479 13478 -110 0
-13480 13479 116 0
-13480 -13479 -116 0
13480 -13479 116 0
13480 13479 -116 0
-13481 13480 122 0
-13481 -13480 -122 0
13481 -13480 122 0
13481 13480 -122 0
-13482 13481 32 0
-13482 -13481 -32 0
13482 -13481 32 0
13482 13481 -32 0
-13483 13482 38 0
-13483 -13482 -38 0
13483 -13482 38 0
13483 13482 -38 0
-13484 13483 44 0
-13484 -13483 -44 0
13484 -13483 44 0
13484 13483 -44 0
-13485 13484 50 0
-13485 -13484 -50 0
13485 -13484 50 0
13485 13484 -50 0
-13486 13485 62 0
-13486 -13485 -62 0
13486 -13485 62 0
13486 13485 -62 0
-13487 13486 68 0
-13487 -13486 -68 0
13487 -13486 68 0
13487 13486 -68 0
-13488 13487 74 0
-13488 -13487 -74 0
13488 -13487 74 0
13488 13487 -74 0
-13489 13488 80 0
-13489 -13488 -80 0
13489 -13488 80 0
13489 13488 -80 0
-13490 99 105 0
-13490 -99 -105 0
13490 -99 105 0
13490 99 -105 0
-13491 13490 111 0
-13491 -13490 -111 0
13491 -13490 111 0
13491 13490 -111 0
-13492 13491 117 0
-13492 -13491 -117 0
13492 -13491 117 0
13492 13491 -117 0
-13493 13492 123 0
-13493 -13492 -123 0
13493 -13492 123 0
13493 13492 -123 0
-13494 13493 33 0
-13494 -13493 -33 0
13494 -13493 33 0
13494 13493 -33 0
-13495 13494 39 0
-13495 -13494 -39 0
13495 -13494 39 0
13495 13494 -39 0
-13496 13495 45 0
-13496 -13495 -45 0
13496 -13495 45 0
13496 13495 -45 0
-13497 13496 51 0
-13497 -13496 -51 0
13497 -13496 51 0
13497 13496 -51 0
-13498 13497 63 0
-13498 -13497 -63 0
13498 -13497 63 0
13498 13497 -63 0
-13499 13498 69 0
-13499 -13498 -69 0
13499 -13498 69 0
13499 13498 -69 0
-13500 13499 75 0
-13500 -13499 -75 0
13500 -13499 75 0
13500 13499 -75 0
-13501 13500 81 0
-13501 -13500 -81 0
13501 -13500 81 0
13501 13500 -81 0
-13502 100 106 0
-13502 -100 -106 0
13502 -100 106 0
13502 100 -106 0
-13503 13502 112 0
-13503 -13502 -112 0
13503 -13502 112 0
13503 13502 -112 0
-13504 13503 118 0
-13504 -13503 -118 0
13504 -13503 118 0
13504 13503 -118 0
-13505 13504 124 0
-13505 -13504 -124 0
13505 -13504 124 0
13505 13504 -124 0
-13506 13505 34 0
-13506 -13505 -34 0
13506 -13505 34 0
13506 13505 -34 0
-13507 13506 40 0
-13507 -13506 -40 0
13507 -13506 40 0
13507 13506 -40 0
-13508 13507 46 0
-13508 -13507 -46 0
13508 -13507 46 0
13508 13507 -46 0
-13509 13508 52 0
-13509 -13508 -52 0
13509 -13508 52 0
13509 13508 -52 0
-13510 13509 64 0
-13510 -13509 -64 0
13510 -13509 64 0
13510 13509 -64 0
-13511 13510 70 0
-13511 -13510 -70 0
13511 -13510 70 0
13511 13510 -70 0
-13512 13511 76 0
-13512 -13511 -76 0
13512 -13511 76 0
13512 13511 -76 0
-13513 13512 82 0
-13513 -13512 -82 0
13513 -13512 82 0
13513 13512 -82 0
-13514 107 113 0
-13514 -107 -113 0
13514 -107 113 0
13514 107 -113 0
-13515 13514 119 0
-13515 -13514 -119 0
13515 -13514 119 0
13515 13514 -119 0
-13516 13515 125 0
-13516 -13515 -125 0
13516 -13515 125 0
13516 13515 -125 0
-13517 13516 35 0
-13517 -13516 -35 0
13517 -13516 35 0
13517 13516 -35 0
-13518 13517 41 0
-13518 -13517 -41 0
13518 -13517 41 0
13518 13517 -41 0
-13519 13518 47 0
-13519 -13518 -47 0
13519 -13518 47 0
13519 13518 -47 0
-13520 13519 53 0
-13520 -13519 -53 0
13520 -13519 53 0
13520 13519 -53 0
-13521 13520 65 0
-13521 -13520 -65 0
13521 -13520 65 0
13521 13520 -65 0
-13522 13521 71 0
-13522 -13521 -71 0
13522 -13521 71 0
13522 13521 -71 0
-13523 13522 77 0
-13523 -13522 -77 0
13523 -13522 77 0
13523 13522 -77 0
-13524 13523 83 0
-13524 -13523 -83 0
13524 -13523 83 0
13524 13523 -83 0
-13525 102 108 0
-13525 -102 -108 0
13525 -102 108 0
13525 102 -108 0
-13526 13525 114 0
-13526 -13525 -114 0
13526 -13525 114 0
13526 13525 -114 0
-13527 13526 120 0
-13527 -13526 -120 0
13527 -13526 120 0
13527 13526 -120 0
-13528 13527 126 0
-13528 -13527 -126 0
13528 -13527 126 0
13528 13527 -126 0
-13529 13528 36 0
-13529 -13528 -36 0
13529 -13528 36 0
13529 13528 -36 0
-13530 13529 42 0
-13530 -13529 -42 0
13530 -13529 42 0
13530 13529 -42 0
-13531 13530 48 0
-13531 -13530 -48 0
13531 -13530 48 0
13531 13530 -48 0
-13532 13531 54 0
-13532 -13531 -54 0
13532 -13531 54 0
13532 13531 -54 0
-13533 13532 66 0
-13533 -13532 -66 0
13533 -13532 66 0
13533 13532 -66 0
-13534 13533 72 0
-13534 -13533 -72 0
13534 -13533 72 0
13534 13533 -72 0
-13535 13534 78 0
-13535 -13534 -78 0
13535 -13534 78 0
13535 13534 -78 0
-13536 13535 84 0
-13536 -13535 -84 0
13536 -13535 84 0
13536 13535 -84 0
13537 13538 13539 13540 13541 13542 0
-13543 13537 13538 0
-13543 -13537 -13538 0
13543 -13537 13538 0
13543 13537 -13538 0
-13544 13543 13539 0
-13544 -13543 -13539 0
13544 -13543 13539 0
13544 13543 -13539 0
-13545 13544 13540 0
-13545 -13544 -13540 0
13545 -13544 13540 0
13545 13544 -13540 0
-13545 0
-13546 13537 0
-13546 13402 0
13546 -13537 -13402 0
-13547 13538 0
-13547 13413 0
13547 -13538 -13413 0
-13548 13539 0
-13548 13424 0
13548 -13539 -13424 0
-13549 13540 0
-13549 13435 0
13549 -13540 -13435 0
-13550 13541 0
-13550 13446 0
13550 -13541 -13446 0
-13551 13542 0
-13551 13457 0
13551 -13542 -13457 0
-13552 13546 13547 0
-13552 -13546 -13547 0
13552 -13546 13547 0
13552 13546 -13547 0
-13553 13552 13548 0
-13553 -13552 -13548 0
13553 -13552 13548 0
13553 13552 -13548 0
-13554 13553 13549 0
-13554 -13553 -13549 0
13554 -13553 13549 0
13554 13553 -13549 0
-13555 13554 13550 0
-13555 -13554 -13550 0
13555 -13554 13550 0
13555 13554 -13550 0
-13556 13555 13551 0
-13556 -13555 -13551 0
13556 -13555 13551 0
13556 13555 -13551 0
-13556 0
-13557 13537 0
-13557 13404 0
13557 -13537 -13404 0
-13558 13538 0
-13558 13415 0
13558 -13538 -13415 0
-13559 13539 0
-13559 13426 0
13559 -13539 -13426 0
-13560 13540 0
-13560 13437 0
13560 -13540 -13437 0
-13561 13541 0
-13561 13448 0
13561 -13541 -13448 0
-13562 13542 0
-13562 13459 0
13562 -13542 -13459 0
-13563 13557 13558 0
-13563 -13557 -13558 0
13563 -13557 13558 0
13563 13557 -13558 0
-13564 13563 13559 0
-13564 -13563 -13559 0
13564 -13563 13559 0
13564 13563 -13559 0
-13565 13564 13560 0
-13565 -13564 -13560 0
13565 -13564 13560 0
13565 13564 -13560 0
-13566 13565 13561 0
-13566 -13565 -13561 0
13566 -13565 13561 0
13566 13565 -13561 0
-13567 13566 13562 0
-13567 -13566 -13562 0
13567 -13566 13562 0
13567 13566 -13562 0
-13567 0
-13568 13537 0
-13568 13406 0
13568 -13537 -13406 0
-13569 13538 0
-13569 13417 0
13569 -13538 -13417 0
-13570 13539 0
-13570 13428 0
13570 -13539 -13428 0
-13571 13540 0
-13571 13439 0
13571 -13540 -13439 0
-13572 13541 0
-13572 13450 0
13572 -13541 -13450 0
-13573 13542 0
-13573 13461 0
13573 -13542 -13461 0
-13574 13568 13569 0
-13574 -13568 -13569 0
13574 -13568 13569 0
13574 13568 -13569 0
-13575 13574 13570 0
-13575 -13574 -13570 0
13575 -13574 13570 0
13575 13574 -13570 0
-13576 13575 13571 0
-13576 -13575 -13571 0
13576 -13575 13571 0
13576 13575 -13571 0
-13577 13576 13572 0
-13577 -13576 -13572 0
13577 -13576 13572 0
13577 13576 -13572 0
-13578 13577 13573 0
-13578 -13577 -13573 0
13578 -13577 13573 0
13578 13577 -13573 0
-13578 0
-13579 13537 0
-13579 13408 0
13579 -13537 -13408 0
-13580 13538 0
-13580 13419 0
13580 -13538 -13419 0
-13581 13539 0
-13581 13430 0
13581 -13539 -13430 0
-13582 13540 0
-13582 13441 0
13582 -13540 -13441 0
-13583 13541 0
-13583 13452 0
13583 -13541 -13452 0
-13584 13542 0
-13584 13463 0
13584 -13542 -13463 0
-13585 13579 13580 0
-13585 -13579 -13580 0
13585 -13579 13580 0
13585 13579 -13580 0
-13586 13585 13581 0
-13586 -13585 -13581 0
13586 -13585 13581 0
13586 13585 -13581 0
-13587 13586 13582 0
-13587 -13586 -13582 0
13587 -13586 13582 0
13587 13586 -13582 0
-13588 13587 13583 0
-13588 -13587 -13583 0
13588 -13587 13583 0
13588 13587 -13583 0
-13589 13588 13584 0
-13589 -13588 -13584 0
13589 -13588 13584 0
13589 13588 -13584 0
-13589 0
-13590 13537 0
-13590 13410 0
13590 -13537 -13410 0
-13591 13538 0
-13591 13421 0
13591 -13538 -13421 0
-13592 13539 0
-13592 13432 0
13592 -13539 -13432 0
-13593 13540 0
-13593 13443 0
13593 -13540 -13443 0
-13594 13541 0
-13594 13454 0
13594 -13541 -13454 0
-13595 13542 0
-13595 13465 0
13595 -13542 -13465 0
-13596 13590 13591 0
-13596 -13590 -13591 0
13596 -13590 13591 0
13596 13590 -13591 0
-13597 13596 13592 0
-13597 -13596 -13592 0
13597 -13596 13592 0
13597 13596 -13592 0
-13598 13597 13593 0
-13598 -13597 -13593 0
13598 -13597 13593 0
13598 13597 -13593 0
-13599 13598 13594 0
-13599 -13598 -13594 0
13599 -13598 13594 0
13599 13598 -13594 0
-13600 13599 13595 0
-13600 -13599 -13595 0
13600 -13599 13595 0
13600 13599 -13595 0
-13600 0
-13601 13537 0
-13601 13477 0
13601 -13537 -13477 0
-13602 13538 0
-13602 13489 0
13602 -13538 -13489 0
-13603 13539 0
-13603 13501 0
13603 -13539 -13501 0
-13604 13540 0
-13604 13513 0
13604 -13540 -13513 0
-13605 13541 0
-13605 13524 0
13605 -13541 -13524 0
-13606 13542 0
-13606 13536 0
13606 -13542 -13536 0
-13607 13601 13602 0
-13607 -13601 -13602 0
13607 -13601 13602 0
13607 13601 -13602 0
-13608 13607 13603 0
-13608 -13607 -13603 0
13608 -13607 13603 0
13608 13607 -13603 0
-13609 13608 13604 0
-13609 -13608 -13604 0
13609 -13608 13604 0
13609 13608 -13604 0
-13610 13609 13605 0
-13610 -13609 -13605 0
13610 -13609 13605 0
13610 13609 -13605 0
-13611 13610 13606 0
-13611 -13610 -13606 0
13611 -13610 13606 0
13611 13610 -13606 0
13612 13613 13614 13615 13616 13617 0
-13618 13612 13613 0
-13618 -13612 -13613 0
13618 -13612 13613 0
13618 13612 -13613 0
-13619 13618 13614 0
-13619 -13618 -13614 0
13619 -13618 13614 0
13619 13618 -13614 0
-13620 13619 13615 0
-13620 -13619 -13615 0
13620 -13619 13615 0
13620 13619 -13615 0
-13620 0
-13621 13612 0
-13621 13402 0
13621 -13612 -13402 0
-13622 13613 0
-13622 13413 0
13622 -13613 -13413 0
-13623 13614 0
-13623 13424 0
13623 -13614 -13424 0
-13624 13615 0
-13624 13435 0
13624 -13615 -13435 0
-13625 13616 0
-13625 13446 0
13625 -13616 -13446 0
-13626 13617 0
-13626 13457 0
13626 -13617 -13457 0
-13627 13621 13622 0
-13627 -13621 -13622 0
13627 -13621 13622 0
13627 13621 -13622 0
-13628 13627 13623 0
-13628 -13627 -13623 0
13628 -13627 13623 0
13628 13627 -13623 0
-13629 13628 13624 0
-13629 -13628 -13624 0
13629 -13628 13624 0
13629 13628 -13624 0
-13630 13629 13625 0
-13630 -13629 -13625 0
13630 -13629 13625 0
13630 13629 -13625 0
-13631 13630 13626 0
-13631 -13630 -13626 0
13631 -13630 13626 0
13631 13630 -13626 0
-13631 0
-13632 13612 0
-13632 13404 0
13632 -13612 -13404 0
-13633 13613 0
-13633 13415 0
13633 -13613 -13415 0
-13634 13614 0
-13634 13426 0
13634 -13614 -13426 0
-13635 13615 0
-13635 13437 0
13635 -13615 -13437 0
-13636 13616 0
-13636 13448 0
13636 -13616 -13448 0
-13637 13617 0
-13637 13459 0
13637 -13617 -13459 0
-13638 13632 13633 0
-13638 -13632 -13633 0
13638 -13632 13633 0
13638 13632 -13633 0
-13639 13638 13634 0
-13639 -13638 -13634 0
13639 -13638 13634 0
13639 13638 -13634 0
-13640 13639 13635 0
-13640 -13639 -13635 0
13640 -13639 13635 0
13640 13639 -13635 0
-13641 13640 13636 0
-13641 -13640 -13636 0
13641 -13640 13636 0
13641 13640 -13636 0
-13642 13641 13637 0
-13642 -13641 -13637 0
13642 -13641 13637 0
13642 13641 -13637 0
-13642 0
-13643 13612 0
-13643 13406 0
13643 -13612 -13406 0
-13644 13613 0
-13644 13417 0
13644 -13613 -13417 0
-13645 13614 0
-13645 13428 0
13645 -13614 -13428 0
-13646 13615 0
-13646 13439 0
13646 -13615 -13439 0
-13647 13616 0
-13647 13450 0
13647 -13616 -13450 0
-13648 13617 0
-13648 13461 0
13648 -13617 -13461 0
-13649 13643 13644 0
-13649 -13643 -13644 0
13649 -13643 13644 0
13649 13643 -13644 0
-13650 13649 13645 0
-13650 -13649 -13645 0
13650 -13649 13645 0
13650 13649 -13645 0
-13651 13650 13646 0
-13651 -13650 -13646 0
13651 -13650 13646 0
13651 13650 -13646 0
-13652 13651 13647 0
-13652 -13651 -13647 0
13652 -13651 13647 0
13652 13651 -13647 0
-13653 13652 13648 0
-13653 -13652 -13648 0
13653 -13652 13648 0
13653 13652 -13648 0
-13653 0
-13654 13612 0
-13654 13408 0
13654 -13612 -13408 0
-13655 13613 0
-13655 13419 0
13655 -13613 -13419 0
-13656 13614 0
-13656 13430 0
13656 -13614 -13430 0
-13657 13615 0
-13657 13441 0
13657 -13615 -13441 0
-13658 13616 0
-13658 13452 0
13658 -13616 -13452 0
-13659 13617 0
-13659 13463 0
13659 -13617 -13463 0
-13660 13654 13655 0
-13660 -13654 -13655 0
13660 -13654 13655 0
13660 13654 -13655 0
-13661 13660 13656 0
-13661 -13660 -13656 0
13661 -13660 13656 0
13661 13660 -13656 0
-13662 13661 13657 0
-13662 -13661 -13657 0
13662 -13661 13657 0
13662 13661 -13657 0
-13663 13662 13658 0
-13663 -13662 -13658 0
13663 -13662 13658 0
13663 13662 -13658 0
-13664 13663 13659 0
-13664 -13663 -13659 0
13664 -13663 13659 0
13664 13663 -13659 0
-13664 0
-13665 13612 0
-13665 13410 0
13665 -13612 -13410 0
-13666 13613 0
-13666 13421 0
13666 -13613 -13421 0
-13667 13614 0
-13667 13432 0
13667 -13614 -13432 0
-13668 13615 0
-13668 13443 0
13668 -13615 -13443 0
-13669 13616 0
-13669 13454 0
13669 -13616 -13454 0
-13670 13617 0
-13670 13465 0
13670 -13617 -13465 0
-13671 13665 13666 0
-13671 -13665 -13666 0
13671 -13665 13666 0
13671 13665 -13666 0
-13672 13671 13667 0
-13672 -13671 -13667 0
13672 -13671 13667 0
13672 13671 -13667 0
-13673 13672 13668 0
-13673 -13672 -13668 0
13673 -13672 13668 0
13673 13672 -13668 0
-13674 13673 13669 0
-13674 -13673 -13669 0
13674 -13673 13669 0
13674 13673 -13669 0
-13675 13674 13670 0
-13675 -13674 -13670 0
13675 -13674 13670 0
13675 13674 -13670 0
-13675 0
-13676 13612 0
-13676 13477 0
13676 -13612 -13477 0
-13677 13613 0
-13677 13489 0
13677 -13613 -13489 0
-13678 13614 0
-13678 13501 0
13678 -13614 -13501 0
-13679 13615 0
-13679 13513 0
13679 -13615 -13513 0
-13680 13616 0
-13680 13524 0
13680 -13616 -13524 0
-13681 13617 0
-13681 13536 0
13681 -13617 -13536 0
-13682 13676 13677 0
-13682 -13676 -13677 0
13682 -13676 13677 0
13682 13676 -13677 0
-13683 13682 13678 0
-13683 -13682 -13678 0
13683 -13682 13678 0
13683 13682 -13678 0
-13684 13683 13679 0
-13684 -13683 -13679 0
13684 -13683 13679 0
13684 13683 -13679 0
-13685 13684 13680 0
-13685 -13684 -13680 0
13685 -13684 13680 0
13685 13684 -13680 0
-13686 13685 13681 0
-13686 -13685 -13681 0
13686 -13685 13681 0
13686 13685 -13681 0
-13687 13537 13612 0
-13687 -13537 -13612 0
13687 -13537 13612 0
13687 13537 -13612 0
-13688 13538 13613 0
-13688 -13538 -13613 0
13688 -13538 13613 0
13688 13538 -13613 0
-13689 13539 13614 0
-13689 -13539 -13614 0
13689 -13539 13614 0
13689 13539 -13614 0
-13690 13540 13615 0
-13690 -13540 -13615 0
13690 -13540 13615 0
13690 13540 -13615 0
-13691 13541 13616 0
-13691 -13541 -13616 0
13691 -13541 13616 0
13691 13541 -13616 0
-13692 13542 13617 0
-13692 -13542 -13617 0
13692 -13542 13617 0
13692 13542 -13617 0
13687 13688 13689 13690 13691 13692 0
13611 13686 0
-13693 31 37 0
-13693 -31 -37 0
13693 -31 37 0
13693 31 -37 0
-13694 13693 43 0
-13694 -13693 -43 0
13694 -13693 43 0
13694 13693 -43 0
-13695 13694 49 0
-13695 -13694 -49 0
13695 -13694 49 0
13695 13694 -49 0
-13696 -31 61 0
-13696 31 -61 0
13696 31 61 0
13696 -31 -61 0
-13697 13696 67 0
-13697 -13696 -67 0
13697 -13696 67 0
13697 13696 -67 0
-13698 37 73 0
-13698 -37 -73 0
13698 -37 73 0
13698 37 -73 0
-13699 13698 79 0
-13699 -13698 -79 0
13699 -13698 79 0
13699 13698 -79 0
-13700 43 61 0
-13700 -43 -61 0
13700 -43 61 0
13700 43 -61 0
-13701 13700 73 0
-13701 -13700 -73 0
13701 -13700 73 0
13701 13700 -73 0
-13702 49 67 0
-13702 -49 -67 0
13702 -49 67 0
13702 49 -67 0
-13703 13702 79 0
-13703 -13702 -79 0
13703 -13702 79 0
13703 13702 -79 0
-13704 32 38 0
-13704 -32 -38 0
13704 -32 38 0
13704 32 -38 0
-13705 13704 44 0
-13705 -13704 -44 0
13705 -13704 44 0
13705 13704 -44 0
-13706 13705 50 0
-13706 -13705 -50 0
13706 -13705 50 0
13706 13705 -50 0
-13707 32 62 0
-13707 -32 -62 0
13707 -32 62 0
13707 32 -62 0
-13708 13707 68 0
-13708 -13707 -68 0
13708 -13707 68 0
13708 13707 -68 0
-13709 -38 74 0
-13709 38 -74 0
13709 38 74 0
13709 -38 -74 0
-13710 13709 80 0
-13710 -13709 -80 0
13710 -13709 80 0
13710 13709 -80 0
-13711 44 62 0
-13711 -44 -62 0
13711 -44 62 0
13711 44 -62 0
-13712 13711 74 0
-13712 -13711 -74 0
13712 -13711 74 0
13712 13711 -74 0
-13713 50 68 0
-13713 -50 -68 0
13713 -50 68 0
13713 50 -68 0
-13714 13713 80 0
-13714 -13713 -80 0
13714 -13713 80 0
13714 13713 -80 0
-13715 33 39 0
-13715 -33 -39 0
13715 -33 39 0
13715 33 -39 0
-13716 13715 45 0
-13716 -13715 -45 0
13716 -13715 45 0
13716 13715 -45 0
-13717 13716 51 0
-13717 -13716 -51 0
13717 -13716 51 0
13717 13716 -51 0
-13718 33 63 0
-13718 -33 -63 0
13718 -33 63 0
13718 33 -63 0
-13719 13718 69 0
-13719 -13718 -69 0
13719 -13718 69 0
13719 13718 -69 0
-13720 39 75 0
-13720 -39 -75 0
13720 -39 75 0
13720 39 -75 0
-13721 13720 81 0
-13721 -13720 -81 0
13721 -13720 81 0
13721 13720 -81 0
-13722 -45 63 0
-13722 45 -63 0
13722 45 63 0
13722 -45 -63 0
-13723 13722 75 0
-13723 -13722 -75 0
13723 -13722 75 0
13723 13722 -75 0
-13724 51 69 0
-13724 -51 -69 0
13724 -51 69 0
13724 51 -69 0
-13725 13724 81 0
-13725 -13724 -81 0
13725 -13724 81 0
13725 13724 -81 0
-13726 34 40 0
-13726 -34 -40 0
13726 -34 40 0
13726 34 -40 0
-13727 13726 46 0
-13727 -13726 -46 0
13727 -13726 46 0
13727 13726 -46 0
-13728 13727 52 0
-13728 -13727 -52 0
13728 -13727 52 0
13728 13727 -52 0
-13729 34 64 0
-13729 -34 -64 0
13729 -34 64 0
13729 34 -64 0
-13730 13729 70 0
-13730 -13729 -70 0
13730 -13729 70 0
13730 13729 -70 0
-13731 40 76 0
-13731 -40 -76 0
13731 -40 76 0
13731 40 -76 0
-13732 13731 82 0
-13732 -13731 -82 0
13732 -13731 82 0
13732 13731 -82 0
-13733 46 64 0
-13733 -46 -64 0
13733 -46 64 0
13733 46 -64 0
-13734 13733 76 0
-13734 -13733 -76 0
13734 -13733 76 0
13734 13733 -76 0
-13735 -52 70 0
-13735 52 -70 0
13735 52 70 0
13735 -52 -70 0
-13736 13735 82 0
-13736 -13735 -82 0
13736 -13735 82 0
13736 13735 -82 0
-13737 35 41 0
-13737 -35 -41 0
13737 -35 41 0
13737 35 -41 0
-13738 13737 47 0
-13738 -13737 -47 0
13738 -13737 47 0
13738 13737 -47 0
-13739 13738 53 0
-13739 -13738 -53 0
13739 -13738 53 0
13739 13738 -53 0
-13740 35 65 0
-13740 -35 -65 0
13740 -35 65 0
13740 35 -65 0
-13741 13740 71 0
-13741 -13740 -71 0
13741 -13740 71 0
13741 13740 -71 0
-13742 41 77 0
-13742 -41 -77 0
13742 -41 77 0
13742 41 -77 0
-13743 13742 83 0
-13743 -13742 -83 0
13743 -13742 83 0
13743 13742 -83 0
-13744 47 65 0
-13744 -47 -65 0
13744 -47 65 0
13744 47 -65 0
-13745 13744 77 0
-13745 -13744 -77 0
13745 -13744 77 0
13745 13744 -77 0
-13746 53 71 0
-13746 -53 -71 0
13746 -53 71 0
13746 53 -71 0
-13747 13746 83 0
-13747 -13746 -83 0
13747 -13746 83 0
13747 13746 -83 0
-13748 36 42 0
-13748 -36 -42 0
13748 -36 42 0
13748 36 -42 0
-13749 13748 48 0
-13749 -13748 -48 0
13749 -13748 48 0
13749 13748 -48 0
-13750 13749 54 0
-13750 -13749 -54 0
13750 -13749 54 0
13750 13749 -54 0
-13751 36 66 0
-13751 -36 -66 0
13751 -36 66 0
13751 36 -66 0
-13752 13751 72 0
-13752 -13751 -72 0
13752 -13751 72 0
13752 13751 -72 0
-13753 42 78 0
-13753 -42 -78 0
13753 -42 78 0
13753 42 -78 0
-13754 13753 84 0
-13754 -13753 -84 0
13754 -13753 84 0
13754 13753 -84 0
-13755 48 66 0
-13755 -48 -66 0
13755 -48 66 0
13755 48 -66 0
-13756 13755 78 0
-13756 -13755 -78 0
13756 -13755 78 0
13756 13755 -78 0
-13757 54 72 0
-13757 -54 -72 0
13757 -54 72 0
13757 54 -72 0
-13758 13757 84 0
-13758 -13757 -84 0
13758 -13757 84 0
13758 13757 -84 0
-13759 97 103 0
-13759 -97 -103 0
13759 -97 103 0
13759 97 -103 0
-13760 13759 109 0
-13760 -13759 -109 0
13760 -13759 109 0
13760 13759 -109 0
-13761 13760 115 0
-13761 -13760 -115 0
13761 -13760 115 0
13761 13760 -115 0
-13762 13761 121 0
-13762 -13761 -121 0
13762 -13761 121 0
13762 13761 -121 0
-13763 -13762 31 0
-13763 13762 -31 0
13763 13762 31 0
13763 -13762 -31 0
-13764 13763 37 0
-13764 -13763 -37 0
13764 -13763 37 0
13764 13763 -37 0
-13765 13764 43 0
-13765 -13764 -43 0
13765 -13764 43 0
13765 13764 -43 0
-13766 13765 49 0
-13766 -13765 -49 0
13766 -13765 49 0
13766 13765 -49 0
-13767 13766 61 0
-13767 -13766 -61 0
13767 -13766 61 0
13767 13766 -61 0
-13768 13767 67 0
-13768 -13767 -67 0
13768 -13767 67 0
13768 13767 -67 0
-13769 13768 73 0
-13769 -13768 -73 0
13769 -13768 73 0
13769 13768 -73 0
-13770 13769 79 0
-13770 -13769 -79 0
13770 -13769 79 0
13770 13769 -79 0
-13771 98 104 0
-13771 -98 -104 0
13771 -98 104 0
13771 98 -104 0
-13772 13771 110 0
-13772 -13771 -110 0
13772 -13771 110 0
13772 13771 -110 0
-13773 13772 116 0
-13773 -13772 -116 0
13773 -13772 116 0
13773 13772 -116 0
-13774 13773 122 0
-13774 -13773 -122 0
13774 -13773 122 0
13774 13773 -122 0
-13775 -13774 32 0
-13775 13774 -32 0
13775 13774 32 0
13775 -13774 -32 0
-13776 13775 38 0
-13776 -13775 -38 0
13776 -13775 38 0
13776 13775 -38 0
-13777 13776 44 0
-13777 -13776 -44 0
13777 -13776 44 0
13777 13776 -44 0
-13778 13777 50 0
-13778 -13777 -50 0
13778 -13777 50 0
13778 13777 -50 0
-13779 13778 62 0
-13779 -13778 -62 0
13779 -13778 62 0
13779 13778 -62 0
-13780 13779 68 0
-13780 -13779 -68 0
13780 -13779 68 0
13780 13779 -68 0
-13781 13780 74 0
-13781 -13780 -74 0
13781 -13780 74 0
13781 13780 -74 0
-13782 13781 80 0
-13782 -13781 -80 0
13782 -13781 80 0
13782 13781 -80 0
-13783 99 105 0
-13783 -99 -105 0
13783 -99 105 0
13783 99 -105 0
-13784 13783 111 0
-13784 -13783 -111 0
13784 -13783 111 0
13784 13783 -111 0
-13785 13784 117 0
-13785 -13784 -117 0
13785 -13784 117 0
13785 13784 -117 0
-13786 13785 123 0
-13786 -13785 -123 0
13786 -13785 123 0
13786 13785 -123 0
-13787 -13786 33 0
-13787 13786 -33 0
13787 13786 33 0
13787 -13786 -33 0
-13788 13787 39 0
-13788 -13787 -39 0
13788 -13787 39 0
13788 13787 -39 0
-13789 13788 45 0
-13789 -13788 -45 0
13789 -13788 45 0
13789 13788 -45 0
-13790 13789 51 0
-13790 -13789 -51 0
13790 -13789 51 0
13790 13789 -51 0
-13791 13790 63 0
-13791 -13790 -63 0
13791 -13790 63 0
13791 13790 -63 0
-13792 13791 69 0
-13792 -13791 -69 0
13792 -13791 69 0
13792 13791 -69 0
-13793 13792 75 0
-13793 -13792 -75 0
13793 -13792 75 0
13793 13792 -75 0
-13794 13793 81 0
-13794 -13793 -81 0
13794 -13793 81 0
13794 13793 -81 0
-13795 100 106 0
-13795 -100 -106 0
13795 -100 106 0
13795 100 -106 0
-13796 13795 112 0
-13796 -13795 -112 0
13796 -13795 112 0
13796 13795 -112 0
-13797 13796 118 0
-13797 -13796 -118 0
13797 -13796 118 0
13797 13796 -118 0
-13798 13797 124 0
-13798 -13797 -124 0
13798 -13797 124 0
13798 13797 -124 0
-13799 -13798 34 0
-13799 13798 -34 0
13799 13798 34 0
13799 -13798 -34 0
-13800 13799 40 0
-13800 -13799 -40 0
13800 -13799 40 0
13800 13799 -40 0
-13801 13800 46 0
-13801 -13800 -46 0
13801 -13800 46 0
13801 13800 -46 0
-13802 13801 52 0
-13802 -13801 -52 0
13802 -13801 52 0
13802 13801 -52 0
-13803 13802 64 0
-13803 -13802 -64 0
13803 -13802 64 0
13803 13802 -64 0
-13804 13803 70 0
-13804 -13803 -70 0
13804 -13803 70 0
13804 13803 -70 0
-13805 13804 76 0
-13805 -13804 -76 0
13805 -13804 76 0
13805 13804 -76 0
-13806 13805 82 0
-13806 -13805 -82 0
13806 -13805 82 0
13806 13805 -82 0
-13807 -107 113 0
-13807 107 -113 0
13807 107 113 0
13807 -107 -113 0
-13808 13807 119 0
-13808 -13807 -119 0
13808 -13807 119 0
13808 13807 -119 0
-13809 13808 125 0
-13809 -13808 -125 0
13809 -13808 125 0
13809 13808 -125 0
-13810 13809 35 0
-13810 -13809 -35 0
13810 -13809 35 0
13810 13809 -35 0
-13811 13810 41 0
-13811 -13810 -41 0
13811 -13810 41 0
13811 13810 -41 0
-13812 13811 47 0
-13812 -13811 -47 0
13812 -13811 47 0
13812 13811 -47 0
-13813 13812 53 0
-13813 -13812 -53 0
13813 -13812 53 0
13813 13812 -53 0
-13814 13813 65 0
-13814 -13813 -65 0
13814 -13813 65 0
13814 13813 -65 0
-13815 13814 71 0
-13815 -13814 -71 0
13815 -13814 71 0
13815 13814 -71 0
-13816 13815 77 0
-13816 -13815 -77 0
13816 -13815 77 0
13816 13815 -77 0
-13817 13816 83 0
-13817 -13816 -83 0
13817 -13816 83 0
13817 13816 -83 0
-13818 102 108 0
-13818 -102 -108 0
13818 -102 108 0
13818 102 -108 0
-13819 13818 114 0
-13819 -13818 -114 0
13819 -13818 114 0
13819 13818 -114 0
-13820 13819 120 0
-13820 -13819 -120 0
13820 -13819 120 0
13820 13819 -120 0
-13821 13820 126 0
-13821 -13820 -126 0
13821 -13820 126 0
13821 13820 -126 0
-13822 13821 36 0
-13822 -13821 -36 0
13822 -13821 36 0
13822 13821 -36 0
-13823 13822 42 0
-13823 -13822 -42 0
13823 -13822 42 0
13823 13822 -42 0
-13824 13823 48 0
-13824 -13823 -48 0
13824 -13823 48 0
13824 13823 -48 0
-13825 13824 54 0
-13825 -13824 -54 0
13825 -13824 54 0
13825 13824 -54 0
-13826 13825 66 0
-13826 -13825 -66 0
13826 -13825 66 0
13826 13825 -66 0
-13827 13826 72 0
-13827 -13826 -72 0
13827 -13826 72 0
13827 13826 -72 0
-13828 13827 78 0
-13828 -13827 -78 0
13828 -13827 78 0
13828 13827 -78 0
-13829 13828 84 0
-13829 -13828 -84 0
13829 -13828 84 0
13829 13828 -84 0
13830 13831 13832 13833 13834 13835 0
-13836 13830 13831 0
-13836 -13830 -13831 0
13836 -13830 13831 0
13836 13830 -13831 0
-13837 13836 13832 0
-13837 -13836 -13832 0
13837 -13836 13832 0
13837 13836 -13832 0
-13838 13837 13833 0
-13838 -13837 -13833 0
13838 -13837 13833 0
13838 13837 -13833 0
-13838 0
-13839 13830 0
-13839 13695 0
13839 -13830 -13695 0
-13840 13831 0
-13840 13706 0
13840 -13831 -13706 0
-13841 13832 0
-13841 13717 0
13841 -13832 -13717 0
-13842 13833 0
-13842 13728 0
13842 -13833 -13728 0
-13843 13834 0
-13843 13739 0
13843 -13834 -13739 0
-13844 13835 0
-13844 13750 0
13844 -13835 -13750 0
-13845 13839 13840 0
-13845 -13839 -13840 0
13845 -13839 13840 0
13845 13839 -13840 0
-13846 13845 13841 0
-13846 -13845 -13841 0
13846 -13845 13841 0
13846 13845 -13841 0
-13847 13846 13842 0
-13847 -13846 -13842 0
13847 -13846 13842 0
13847 13846 -13842 0
-13848 13847 13843 0
-13848 -13847 -13843 0
13848 -13847 13843 0
13848 13847 -13843 0
-13849 13848 13844 0
-13849 -13848 -13844 0
13849 -13848 13844 0
13849 13848 -13844 0
-13849 0
-13850 13830 0
-13850 13697 0
13850 -13830 -13697 0
-13851 13831 0
-13851 13708 0
13851 -13831 -13708 0
-13852 13832 0
-13852 13719 0
13852 -13832 -13719 0
-13853 13833 0
-13853 13730 0
13853 -13833 -13730 0
-13854 13834 0
-13854 13741 0
13854 -13834 -13741 0
-13855 13835 0
-13855 13752 0
13855 -13835 -13752 0
-13856 13850 13851 0
-13856 -13850 -13851 0
13856 -13850 13851 0
13856 13850 -13851 0
-13857 13856 13852 0
-13857 -13856 -13852 0
13857 -13856 13852 0
13857 13856 -13852 0
-13858 13857 13853 0
-13858 -13857 -13853 0
13858 -13857 13853 0
13858 13857 -13853 0
-13859 13858 13854 0
-13859 -13858 -13854 0
13859 -13858 13854 0
13859 13858 -13854 0
-13860 13859 13855 0
-13860 -13859 -13855 0
13860 -13859 13855 0
13860 13859 -13855 0
-13860 0
-13861 13830 0
-13861 13699 0
13861 -13830 -13699 0
-13862 13831 0
-13862 13710 0
13862 -13831 -13710 0
-13863 13832 0
-13863 13721 0
13863 -13832 -13721 0
-13864 13833 0
-13864 13732 0
13864 -13833 -13732 0
-13865 13834 0
-13865 13743 0
13865 -13834 -13743 0
-13866 13835 0
-13866 13754 0
13866 -13835 -13754 0
-13867 13861 13862 0
-13867 -13861 -13862 0
13867 -13861 13862 0
13867 13861 -13862 0
-13868 13867 13863 0
-13868 -13867 -13863 0
13868 -13867 13863 0
13868 13867 -13863 0
-13869 13868 13864 0
-13869 -13868 -13864 0
13869 -13868 13864 0
13869 13868 -13864 0
-13870 13869 13865 0
-13870 -13869 -13865 0
13870 -13869 13865 0
13870 13869 -13865 0
-13871 13870 13866 0
-13871 -13870 -13866 0
13871 -13870 13866 0
13871 13870 -13866 0
-13871 0
-13872 13830 0
-13872 13701 0
13872 -13830 -13701 0
-13873 13831 0
-13873 13712 0
13873 -13831 -13712 0
-13874 13832 0
-13874 13723 0
13874 -13832 -13723 0
-13875 13833 0
-13875 13734 0
13875 -13833 -13734 0
-13876 13834 0
-13876 13745 0
13876 -13834 -13745 0
-13877 13835 0
-13877 13756 0
13877 -13835 -13756 0
-13878 13872 13873 0
-13878 -13872 -13873 0
13878 -13872 13873 0
13878 13872 -13873 0
-13879 13878 13874 0
-13879 -13878 -13874 0
13879 -13878 13874 0
13879 13878 -13874 0
-13880 13879 13875 0
-13880 -13879 -13875 0
13880 -13879 13875 0
13880 13879 -13875 0
-13881 13880 13876 0
-13881 -13880 -13876 0
13881 -13880 13876 0
13881 13880 -13876 0
-13882 13881 13877 0
-13882 -13881 -13877 0
13882 -13881 13877 0
13882 13881 -13877 0
-13882 0
-13883 13830 0
-13883 13703 0
13883 -13830 -13703 0
-13884 13831 0
-13884 13714 0
13884 -13831 -13714 0
-13885 13832 0
-13885 13725 0
13885 -13832 -13725 0
-13886 13833 0
-13886 13736 0
13886 -13833 -13736 0
-13887 13834 0
-13887 13747 0
13887 -13834 -13747 0
-13888 13835 0
-13888 13758 0
13888 -13835 -13758 0
-13889 13883 13884 0
-13889 -13883 -13884 0
13889 -13883 13884 0
13889 13883 -13884 0
-13890 13889 13885 0
-13890 -13889 -13885 0
13890 -13889 13885 0
13890 13889 -13885 0
-13891 13890 13886 0
-13891 -13890 -13886 0
13891 -13890 13886 0
13891 13890 -13886 0
-13892 13891 13887 0
-13892 -13891 -13887 0
13892 -13891 13887 0
13892 13891 -13887 0
-13893 13892 13888 0
-13893 -13892 -13888 0
13893 -13892 13888 0
13893 13892 -13888 0
-13893 0
-13894 13830 0
-13894 13770 0
13894 -13830 -13770 0
-13895 13831 0
-13895 13782 0
13895 -13831 -13782 0
-13896 13832 0
-13896 13794 0
13896 -13832 -13794 0
-13897 13833 0
-13897 13806 0
13897 -13833 -13806 0
-13898 13834 0
-13898 13817 0
13898 -13834 -13817 0
-13899 13835 0
-13899 13829 0
13899 -13835 -13829 0
-13900 13894 13895 0
-13900 -13894 -13895 0
13900 -13894 13895 0
13900 13894 -13895 0
-13901 13900 13896 0
-13901 -13900 -13896 0
13901 -13900 13896 0
13901 13900 -13896 0
-13902 13901 13897 0
-13902 -13901 -13897 0
13902 -13901 13897 0
13902 13901 -13897 0
-13903 13902 13898 0
-13903 -13902 -13898 0
13903 -13902 13898 0
13903 13902 -13898 0
-13904 13903 13899 0
-13904 -13903 -13899 0
13904 -13903 13899 0
13904 13903 -13899 0
13905 13906 13907 13908 13909 13910 0
-13911 13905 13906 0
-13911 -13905 -13906 0
13911 -13905 13906 0
13911 13905 -13906 0
-13912 13911 13907 0
-13912 -13911 -13907 0
13912 -13911 13907 0
13912 13911 -13907 0
-13913 13912 13908 0
-13913 -13912 -13908 0
13913 -13912 13908 0
13913 13912 -13908 0
-13913 0
-13914 13905 0
-13914 13695 0
13914 -13905 -13695 0
-13915 13906 0
-13915 13706 0
13915 -13906 -13706 0
-13916 13907 0
-13916 13717 0
13916 -13907 -13717 0
-13917 13908 0
-13917 13728 0
13917 -13908 -13728 0
-13918 13909 0
-13918 13739 0
13918 -13909 -13739 0
-13919 13910 0
-13919 13750 0
13919 -13910 -13750 0
-13920 13914 13915 0
-13920 -13914 -13915 0
13920 -13914 13915 0
13920 13914 -13915 0
-13921 13920 13916 0
-13921 -13920 -13916 0
13921 -13920 13916 0
13921 13920 -13916 0
-13922 13921 13917 0
-13922 -13921 -13917 0
13922 -13921 13917 0
13922 13921 -13917 0
-13923 13922 13918 0
-13923 -13922 -13918 0
13923 -13922 13918 0
13923 13922 -13918 0
-13924 13923 13919 0
-13924 -13923 -13919 0
13924 -13923 13919 0
13924 13923 -13919 0
-13924 0
-13925 13905 0
-13925 13697 0
13925 -13905 -13697 0
-13926 13906 0
-13926 13708 0
13926 -13906 -13708 0
-13927 13907 0
-13927 13719 0
13927 -13907 -13719 0
-13928 13908 0
-13928 13730 0
13928 -13908 -13730 0
-13929 13909 0
-13929 13741 0
13929 -13909 -13741 0
-13930 13910 0
-13930 13752 0
13930 -13910 -13752 0
-13931 13925 13926 0
-13931 -13925 -13926 0
13931 -13925 13926 0
13931 13925 -13926 0
-13932 13931 13927 0
-13932 -13931 -13927 0
13932 -13931 13927 0
13932 13931 -13927 0
-13933 13932 13928 0
-13933 -13932 -13928 0
13933 -13932 13928 0
13933 13932 -13928 0
-13934 13933 13929 0
-13934 -13933 -13929 0
13934 -13933 13929 0
13934 13933 -13929 0
-13935 13934 13930 0
-13935 -13934 -13930 0
13935 -13934 13930 0
13935 13934 -13930 0
-13935 0
-13936 13905 0
-13936 13699 0
13936 -13905 -13699 0
-13937 13906 0
-13937 13710 0
13937 -13906 -13710 0
-13938 13907 0
-13938 13721 0
13938 -13907 -13721 0
-13939 13908 0
-13939 13732 0
13939 -13908 -13732 0
-13940 13909 0
-13940 13743 0
13940 -13909 -13743 0
-13941 13910 0
-13941 13754 0
13941 -13910 -13754 0
-13942 13936 13937 0
-13942 -13936 -13937 0
13942 -13936 13937 0
13942 13936 -13937 0
-13943 13942 13938 0
-13943 -13942 -13938 0
13943 -13942 13938 0
13943 13942 -13938 0
-13944 13943 13939 0
-13944 -13943 -13939 0
13944 -13943 13939 0
13944 13943 -13939 0
-13945 13944 13940 0
-13945 -13944 -13940 0
13945 -13944 13940 0
13945 13944 -13940 0
-13946 13945 13941 0
-13946 -13945 -13941 0
13946 -13945 13941 0
13946 13945 -13941 0
-13946 0
-13947 13905 0
-13947 13701 0
13947 -13905 -13701 0
-13948 13906 0
-13948 13712 0
13948 -13906 -13712 0
-13949 13907 0
-13949 13723 0
13949 -13907 -13723 0
-13950 13908 0
-13950 13734 0
13950 -13908 -13734 0
-13951 13909 0
-13951 13745 0
13951 -13909 -13745 0
-13952 13910 0
-13952 13756 0
13952 -13910 -13756 0
-13953 13947 13948 0
-13953 -13947 -13948 0
13953 -13947 13948 0
13953 13947 -13948 0
-13954 13953 13949 0
-13954 -13953 -13949 0
13954 -13953 13949 0
13954 13953 -13949 0
-13955 13954 13950 0
-13955 -13954 -13950 0
13955 -13954 13950 0
13955 13954 -13950 0
-13956 13955 13951 0
-13956 -13955 -13951 0
13956 -13955 13951 0
13956 13955 -13951 0
-13957 13956 13952 0
-13957 -13956 -13952 0
13957 -13956 13952 0
13957 13956 -13952 0
-13957 0
-13958 13905 0
-13958 13703 0
13958 -13905 -13703 0
-13959 13906 0
-13959 13714 0
13959 -13906 -13714 0
-13960 13907 0
-13960 13725 0
13960 -13907 -13725 0
-13961 13908 0
-13961 13736 0
13961 -13908 -13736 0
-13962 13909 0
-13962 13747 0
13962 -13909 -13747 0
-13963 13910 0
-13963 13758 0
13963 -13910 -13758 0
-13964 13958 13959 0
-13964 -13958 -13959 0
13964 -13958 13959 0
13964 13958 -13959 0
-13965 13964 13960 0
-13965 -13964 -13960 0
13965 -13964 13960 0
13965 13964 -13960 0
-13966 13965 13961 0
-13966 -13965 -13961 0
13966 -13965 13961 0
13966 13965 -13961 0
-13967 13966 13962 0
-13967 -13966 -13962 0
13967 -13966 13962 0
13967 13966 -13962 0
-13968 13967 13963 0
-13968 -13967 -13963 0
13968 -13967 13963 0
13968 13967 -13963 0
-13968 0
-13969 13905 0
-13969 13770 0
13969 -13905 -13770 0
-13970 13906 0
-13970 13782 0
13970 -13906 -13782 0
-13971 13907 0
-13971 13794 0
13971 -13907 -13794 0
-13972 13908 0
-13972 13806 0
13972 -13908 -13806 0
-13973 13909 0
-13973 13817 0
13973 -13909 -13817 0
-13974 13910 0
-13974 13829 0
13974 -13910 -13829 0
-13975 13969 13970 0
-13975 -13969 -13970 0
13975 -13969 13970 0
13975 13969 -13970 0
-13976 13975 13971 0
-13976 -13975 -13971 0
13976 -13975 13971 0
13976 13975 -13971 0
-13977 13976 13972 0
-13977 -13976 -13972 0
13977 -13976 13972 0
13977 13976 -13972 0
-13978 13977 13973 0
-13978 -13977 -13973 0
13978 -13977 13973 0
13978 13977 -13973 0
-13979 13978 13974 0
-13979 -13978 -13974 0
13979 -13978 13974 0
13979 13978 -13974 0
-13980 13830 13905 0
-13980 -13830 -13905 0
13980 -13830 13905 0
13980 13830 -13905 0
-13981 13831 13906 0
-13981 -13831 -13906 0
13981 -13831 13906 0
13981 13831 -13906 0
-13982 13832 13907 0
-13982 -13832 -13907 0
13982 -13832 13907 0
13982 13832 -13907 0
-13983 13833 13908 0
-13983 -13833 -13908 0
13983 -13833 13908 0
13983 13833 -13908 0
-13984 13834 13909 0
-13984 -13834 -13909 0
13984 -13834 13909 0
13984 13834 -13909 0
-13985 13835 13910 0
-13985 -13835 -13910 0
13985 -13835 13910 0
13985 13835 -13910 0
13980 13981 13982 13983 13984 13985 0
13904 13979 0
