p cnf 4419 16050
1 2 3 4 5 6 7 8 9 10 11 12 13 14 15 0
-1 346 0
-2 347 0
-346 347 0
-2 -346 0
-3 348 0
-347 348 0
-3 -347 0
-4 349 0
-348 349 0
-4 -348 0
-5 350 0
-349 350 0
-5 -349 0
-6 351 0
-350 351 0
-6 -350 0
-7 352 0
-351 352 0
-7 -351 0
-8 353 0
-352 353 0
-8 -352 0
-9 354 0
-353 354 0
-9 -353 0
-10 355 0
-354 355 0
-10 -354 0
-11 356 0
-355 356 0
-11 -355 0
-12 357 0
-356 357 0
-12 -356 0
-13 358 0
-357 358 0
-13 -357 0
-14 359 0
-358 359 0
-14 -358 0
-15 -359 0
16 17 18 19 20 21 22 23 24 25 26 27 28 29 30 0
-16 360 0
-17 361 0
-360 361 0
-17 -360 0
-18 362 0
-361 362 0
-18 -361 0
-19 363 0
-362 363 0
-19 -362 0
-20 364 0
-363 364 0
-20 -363 0
-21 365 0
-364 365 0
-21 -364 0
-22 366 0
-365 366 0
-22 -365 0
-23 367 0
-366 367 0
-23 -366 0
-24 368 0
-367 368 0
-24 -367 0
-25 369 0
-368 369 0
-25 -368 0
-26 370 0
-369 370 0
-26 -369 0
-27 371 0
-370 371 0
-27 -370 0
-28 372 0
-371 372 0
-28 -371 0
-29 373 0
-372 373 0
-29 -372 0
-30 -373 0
31 32 33 34 35 36 37 38 39 40 41 42 43 44 45 0
-31 374 0
-32 375 0
-374 375 0
-32 -374 0
-33 376 0
-375 376 0
-33 -375 0
-34 377 0
-376 377 0
-34 -376 0
-35 378 0
-377 378 0
-35 -377 0
-36 379 0
-378 379 0
-36 -378 0
-37 380 0
-379 380 0
-37 -379 0
-38 381 0
-380 381 0
-38 -380 0
-39 382 0
-381 382 0
-39 -381 0
-40 383 0
-382 383 0
-40 -382 0
-41 384 0
-383 384 0
-41 -383 0
-42 385 0
-384 385 0
-42 -384 0
-43 386 0
-385 386 0
-43 -385 0
-44 387 0
-386 387 0
-44 -386 0
-45 -387 0
1 16 31 46 47 48 49 50 51 52 53 54 55 56 57 0
-1 388 0
-16 389 0
-388 389 0
-16 -388 0
-31 390 0
-389 390 0
-31 -389 0
-46 391 0
-390 391 0
-46 -390 0
-47 392 0
-391 392 0
-47 -391 0
-48 393 0
-392 393 0
-48 -392 0
-49 394 0
-393 394 0
-49 -393 0
-50 395 0
-394 395 0
-50 -394 0
-51 396 0
-395 396 0
-51 -395 0
-52 397 0
-396 397 0
-52 -396 0
-53 398 0
-397 398 0
-53 -397 0
-54 399 0
-398 399 0
-54 -398 0
-55 400 0
-399 400 0
-55 -399 0
-56 401 0
-400 401 0
-56 -400 0
-57 -401 0
1 58 59 60 61 62 63 64 65 66 67 68 69 70 71 0
-1 402 0
-58 403 0
-402 403 0
-58 -402 0
-59 404 0
-403 404 0
-59 -403 0
-60 405 0
-404 405 0
-60 -404 0
-61 406 0
-405 406 0
-61 -405 0
-62 407 0
-406 407 0
-62 -406 0
-63 408 0
-407 408 0
-63 -407 0
-64 409 0
-408 409 0
-64 -408 0
-65 410 0
-409 410 0
-65 -409 0
-66 411 0
-410 411 0
-66 -410 0
-67 412 0
-411 412 0
-67 -411 0
-68 413 0
-412 413 0
-68 -412 0
-69 414 0
-413 414 0
-69 -413 0
-70 415 0
-414 415 0
-70 -414 0
-71 -415 0
16 72 73 74 75 76 77 78 79 80 81 82 83 84 85 0
-16 416 0
-72 417 0
-416 417 0
-72 -416 0
-73 418 0
-417 418 0
-73 -417 0
-74 419 0
-418 419 0
-74 -418 0
-75 420 0
-419 420 0
-75 -419 0
-76 421 0
-420 421 0
-76 -420 0
-77 422 0
-421 422 0
-77 -421 0
-78 423 0
-422 423 0
-78 -422 0
-79 424 0
-423 424 0
-79 -423 0
-80 425 0
-424 425 0
-80 -424 0
-81 426 0
-425 426 0
-81 -425 0
-82 427 0
-426 427 0
-82 -426 0
-83 428 0
-427 428 0
-83 -427 0
-84 429 0
-428 429 0
-84 -428 0
-85 -429 0
31 86 87 88 89 90 91 92 93 94 95 96 97 98 99 0
-31 430 0
-86 431 0
-430 431 0
-86 -430 0
-87 432 0
-431 432 0
-87 -431 0
-88 433 0
-432 433 0
-88 -432 0
-89 434 0
-433 434 0
-89 -433 0
-90 435 0
-434 435 0
-90 -434 0
-91 436 0
-435 436 0
-91 -435 0
-92 437 0
-436 437 0
-92 -436 0
-93 438 0
-437 438 0
-93 -437 0
-94 439 0
-438 439 0
-94 -438 0
-95 440 0
-439 440 0
-95 -439 0
-96 441 0
-440 441 0
-96 -440 0
-97 442 0
-441 442 0
-97 -441 0
-98 443 0
-442 443 0
-98 -442 0
-99 -443 0
2 17 32 100 101 102 103 104 105 106 107 108 109 110 111 0
-2 444 0
-17 445 0
-444 445 0
-17 -444 0
-32 446 0
-445 446 0
-32 -445 0
-100 447 0
-446 447 0
-100 -446 0
-101 448 0
-447 448 0
-101 -447 0
-102 449 0
-448 449 0
-102 -448 0
-103 450 0
-449 450 0
-103 -449 0
-104 451 0
-450 451 0
-104 -450 0
-105 452 0
-451 452 0
-105 -451 0
-106 453 0
-452 453 0
-106 -452 0
-107 454 0
-453 454 0
-107 -453 0
-108 455 0
-454 455 0
-108 -454 0
-109 456 0
-455 456 0
-109 -455 0
-110 457 0
-456 457 0
-110 -456 0
-111 -457 0
2 72 86 112 113 114 115 116 117 118 119 120 121 122 123 0
-2 458 0
-72 459 0
-458 459 0
-72 -458 0
-86 460 0
-459 460 0
-86 -459 0
-112 461 0
-460 461 0
-112 -460 0
-113 462 0
-461 462 0
-113 -461 0
-114 463 0
-462 463 0
-114 -462 0
-115 464 0
-463 464 0
-115 -463 0
-116 465 0
-464 465 0
-116 -464 0
-117 466 0
-465 466 0
-117 -465 0
-118 467 0
-466 467 0
-118 -466 0
-119 468 0
-467 468 0
-119 -467 0
-120 469 0
-468 469 0
-120 -468 0
-121 470 0
-469 470 0
-121 -469 0
-122 471 0
-470 471 0
-122 -470 0
-123 -471 0
17 58 87 124 125 126 127 128 129 130 131 132 133 134 135 0
-17 472 0
-58 473 0
-472 473 0
-58 -472 0
-87 474 0
-473 474 0
-87 -473 0
-124 475 0
-474 475 0
-124 -474 0
-125 476 0
-475 476 0
-125 -475 0
-126 477 0
-476 477 0
-126 -476 0
-127 478 0
-477 478 0
-127 -477 0
-128 479 0
-478 479 0
-128 -478 0
-129 480 0
-479 480 0
-129 -479 0
-130 481 0
-480 481 0
-130 -480 0
-131 482 0
-481 482 0
-131 -481 0
-132 483 0
-482 483 0
-132 -482 0
-133 484 0
-483 484 0
-133 -483 0
-134 485 0
-484 485 0
-134 -484 0
-135 -485 0
32 59 73 136 137 138 139 140 141 142 143 144 145 146 147 0
-32 486 0
-59 487 0
-486 487 0
-59 -486 0
-73 488 0
-487 488 0
-73 -487 0
-136 489 0
-488 489 0
-136 -488 0
-137 490 0
-489 490 0
-137 -489 0
-138 491 0
-490 491 0
-138 -490 0
-139 492 0
-491 492 0
-139 -491 0
-140 493 0
-492 493 0
-140 -492 0
-141 494 0
-493 494 0
-141 -493 0
-142 495 0
-494 495 0
-142 -494 0
-143 496 0
-495 496 0
-143 -495 0
-144 497 0
-496 497 0
-144 -496 0
-145 498 0
-497 498 0
-145 -497 0
-146 499 0
-498 499 0
-146 -498 0
-147 -499 0
3 18 33 148 149 150 151 152 153 154 155 156 157 158 159 0
-3 500 0
-18 501 0
-500 501 0
-18 -500 0
-33 502 0
-501 502 0
-33 -501 0
-148 503 0
-502 503 0
-148 -502 0
-149 504 0
-503 504 0
-149 -503 0
-150 505 0
-504 505 0
-150 -504 0
-151 506 0
-505 506 0
-151 -505 0
-152 507 0
-506 507 0
-152 -506 0
-153 508 0
-507 508 0
-153 -507 0
-154 509 0
-508 509 0
-154 -508 0
-155 510 0
-509 510 0
-155 -509 0
-156 511 0
-510 511 0
-156 -510 0
-157 512 0
-511 512 0
-157 -511 0
-158 513 0
-512 513 0
-158 -512 0
-159 -513 0
3 73 87 160 161 162 163 164 165 166 167 168 169 170 171 0
-3 514 0
-73 515 0
-514 515 0
-73 -514 0
-87 516 0
-515 516 0
-87 -515 0
-160 517 0
-516 517 0
-160 -516 0
-161 518 0
-517 518 0
-161 -517 0
-162 519 0
-518 519 0
-162 -518 0
-163 520 0
-519 520 0
-163 -519 0
-164 521 0
-520 521 0
-164 -520 0
-165 522 0
-521 522 0
-165 -521 0
-166 523 0
-522 523 0
-166 -522 0
-167 524 0
-523 524 0
-167 -523 0
-168 525 0
-524 525 0
-168 -524 0
-169 526 0
-525 526 0
-169 -525 0
-170 527 0
-526 527 0
-170 -526 0
-171 -527 0
18 59 86 172 173 174 175 176 177 178 179 180 181 182 183 0
-18 528 0
-59 529 0
-528 529 0
-59 -528 0
-86 530 0
-529 530 0
-86 -529 0
-172 531 0
-530 531 0
-172 -530 0
-173 532 0
-531 532 0
-173 -531 0
-174 533 0
-532 533 0
-174 -532 0
-175 534 0
-533 534 0
-175 -533 0
-176 535 0
-534 535 0
-176 -534 0
-177 536 0
-535 536 0
-177 -535 0
-178 537 0
-536 537 0
-178 -536 0
-179 538 0
-537 538 0
-179 -537 0
-180 539 0
-538 539 0
-180 -538 0
-181 540 0
-539 540 0
-181 -539 0
-182 541 0
-540 541 0
-182 -540 0
-183 -541 0
33 58 72 184 185 186 187 188 189 190 191 192 193 194 195 0
-33 542 0
-58 543 0
-542 543 0
-58 -542 0
-72 544 0
-543 544 0
-72 -543 0
-184 545 0
-544 545 0
-184 -544 0
-185 546 0
-545 546 0
-185 -545 0
-186 547 0
-546 547 0
-186 -546 0
-187 548 0
-547 548 0
-187 -547 0
-188 549 0
-548 549 0
-188 -548 0
-189 550 0
-549 550 0
-189 -549 0
-190 551 0
-550 551 0
-190 -550 0
-191 552 0
-551 552 0
-191 -551 0
-192 553 0
-552 553 0
-192 -552 0
-193 554 0
-553 554 0
-193 -553 0
-194 555 0
-554 555 0
-194 -554 0
-195 -555 0
4 19 34 46 60 74 88 100 112 124 136 148 160 172 184 0
-4 556 0
-19 557 0
-556 557 0
-19 -556 0
-34 558 0
-557 558 0
-34 -557 0
-46 559 0
-558 559 0
-46 -558 0
-60 560 0
-559 560 0
-60 -559 0
-74 561 0
-560 561 0
-74 -560 0
-88 562 0
-561 562 0
-88 -561 0
-100 563 0
-562 563 0
-100 -562 0
-112 564 0
-563 564 0
-112 -563 0
-124 565 0
-564 565 0
-124 -564 0
-136 566 0
-565 566 0
-136 -565 0
-148 567 0
-566 567 0
-148 -566 0
-160 568 0
-567 568 0
-160 -567 0
-172 569 0
-568 569 0
-172 -568 0
-184 -569 0
4 47 61 101 113 149 161 196 197 198 199 200 201 202 203 0
-4 570 0
-47 571 0
-570 571 0
-47 -570 0
-61 572 0
-571 572 0
-61 -571 0
-101 573 0
-572 573 0
-101 -572 0
-113 574 0
-573 574 0
-113 -573 0
-149 575 0
-574 575 0
-149 -574 0
-161 576 0
-575 576 0
-161 -575 0
-196 577 0
-576 577 0
-196 -576 0
-197 578 0
-577 578 0
-197 -577 0
-198 579 0
-578 579 0
-198 -578 0
-199 580 0
-579 580 0
-199 -579 0
-200 581 0
-580 581 0
-200 -580 0
-201 582 0
-581 582 0
-201 -581 0
-202 583 0
-582 583 0
-202 -582 0
-203 -583 0
19 48 75 102 125 150 173 204 205 206 207 208 209 210 211 0
-19 584 0
-48 585 0
-584 585 0
-48 -584 0
-75 586 0
-585 586 0
-75 -585 0
-102 587 0
-586 587 0
-102 -586 0
-125 588 0
-587 588 0
-125 -587 0
-150 589 0
-588 589 0
-150 -588 0
-173 590 0
-589 590 0
-173 -589 0
-204 591 0
-590 591 0
-204 -590 0
-205 592 0
-591 592 0
-205 -591 0
-206 593 0
-592 593 0
-206 -592 0
-207 594 0
-593 594 0
-207 -593 0
-208 595 0
-594 595 0
-208 -594 0
-209 596 0
-595 596 0
-209 -595 0
-210 597 0
-596 597 0
-210 -596 0
-211 -597 0
34 49 89 103 137 151 185 212 213 214 215 216 217 218 219 0
-34 598 0
-49 599 0
-598 599 0
-49 -598 0
-89 600 0
-599 600 0
-89 -599 0
-103 601 0
-600 601 0
-103 -600 0
-137 602 0
-601 602 0
-137 -601 0
-151 603 0
-602 603 0
-151 -602 0
-185 604 0
-603 604 0
-185 -603 0
-212 605 0
-604 605 0
-212 -604 0
-213 606 0
-605 606 0
-213 -605 0
-214 607 0
-606 607 0
-214 -606 0
-215 608 0
-607 608 0
-215 -607 0
-216 609 0
-608 609 0
-216 -608 0
-217 610 0
-609 610 0
-217 -609 0
-218 611 0
-610 611 0
-218 -610 0
-219 -611 0
5 20 35 46 61 75 89 220 221 222 223 224 225 226 227 0
-5 612 0
-20 613 0
-612 613 0
-20 -612 0
-35 614 0
-613 614 0
-35 -613 0
-46 615 0
-614 615 0
-46 -614 0
-61 616 0
-615 616 0
-61 -615 0
-75 617 0
-616 617 0
-75 -616 0
-89 618 0
-617 618 0
-89 -617 0
-220 619 0
-618 619 0
-220 -618 0
-221 620 0
-619 620 0
-221 -619 0
-222 621 0
-620 621 0
-222 -620 0
-223 622 0
-621 622 0
-223 -621 0
-224 623 0
-622 623 0
-224 -622 0
-225 624 0
-623 624 0
-225 -623 0
-226 625 0
-624 625 0
-226 -624 0
-227 -625 0
5 47 60 126 138 174 186 228 229 230 231 232 233 234 235 0
-5 626 0
-47 627 0
-626 627 0
-47 -626 0
-60 628 0
-627 628 0
-60 -627 0
-126 629 0
-628 629 0
-126 -628 0
-138 630 0
-629 630 0
-138 -629 0
-174 631 0
-630 631 0
-174 -630 0
-186 632 0
-631 632 0
-186 -631 0
-228 633 0
-632 633 0
-228 -632 0
-229 634 0
-633 634 0
-229 -633 0
-230 635 0
-634 635 0
-230 -634 0
-231 636 0
-635 636 0
-231 -635 0
-232 637 0
-636 637 0
-232 -636 0
-233 638 0
-637 638 0
-233 -637 0
-234 639 0
-638 639 0
-234 -638 0
-235 -639 0
20 48 74 114 139 162 187 236 237 238 239 240 241 242 243 0
-20 640 0
-48 641 0
-640 641 0
-48 -640 0
-74 642 0
-641 642 0
-74 -641 0
-114 643 0
-642 643 0
-114 -642 0
-139 644 0
-643 644 0
-139 -643 0
-162 645 0
-644 645 0
-162 -644 0
-187 646 0
-645 646 0
-187 -645 0
-236 647 0
-646 647 0
-236 -646 0
-237 648 0
-647 648 0
-237 -647 0
-238 649 0
-648 649 0
-238 -648 0
-239 650 0
-649 650 0
-239 -649 0
-240 651 0
-650 651 0
-240 -650 0
-241 652 0
-651 652 0
-241 -651 0
-242 653 0
-652 653 0
-242 -652 0
-243 -653 0
35 49 88 115 127 163 175 244 245 246 247 248 249 250 251 0
-35 654 0
-49 655 0
-654 655 0
-49 -654 0
-88 656 0
-655 656 0
-88 -655 0
-115 657 0
-656 657 0
-115 -656 0
-127 658 0
-657 658 0
-127 -657 0
-163 659 0
-658 659 0
-163 -658 0
-175 660 0
-659 660 0
-175 -659 0
-244 661 0
-660 661 0
-244 -660 0
-245 662 0
-661 662 0
-245 -661 0
-246 663 0
-662 663 0
-246 -662 0
-247 664 0
-663 664 0
-247 -663 0
-248 665 0
-664 665 0
-248 -664 0
-249 666 0
-665 666 0
-249 -665 0
-250 667 0
-666 667 0
-250 -666 0
-251 -667 0
6 21 36 100 113 125 137 252 253 254 255 256 257 258 259 0
-6 668 0
-21 669 0
-668 669 0
-21 -668 0
-36 670 0
-669 670 0
-36 -669 0
-100 671 0
-670 671 0
-100 -670 0
-113 672 0
-671 672 0
-113 -671 0
-125 673 0
-672 673 0
-125 -672 0
-137 674 0
-673 674 0
-137 -673 0
-252 675 0
-674 675 0
-252 -674 0
-253 676 0
-675 676 0
-253 -675 0
-254 677 0
-676 677 0
-254 -676 0
-255 678 0
-677 678 0
-255 -677 0
-256 679 0
-678 679 0
-256 -678 0
-257 680 0
-679 680 0
-257 -679 0
-258 681 0
-680 681 0
-258 -680 0
-259 -681 0
6 76 90 101 112 175 187 260 261 262 263 264 265 266 267 0
-6 682 0
-76 683 0
-682 683 0
-76 -682 0
-90 684 0
-683 684 0
-90 -683 0
-101 685 0
-684 685 0
-101 -684 0
-112 686 0
-685 686 0
-112 -685 0
-175 687 0
-686 687 0
-175 -686 0
-187 688 0
-687 688 0
-187 -687 0
-260 689 0
-688 689 0
-260 -688 0
-261 690 0
-689 690 0
-261 -689 0
-262 691 0
-690 691 0
-262 -690 0
-263 692 0
-691 692 0
-263 -691 0
-264 693 0
-692 693 0
-264 -692 0
-265 694 0
-693 694 0
-265 -693 0
-266 695 0
-694 695 0
-266 -694 0
-267 -695 0
21 62 91 102 124 163 186 268 269 270 271 272 273 274 275 0
-21 696 0
-62 697 0
-696 697 0
-62 -696 0
-91 698 0
-697 698 0
-91 -697 0
-102 699 0
-698 699 0
-102 -698 0
-124 700 0
-699 700 0
-124 -699 0
-163 701 0
-700 701 0
-163 -700 0
-186 702 0
-701 702 0
-186 -701 0
-268 703 0
-702 703 0
-268 -702 0
-269 704 0
-703 704 0
-269 -703 0
-270 705 0
-704 705 0
-270 -704 0
-271 706 0
-705 706 0
-271 -705 0
-272 707 0
-706 707 0
-272 -706 0
-273 708 0
-707 708 0
-273 -707 0
-274 709 0
-708 709 0
-274 -708 0
-275 -709 0
36 63 77 103 136 162 174 276 277 278 279 280 281 282 283 0
-36 710 0
-63 711 0
-710 711 0
-63 -710 0
-77 712 0
-711 712 0
-77 -711 0
-103 713 0
-712 713 0
-103 -712 0
-136 714 0
-713 714 0
-136 -713 0
-162 715 0
-714 715 0
-162 -714 0
-174 716 0
-715 716 0
-174 -715 0
-276 717 0
-716 717 0
-276 -716 0
-277 718 0
-717 718 0
-277 -717 0
-278 719 0
-718 719 0
-278 -718 0
-279 720 0
-719 720 0
-279 -719 0
-280 721 0
-720 721 0
-280 -720 0
-281 722 0
-721 722 0
-281 -721 0
-282 723 0
-722 723 0
-282 -722 0
-283 -723 0
7 22 37 148 161 173 185 284 285 286 287 288 289 290 291 0
-7 724 0
-22 725 0
-724 725 0
-22 -724 0
-37 726 0
-725 726 0
-37 -725 0
-148 727 0
-726 727 0
-148 -726 0
-161 728 0
-727 728 0
-161 -727 0
-173 729 0
-728 729 0
-173 -728 0
-185 730 0
-729 730 0
-185 -729 0
-284 731 0
-730 731 0
-284 -730 0
-285 732 0
-731 732 0
-285 -731 0
-286 733 0
-732 733 0
-286 -732 0
-287 734 0
-733 734 0
-287 -733 0
-288 735 0
-734 735 0
-288 -734 0
-289 736 0
-735 736 0
-289 -735 0
-290 737 0
-736 737 0
-290 -736 0
-291 -737 0
7 77 91 127 139 149 160 292 293 294 295 296 297 298 299 0
-7 738 0
-77 739 0
-738 739 0
-77 -738 0
-91 740 0
-739 740 0
-91 -739 0
-127 741 0
-740 741 0
-127 -740 0
-139 742 0
-741 742 0
-139 -741 0
-149 743 0
-742 743 0
-149 -742 0
-160 744 0
-743 744 0
-160 -743 0
-292 745 0
-744 745 0
-292 -744 0
-293 746 0
-745 746 0
-293 -745 0
-294 747 0
-746 747 0
-294 -746 0
-295 748 0
-747 748 0
-295 -747 0
-296 749 0
-748 749 0
-296 -748 0
-297 750 0
-749 750 0
-297 -749 0
-298 751 0
-750 751 0
-298 -750 0
-299 -751 0
22 63 90 115 138 150 172 300 301 302 303 304 305 306 307 0
-22 752 0
-63 753 0
-752 753 0
-63 -752 0
-90 754 0
-753 754 0
-90 -753 0
-115 755 0
-754 755 0
-115 -754 0
-138 756 0
-755 756 0
-138 -755 0
-150 757 0
-756 757 0
-150 -756 0
-172 758 0
-757 758 0
-172 -757 0
-300 759 0
-758 759 0
-300 -758 0
-301 760 0
-759 760 0
-301 -759 0
-302 761 0
-760 761 0
-302 -760 0
-303 762 0
-761 762 0
-303 -761 0
-304 763 0
-762 763 0
-304 -762 0
-305 764 0
-763 764 0
-305 -763 0
-306 765 0
-764 765 0
-306 -764 0
-307 -765 0
37 62 76 114 126 151 184 308 309 310 311 312 313 314 315 0
-37 766 0
-62 767 0
-766 767 0
-62 -766 0
-76 768 0
-767 768 0
-76 -767 0
-114 769 0
-768 769 0
-114 -768 0
-126 770 0
-769 770 0
-126 -769 0
-151 771 0
-770 771 0
-151 -770 0
-184 772 0
-771 772 0
-184 -771 0
-308 773 0
-772 773 0
-308 -772 0
-309 774 0
-773 774 0
-309 -773 0
-310 775 0
-774 775 0
-310 -774 0
-311 776 0
-775 776 0
-311 -775 0
-312 777 0
-776 777 0
-312 -776 0
-313 778 0
-777 778 0
-313 -777 0
-314 779 0
-778 779 0
-314 -778 0
-315 -779 0
8 23 38 50 64 78 92 104 116 128 140 152 164 176 188 0
-8 780 0
-23 781 0
-780 781 0
-23 -780 0
-38 782 0
-781 782 0
-38 -781 0
-50 783 0
-782 783 0
-50 -782 0
-64 784 0
-783 784 0
-64 -783 0
-78 785 0
-784 785 0
-78 -784 0
-92 786 0
-785 786 0
-92 -785 0
-104 787 0
-786 787 0
-104 -786 0
-116 788 0
-787 788 0
-116 -787 0
-128 789 0
-788 789 0
-128 -788 0
-140 790 0
-789 790 0
-140 -789 0
-152 791 0
-790 791 0
-152 -790 0
-164 792 0
-791 792 0
-164 -791 0
-176 793 0
-792 793 0
-176 -792 0
-188 -793 0
8 51 65 105 117 153 165 204 212 236 244 268 276 300 308 0
-8 794 0
-51 795 0
-794 795 0
-51 -794 0
-65 796 0
-795 796 0
-65 -795 0
-105 797 0
-796 797 0
-105 -796 0
-117 798 0
-797 798 0
-117 -797 0
-153 799 0
-798 799 0
-153 -798 0
-165 800 0
-799 800 0
-165 -799 0
-204 801 0
-800 801 0
-204 -800 0
-212 802 0
-801 802 0
-212 -801 0
-236 803 0
-802 803 0
-236 -802 0
-244 804 0
-803 804 0
-244 -803 0
-268 805 0
-804 805 0
-268 -804 0
-276 806 0
-805 806 0
-276 -805 0
-300 807 0
-806 807 0
-300 -806 0
-308 -807 0
23 52 79 106 129 154 177 196 213 228 245 260 277 292 309 0
-23 808 0
-52 809 0
-808 809 0
-52 -808 0
-79 810 0
-809 810 0
-79 -809 0
-106 811 0
-810 811 0
-106 -810 0
-129 812 0
-811 812 0
-129 -811 0
-154 813 0
-812 813 0
-154 -812 0
-177 814 0
-813 814 0
-177 -813 0
-196 815 0
-814 815 0
-196 -814 0
-213 816 0
-815 816 0
-213 -815 0
-228 817 0
-816 817 0
-228 -816 0
-245 818 0
-817 818 0
-245 -817 0
-260 819 0
-818 819 0
-260 -818 0
-277 820 0
-819 820 0
-277 -819 0
-292 821 0
-820 821 0
-292 -820 0
-309 -821 0
38 53 93 107 141 155 189 197 205 229 237 261 269 293 301 0
-38 822 0
-53 823 0
-822 823 0
-53 -822 0
-93 824 0
-823 824 0
-93 -823 0
-107 825 0
-824 825 0
-107 -824 0
-141 826 0
-825 826 0
-141 -825 0
-155 827 0
-826 827 0
-155 -826 0
-189 828 0
-827 828 0
-189 -827 0
-197 829 0
-828 829 0
-197 -828 0
-205 830 0
-829 830 0
-205 -829 0
-229 831 0
-830 831 0
-229 -830 0
-237 832 0
-831 832 0
-237 -831 0
-261 833 0
-832 833 0
-261 -832 0
-269 834 0
-833 834 0
-269 -833 0
-293 835 0
-834 835 0
-293 -834 0
-301 -835 0
9 24 39 50 65 79 93 252 262 270 278 284 294 302 310 0
-9 836 0
-24 837 0
-836 837 0
-24 -836 0
-39 838 0
-837 838 0
-39 -837 0
-50 839 0
-838 839 0
-50 -838 0
-65 840 0
-839 840 0
-65 -839 0
-79 841 0
-840 841 0
-79 -840 0
-93 842 0
-841 842 0
-93 -841 0
-252 843 0
-842 843 0
-252 -842 0
-262 844 0
-843 844 0
-262 -843 0
-270 845 0
-844 845 0
-270 -844 0
-278 846 0
-845 846 0
-278 -845 0
-284 847 0
-846 847 0
-284 -846 0
-294 848 0
-847 848 0
-294 -847 0
-302 849 0
-848 849 0
-302 -848 0
-310 -849 0
9 51 64 130 142 178 190 206 214 238 246 253 263 285 295 0
-9 850 0
-51 851 0
-850 851 0
-51 -850 0
-64 852 0
-851 852 0
-64 -851 0
-130 853 0
-852 853 0
-130 -852 0
-142 854 0
-853 854 0
-142 -853 0
-178 855 0
-854 855 0
-178 -854 0
-190 856 0
-855 856 0
-190 -855 0
-206 857 0
-856 857 0
-206 -856 0
-214 858 0
-857 858 0
-214 -857 0
-238 859 0
-858 859 0
-238 -858 0
-246 860 0
-859 860 0
-246 -859 0
-253 861 0
-860 861 0
-253 -860 0
-263 862 0
-861 862 0
-263 -861 0
-285 863 0
-862 863 0
-285 -862 0
-295 -863 0
24 52 78 118 143 166 191 198 215 230 247 254 271 286 303 0
-24 864 0
-52 865 0
-864 865 0
-52 -864 0
-78 866 0
-865 866 0
-78 -865 0
-118 867 0
-866 867 0
-118 -866 0
-143 868 0
-867 868 0
-143 -867 0
-166 869 0
-868 869 0
-166 -868 0
-191 870 0
-869 870 0
-191 -869 0
-198 871 0
-870 871 0
-198 -870 0
-215 872 0
-871 872 0
-215 -871 0
-230 873 0
-872 873 0
-230 -872 0
-247 874 0
-873 874 0
-247 -873 0
-254 875 0
-874 875 0
-254 -874 0
-271 876 0
-875 876 0
-271 -875 0
-286 877 0
-876 877 0
-286 -876 0
-303 -877 0
39 53 92 119 131 167 179 199 207 231 239 255 279 287 311 0
-39 878 0
-53 879 0
-878 879 0
-53 -878 0
-92 880 0
-879 880 0
-92 -879 0
-119 881 0
-880 881 0
-119 -880 0
-131 882 0
-881 882 0
-131 -881 0
-167 883 0
-882 883 0
-167 -882 0
-179 884 0
-883 884 0
-179 -883 0
-199 885 0
-884 885 0
-199 -884 0
-207 886 0
-885 886 0
-207 -885 0
-231 887 0
-886 887 0
-231 -886 0
-239 888 0
-887 888 0
-239 -887 0
-255 889 0
-888 889 0
-255 -888 0
-279 890 0
-889 890 0
-279 -889 0
-287 891 0
-890 891 0
-287 -890 0
-311 -891 0
10 25 40 104 117 129 141 220 232 240 248 288 296 304 312 0
-10 892 0
-25 893 0
-892 893 0
-25 -892 0
-40 894 0
-893 894 0
-40 -893 0
-104 895 0
-894 895 0
-104 -894 0
-117 896 0
-895 896 0
-117 -895 0
-129 897 0
-896 897 0
-129 -896 0
-141 898 0
-897 898 0
-141 -897 0
-220 899 0
-898 899 0
-220 -898 0
-232 900 0
-899 900 0
-232 -899 0
-240 901 0
-900 901 0
-240 -900 0
-248 902 0
-901 902 0
-248 -901 0
-288 903 0
-902 903 0
-288 -902 0
-296 904 0
-903 904 0
-296 -903 0
-304 905 0
-904 905 0
-304 -904 0
-312 -905 0
10 80 94 105 116 179 191 208 216 221 233 272 280 289 297 0
-10 906 0
-80 907 0
-906 907 0
-80 -906 0
-94 908 0
-907 908 0
-94 -907 0
-105 909 0
-908 909 0
-105 -908 0
-116 910 0
-909 910 0
-116 -909 0
-179 911 0
-910 911 0
-179 -910 0
-191 912 0
-911 912 0
-191 -911 0
-208 913 0
-912 913 0
-208 -912 0
-216 914 0
-913 914 0
-216 -913 0
-221 915 0
-914 915 0
-221 -914 0
-233 916 0
-915 916 0
-233 -915 0
-272 917 0
-916 917 0
-272 -916 0
-280 918 0
-917 918 0
-280 -917 0
-289 919 0
-918 919 0
-289 -918 0
-297 -919 0
25 66 95 106 128 167 190 200 217 222 241 264 281 290 305 0
-25 920 0
-66 921 0
-920 921 0
-66 -920 0
-95 922 0
-921 922 0
-95 -921 0
-106 923 0
-922 923 0
-106 -922 0
-128 924 0
-923 924 0
-128 -923 0
-167 925 0
-924 925 0
-167 -924 0
-190 926 0
-925 926 0
-190 -925 0
-200 927 0
-926 927 0
-200 -926 0
-217 928 0
-927 928 0
-217 -927 0
-222 929 0
-928 929 0
-222 -928 0
-241 930 0
-929 930 0
-241 -929 0
-264 931 0
-930 931 0
-264 -930 0
-281 932 0
-931 932 0
-281 -931 0
-290 933 0
-932 933 0
-290 -932 0
-305 -933 0
40 67 81 107 140 166 178 201 209 223 249 265 273 291 313 0
-40 934 0
-67 935 0
-934 935 0
-67 -934 0
-81 936 0
-935 936 0
-81 -935 0
-107 937 0
-936 937 0
-107 -936 0
-140 938 0
-937 938 0
-140 -937 0
-166 939 0
-938 939 0
-166 -938 0
-178 940 0
-939 940 0
-178 -939 0
-201 941 0
-940 941 0
-201 -940 0
-209 942 0
-941 942 0
-209 -941 0
-223 943 0
-942 943 0
-223 -942 0
-249 944 0
-943 944 0
-249 -943 0
-265 945 0
-944 945 0
-265 -944 0
-273 946 0
-945 946 0
-273 -945 0
-291 947 0
-946 947 0
-291 -946 0
-313 -947 0
11 26 41 152 165 177 189 224 234 242 250 256 266 274 282 0
-11 948 0
-26 949 0
-948 949 0
-26 -948 0
-41 950 0
-949 950 0
-41 -949 0
-152 951 0
-950 951 0
-152 -950 0
-165 952 0
-951 952 0
-165 -951 0
-177 953 0
-952 953 0
-177 -952 0
-189 954 0
-953 954 0
-189 -953 0
-224 955 0
-954 955 0
-224 -954 0
-234 956 0
-955 956 0
-234 -955 0
-242 957 0
-956 957 0
-242 -956 0
-250 958 0
-957 958 0
-250 -957 0
-256 959 0
-958 959 0
-256 -958 0
-266 960 0
-959 960 0
-266 -959 0
-274 961 0
-960 961 0
-274 -960 0
-282 -961 0
11 81 95 131 143 153 164 210 218 225 235 257 267 306 314 0
-11 962 0
-81 963 0
-962 963 0
-81 -962 0
-95 964 0
-963 964 0
-95 -963 0
-131 965 0
-964 965 0
-131 -964 0
-143 966 0
-965 966 0
-143 -965 0
-153 967 0
-966 967 0
-153 -966 0
-164 968 0
-967 968 0
-164 -967 0
-210 969 0
-968 969 0
-210 -968 0
-218 970 0
-969 970 0
-218 -969 0
-225 971 0
-970 971 0
-225 -970 0
-235 972 0
-971 972 0
-235 -971 0
-257 973 0
-972 973 0
-257 -972 0
-267 974 0
-973 974 0
-267 -973 0
-306 975 0
-974 975 0
-306 -974 0
-314 -975 0
26 67 94 119 142 154 176 202 219 226 243 258 275 298 315 0
-26 976 0
-67 977 0
-976 977 0
-67 -976 0
-94 978 0
-977 978 0
-94 -977 0
-119 979 0
-978 979 0
-119 -978 0
-142 980 0
-979 980 0
-142 -979 0
-154 981 0
-980 981 0
-154 -980 0
-176 982 0
-981 982 0
-176 -981 0
-202 983 0
-982 983 0
-202 -982 0
-219 984 0
-983 984 0
-219 -983 0
-226 985 0
-984 985 0
-226 -984 0
-243 986 0
-985 986 0
-243 -985 0
-258 987 0
-986 987 0
-258 -986 0
-275 988 0
-987 988 0
-275 -987 0
-298 989 0
-988 989 0
-298 -988 0
-315 -989 0
41 66 80 118 130 155 188 203 211 227 251 259 283 299 307 0
-41 990 0
-66 991 0
-990 991 0
-66 -990 0
-80 992 0
-991 992 0
-80 -991 0
-118 993 0
-992 993 0
-118 -992 0
-130 994 0
-993 994 0
-130 -993 0
-155 995 0
-994 995 0
-155 -994 0
-188 996 0
-995 996 0
-188 -995 0
-203 997 0
-996 997 0
-203 -996 0
-211 998 0
-997 998 0
-211 -997 0
-227 999 0
-998 999 0
-227 -998 0
-251 1000 0
-999 1000 0
-251 -999 0
-259 1001 0
-1000 1001 0
-259 -1000 0
-283 1002 0
-1001 1002 0
-283 -1001 0
-299 1003 0
-1002 1003 0
-299 -1002 0
-307 -1003 0
12 27 42 54 68 82 96 108 120 132 144 156 168 180 192 0
-12 1004 0
-27 1005 0
-1004 1005 0
-27 -1004 0
-42 1006 0
-1005 1006 0
-42 -1005 0
-54 1007 0
-1006 1007 0
-54 -1006 0
-68 1008 0
-1007 1008 0
-68 -1007 0
-82 1009 0
-1008 1009 0
-82 -1008 0
-96 1010 0
-1009 1010 0
-96 -1009 0
-108 1011 0
-1010 1011 0
-108 -1010 0
-120 1012 0
-1011 1012 0
-120 -1011 0
-132 1013 0
-1012 1013 0
-132 -1012 0
-144 1014 0
-1013 1014 0
-144 -1013 0
-156 1015 0
-1014 1015 0
-156 -1014 0
-168 1016 0
-1015 1016 0
-168 -1015 0
-180 1017 0
-1016 1017 0
-180 -1016 0
-192 -1017 0
12 55 69 109 121 157 169 205 213 239 247 273 281 307 315 0
-12 1018 0
-55 1019 0
-1018 1019 0
-55 -1018 0
-69 1020 0
-1019 1020 0
-69 -1019 0
-109 1021 0
-1020 1021 0
-109 -1020 0
-121 1022 0
-1021 1022 0
-121 -1021 0
-157 1023 0
-1022 1023 0
-157 -1022 0
-169 1024 0
-1023 1024 0
-169 -1023 0
-205 1025 0
-1024 1025 0
-205 -1024 0
-213 1026 0
-1025 1026 0
-213 -1025 0
-239 1027 0
-1026 1027 0
-239 -1026 0
-247 1028 0
-1027 1028 0
-247 -1027 0
-273 1029 0
-1028 1029 0
-273 -1028 0
-281 1030 0
-1029 1030 0
-281 -1029 0
-307 1031 0
-1030 1031 0
-307 -1030 0
-315 -1031 0
27 56 83 110 133 158 181 197 212 231 246 265 280 299 314 0
-27 1032 0
-56 1033 0
-1032 1033 0
-56 -1032 0
-83 1034 0
-1033 1034 0
-83 -1033 0
-110 1035 0
-1034 1035 0
-110 -1034 0
-133 1036 0
-1035 1036 0
-133 -1035 0
-158 1037 0
-1036 1037 0
-158 -1036 0
-181 1038 0
-1037 1038 0
-181 -1037 0
-197 1039 0
-1038 1039 0
-197 -1038 0
-212 1040 0
-1039 1040 0
-212 -1039 0
-231 1041 0
-1040 1041 0
-231 -1040 0
-246 1042 0
-1041 1042 0
-246 -1041 0
-265 1043 0
-1042 1043 0
-265 -1042 0
-280 1044 0
-1043 1044 0
-280 -1043 0
-299 1045 0
-1044 1045 0
-299 -1044 0
-314 -1045 0
42 57 97 111 145 159 193 196 204 230 238 264 272 298 306 0
-42 1046 0
-57 1047 0
-1046 1047 0
-57 -1046 0
-97 1048 0
-1047 1048 0
-97 -1047 0
-111 1049 0
-1048 1049 0
-111 -1048 0
-145 1050 0
-1049 1050 0
-145 -1049 0
-159 1051 0
-1050 1051 0
-159 -1050 0
-193 1052 0
-1051 1052 0
-193 -1051 0
-196 1053 0
-1052 1053 0
-196 -1052 0
-204 1054 0
-1053 1054 0
-204 -1053 0
-230 1055 0
-1054 1055 0
-230 -1054 0
-238 1056 0
-1055 1056 0
-238 -1055 0
-264 1057 0
-1056 1057 0
-264 -1056 0
-272 1058 0
-1057 1058 0
-272 -1057 0
-298 1059 0
-1058 1059 0
-298 -1058 0
-306 -1059 0
13 28 43 54 69 83 97 256 267 275 283 288 297 305 313 0
-13 1060 0
-28 1061 0
-1060 1061 0
-28 -1060 0
-43 1062 0
-1061 1062 0
-43 -1061 0
-54 1063 0
-1062 1063 0
-54 -1062 0
-69 1064 0
-1063 1064 0
-69 -1063 0
-83 1065 0
-1064 1065 0
-83 -1064 0
-97 1066 0
-1065 1066 0
-97 -1065 0
-256 1067 0
-1066 1067 0
-256 -1066 0
-267 1068 0
-1067 1068 0
-267 -1067 0
-275 1069 0
-1068 1069 0
-275 -1068 0
-283 1070 0
-1069 1070 0
-283 -1069 0
-288 1071 0
-1070 1071 0
-288 -1070 0
-297 1072 0
-1071 1072 0
-297 -1071 0
-305 1073 0
-1072 1073 0
-305 -1072 0
-313 -1073 0
13 55 68 134 146 182 194 207 215 237 245 257 266 289 296 0
-13 1074 0
-55 1075 0
-1074 1075 0
-55 -1074 0
-68 1076 0
-1075 1076 0
-68 -1075 0
-134 1077 0
-1076 1077 0
-134 -1076 0
-146 1078 0
-1077 1078 0
-146 -1077 0
-182 1079 0
-1078 1079 0
-182 -1078 0
-194 1080 0
-1079 1080 0
-194 -1079 0
-207 1081 0
-1080 1081 0
-207 -1080 0
-215 1082 0
-1081 1082 0
-215 -1081 0
-237 1083 0
-1082 1083 0
-237 -1082 0
-245 1084 0
-1083 1084 0
-245 -1083 0
-257 1085 0
-1084 1085 0
-257 -1084 0
-266 1086 0
-1085 1086 0
-266 -1085 0
-289 1087 0
-1086 1087 0
-289 -1086 0
-296 -1087 0
28 56 82 122 147 170 195 199 214 229 244 258 274 290 304 0
-28 1088 0
-56 1089 0
-1088 1089 0
-56 -1088 0
-82 1090 0
-1089 1090 0
-82 -1089 0
-122 1091 0
-1090 1091 0
-122 -1090 0
-147 1092 0
-1091 1092 0
-147 -1091 0
-170 1093 0
-1092 1093 0
-170 -1092 0
-195 1094 0
-1093 1094 0
-195 -1093 0
-199 1095 0
-1094 1095 0
-199 -1094 0
-214 1096 0
-1095 1096 0
-214 -1095 0
-229 1097 0
-1096 1097 0
-229 -1096 0
-244 1098 0
-1097 1098 0
-244 -1097 0
-258 1099 0
-1098 1099 0
-258 -1098 0
-274 1100 0
-1099 1100 0
-274 -1099 0
-290 1101 0
-1100 1101 0
-290 -1100 0
-304 -1101 0
43 57 96 123 135 171 183 198 206 228 236 259 282 291 312 0
-43 1102 0
-57 1103 0
-1102 1103 0
-57 -1102 0
-96 1104 0
-1103 1104 0
-96 -1103 0
-123 1105 0
-1104 1105 0
-123 -1104 0
-135 1106 0
-1105 1106 0
-135 -1105 0
-171 1107 0
-1106 1107 0
-171 -1106 0
-183 1108 0
-1107 1108 0
-183 -1107 0
-198 1109 0
-1108 1109 0
-198 -1108 0
-206 1110 0
-1109 1110 0
-206 -1109 0
-228 1111 0
-1110 1111 0
-228 -1110 0
-236 1112 0
-1111 1112 0
-236 -1111 0
-259 1113 0
-1112 1113 0
-259 -1112 0
-282 1114 0
-1113 1114 0
-282 -1113 0
-291 1115 0
-1114 1115 0
-291 -1114 0
-312 -1115 0
14 29 44 108 121 133 145 224 235 243 251 284 295 303 311 0
-14 1116 0
-29 1117 0
-1116 1117 0
-29 -1116 0
-44 1118 0
-1117 1118 0
-44 -1117 0
-108 1119 0
-1118 1119 0
-108 -1118 0
-121 1120 0
-1119 1120 0
-121 -1119 0
-133 1121 0
-1120 1121 0
-133 -1120 0
-145 1122 0
-1121 1122 0
-145 -1121 0
-224 1123 0
-1122 1123 0
-224 -1122 0
-235 1124 0
-1123 1124 0
-235 -1123 0
-243 1125 0
-1124 1125 0
-243 -1124 0
-251 1126 0
-1125 1126 0
-251 -1125 0
-284 1127 0
-1126 1127 0
-284 -1126 0
-295 1128 0
-1127 1128 0
-295 -1127 0
-303 1129 0
-1128 1129 0
-303 -1128 0
-311 -1129 0
14 84 98 109 120 183 195 209 217 225 234 269 277 285 294 0
-14 1130 0
-84 1131 0
-1130 1131 0
-84 -1130 0
-98 1132 0
-1131 1132 0
-98 -1131 0
-109 1133 0
-1132 1133 0
-109 -1132 0
-120 1134 0
-1133 1134 0
-120 -1133 0
-183 1135 0
-1134 1135 0
-183 -1134 0
-195 1136 0
-1135 1136 0
-195 -1135 0
-209 1137 0
-1136 1137 0
-209 -1136 0
-217 1138 0
-1137 1138 0
-217 -1137 0
-225 1139 0
-1138 1139 0
-225 -1138 0
-234 1140 0
-1139 1140 0
-234 -1139 0
-269 1141 0
-1140 1141 0
-269 -1140 0
-277 1142 0
-1141 1142 0
-277 -1141 0
-285 1143 0
-1142 1143 0
-285 -1142 0
-294 -1143 0
29 70 99 110 132 171 194 201 216 226 242 261 276 286 302 0
-29 1144 0
-70 1145 0
-1144 1145 0
-70 -1144 0
-99 1146 0
-1145 1146 0
-99 -1145 0
-110 1147 0
-1146 1147 0
-110 -1146 0
-132 1148 0
-1147 1148 0
-132 -1147 0
-171 1149 0
-1148 1149 0
-171 -1148 0
-194 1150 0
-1149 1150 0
-194 -1149 0
-201 1151 0
-1150 1151 0
-201 -1150 0
-216 1152 0
-1151 1152 0
-216 -1151 0
-226 1153 0
-1152 1153 0
-226 -1152 0
-242 1154 0
-1153 1154 0
-242 -1153 0
-261 1155 0
-1154 1155 0
-261 -1154 0
-276 1156 0
-1155 1156 0
-276 -1155 0
-286 1157 0
-1156 1157 0
-286 -1156 0
-302 -1157 0
44 71 85 111 144 170 182 200 208 227 250 260 268 287 310 0
-44 1158 0
-71 1159 0
-1158 1159 0
-71 -1158 0
-85 1160 0
-1159 1160 0
-85 -1159 0
-111 1161 0
-1160 1161 0
-111 -1160 0
-144 1162 0
-1161 1162 0
-144 -1161 0
-170 1163 0
-1162 1163 0
-170 -1162 0
-182 1164 0
-1163 1164 0
-182 -1163 0
-200 1165 0
-1164 1165 0
-200 -1164 0
-208 1166 0
-1165 1166 0
-208 -1165 0
-227 1167 0
-1166 1167 0
-227 -1166 0
-250 1168 0
-1167 1168 0
-250 -1167 0
-260 1169 0
-1168 1169 0
-260 -1168 0
-268 1170 0
-1169 1170 0
-268 -1169 0
-287 1171 0
-1170 1171 0
-287 -1170 0
-310 -1171 0
15 30 45 156 169 181 193 220 233 241 249 252 263 271 279 0
-15 1172 0
-30 1173 0
-1172 1173 0
-30 -1172 0
-45 1174 0
-1173 1174 0
-45 -1173 0
-156 1175 0
-1174 1175 0
-156 -1174 0
-169 1176 0
-1175 1176 0
-169 -1175 0
-181 1177 0
-1176 1177 0
-181 -1176 0
-193 1178 0
-1177 1178 0
-193 -1177 0
-220 1179 0
-1178 1179 0
-220 -1178 0
-233 1180 0
-1179 1180 0
-233 -1179 0
-241 1181 0
-1180 1181 0
-241 -1180 0
-249 1182 0
-1181 1182 0
-249 -1181 0
-252 1183 0
-1182 1183 0
-252 -1182 0
-263 1184 0
-1183 1184 0
-263 -1183 0
-271 1185 0
-1184 1185 0
-271 -1184 0
-279 -1185 0
15 85 99 135 147 157 168 211 219 221 232 253 262 301 309 0
-15 1186 0
-85 1187 0
-1186 1187 0
-85 -1186 0
-99 1188 0
-1187 1188 0
-99 -1187 0
-135 1189 0
-1188 1189 0
-135 -1188 0
-147 1190 0
-1189 1190 0
-147 -1189 0
-157 1191 0
-1190 1191 0
-157 -1190 0
-168 1192 0
-1191 1192 0
-168 -1191 0
-211 1193 0
-1192 1193 0
-211 -1192 0
-219 1194 0
-1193 1194 0
-219 -1193 0
-221 1195 0
-1194 1195 0
-221 -1194 0
-232 1196 0
-1195 1196 0
-232 -1195 0
-253 1197 0
-1196 1197 0
-253 -1196 0
-262 1198 0
-1197 1198 0
-262 -1197 0
-301 1199 0
-1198 1199 0
-301 -1198 0
-309 -1199 0
30 71 98 123 146 158 180 203 218 222 240 254 270 293 308 0
-30 1200 0
-71 1201 0
-1200 1201 0
-71 -1200 0
-98 1202 0
-1201 1202 0
-98 -1201 0
-123 1203 0
-1202 1203 0
-123 -1202 0
-146 1204 0
-1203 1204 0
-146 -1203 0
-158 1205 0
-1204 1205 0
-158 -1204 0
-180 1206 0
-1205 1206 0
-180 -1205 0
-203 1207 0
-1206 1207 0
-203 -1206 0
-218 1208 0
-1207 1208 0
-218 -1207 0
-222 1209 0
-1208 1209 0
-222 -1208 0
-240 1210 0
-1209 1210 0
-240 -1209 0
-254 1211 0
-1210 1211 0
-254 -1210 0
-270 1212 0
-1211 1212 0
-270 -1211 0
-293 1213 0
-1212 1213 0
-293 -1212 0
-308 -1213 0
45 70 84 122 134 159 192 202 210 223 248 255 278 292 300 0
-45 1214 0
-70 1215 0
-1214 1215 0
-70 -1214 0
-84 1216 0
-1215 1216 0
-84 -1215 0
-122 1217 0
-1216 1217 0
-122 -1216 0
-134 1218 0
-1217 1218 0
-134 -1217 0
-159 1219 0
-1218 1219 0
-159 -1218 0
-192 1220 0
-1219 1220 0
-192 -1219 0
-202 1221 0
-1220 1221 0
-202 -1220 0
-210 1222 0
-1221 1222 0
-210 -1221 0
-223 1223 0
-1222 1223 0
-223 -1222 0
-248 1224 0
-1223 1224 0
-248 -1223 0
-255 1225 0
-1224 1225 0
-255 -1224 0
-278 1226 0
-1225 1226 0
-278 -1225 0
-292 1227 0
-1226 1227 0
-292 -1226 0
-300 -1227 0
-1 -317 0
-1 -332 0
-2 -318 0
-2 -333 0
-1228 317 318 0
-1228 -317 -318 0
1228 -317 318 0
1228 317 -318 0
-3 -1228 0
-1229 332 333 0
-1229 -332 -333 0
1229 -332 333 0
1229 332 -333 0
-3 -1229 0
-4 -319 0
-4 -334 0
-1230 317 319 0
-1230 -317 -319 0
1230 -317 319 0
1230 317 -319 0
-5 -1230 0
-1231 332 334 0
-1231 -332 -334 0
1231 -332 334 0
1231 332 -334 0
-5 -1231 0
-1232 318 319 0
-1232 -318 -319 0
1232 -318 319 0
1232 318 -319 0
-6 -1232 0
-1233 333 334 0
-1233 -333 -334 0
1233 -333 334 0
1233 333 -334 0
-6 -1233 0
-1234 317 318 0
-1234 -317 -318 0
1234 -317 318 0
1234 317 -318 0
-1235 1234 319 0
-1235 -1234 -319 0
1235 -1234 319 0
1235 1234 -319 0
-7 -1235 0
-1236 332 333 0
-1236 -332 -333 0
1236 -332 333 0
1236 332 -333 0
-1237 1236 334 0
-1237 -1236 -334 0
1237 -1236 334 0
1237 1236 -334 0
-7 -1237 0
-8 -320 0
-8 -335 0
-1238 317 320 0
-1238 -317 -320 0
1238 -317 320 0
1238 317 -320 0
-9 -1238 0
-1239 332 335 0
-1239 -332 -335 0
1239 -332 335 0
1239 332 -335 0
-9 -1239 0
-1240 318 320 0
-1240 -318 -320 0
1240 -318 320 0
1240 318 -320 0
-10 -1240 0
-1241 333 335 0
-1241 -333 -335 0
1241 -333 335 0
1241 333 -335 0
-10 -1241 0
-1242 317 318 0
-1242 -317 -318 0
1242 -317 318 0
1242 317 -318 0
-1243 1242 320 0
-1243 -1242 -320 0
1243 -1242 320 0
1243 1242 -320 0
-11 -1243 0
-1244 332 333 0
-1244 -332 -333 0
1244 -332 333 0
1244 332 -333 0
-1245 1244 335 0
-1245 -1244 -335 0
1245 -1244 335 0
1245 1244 -335 0
-11 -1245 0
-1246 319 320 0
-1246 -319 -320 0
1246 -319 320 0
1246 319 -320 0
-12 -1246 0
-1247 334 335 0
-1247 -334 -335 0
1247 -334 335 0
1247 334 -335 0
-12 -1247 0
-1248 317 319 0
-1248 -317 -319 0
1248 -317 319 0
1248 317 -319 0
-1249 1248 320 0
-1249 -1248 -320 0
1249 -1248 320 0
1249 1248 -320 0
-13 -1249 0
-1250 332 334 0
-1250 -332 -334 0
1250 -332 334 0
1250 332 -334 0
-1251 1250 335 0
-1251 -1250 -335 0
1251 -1250 335 0
1251 1250 -335 0
-13 -1251 0
-1252 318 319 0
-1252 -318 -319 0
1252 -318 319 0
1252 318 -319 0
-1253 1252 320 0
-1253 -1252 -320 0
1253 -1252 320 0
1253 1252 -320 0
-14 -1253 0
-1254 333 334 0
-1254 -333 -334 0
1254 -333 334 0
1254 333 -334 0
-1255 1254 335 0
-1255 -1254 -335 0
1255 -1254 335 0
1255 1254 -335 0
-14 -1255 0
-1256 317 318 0
-1256 -317 -318 0
1256 -317 318 0
1256 317 -318 0
-1257 1256 319 0
-1257 -1256 -319 0
1257 -1256 319 0
1257 1256 -319 0
-1258 1257 320 0
-1258 -1257 -320 0
1258 -1257 320 0
1258 1257 -320 0
-15 -1258 0
-1259 332 333 0
-1259 -332 -333 0
1259 -332 333 0
1259 332 -333 0
-1260 1259 334 0
-1260 -1259 -334 0
1260 -1259 334 0
1260 1259 -334 0
-1261 1260 335 0
-1261 -1260 -335 0
1261 -1260 335 0
1261 1260 -335 0
-15 -1261 0
-16 -321 0
-16 -336 0
-17 -322 0
-17 -337 0
-1262 321 322 0
-1262 -321 -322 0
1262 -321 322 0
1262 321 -322 0
-18 -1262 0
-1263 336 337 0
-1263 -336 -337 0
1263 -336 337 0
1263 336 -337 0
-18 -1263 0
-19 -323 0
-19 -338 0
-1264 321 323 0
-1264 -321 -323 0
1264 -321 323 0
1264 321 -323 0
-20 -1264 0
-1265 336 338 0
-1265 -336 -338 0
1265 -336 338 0
1265 336 -338 0
-20 -1265 0
-1266 322 323 0
-1266 -322 -323 0
1266 -322 323 0
1266 322 -323 0
-21 -1266 0
-1267 337 338 0
-1267 -337 -338 0
1267 -337 338 0
1267 337 -338 0
-21 -1267 0
-1268 321 322 0
-1268 -321 -322 0
1268 -321 322 0
1268 321 -322 0
-1269 1268 323 0
-1269 -1268 -323 0
1269 -1268 323 0
1269 1268 -323 0
-22 -1269 0
-1270 336 337 0
-1270 -336 -337 0
1270 -336 337 0
1270 336 -337 0
-1271 1270 338 0
-1271 -1270 -338 0
1271 -1270 338 0
1271 1270 -338 0
-22 -1271 0
-23 -324 0
-23 -339 0
-1272 321 324 0
-1272 -321 -324 0
1272 -321 324 0
1272 321 -324 0
-24 -1272 0
-1273 336 339 0
-1273 -336 -339 0
1273 -336 339 0
1273 336 -339 0
-24 -1273 0
-1274 322 324 0
-1274 -322 -324 0
1274 -322 324 0
1274 322 -324 0
-25 -1274 0
-1275 337 339 0
-1275 -337 -339 0
1275 -337 339 0
1275 337 -339 0
-25 -1275 0
-1276 321 322 0
-1276 -321 -322 0
1276 -321 322 0
1276 321 -322 0
-1277 1276 324 0
-1277 -1276 -324 0
1277 -1276 324 0
1277 1276 -324 0
-26 -1277 0
-1278 336 337 0
-1278 -336 -337 0
1278 -336 337 0
1278 336 -337 0
-1279 1278 339 0
-1279 -1278 -339 0
1279 -1278 339 0
1279 1278 -339 0
-26 -1279 0
-1280 323 324 0
-1280 -323 -324 0
1280 -323 324 0
1280 323 -324 0
-27 -1280 0
-1281 338 339 0
-1281 -338 -339 0
1281 -338 339 0
1281 338 -339 0
-27 -1281 0
-1282 321 323 0
-1282 -321 -323 0
1282 -321 323 0
1282 321 -323 0
-1283 1282 324 0
-1283 -1282 -324 0
1283 -1282 324 0
1283 1282 -324 0
-28 -1283 0
-1284 336 338 0
-1284 -336 -338 0
1284 -336 338 0
1284 336 -338 0
-1285 1284 339 0
-1285 -1284 -339 0
1285 -1284 339 0
1285 1284 -339 0
-28 -1285 0
-1286 322 323 0
-1286 -322 -323 0
1286 -322 323 0
1286 322 -323 0
-1287 1286 324 0
-1287 -1286 -324 0
1287 -1286 324 0
1287 1286 -324 0
-29 -1287 0
-1288 337 338 0
-1288 -337 -338 0
1288 -337 338 0
1288 337 -338 0
-1289 1288 339 0
-1289 -1288 -339 0
1289 -1288 339 0
1289 1288 -339 0
-29 -1289 0
-1290 321 322 0
-1290 -321 -322 0
1290 -321 322 0
1290 321 -322 0
-1291 1290 323 0
-1291 -1290 -323 0
1291 -1290 323 0
1291 1290 -323 0
-1292 1291 324 0
-1292 -1291 -324 0
1292 -1291 324 0
1292 1291 -324 0
-30 -1292 0
-1293 336 337 0
-1293 -336 -337 0
1293 -336 337 0
1293 336 -337 0
-1294 1293 338 0
-1294 -1293 -338 0
1294 -1293 338 0
1294 1293 -338 0
-1295 1294 339 0
-1295 -1294 -339 0
1295 -1294 339 0
1295 1294 -339 0
-30 -1295 0
-1296 317 321 0
-1296 -317 -321 0
1296 -317 321 0
1296 317 -321 0
-31 -1296 0
-1297 332 336 0
-1297 -332 -336 0
1297 -332 336 0
1297 332 -336 0
-31 -1297 0
-1298 318 322 0
-1298 -318 -322 0
1298 -318 322 0
1298 318 -322 0
-32 -1298 0
-1299 333 337 0
-1299 -333 -337 0
1299 -333 337 0
1299 333 -337 0
-32 -1299 0
-1300 317 318 0
-1300 -317 -318 0
1300 -317 318 0
1300 317 -318 0
-1301 1300 321 0
-1301 -1300 -321 0
1301 -1300 321 0
1301 1300 -321 0
-1302 1301 322 0
-1302 -1301 -322 0
1302 -1301 322 0
1302 1301 -322 0
-33 -1302 0
-1303 332 333 0
-1303 -332 -333 0
1303 -332 333 0
1303 332 -333 0
-1304 1303 336 0
-1304 -1303 -336 0
1304 -1303 336 0
1304 1303 -336 0
-1305 1304 337 0
-1305 -1304 -337 0
1305 -1304 337 0
1305 1304 -337 0
-33 -1305 0
-1306 319 323 0
-1306 -319 -323 0
1306 -319 323 0
1306 319 -323 0
-34 -1306 0
-1307 334 338 0
-1307 -334 -338 0
1307 -334 338 0
1307 334 -338 0
-34 -1307 0
-1308 317 319 0
-1308 -317 -319 0
1308 -317 319 0
1308 317 -319 0
-1309 1308 321 0
-1309 -1308 -321 0
1309 -1308 321 0
1309 1308 -321 0
-1310 1309 323 0
-1310 -1309 -323 0
1310 -1309 323 0
1310 1309 -323 0
-35 -1310 0
-1311 332 334 0
-1311 -332 -334 0
1311 -332 334 0
1311 332 -334 0
-1312 1311 336 0
-1312 -1311 -336 0
1312 -1311 336 0
1312 1311 -336 0
-1313 1312 338 0
-1313 -1312 -338 0
1313 -1312 338 0
1313 1312 -338 0
-35 -1313 0
-1314 318 319 0
-1314 -318 -319 0
1314 -318 319 0
1314 318 -319 0
-1315 1314 322 0
-1315 -1314 -322 0
1315 -1314 322 0
1315 1314 -322 0
-1316 1315 323 0
-1316 -1315 -323 0
1316 -1315 323 0
1316 1315 -323 0
-36 -1316 0
-1317 333 334 0
-1317 -333 -334 0
1317 -333 334 0
1317 333 -334 0
-1318 1317 337 0
-1318 -1317 -337 0
1318 -1317 337 0
1318 1317 -337 0
-1319 1318 338 0
-1319 -1318 -338 0
1319 -1318 338 0
1319 1318 -338 0
-36 -1319 0
-1320 317 318 0
-1320 -317 -318 0
1320 -317 318 0
1320 317 -318 0
-1321 1320 319 0
-1321 -1320 -319 0
1321 -1320 319 0
1321 1320 -319 0
-1322 1321 321 0
-1322 -1321 -321 0
1322 -1321 321 0
1322 1321 -321 0
-1323 1322 322 0
-1323 -1322 -322 0
1323 -1322 322 0
1323 1322 -322 0
-1324 1323 323 0
-1324 -1323 -323 0
1324 -1323 323 0
1324 1323 -323 0
-37 -1324 0
-1325 332 333 0
-1325 -332 -333 0
1325 -332 333 0
1325 332 -333 0
-1326 1325 334 0
-1326 -1325 -334 0
1326 -1325 334 0
1326 1325 -334 0
-1327 1326 336 0
-1327 -1326 -336 0
1327 -1326 336 0
1327 1326 -336 0
-1328 1327 337 0
-1328 -1327 -337 0
1328 -1327 337 0
1328 1327 -337 0
-1329 1328 338 0
-1329 -1328 -338 0
1329 -1328 338 0
1329 1328 -338 0
-37 -1329 0
-1330 320 324 0
-1330 -320 -324 0
1330 -320 324 0
1330 320 -324 0
-38 -1330 0
-1331 335 339 0
-1331 -335 -339 0
1331 -335 339 0
1331 335 -339 0
-38 -1331 0
-1332 317 320 0
-1332 -317 -320 0
1332 -317 320 0
1332 317 -320 0
-1333 1332 321 0
-1333 -1332 -321 0
1333 -1332 321 0
1333 1332 -321 0
-1334 1333 324 0
-1334 -1333 -324 0
1334 -1333 324 0
1334 1333 -324 0
-39 -1334 0
-1335 332 335 0
-1335 -332 -335 0
1335 -332 335 0
1335 332 -335 0
-1336 1335 336 0
-1336 -1335 -336 0
1336 -1335 336 0
1336 1335 -336 0
-1337 1336 339 0
-1337 -1336 -339 0
1337 -1336 339 0
1337 1336 -339 0
-39 -1337 0
-1338 318 320 0
-1338 -318 -320 0
1338 -318 320 0
1338 318 -320 0
-1339 1338 322 0
-1339 -1338 -322 0
1339 -1338 322 0
1339 1338 -322 0
-1340 1339 324 0
-1340 -1339 -324 0
1340 -1339 324 0
1340 1339 -324 0
-40 -1340 0
-1341 333 335 0
-1341 -333 -335 0
1341 -333 335 0
1341 333 -335 0
-1342 1341 337 0
-1342 -1341 -337 0
1342 -1341 337 0
1342 1341 -337 0
-1343 1342 339 0
-1343 -1342 -339 0
1343 -1342 339 0
1343 1342 -339 0
-40 -1343 0
-1344 317 318 0
-1344 -317 -318 0
1344 -317 318 0
1344 317 -318 0
-1345 1344 320 0
-1345 -1344 -320 0
1345 -1344 320 0
1345 1344 -320 0
-1346 1345 321 0
-1346 -1345 -321 0
1346 -1345 321 0
1346 1345 -321 0
-1347 1346 322 0
-1347 -1346 -322 0
1347 -1346 322 0
1347 1346 -322 0
-1348 1347 324 0
-1348 -1347 -324 0
1348 -1347 324 0
1348 1347 -324 0
-41 -1348 0
-1349 332 333 0
-1349 -332 -333 0
1349 -332 333 0
1349 332 -333 0
-1350 1349 335 0
-1350 -1349 -335 0
1350 -1349 335 0
1350 1349 -335 0
-1351 1350 336 0
-1351 -1350 -336 0
1351 -1350 336 0
1351 1350 -336 0
-1352 1351 337 0
-1352 -1351 -337 0
1352 -1351 337 0
1352 1351 -337 0
-1353 1352 339 0
-1353 -1352 -339 0
1353 -1352 339 0
1353 1352 -339 0
-41 -1353 0
-1354 319 320 0
-1354 -319 -320 0
1354 -319 320 0
1354 319 -320 0
-1355 1354 323 0
-1355 -1354 -323 0
1355 -1354 323 0
1355 1354 -323 0
-1356 1355 324 0
-1356 -1355 -324 0
1356 -1355 324 0
1356 1355 -324 0
-42 -1356 0
-1357 334 335 0
-1357 -334 -335 0
1357 -334 335 0
1357 334 -335 0
-1358 1357 338 0
-1358 -1357 -338 0
1358 -1357 338 0
1358 1357 -338 0
-1359 1358 339 0
-1359 -1358 -339 0
1359 -1358 339 0
1359 1358 -339 0
-42 -1359 0
-1360 317 319 0
-1360 -317 -319 0
1360 -317 319 0
1360 317 -319 0
-1361 1360 320 0
-1361 -1360 -320 0
1361 -1360 320 0
1361 1360 -320 0
-1362 1361 321 0
-1362 -1361 -321 0
1362 -1361 321 0
1362 1361 -321 0
-1363 1362 323 0
-1363 -1362 -323 0
1363 -1362 323 0
1363 1362 -323 0
-1364 1363 324 0
-1364 -1363 -324 0
1364 -1363 324 0
1364 1363 -324 0
-43 -1364 0
-1365 332 334 0
-1365 -332 -334 0
1365 -332 334 0
1365 332 -334 0
-1366 1365 335 0
-1366 -1365 -335 0
1366 -1365 335 0
1366 1365 -335 0
-1367 1366 336 0
-1367 -1366 -336 0
1367 -1366 336 0
1367 1366 -336 0
-1368 1367 338 0
-1368 -1367 -338 0
1368 -1367 338 0
1368 1367 -338 0
-1369 1368 339 0
-1369 -1368 -339 0
1369 -1368 339 0
1369 1368 -339 0
-43 -1369 0
-1370 318 319 0
-1370 -318 -319 0
1370 -318 319 0
1370 318 -319 0
-1371 1370 320 0
-1371 -1370 -320 0
1371 -1370 320 0
1371 1370 -320 0
-1372 1371 322 0
-1372 -1371 -322 0
1372 -1371 322 0
1372 1371 -322 0
-1373 1372 323 0
-1373 -1372 -323 0
1373 -1372 323 0
1373 1372 -323 0
-1374 1373 324 0
-1374 -1373 -324 0
1374 -1373 324 0
1374 1373 -324 0
-44 -1374 0
-1375 333 334 0
-1375 -333 -334 0
1375 -333 334 0
1375 333 -334 0
-1376 1375 335 0
-1376 -1375 -335 0
1376 -1375 335 0
1376 1375 -335 0
-1377 1376 337 0
-1377 -1376 -337 0
1377 -1376 337 0
1377 1376 -337 0
-1378 1377 338 0
-1378 -1377 -338 0
1378 -1377 338 0
1378 1377 -338 0
-1379 1378 339 0
-1379 -1378 -339 0
1379 -1378 339 0
1379 1378 -339 0
-44 -1379 0
-1380 317 318 0
-1380 -317 -318 0
1380 -317 318 0
1380 317 -318 0
-1381 1380 319 0
-1381 -1380 -319 0
1381 -1380 319 0
1381 1380 -319 0
-1382 1381 320 0
-1382 -1381 -320 0
1382 -1381 320 0
1382 1381 -320 0
-1383 1382 321 0
-1383 -1382 -321 0
1383 -1382 321 0
1383 1382 -321 0
-1384 1383 322 0
-1384 -1383 -322 0
1384 -1383 322 0
1384 1383 -322 0
-1385 1384 323 0
-1385 -1384 -323 0
1385 -1384 323 0
1385 1384 -323 0
-1386 1385 324 0
-1386 -1385 -324 0
1386 -1385 324 0
1386 1385 -324 0
-45 -1386 0
-1387 332 333 0
-1387 -332 -333 0
1387 -332 333 0
1387 332 -333 0
-1388 1387 334 0
-1388 -1387 -334 0
1388 -1387 334 0
1388 1387 -334 0
-1389 1388 335 0
-1389 -1388 -335 0
1389 -1388 335 0
1389 1388 -335 0
-1390 1389 336 0
-1390 -1389 -336 0
1390 -1389 336 0
1390 1389 -336 0
-1391 1390 337 0
-1391 -1390 -337 0
1391 -1390 337 0
1391 1390 -337 0
-1392 1391 338 0
-1392 -1391 -338 0
1392 -1391 338 0
1392 1391 -338 0
-1393 1392 339 0
-1393 -1392 -339 0
1393 -1392 339 0
1393 1392 -339 0
-45 -1393 0
-46 -326 0
-46 -341 0
-1394 317 326 0
-1394 -317 -326 0
1394 -317 326 0
1394 317 -326 0
-47 -1394 0
-1395 332 341 0
-1395 -332 -341 0
1395 -332 341 0
1395 332 -341 0
-47 -1395 0
-1396 321 326 0
-1396 -321 -326 0
1396 -321 326 0
1396 321 -326 0
-48 -1396 0
-1397 336 341 0
-1397 -336 -341 0
1397 -336 341 0
1397 336 -341 0
-48 -1397 0
-1398 317 321 0
-1398 -317 -321 0
1398 -317 321 0
1398 317 -321 0
-1399 1398 326 0
-1399 -1398 -326 0
1399 -1398 326 0
1399 1398 -326 0
-49 -1399 0
-1400 332 336 0
-1400 -332 -336 0
1400 -332 336 0
1400 332 -336 0
-1401 1400 341 0
-1401 -1400 -341 0
1401 -1400 341 0
1401 1400 -341 0
-49 -1401 0
-50 -327 0
-50 -342 0
-1402 317 327 0
-1402 -317 -327 0
1402 -317 327 0
1402 317 -327 0
-51 -1402 0
-1403 332 342 0
-1403 -332 -342 0
1403 -332 342 0
1403 332 -342 0
-51 -1403 0
-1404 321 327 0
-1404 -321 -327 0
1404 -321 327 0
1404 321 -327 0
-52 -1404 0
-1405 336 342 0
-1405 -336 -342 0
1405 -336 342 0
1405 336 -342 0
-52 -1405 0
-1406 317 321 0
-1406 -317 -321 0
1406 -317 321 0
1406 317 -321 0
-1407 1406 327 0
-1407 -1406 -327 0
1407 -1406 327 0
1407 1406 -327 0
-53 -1407 0
-1408 332 336 0
-1408 -332 -336 0
1408 -332 336 0
1408 332 -336 0
-1409 1408 342 0
-1409 -1408 -342 0
1409 -1408 342 0
1409 1408 -342 0
-53 -1409 0
-1410 326 327 0
-1410 -326 -327 0
1410 -326 327 0
1410 326 -327 0
-54 -1410 0
-1411 341 342 0
-1411 -341 -342 0
1411 -341 342 0
1411 341 -342 0
-54 -1411 0
-1412 317 326 0
-1412 -317 -326 0
1412 -317 326 0
1412 317 -326 0
-1413 1412 327 0
-1413 -1412 -327 0
1413 -1412 327 0
1413 1412 -327 0
-55 -1413 0
-1414 332 341 0
-1414 -332 -341 0
1414 -332 341 0
1414 332 -341 0
-1415 1414 342 0
-1415 -1414 -342 0
1415 -1414 342 0
1415 1414 -342 0
-55 -1415 0
-1416 321 326 0
-1416 -321 -326 0
1416 -321 326 0
1416 321 -326 0
-1417 1416 327 0
-1417 -1416 -327 0
1417 -1416 327 0
1417 1416 -327 0
-56 -1417 0
-1418 336 341 0
-1418 -336 -341 0
1418 -336 341 0
1418 336 -341 0
-1419 1418 342 0
-1419 -1418 -342 0
1419 -1418 342 0
1419 1418 -342 0
-56 -1419 0
-1420 317 321 0
-1420 -317 -321 0
1420 -317 321 0
1420 317 -321 0
-1421 1420 326 0
-1421 -1420 -326 0
1421 -1420 326 0
1421 1420 -326 0
-1422 1421 327 0
-1422 -1421 -327 0
1422 -1421 327 0
1422 1421 -327 0
-57 -1422 0
-1423 332 336 0
-1423 -332 -336 0
1423 -332 336 0
1423 332 -336 0
-1424 1423 341 0
-1424 -1423 -341 0
1424 -1423 341 0
1424 1423 -341 0
-1425 1424 342 0
-1425 -1424 -342 0
1425 -1424 342 0
1425 1424 -342 0
-57 -1425 0
-1426 316 318 0
-1426 -316 -318 0
1426 -316 318 0
1426 316 -318 0
-1427 1426 321 0
-1427 -1426 -321 0
1427 -1426 321 0
1427 1426 -321 0
-1428 1427 325 0
-1428 -1427 -325 0
1428 -1427 325 0
1428 1427 -325 0
-58 -1428 0
-1429 331 333 0
-1429 -331 -333 0
1429 -331 333 0
1429 331 -333 0
-1430 1429 336 0
-1430 -1429 -336 0
1430 -1429 336 0
1430 1429 -336 0
-1431 1430 340 0
-1431 -1430 -340 0
1431 -1430 340 0
1431 1430 -340 0
-58 -1431 0
-1432 316 317 0
-1432 -316 -317 0
1432 -316 317 0
1432 316 -317 0
-1433 1432 318 0
-1433 -1432 -318 0
1433 -1432 318 0
1433 1432 -318 0
-1434 1433 321 0
-1434 -1433 -321 0
1434 -1433 321 0
1434 1433 -321 0
-1435 1434 325 0
-1435 -1434 -325 0
1435 -1434 325 0
1435 1434 -325 0
-59 -1435 0
-1436 331 332 0
-1436 -331 -332 0
1436 -331 332 0
1436 331 -332 0
-1437 1436 333 0
-1437 -1436 -333 0
1437 -1436 333 0
1437 1436 -333 0
-1438 1437 336 0
-1438 -1437 -336 0
1438 -1437 336 0
1438 1437 -336 0
-1439 1438 340 0
-1439 -1438 -340 0
1439 -1438 340 0
1439 1438 -340 0
-59 -1439 0
-1440 319 326 0
-1440 -319 -326 0
1440 -319 326 0
1440 319 -326 0
-60 -1440 0
-1441 334 341 0
-1441 -334 -341 0
1441 -334 341 0
1441 334 -341 0
-60 -1441 0
-1442 317 319 0
-1442 -317 -319 0
1442 -317 319 0
1442 317 -319 0
-1443 1442 326 0
-1443 -1442 -326 0
1443 -1442 326 0
1443 1442 -326 0
-61 -1443 0
-1444 332 334 0
-1444 -332 -334 0
1444 -332 334 0
1444 332 -334 0
-1445 1444 341 0
-1445 -1444 -341 0
1445 -1444 341 0
1445 1444 -341 0
-61 -1445 0
-1446 316 318 0
-1446 -316 -318 0
1446 -316 318 0
1446 316 -318 0
-1447 1446 319 0
-1447 -1446 -319 0
1447 -1446 319 0
1447 1446 -319 0
-1448 1447 321 0
-1448 -1447 -321 0
1448 -1447 321 0
1448 1447 -321 0
-1449 1448 325 0
-1449 -1448 -325 0
1449 -1448 325 0
1449 1448 -325 0
-1450 1449 326 0
-1450 -1449 -326 0
1450 -1449 326 0
1450 1449 -326 0
-62 -1450 0
-1451 331 333 0
-1451 -331 -333 0
1451 -331 333 0
1451 331 -333 0
-1452 1451 334 0
-1452 -1451 -334 0
1452 -1451 334 0
1452 1451 -334 0
-1453 1452 336 0
-1453 -1452 -336 0
1453 -1452 336 0
1453 1452 -336 0
-1454 1453 340 0
-1454 -1453 -340 0
1454 -1453 340 0
1454 1453 -340 0
-1455 1454 341 0
-1455 -1454 -341 0
1455 -1454 341 0
1455 1454 -341 0
-62 -1455 0
-1456 316 317 0
-1456 -316 -317 0
1456 -316 317 0
1456 316 -317 0
-1457 1456 318 0
-1457 -1456 -318 0
1457 -1456 318 0
1457 1456 -318 0
-1458 1457 319 0
-1458 -1457 -319 0
1458 -1457 319 0
1458 1457 -319 0
-1459 1458 321 0
-1459 -1458 -321 0
1459 -1458 321 0
1459 1458 -321 0
-1460 1459 325 0
-1460 -1459 -325 0
1460 -1459 325 0
1460 1459 -325 0
-1461 1460 326 0
-1461 -1460 -326 0
1461 -1460 326 0
1461 1460 -326 0
-63 -1461 0
-1462 331 332 0
-1462 -331 -332 0
1462 -331 332 0
1462 331 -332 0
-1463 1462 333 0
-1463 -1462 -333 0
1463 -1462 333 0
1463 1462 -333 0
-1464 1463 334 0
-1464 -1463 -334 0
1464 -1463 334 0
1464 1463 -334 0
-1465 1464 336 0
-1465 -1464 -336 0
1465 -1464 336 0
1465 1464 -336 0
-1466 1465 340 0
-1466 -1465 -340 0
1466 -1465 340 0
1466 1465 -340 0
-1467 1466 341 0
-1467 -1466 -341 0
1467 -1466 341 0
1467 1466 -341 0
-63 -1467 0
-1468 320 327 0
-1468 -320 -327 0
1468 -320 327 0
1468 320 -327 0
-64 -1468 0
-1469 335 342 0
-1469 -335 -342 0
1469 -335 342 0
1469 335 -342 0
-64 -1469 0
-1470 317 320 0
-1470 -317 -320 0
1470 -317 320 0
1470 317 -320 0
-1471 1470 327 0
-1471 -1470 -327 0
1471 -1470 327 0
1471 1470 -327 0
-65 -1471 0
-1472 332 335 0
-1472 -332 -335 0
1472 -332 335 0
1472 332 -335 0
-1473 1472 342 0
-1473 -1472 -342 0
1473 -1472 342 0
1473 1472 -342 0
-65 -1473 0
-1474 316 318 0
-1474 -316 -318 0
1474 -316 318 0
1474 316 -318 0
-1475 1474 320 0
-1475 -1474 -320 0
1475 -1474 320 0
1475 1474 -320 0
-1476 1475 321 0
-1476 -1475 -321 0
1476 -1475 321 0
1476 1475 -321 0
-1477 1476 325 0
-1477 -1476 -325 0
1477 -1476 325 0
1477 1476 -325 0
-1478 1477 327 0
-1478 -1477 -327 0
1478 -1477 327 0
1478 1477 -327 0
-66 -1478 0
-1479 331 333 0
-1479 -331 -333 0
1479 -331 333 0
1479 331 -333 0
-1480 1479 335 0
-1480 -1479 -335 0
1480 -1479 335 0
1480 1479 -335 0
-1481 1480 336 0
-1481 -1480 -336 0
1481 -1480 336 0
1481 1480 -336 0
-1482 1481 340 0
-1482 -1481 -340 0
1482 -1481 340 0
1482 1481 -340 0
-1483 1482 342 0
-1483 -1482 -342 0
1483 -1482 342 0
1483 1482 -342 0
-66 -1483 0
-1484 316 317 0
-1484 -316 -317 0
1484 -316 317 0
1484 316 -317 0
-1485 1484 318 0
-1485 -1484 -318 0
1485 -1484 318 0
1485 1484 -318 0
-1486 1485 320 0
-1486 -1485 -320 0
1486 -1485 320 0
1486 1485 -320 0
-1487 1486 321 0
-1487 -1486 -321 0
1487 -1486 321 0
1487 1486 -321 0
-1488 1487 325 0
-1488 -1487 -325 0
1488 -1487 325 0
1488 1487 -325 0
-1489 1488 327 0
-1489 -1488 -327 0
1489 -1488 327 0
1489 1488 -327 0
-67 -1489 0
-1490 331 332 0
-1490 -331 -332 0
1490 -331 332 0
1490 331 -332 0
-1491 1490 333 0
-1491 -1490 -333 0
1491 -1490 333 0
1491 1490 -333 0
-1492 1491 335 0
-1492 -1491 -335 0
1492 -1491 335 0
1492 1491 -335 0
-1493 1492 336 0
-1493 -1492 -336 0
1493 -1492 336 0
1493 1492 -336 0
-1494 1493 340 0
-1494 -1493 -340 0
1494 -1493 340 0
1494 1493 -340 0
-1495 1494 342 0
-1495 -1494 -342 0
1495 -1494 342 0
1495 1494 -342 0
-67 -1495 0
-1496 319 320 0
-1496 -319 -320 0
1496 -319 320 0
1496 319 -320 0
-1497 1496 326 0
-1497 -1496 -326 0
1497 -1496 326 0
1497 1496 -326 0
-1498 1497 327 0
-1498 -1497 -327 0
1498 -1497 327 0
1498 1497 -327 0
-68 -1498 0
-1499 334 335 0
-1499 -334 -335 0
1499 -334 335 0
1499 334 -335 0
-1500 1499 341 0
-1500 -1499 -341 0
1500 -1499 341 0
1500 1499 -341 0
-1501 1500 342 0
-1501 -1500 -342 0
1501 -1500 342 0
1501 1500 -342 0
-68 -1501 0
-1502 317 319 0
-1502 -317 -319 0
1502 -317 319 0
1502 317 -319 0
-1503 1502 320 0
-1503 -1502 -320 0
1503 -1502 320 0
1503 1502 -320 0
-1504 1503 326 0
-1504 -1503 -326 0
1504 -1503 326 0
1504 1503 -326 0
-1505 1504 327 0
-1505 -1504 -327 0
1505 -1504 327 0
1505 1504 -327 0
-69 -1505 0
-1506 332 334 0
-1506 -332 -334 0
1506 -332 334 0
1506 332 -334 0
-1507 1506 335 0
-1507 -1506 -335 0
1507 -1506 335 0
1507 1506 -335 0
-1508 1507 341 0
-1508 -1507 -341 0
1508 -1507 341 0
1508 1507 -341 0
-1509 1508 342 0
-1509 -1508 -342 0
1509 -1508 342 0
1509 1508 -342 0
-69 -1509 0
-1510 316 318 0
-1510 -316 -318 0
1510 -316 318 0
1510 316 -318 0
-1511 1510 319 0
-1511 -1510 -319 0
1511 -1510 319 0
1511 1510 -319 0
-1512 1511 320 0
-1512 -1511 -320 0
1512 -1511 320 0
1512 1511 -320 0
-1513 1512 321 0
-1513 -1512 -321 0
1513 -1512 321 0
1513 1512 -321 0
-1514 1513 325 0
-1514 -1513 -325 0
1514 -1513 325 0
1514 1513 -325 0
-1515 1514 326 0
-1515 -1514 -326 0
1515 -1514 326 0
1515 1514 -326 0
-1516 1515 327 0
-1516 -1515 -327 0
1516 -1515 327 0
1516 1515 -327 0
-70 -1516 0
-1517 331 333 0
-1517 -331 -333 0
1517 -331 333 0
1517 331 -333 0
-1518 1517 334 0
-1518 -1517 -334 0
1518 -1517 334 0
1518 1517 -334 0
-1519 1518 335 0
-1519 -1518 -335 0
1519 -1518 335 0
1519 1518 -335 0
-1520 1519 336 0
-1520 -1519 -336 0
1520 -1519 336 0
1520 1519 -336 0
-1521 1520 340 0
-1521 -1520 -340 0
1521 -1520 340 0
1521 1520 -340 0
-1522 1521 341 0
-1522 -1521 -341 0
1522 -1521 341 0
1522 1521 -341 0
-1523 1522 342 0
-1523 -1522 -342 0
1523 -1522 342 0
1523 1522 -342 0
-70 -1523 0
-1524 316 317 0
-1524 -316 -317 0
1524 -316 317 0
1524 316 -317 0
-1525 1524 318 0
-1525 -1524 -318 0
1525 -1524 318 0
1525 1524 -318 0
-1526 1525 319 0
-1526 -1525 -319 0
1526 -1525 319 0
1526 1525 -319 0
-1527 1526 320 0
-1527 -1526 -320 0
1527 -1526 320 0
1527 1526 -320 0
-1528 1527 321 0
-1528 -1527 -321 0
1528 -1527 321 0
1528 1527 -321 0
-1529 1528 325 0
-1529 -1528 -325 0
1529 -1528 325 0
1529 1528 -325 0
-1530 1529 326 0
-1530 -1529 -326 0
1530 -1529 326 0
1530 1529 -326 0
-1531 1530 327 0
-1531 -1530 -327 0
1531 -1530 327 0
1531 1530 -327 0
-71 -1531 0
-1532 331 332 0
-1532 -331 -332 0
1532 -331 332 0
1532 331 -332 0
-1533 1532 333 0
-1533 -1532 -333 0
1533 -1532 333 0
1533 1532 -333 0
-1534 1533 334 0
-1534 -1533 -334 0
1534 -1533 334 0
1534 1533 -334 0
-1535 1534 335 0
-1535 -1534 -335 0
1535 -1534 335 0
1535 1534 -335 0
-1536 1535 336 0
-1536 -1535 -336 0
1536 -1535 336 0
1536 1535 -336 0
-1537 1536 340 0
-1537 -1536 -340 0
1537 -1536 340 0
1537 1536 -340 0
-1538 1537 341 0
-1538 -1537 -341 0
1538 -1537 341 0
1538 1537 -341 0
-1539 1538 342 0
-1539 -1538 -342 0
1539 -1538 342 0
1539 1538 -342 0
-71 -1539 0
-1540 316 317 0
-1540 -316 -317 0
1540 -316 317 0
1540 316 -317 0
-1541 1540 322 0
-1541 -1540 -322 0
1541 -1540 322 0
1541 1540 -322 0
-1542 1541 325 0
-1542 -1541 -325 0
1542 -1541 325 0
1542 1541 -325 0
-72 -1542 0
-1543 331 332 0
-1543 -331 -332 0
1543 -331 332 0
1543 331 -332 0
-1544 1543 337 0
-1544 -1543 -337 0
1544 -1543 337 0
1544 1543 -337 0
-1545 1544 340 0
-1545 -1544 -340 0
1545 -1544 340 0
1545 1544 -340 0
-72 -1545 0
-1546 316 317 0
-1546 -316 -317 0
1546 -316 317 0
1546 316 -317 0
-1547 1546 321 0
-1547 -1546 -321 0
1547 -1546 321 0
1547 1546 -321 0
-1548 1547 322 0
-1548 -1547 -322 0
1548 -1547 322 0
1548 1547 -322 0
-1549 1548 325 0
-1549 -1548 -325 0
1549 -1548 325 0
1549 1548 -325 0
-73 -1549 0
-1550 331 332 0
-1550 -331 -332 0
1550 -331 332 0
1550 331 -332 0
-1551 1550 336 0
-1551 -1550 -336 0
1551 -1550 336 0
1551 1550 -336 0
-1552 1551 337 0
-1552 -1551 -337 0
1552 -1551 337 0
1552 1551 -337 0
-1553 1552 340 0
-1553 -1552 -340 0
1553 -1552 340 0
1553 1552 -340 0
-73 -1553 0
-1554 323 326 0
-1554 -323 -326 0
1554 -323 326 0
1554 323 -326 0
-74 -1554 0
-1555 338 341 0
-1555 -338 -341 0
1555 -338 341 0
1555 338 -341 0
-74 -1555 0
-1556 321 323 0
-1556 -321 -323 0
1556 -321 323 0
1556 321 -323 0
-1557 1556 326 0
-1557 -1556 -326 0
1557 -1556 326 0
1557 1556 -326 0
-75 -1557 0
-1558 336 338 0
-1558 -336 -338 0
1558 -336 338 0
1558 336 -338 0
-1559 1558 341 0
-1559 -1558 -341 0
1559 -1558 341 0
1559 1558 -341 0
-75 -1559 0
-1560 316 317 0
-1560 -316 -317 0
1560 -316 317 0
1560 316 -317 0
-1561 1560 322 0
-1561 -1560 -322 0
1561 -1560 322 0
1561 1560 -322 0
-1562 1561 323 0
-1562 -1561 -323 0
1562 -1561 323 0
1562 1561 -323 0
-1563 1562 325 0
-1563 -1562 -325 0
1563 -1562 325 0
1563 1562 -325 0
-1564 1563 326 0
-1564 -1563 -326 0
1564 -1563 326 0
1564 1563 -326 0
-76 -1564 0
-1565 331 332 0
-1565 -331 -332 0
1565 -331 332 0
1565 331 -332 0
-1566 1565 337 0
-1566 -1565 -337 0
1566 -1565 337 0
1566 1565 -337 0
-1567 1566 338 0
-1567 -1566 -338 0
1567 -1566 338 0
1567 1566 -338 0
-1568 1567 340 0
-1568 -1567 -340 0
1568 -1567 340 0
1568 1567 -340 0
-1569 1568 341 0
-1569 -1568 -341 0
1569 -1568 341 0
1569 1568 -341 0
-76 -1569 0
-1570 316 317 0
-1570 -316 -317 0
1570 -316 317 0
1570 316 -317 0
-1571 1570 321 0
-1571 -1570 -321 0
1571 -1570 321 0
1571 1570 -321 0
-1572 1571 322 0
-1572 -1571 -322 0
1572 -1571 322 0
1572 1571 -322 0
-1573 1572 323 0
-1573 -1572 -323 0
1573 -1572 323 0
1573 1572 -323 0
-1574 1573 325 0
-1574 -1573 -325 0
1574 -1573 325 0
1574 1573 -325 0
-1575 1574 326 0
-1575 -1574 -326 0
1575 -1574 326 0
1575 1574 -326 0
-77 -1575 0
-1576 331 332 0
-1576 -331 -332 0
1576 -331 332 0
1576 331 -332 0
-1577 1576 336 0
-1577 -1576 -336 0
1577 -1576 336 0
1577 1576 -336 0
-1578 1577 337 0
-1578 -1577 -337 0
1578 -1577 337 0
1578 1577 -337 0
-1579 1578 338 0
-1579 -1578 -338 0
1579 -1578 338 0
1579 1578 -338 0
-1580 1579 340 0
-1580 -1579 -340 0
1580 -1579 340 0
1580 1579 -340 0
-1581 1580 341 0
-1581 -1580 -341 0
1581 -1580 341 0
1581 1580 -341 0
-77 -1581 0
-1582 324 327 0
-1582 -324 -327 0
1582 -324 327 0
1582 324 -327 0
-78 -1582 0
-1583 339 342 0
-1583 -339 -342 0
1583 -339 342 0
1583 339 -342 0
-78 -1583 0
-1584 321 324 0
-1584 -321 -324 0
1584 -321 324 0
1584 321 -324 0
-1585 1584 327 0
-1585 -1584 -327 0
1585 -1584 327 0
1585 1584 -327 0
-79 -1585 0
-1586 336 339 0
-1586 -336 -339 0
1586 -336 339 0
1586 336 -339 0
-1587 1586 342 0
-1587 -1586 -342 0
1587 -1586 342 0
1587 1586 -342 0
-79 -1587 0
-1588 316 317 0
-1588 -316 -317 0
1588 -316 317 0
1588 316 -317 0
-1589 1588 322 0
-1589 -1588 -322 0
1589 -1588 322 0
1589 1588 -322 0
-1590 1589 324 0
-1590 -1589 -324 0
1590 -1589 324 0
1590 1589 -324 0
-1591 1590 325 0
-1591 -1590 -325 0
1591 -1590 325 0
1591 1590 -325 0
-1592 1591 327 0
-1592 -1591 -327 0
1592 -1591 327 0
1592 1591 -327 0
-80 -1592 0
-1593 331 332 0
-1593 -331 -332 0
1593 -331 332 0
1593 331 -332 0
-1594 1593 337 0
-1594 -1593 -337 0
1594 -1593 337 0
1594 1593 -337 0
-1595 1594 339 0
-1595 -1594 -339 0
1595 -1594 339 0
1595 1594 -339 0
-1596 1595 340 0
-1596 -1595 -340 0
1596 -1595 340 0
1596 1595 -340 0
-1597 1596 342 0
-1597 -1596 -342 0
1597 -1596 342 0
1597 1596 -342 0
-80 -1597 0
-1598 316 317 0
-1598 -316 -317 0
1598 -316 317 0
1598 316 -317 0
-1599 1598 321 0
-1599 -1598 -321 0
1599 -1598 321 0
1599 1598 -321 0
-1600 1599 322 0
-1600 -1599 -322 0
1600 -1599 322 0
1600 1599 -322 0
-1601 1600 324 0
-1601 -1600 -324 0
1601 -1600 324 0
1601 1600 -324 0
-1602 1601 325 0
-1602 -1601 -325 0
1602 -1601 325 0
1602 1601 -325 0
-1603 1602 327 0
-1603 -1602 -327 0
1603 -1602 327 0
1603 1602 -327 0
-81 -1603 0
-1604 331 332 0
-1604 -331 -332 0
1604 -331 332 0
1604 331 -332 0
-1605 1604 336 0
-1605 -1604 -336 0
1605 -1604 336 0
1605 1604 -336 0
-1606 1605 337 0
-1606 -1605 -337 0
1606 -1605 337 0
1606 1605 -337 0
-1607 1606 339 0
-1607 -1606 -339 0
1607 -1606 339 0
1607 1606 -339 0
-1608 1607 340 0
-1608 -1607 -340 0
1608 -1607 340 0
1608 1607 -340 0
-1609 1608 342 0
-1609 -1608 -342 0
1609 -1608 342 0
1609 1608 -342 0
-81 -1609 0
-1610 323 324 0
-1610 -323 -324 0
1610 -323 324 0
1610 323 -324 0
-1611 1610 326 0
-1611 -1610 -326 0
1611 -1610 326 0
1611 1610 -326 0
-1612 1611 327 0
-1612 -1611 -327 0
1612 -1611 327 0
1612 1611 -327 0
-82 -1612 0
-1613 338 339 0
-1613 -338 -339 0
1613 -338 339 0
1613 338 -339 0
-1614 1613 341 0
-1614 -1613 -341 0
1614 -1613 341 0
1614 1613 -341 0
-1615 1614 342 0
-1615 -1614 -342 0
1615 -1614 342 0
1615 1614 -342 0
-82 -1615 0
-1616 321 323 0
-1616 -321 -323 0
1616 -321 323 0
1616 321 -323 0
-1617 1616 324 0
-1617 -1616 -324 0
1617 -1616 324 0
1617 1616 -324 0
-1618 1617 326 0
-1618 -1617 -326 0
1618 -1617 326 0
1618 1617 -326 0
-1619 1618 327 0
-1619 -1618 -327 0
1619 -1618 327 0
1619 1618 -327 0
-83 -1619 0
-1620 336 338 0
-1620 -336 -338 0
1620 -336 338 0
1620 336 -338 0
-1621 1620 339 0
-1621 -1620 -339 0
1621 -1620 339 0
1621 1620 -339 0
-1622 1621 341 0
-1622 -1621 -341 0
1622 -1621 341 0
1622 1621 -341 0
-1623 1622 342 0
-1623 -1622 -342 0
1623 -1622 342 0
1623 1622 -342 0
-83 -1623 0
-1624 316 317 0
-1624 -316 -317 0
1624 -316 317 0
1624 316 -317 0
-1625 1624 322 0
-1625 -1624 -322 0
1625 -1624 322 0
1625 1624 -322 0
-1626 1625 323 0
-1626 -1625 -323 0
1626 -1625 323 0
1626 1625 -323 0
-1627 1626 324 0
-1627 -1626 -324 0
1627 -1626 324 0
1627 1626 -324 0
-1628 1627 325 0
-1628 -1627 -325 0
1628 -1627 325 0
1628 1627 -325 0
-1629 1628 326 0
-1629 -1628 -326 0
1629 -1628 326 0
1629 1628 -326 0
-1630 1629 327 0
-1630 -1629 -327 0
1630 -1629 327 0
1630 1629 -327 0
-84 -1630 0
-1631 331 332 0
-1631 -331 -332 0
1631 -331 332 0
1631 331 -332 0
-1632 1631 337 0
-1632 -1631 -337 0
1632 -1631 337 0
1632 1631 -337 0
-1633 1632 338 0
-1633 -1632 -338 0
1633 -1632 338 0
1633 1632 -338 0
-1634 1633 339 0
-1634 -1633 -339 0
1634 -1633 339 0
1634 1633 -339 0
-1635 1634 340 0
-1635 -1634 -340 0
1635 -1634 340 0
1635 1634 -340 0
-1636 1635 341 0
-1636 -1635 -341 0
1636 -1635 341 0
1636 1635 -341 0
-1637 1636 342 0
-1637 -1636 -342 0
1637 -1636 342 0
1637 1636 -342 0
-84 -1637 0
-1638 316 317 0
-1638 -316 -317 0
1638 -316 317 0
1638 316 -317 0
-1639 1638 321 0
-1639 -1638 -321 0
1639 -1638 321 0
1639 1638 -321 0
-1640 1639 322 0
-1640 -1639 -322 0
1640 -1639 322 0
1640 1639 -322 0
-1641 1640 323 0
-1641 -1640 -323 0
1641 -1640 323 0
1641 1640 -323 0
-1642 1641 324 0
-1642 -1641 -324 0
1642 -1641 324 0
1642 1641 -324 0
-1643 1642 325 0
-1643 -1642 -325 0
1643 -1642 325 0
1643 1642 -325 0
-1644 1643 326 0
-1644 -1643 -326 0
1644 -1643 326 0
1644 1643 -326 0
-1645 1644 327 0
-1645 -1644 -327 0
1645 -1644 327 0
1645 1644 -327 0
-85 -1645 0
-1646 331 332 0
-1646 -331 -332 0
1646 -331 332 0
1646 331 -332 0
-1647 1646 336 0
-1647 -1646 -336 0
1647 -1646 336 0
1647 1646 -336 0
-1648 1647 337 0
-1648 -1647 -337 0
1648 -1647 337 0
1648 1647 -337 0
-1649 1648 338 0
-1649 -1648 -338 0
1649 -1648 338 0
1649 1648 -338 0
-1650 1649 339 0
-1650 -1649 -339 0
1650 -1649 339 0
1650 1649 -339 0
-1651 1650 340 0
-1651 -1650 -340 0
1651 -1650 340 0
1651 1650 -340 0
-1652 1651 341 0
-1652 -1651 -341 0
1652 -1651 341 0
1652 1651 -341 0
-1653 1652 342 0
-1653 -1652 -342 0
1653 -1652 342 0
1653 1652 -342 0
-85 -1653 0
-1654 316 317 0
-1654 -316 -317 0
1654 -316 317 0
1654 316 -317 0
-1655 1654 318 0
-1655 -1654 -318 0
1655 -1654 318 0
1655 1654 -318 0
-1656 1655 322 0
-1656 -1655 -322 0
1656 -1655 322 0
1656 1655 -322 0
-1657 1656 325 0
-1657 -1656 -325 0
1657 -1656 325 0
1657 1656 -325 0
-86 -1657 0
-1658 331 332 0
-1658 -331 -332 0
1658 -331 332 0
1658 331 -332 0
-1659 1658 333 0
-1659 -1658 -333 0
1659 -1658 333 0
1659 1658 -333 0
-1660 1659 337 0
-1660 -1659 -337 0
1660 -1659 337 0
1660 1659 -337 0
-1661 1660 340 0
-1661 -1660 -340 0
1661 -1660 340 0
1661 1660 -340 0
-86 -1661 0
-1662 316 318 0
-1662 -316 -318 0
1662 -316 318 0
1662 316 -318 0
-1663 1662 321 0
-1663 -1662 -321 0
1663 -1662 321 0
1663 1662 -321 0
-1664 1663 322 0
-1664 -1663 -322 0
1664 -1663 322 0
1664 1663 -322 0
-1665 1664 325 0
-1665 -1664 -325 0
1665 -1664 325 0
1665 1664 -325 0
-87 -1665 0
-1666 331 333 0
-1666 -331 -333 0
1666 -331 333 0
1666 331 -333 0
-1667 1666 336 0
-1667 -1666 -336 0
1667 -1666 336 0
1667 1666 -336 0
-1668 1667 337 0
-1668 -1667 -337 0
1668 -1667 337 0
1668 1667 -337 0
-1669 1668 340 0
-1669 -1668 -340 0
1669 -1668 340 0
1669 1668 -340 0
-87 -1669 0
-1670 319 323 0
-1670 -319 -323 0
1670 -319 323 0
1670 319 -323 0
-1671 1670 326 0
-1671 -1670 -326 0
1671 -1670 326 0
1671 1670 -326 0
-88 -1671 0
-1672 334 338 0
-1672 -334 -338 0
1672 -334 338 0
1672 334 -338 0
-1673 1672 341 0
-1673 -1672 -341 0
1673 -1672 341 0
1673 1672 -341 0
-88 -1673 0
-1674 317 319 0
-1674 -317 -319 0
1674 -317 319 0
1674 317 -319 0
-1675 1674 321 0
-1675 -1674 -321 0
1675 -1674 321 0
1675 1674 -321 0
-1676 1675 323 0
-1676 -1675 -323 0
1676 -1675 323 0
1676 1675 -323 0
-1677 1676 326 0
-1677 -1676 -326 0
1677 -1676 326 0
1677 1676 -326 0
-89 -1677 0
-1678 332 334 0
-1678 -332 -334 0
1678 -332 334 0
1678 332 -334 0
-1679 1678 336 0
-1679 -1678 -336 0
1679 -1678 336 0
1679 1678 -336 0
-1680 1679 338 0
-1680 -1679 -338 0
1680 -1679 338 0
1680 1679 -338 0
-1681 1680 341 0
-1681 -1680 -341 0
1681 -1680 341 0
1681 1680 -341 0
-89 -1681 0
-1682 316 317 0
-1682 -316 -317 0
1682 -316 317 0
1682 316 -317 0
-1683 1682 318 0
-1683 -1682 -318 0
1683 -1682 318 0
1683 1682 -318 0
-1684 1683 319 0
-1684 -1683 -319 0
1684 -1683 319 0
1684 1683 -319 0
-1685 1684 322 0
-1685 -1684 -322 0
1685 -1684 322 0
1685 1684 -322 0
-1686 1685 323 0
-1686 -1685 -323 0
1686 -1685 323 0
1686 1685 -323 0
-1687 1686 325 0
-1687 -1686 -325 0
1687 -1686 325 0
1687 1686 -325 0
-1688 1687 326 0
-1688 -1687 -326 0
1688 -1687 326 0
1688 1687 -326 0
-90 -1688 0
-1689 331 332 0
-1689 -331 -332 0
1689 -331 332 0
1689 331 -332 0
-1690 1689 333 0
-1690 -1689 -333 0
1690 -1689 333 0
1690 1689 -333 0
-1691 1690 334 0
-1691 -1690 -334 0
1691 -1690 334 0
1691 1690 -334 0
-1692 1691 337 0
-1692 -1691 -337 0
1692 -1691 337 0
1692 1691 -337 0
-1693 1692 338 0
-1693 -1692 -338 0
1693 -1692 338 0
1693 1692 -338 0
-1694 1693 340 0
-1694 -1693 -340 0
1694 -1693 340 0
1694 1693 -340 0
-1695 1694 341 0
-1695 -1694 -341 0
1695 -1694 341 0
1695 1694 -341 0
-90 -1695 0
-1696 316 318 0
-1696 -316 -318 0
1696 -316 318 0
1696 316 -318 0
-1697 1696 319 0
-1697 -1696 -319 0
1697 -1696 319 0
1697 1696 -319 0
-1698 1697 321 0
-1698 -1697 -321 0
1698 -1697 321 0
1698 1697 -321 0
-1699 1698 322 0
-1699 -1698 -322 0
1699 -1698 322 0
1699 1698 -322 0
-1700 1699 323 0
-1700 -1699 -323 0
1700 -1699 323 0
1700 1699 -323 0
-1701 1700 325 0
-1701 -1700 -325 0
1701 -1700 325 0
1701 1700 -325 0
-1702 1701 326 0
-1702 -1701 -326 0
1702 -1701 326 0
1702 1701 -326 0
-91 -1702 0
-1703 331 333 0
-1703 -331 -333 0
1703 -331 333 0
1703 331 -333 0
-1704 1703 334 0
-1704 -1703 -334 0
1704 -1703 334 0
1704 1703 -334 0
-1705 1704 336 0
-1705 -1704 -336 0
1705 -1704 336 0
1705 1704 -336 0
-1706 1705 337 0
-1706 -1705 -337 0
1706 -1705 337 0
1706 1705 -337 0
-1707 1706 338 0
-1707 -1706 -338 0
1707 -1706 338 0
1707 1706 -338 0
-1708 1707 340 0
-1708 -1707 -340 0
1708 -1707 340 0
1708 1707 -340 0
-1709 1708 341 0
-1709 -1708 -341 0
1709 -1708 341 0
1709 1708 -341 0
-91 -1709 0
-1710 320 324 0
-1710 -320 -324 0
1710 -320 324 0
1710 320 -324 0
-1711 1710 327 0
-1711 -1710 -327 0
1711 -1710 327 0
1711 1710 -327 0
-92 -1711 0
-1712 335 339 0
-1712 -335 -339 0
1712 -335 339 0
1712 335 -339 0
-1713 1712 342 0
-1713 -1712 -342 0
1713 -1712 342 0
1713 1712 -342 0
-92 -1713 0
-1714 317 320 0
-1714 -317 -320 0
1714 -317 320 0
1714 317 -320 0
-1715 1714 321 0
-1715 -1714 -321 0
1715 -1714 321 0
1715 1714 -321 0
-1716 1715 324 0
-1716 -1715 -324 0
1716 -1715 324 0
1716 1715 -324 0
-1717 1716 327 0
-1717 -1716 -327 0
1717 -1716 327 0
1717 1716 -327 0
-93 -1717 0
-1718 332 335 0
-1718 -332 -335 0
1718 -332 335 0
1718 332 -335 0
-1719 1718 336 0
-1719 -1718 -336 0
1719 -1718 336 0
1719 1718 -336 0
-1720 1719 339 0
-1720 -1719 -339 0
1720 -1719 339 0
1720 1719 -339 0
-1721 1720 342 0
-1721 -1720 -342 0
1721 -1720 342 0
1721 1720 -342 0
-93 -1721 0
-1722 316 317 0
-1722 -316 -317 0
1722 -316 317 0
1722 316 -317 0
-1723 1722 318 0
-1723 -1722 -318 0
1723 -1722 318 0
1723 1722 -318 0
-1724 1723 320 0
-1724 -1723 -320 0
1724 -1723 320 0
1724 1723 -320 0
-1725 1724 322 0
-1725 -1724 -322 0
1725 -1724 322 0
1725 1724 -322 0
-1726 1725 324 0
-1726 -1725 -324 0
1726 -1725 324 0
1726 1725 -324 0
-1727 1726 325 0
-1727 -1726 -325 0
1727 -1726 325 0
1727 1726 -325 0
-1728 1727 327 0
-1728 -1727 -327 0
1728 -1727 327 0
1728 1727 -327 0
-94 -1728 0
-1729 331 332 0
-1729 -331 -332 0
1729 -331 332 0
1729 331 -332 0
-1730 1729 333 0
-1730 -1729 -333 0
1730 -1729 333 0
1730 1729 -333 0
-1731 1730 335 0
-1731 -1730 -335 0
1731 -1730 335 0
1731 1730 -335 0
-1732 1731 337 0
-1732 -1731 -337 0
1732 -1731 337 0
1732 1731 -337 0
-1733 1732 339 0
-1733 -1732 -339 0
1733 -1732 339 0
1733 1732 -339 0
-1734 1733 340 0
-1734 -1733 -340 0
1734 -1733 340 0
1734 1733 -340 0
-1735 1734 342 0
-1735 -1734 -342 0
1735 -1734 342 0
1735 1734 -342 0
-94 -1735 0
-1736 316 318 0
-1736 -316 -318 0
1736 -316 318 0
1736 316 -318 0
-1737 1736 320 0
-1737 -1736 -320 0
1737 -1736 320 0
1737 1736 -320 0
-1738 1737 321 0
-1738 -1737 -321 0
1738 -1737 321 0
1738 1737 -321 0
-1739 1738 322 0
-1739 -1738 -322 0
1739 -1738 322 0
1739 1738 -322 0
-1740 1739 324 0
-1740 -1739 -324 0
1740 -1739 324 0
1740 1739 -324 0
-1741 1740 325 0
-1741 -1740 -325 0
1741 -1740 325 0
1741 1740 -325 0
-1742 1741 327 0
-1742 -1741 -327 0
1742 -1741 327 0
1742 1741 -327 0
-95 -1742 0
-1743 331 333 0
-1743 -331 -333 0
1743 -331 333 0
1743 331 -333 0
-1744 1743 335 0
-1744 -1743 -335 0
1744 -1743 335 0
1744 1743 -335 0
-1745 1744 336 0
-1745 -1744 -336 0
1745 -1744 336 0
1745 1744 -336 0
-1746 1745 337 0
-1746 -1745 -337 0
1746 -1745 337 0
1746 1745 -337 0
-1747 1746 339 0
-1747 -1746 -339 0
1747 -1746 339 0
1747 1746 -339 0
-1748 1747 340 0
-1748 -1747 -340 0
1748 -1747 340 0
1748 1747 -340 0
-1749 1748 342 0
-1749 -1748 -342 0
1749 -1748 342 0
1749 1748 -342 0
-95 -1749 0
-1750 319 320 0
-1750 -319 -320 0
1750 -319 320 0
1750 319 -320 0
-1751 1750 323 0
-1751 -1750 -323 0
1751 -1750 323 0
1751 1750 -323 0
-1752 1751 324 0
-1752 -1751 -324 0
1752 -1751 324 0
1752 1751 -324 0
-1753 1752 326 0
-1753 -1752 -326 0
1753 -1752 326 0
1753 1752 -326 0
-1754 1753 327 0
-1754 -1753 -327 0
1754 -1753 327 0
1754 1753 -327 0
-96 -1754 0
-1755 334 335 0
-1755 -334 -335 0
1755 -334 335 0
1755 334 -335 0
-1756 1755 338 0
-1756 -1755 -338 0
1756 -1755 338 0
1756 1755 -338 0
-1757 1756 339 0
-1757 -1756 -339 0
1757 -1756 339 0
1757 1756 -339 0
-1758 1757 341 0
-1758 -1757 -341 0
1758 -1757 341 0
1758 1757 -341 0
-1759 1758 342 0
-1759 -1758 -342 0
1759 -1758 342 0
1759 1758 -342 0
-96 -1759 0
-1760 317 319 0
-1760 -317 -319 0
1760 -317 319 0
1760 317 -319 0
-1761 1760 320 0
-1761 -1760 -320 0
1761 -1760 320 0
1761 1760 -320 0
-1762 1761 321 0
-1762 -1761 -321 0
1762 -1761 321 0
1762 1761 -321 0
-1763 1762 323 0
-1763 -1762 -323 0
1763 -1762 323 0
1763 1762 -323 0
-1764 1763 324 0
-1764 -1763 -324 0
1764 -1763 324 0
1764 1763 -324 0
-1765 1764 326 0
-1765 -1764 -326 0
1765 -1764 326 0
1765 1764 -326 0
-1766 1765 327 0
-1766 -1765 -327 0
1766 -1765 327 0
1766 1765 -327 0
-97 -1766 0
-1767 332 334 0
-1767 -332 -334 0
1767 -332 334 0
1767 332 -334 0
-1768 1767 335 0
-1768 -1767 -335 0
1768 -1767 335 0
1768 1767 -335 0
-1769 1768 336 0
-1769 -1768 -336 0
1769 -1768 336 0
1769 1768 -336 0
-1770 1769 338 0
-1770 -1769 -338 0
1770 -1769 338 0
1770 1769 -338 0
-1771 1770 339 0
-1771 -1770 -339 0
1771 -1770 339 0
1771 1770 -339 0
-1772 1771 341 0
-1772 -1771 -341 0
1772 -1771 341 0
1772 1771 -341 0
-1773 1772 342 0
-1773 -1772 -342 0
1773 -1772 342 0
1773 1772 -342 0
-97 -1773 0
-1774 316 317 0
-1774 -316 -317 0
1774 -316 317 0
1774 316 -317 0
-1775 1774 318 0
-1775 -1774 -318 0
1775 -1774 318 0
1775 1774 -318 0
-1776 1775 319 0
-1776 -1775 -319 0
1776 -1775 319 0
1776 1775 -319 0
-1777 1776 320 0
-1777 -1776 -320 0
1777 -1776 320 0
1777 1776 -320 0
-1778 1777 322 0
-1778 -1777 -322 0
1778 -1777 322 0
1778 1777 -322 0
-1779 1778 323 0
-1779 -1778 -323 0
1779 -1778 323 0
1779 1778 -323 0
-1780 1779 324 0
-1780 -1779 -324 0
1780 -1779 324 0
1780 1779 -324 0
-1781 1780 325 0
-1781 -1780 -325 0
1781 -1780 325 0
1781 1780 -325 0
-1782 1781 326 0
-1782 -1781 -326 0
1782 -1781 326 0
1782 1781 -326 0
-1783 1782 327 0
-1783 -1782 -327 0
1783 -1782 327 0
1783 1782 -327 0
-98 -1783 0
-1784 331 332 0
-1784 -331 -332 0
1784 -331 332 0
1784 331 -332 0
-1785 1784 333 0
-1785 -1784 -333 0
1785 -1784 333 0
1785 1784 -333 0
-1786 1785 334 0
-1786 -1785 -334 0
1786 -1785 334 0
1786 1785 -334 0
-1787 1786 335 0
-1787 -1786 -335 0
1787 -1786 335 0
1787 1786 -335 0
-1788 1787 337 0
-1788 -1787 -337 0
1788 -1787 337 0
1788 1787 -337 0
-1789 1788 338 0
-1789 -1788 -338 0
1789 -1788 338 0
1789 1788 -338 0
-1790 1789 339 0
-1790 -1789 -339 0
1790 -1789 339 0
1790 1789 -339 0
-1791 1790 340 0
-1791 -1790 -340 0
1791 -1790 340 0
1791 1790 -340 0
-1792 1791 341 0
-1792 -1791 -341 0
1792 -1791 341 0
1792 1791 -341 0
-1793 1792 342 0
-1793 -1792 -342 0
1793 -1792 342 0
1793 1792 -342 0
-98 -1793 0
-1794 316 318 0
-1794 -316 -318 0
1794 -316 318 0
1794 316 -318 0
-1795 1794 319 0
-1795 -1794 -319 0
1795 -1794 319 0
1795 1794 -319 0
-1796 1795 320 0
-1796 -1795 -320 0
1796 -1795 320 0
1796 1795 -320 0
-1797 1796 321 0
-1797 -1796 -321 0
1797 -1796 321 0
1797 1796 -321 0
-1798 1797 322 0
-1798 -1797 -322 0
1798 -1797 322 0
1798 1797 -322 0
-1799 1798 323 0
-1799 -1798 -323 0
1799 -1798 323 0
1799 1798 -323 0
-1800 1799 324 0
-1800 -1799 -324 0
1800 -1799 324 0
1800 1799 -324 0
-1801 1800 325 0
-1801 -1800 -325 0
1801 -1800 325 0
1801 1800 -325 0
-1802 1801 326 0
-1802 -1801 -326 0
1802 -1801 326 0
1802 1801 -326 0
-1803 1802 327 0
-1803 -1802 -327 0
1803 -1802 327 0
1803 1802 -327 0
-99 -1803 0
-1804 331 333 0
-1804 -331 -333 0
1804 -331 333 0
1804 331 -333 0
-1805 1804 334 0
-1805 -1804 -334 0
1805 -1804 334 0
1805 1804 -334 0
-1806 1805 335 0
-1806 -1805 -335 0
1806 -1805 335 0
1806 1805 -335 0
-1807 1806 336 0
-1807 -1806 -336 0
1807 -1806 336 0
1807 1806 -336 0
-1808 1807 337 0
-1808 -1807 -337 0
1808 -1807 337 0
1808 1807 -337 0
-1809 1808 338 0
-1809 -1808 -338 0
1809 -1808 338 0
1809 1808 -338 0
-1810 1809 339 0
-1810 -1809 -339 0
1810 -1809 339 0
1810 1809 -339 0
-1811 1810 340 0
-1811 -1810 -340 0
1811 -1810 340 0
1811 1810 -340 0
-1812 1811 341 0
-1812 -1811 -341 0
1812 -1811 341 0
1812 1811 -341 0
-1813 1812 342 0
-1813 -1812 -342 0
1813 -1812 342 0
1813 1812 -342 0
-99 -1813 0
-100 -328 0
-100 -343 0
-1814 318 328 0
-1814 -318 -328 0
1814 -318 328 0
1814 318 -328 0
-101 -1814 0
-1815 333 343 0
-1815 -333 -343 0
1815 -333 343 0
1815 333 -343 0
-101 -1815 0
-1816 322 328 0
-1816 -322 -328 0
1816 -322 328 0
1816 322 -328 0
-102 -1816 0
-1817 337 343 0
-1817 -337 -343 0
1817 -337 343 0
1817 337 -343 0
-102 -1817 0
-1818 318 322 0
-1818 -318 -322 0
1818 -318 322 0
1818 318 -322 0
-1819 1818 328 0
-1819 -1818 -328 0
1819 -1818 328 0
1819 1818 -328 0
-103 -1819 0
-1820 333 337 0
-1820 -333 -337 0
1820 -333 337 0
1820 333 -337 0
-1821 1820 343 0
-1821 -1820 -343 0
1821 -1820 343 0
1821 1820 -343 0
-103 -1821 0
-104 -329 0
-104 -344 0
-1822 318 329 0
-1822 -318 -329 0
1822 -318 329 0
1822 318 -329 0
-105 -1822 0
-1823 333 344 0
-1823 -333 -344 0
1823 -333 344 0
1823 333 -344 0
-105 -1823 0
-1824 322 329 0
-1824 -322 -329 0
1824 -322 329 0
1824 322 -329 0
-106 -1824 0
-1825 337 344 0
-1825 -337 -344 0
1825 -337 344 0
1825 337 -344 0
-106 -1825 0
-1826 318 322 0
-1826 -318 -322 0
1826 -318 322 0
1826 318 -322 0
-1827 1826 329 0
-1827 -1826 -329 0
1827 -1826 329 0
1827 1826 -329 0
-107 -1827 0
-1828 333 337 0
-1828 -333 -337 0
1828 -333 337 0
1828 333 -337 0
-1829 1828 344 0
-1829 -1828 -344 0
1829 -1828 344 0
1829 1828 -344 0
-107 -1829 0
-1830 328 329 0
-1830 -328 -329 0
1830 -328 329 0
1830 328 -329 0
-108 -1830 0
-1831 343 344 0
-1831 -343 -344 0
1831 -343 344 0
1831 343 -344 0
-108 -1831 0
-1832 318 328 0
-1832 -318 -328 0
1832 -318 328 0
1832 318 -328 0
-1833 1832 329 0
-1833 -1832 -329 0
1833 -1832 329 0
1833 1832 -329 0
-109 -1833 0
-1834 333 343 0
-1834 -333 -343 0
1834 -333 343 0
1834 333 -343 0
-1835 1834 344 0
-1835 -1834 -344 0
1835 -1834 344 0
1835 1834 -344 0
-109 -1835 0
-1836 322 328 0
-1836 -322 -328 0
1836 -322 328 0
1836 322 -328 0
-1837 1836 329 0
-1837 -1836 -329 0
1837 -1836 329 0
1837 1836 -329 0
-110 -1837 0
-1838 337 343 0
-1838 -337 -343 0
1838 -337 343 0
1838 337 -343 0
-1839 1838 344 0
-1839 -1838 -344 0
1839 -1838 344 0
1839 1838 -344 0
-110 -1839 0
-1840 318 322 0
-1840 -318 -322 0
1840 -318 322 0
1840 318 -322 0
-1841 1840 328 0
-1841 -1840 -328 0
1841 -1840 328 0
1841 1840 -328 0
-1842 1841 329 0
-1842 -1841 -329 0
1842 -1841 329 0
1842 1841 -329 0
-111 -1842 0
-1843 333 337 0
-1843 -333 -337 0
1843 -333 337 0
1843 333 -337 0
-1844 1843 343 0
-1844 -1843 -343 0
1844 -1843 343 0
1844 1843 -343 0
-1845 1844 344 0
-1845 -1844 -344 0
1845 -1844 344 0
1845 1844 -344 0
-111 -1845 0
-1846 319 328 0
-1846 -319 -328 0
1846 -319 328 0
1846 319 -328 0
-112 -1846 0
-1847 334 343 0
-1847 -334 -343 0
1847 -334 343 0
1847 334 -343 0
-112 -1847 0
-1848 318 319 0
-1848 -318 -319 0
1848 -318 319 0
1848 318 -319 0
-1849 1848 328 0
-1849 -1848 -328 0
1849 -1848 328 0
1849 1848 -328 0
-113 -1849 0
-1850 333 334 0
-1850 -333 -334 0
1850 -333 334 0
1850 333 -334 0
-1851 1850 343 0
-1851 -1850 -343 0
1851 -1850 343 0
1851 1850 -343 0
-113 -1851 0
-1852 316 317 0
-1852 -316 -317 0
1852 -316 317 0
1852 316 -317 0
-1853 1852 319 0
-1853 -1852 -319 0
1853 -1852 319 0
1853 1852 -319 0
-1854 1853 322 0
-1854 -1853 -322 0
1854 -1853 322 0
1854 1853 -322 0
-1855 1854 325 0
-1855 -1854 -325 0
1855 -1854 325 0
1855 1854 -325 0
-1856 1855 328 0
-1856 -1855 -328 0
1856 -1855 328 0
1856 1855 -328 0
-114 -1856 0
-1857 331 332 0
-1857 -331 -332 0
1857 -331 332 0
1857 331 -332 0
-1858 1857 334 0
-1858 -1857 -334 0
1858 -1857 334 0
1858 1857 -334 0
-1859 1858 337 0
-1859 -1858 -337 0
1859 -1858 337 0
1859 1858 -337 0
-1860 1859 340 0
-1860 -1859 -340 0
1860 -1859 340 0
1860 1859 -340 0
-1861 1860 343 0
-1861 -1860 -343 0
1861 -1860 343 0
1861 1860 -343 0
-114 -1861 0
-1862 316 317 0
-1862 -316 -317 0
1862 -316 317 0
1862 316 -317 0
-1863 1862 318 0
-1863 -1862 -318 0
1863 -1862 318 0
1863 1862 -318 0
-1864 1863 319 0
-1864 -1863 -319 0
1864 -1863 319 0
1864 1863 -319 0
-1865 1864 322 0
-1865 -1864 -322 0
1865 -1864 322 0
1865 1864 -322 0
-1866 1865 325 0
-1866 -1865 -325 0
1866 -1865 325 0
1866 1865 -325 0
-1867 1866 328 0
-1867 -1866 -328 0
1867 -1866 328 0
1867 1866 -328 0
-115 -1867 0
-1868 331 332 0
-1868 -331 -332 0
1868 -331 332 0
1868 331 -332 0
-1869 1868 333 0
-1869 -1868 -333 0
1869 -1868 333 0
1869 1868 -333 0
-1870 1869 334 0
-1870 -1869 -334 0
1870 -1869 334 0
1870 1869 -334 0
-1871 1870 337 0
-1871 -1870 -337 0
1871 -1870 337 0
1871 1870 -337 0
-1872 1871 340 0
-1872 -1871 -340 0
1872 -1871 340 0
1872 1871 -340 0
-1873 1872 343 0
-1873 -1872 -343 0
1873 -1872 343 0
1873 1872 -343 0
-115 -1873 0
-1874 320 329 0
-1874 -320 -329 0
1874 -320 329 0
1874 320 -329 0
-116 -1874 0
-1875 335 344 0
-1875 -335 -344 0
1875 -335 344 0
1875 335 -344 0
-116 -1875 0
-1876 318 320 0
-1876 -318 -320 0
1876 -318 320 0
1876 318 -320 0
-1877 1876 329 0
-1877 -1876 -329 0
1877 -1876 329 0
1877 1876 -329 0
-117 -1877 0
-1878 333 335 0
-1878 -333 -335 0
1878 -333 335 0
1878 333 -335 0
-1879 1878 344 0
-1879 -1878 -344 0
1879 -1878 344 0
1879 1878 -344 0
-117 -1879 0
-1880 316 317 0
-1880 -316 -317 0
1880 -316 317 0
1880 316 -317 0
-1881 1880 320 0
-1881 -1880 -320 0
1881 -1880 320 0
1881 1880 -320 0
-1882 1881 322 0
-1882 -1881 -322 0
1882 -1881 322 0
1882 1881 -322 0
-1883 1882 325 0
-1883 -1882 -325 0
1883 -1882 325 0
1883 1882 -325 0
-1884 1883 329 0
-1884 -1883 -329 0
1884 -1883 329 0
1884 1883 -329 0
-118 -1884 0
-1885 331 332 0
-1885 -331 -332 0
1885 -331 332 0
1885 331 -332 0
-1886 1885 335 0
-1886 -1885 -335 0
1886 -1885 335 0
1886 1885 -335 0
-1887 1886 337 0
-1887 -1886 -337 0
1887 -1886 337 0
1887 1886 -337 0
-1888 1887 340 0
-1888 -1887 -340 0
1888 -1887 340 0
1888 1887 -340 0
-1889 1888 344 0
-1889 -1888 -344 0
1889 -1888 344 0
1889 1888 -344 0
-118 -1889 0
-1890 316 317 0
-1890 -316 -317 0
1890 -316 317 0
1890 316 -317 0
-1891 1890 318 0
-1891 -1890 -318 0
1891 -1890 318 0
1891 1890 -318 0
-1892 1891 320 0
-1892 -1891 -320 0
1892 -1891 320 0
1892 1891 -320 0
-1893 1892 322 0
-1893 -1892 -322 0
1893 -1892 322 0
1893 1892 -322 0
-1894 1893 325 0
-1894 -1893 -325 0
1894 -1893 325 0
1894 1893 -325 0
-1895 1894 329 0
-1895 -1894 -329 0
1895 -1894 329 0
1895 1894 -329 0
-119 -1895 0
-1896 331 332 0
-1896 -331 -332 0
1896 -331 332 0
1896 331 -332 0
-1897 1896 333 0
-1897 -1896 -333 0
1897 -1896 333 0
1897 1896 -333 0
-1898 1897 335 0
-1898 -1897 -335 0
1898 -1897 335 0
1898 1897 -335 0
-1899 1898 337 0
-1899 -1898 -337 0
1899 -1898 337 0
1899 1898 -337 0
-1900 1899 340 0
-1900 -1899 -340 0
1900 -1899 340 0
1900 1899 -340 0
-1901 1900 344 0
-1901 -1900 -344 0
1901 -1900 344 0
1901 1900 -344 0
-119 -1901 0
-1902 319 320 0
-1902 -319 -320 0
1902 -319 320 0
1902 319 -320 0
-1903 1902 328 0
-1903 -1902 -328 0
1903 -1902 328 0
1903 1902 -328 0
-1904 1903 329 0
-1904 -1903 -329 0
1904 -1903 329 0
1904 1903 -329 0
-120 -1904 0
-1905 334 335 0
-1905 -334 -335 0
1905 -334 335 0
1905 334 -335 0
-1906 1905 343 0
-1906 -1905 -343 0
1906 -1905 343 0
1906 1905 -343 0
-1907 1906 344 0
-1907 -1906 -344 0
1907 -1906 344 0
1907 1906 -344 0
-120 -1907 0
-1908 318 319 0
-1908 -318 -319 0
1908 -318 319 0
1908 318 -319 0
-1909 1908 320 0
-1909 -1908 -320 0
1909 -1908 320 0
1909 1908 -320 0
-1910 1909 328 0
-1910 -1909 -328 0
1910 -1909 328 0
1910 1909 -328 0
-1911 1910 329 0
-1911 -1910 -329 0
1911 -1910 329 0
1911 1910 -329 0
-121 -1911 0
-1912 333 334 0
-1912 -333 -334 0
1912 -333 334 0
1912 333 -334 0
-1913 1912 335 0
-1913 -1912 -335 0
1913 -1912 335 0
1913 1912 -335 0
-1914 1913 343 0
-1914 -1913 -343 0
1914 -1913 343 0
1914 1913 -343 0
-1915 1914 344 0
-1915 -1914 -344 0
1915 -1914 344 0
1915 1914 -344 0
-121 -1915 0
-1916 316 317 0
-1916 -316 -317 0
1916 -316 317 0
1916 316 -317 0
-1917 1916 319 0
-1917 -1916 -319 0
1917 -1916 319 0
1917 1916 -319 0
-1918 1917 320 0
-1918 -1917 -320 0
1918 -1917 320 0
1918 1917 -320 0
-1919 1918 322 0
-1919 -1918 -322 0
1919 -1918 322 0
1919 1918 -322 0
-1920 1919 325 0
-1920 -1919 -325 0
1920 -1919 325 0
1920 1919 -325 0
-1921 1920 328 0
-1921 -1920 -328 0
1921 -1920 328 0
1921 1920 -328 0
-1922 1921 329 0
-1922 -1921 -329 0
1922 -1921 329 0
1922 1921 -329 0
-122 -1922 0
-1923 331 332 0
-1923 -331 -332 0
1923 -331 332 0
1923 331 -332 0
-1924 1923 334 0
-1924 -1923 -334 0
1924 -1923 334 0
1924 1923 -334 0
-1925 1924 335 0
-1925 -1924 -335 0
1925 -1924 335 0
1925 1924 -335 0
-1926 1925 337 0
-1926 -1925 -337 0
1926 -1925 337 0
1926 1925 -337 0
-1927 1926 340 0
-1927 -1926 -340 0
1927 -1926 340 0
1927 1926 -340 0
-1928 1927 343 0
-1928 -1927 -343 0
1928 -1927 343 0
1928 1927 -343 0
-1929 1928 344 0
-1929 -1928 -344 0
1929 -1928 344 0
1929 1928 -344 0
-122 -1929 0
-1930 316 317 0
-1930 -316 -317 0
1930 -316 317 0
1930 316 -317 0
-1931 1930 318 0
-1931 -1930 -318 0
1931 -1930 318 0
1931 1930 -318 0
-1932 1931 319 0
-1932 -1931 -319 0
1932 -1931 319 0
1932 1931 -319 0
-1933 1932 320 0
-1933 -1932 -320 0
1933 -1932 320 0
1933 1932 -320 0
-1934 1933 322 0
-1934 -1933 -322 0
1934 -1933 322 0
1934 1933 -322 0
-1935 1934 325 0
-1935 -1934 -325 0
1935 -1934 325 0
1935 1934 -325 0
-1936 1935 328 0
-1936 -1935 -328 0
1936 -1935 328 0
1936 1935 -328 0
-1937 1936 329 0
-1937 -1936 -329 0
1937 -1936 329 0
1937 1936 -329 0
-123 -1937 0
-1938 331 332 0
-1938 -331 -332 0
1938 -331 332 0
1938 331 -332 0
-1939 1938 333 0
-1939 -1938 -333 0
1939 -1938 333 0
1939 1938 -333 0
-1940 1939 334 0
-1940 -1939 -334 0
1940 -1939 334 0
1940 1939 -334 0
-1941 1940 335 0
-1941 -1940 -335 0
1941 -1940 335 0
1941 1940 -335 0
-1942 1941 337 0
-1942 -1941 -337 0
1942 -1941 337 0
1942 1941 -337 0
-1943 1942 340 0
-1943 -1942 -340 0
1943 -1942 340 0
1943 1942 -340 0
-1944 1943 343 0
-1944 -1943 -343 0
1944 -1943 343 0
1944 1943 -343 0
-1945 1944 344 0
-1945 -1944 -344 0
1945 -1944 344 0
1945 1944 -344 0
-123 -1945 0
-1946 323 328 0
-1946 -323 -328 0
1946 -323 328 0
1946 323 -328 0
-124 -1946 0
-1947 338 343 0
-1947 -338 -343 0
1947 -338 343 0
1947 338 -343 0
-124 -1947 0
-1948 322 323 0
-1948 -322 -323 0
1948 -322 323 0
1948 322 -323 0
-1949 1948 328 0
-1949 -1948 -328 0
1949 -1948 328 0
1949 1948 -328 0
-125 -1949 0
-1950 337 338 0
-1950 -337 -338 0
1950 -337 338 0
1950 337 -338 0
-1951 1950 343 0
-1951 -1950 -343 0
1951 -1950 343 0
1951 1950 -343 0
-125 -1951 0
-1952 316 318 0
-1952 -316 -318 0
1952 -316 318 0
1952 316 -318 0
-1953 1952 321 0
-1953 -1952 -321 0
1953 -1952 321 0
1953 1952 -321 0
-1954 1953 323 0
-1954 -1953 -323 0
1954 -1953 323 0
1954 1953 -323 0
-1955 1954 325 0
-1955 -1954 -325 0
1955 -1954 325 0
1955 1954 -325 0
-1956 1955 328 0
-1956 -1955 -328 0
1956 -1955 328 0
1956 1955 -328 0
-126 -1956 0
-1957 331 333 0
-1957 -331 -333 0
1957 -331 333 0
1957 331 -333 0
-1958 1957 336 0
-1958 -1957 -336 0
1958 -1957 336 0
1958 1957 -336 0
-1959 1958 338 0
-1959 -1958 -338 0
1959 -1958 338 0
1959 1958 -338 0
-1960 1959 340 0
-1960 -1959 -340 0
1960 -1959 340 0
1960 1959 -340 0
-1961 1960 343 0
-1961 -1960 -343 0
1961 -1960 343 0
1961 1960 -343 0
-126 -1961 0
-1962 316 318 0
-1962 -316 -318 0
1962 -316 318 0
1962 316 -318 0
-1963 1962 321 0
-1963 -1962 -321 0
1963 -1962 321 0
1963 1962 -321 0
-1964 1963 322 0
-1964 -1963 -322 0
1964 -1963 322 0
1964 1963 -322 0
-1965 1964 323 0
-1965 -1964 -323 0
1965 -1964 323 0
1965 1964 -323 0
-1966 1965 325 0
-1966 -1965 -325 0
1966 -1965 325 0
1966 1965 -325 0
-1967 1966 328 0
-1967 -1966 -328 0
1967 -1966 328 0
1967 1966 -328 0
-127 -1967 0
-1968 331 333 0
-1968 -331 -333 0
1968 -331 333 0
1968 331 -333 0
-1969 1968 336 0
-1969 -1968 -336 0
1969 -1968 336 0
1969 1968 -336 0
-1970 1969 337 0
-1970 -1969 -337 0
1970 -1969 337 0
1970 1969 -337 0
-1971 1970 338 0
-1971 -1970 -338 0
1971 -1970 338 0
1971 1970 -338 0
-1972 1971 340 0
-1972 -1971 -340 0
1972 -1971 340 0
1972 1971 -340 0
-1973 1972 343 0
-1973 -1972 -343 0
1973 -1972 343 0
1973 1972 -343 0
-127 -1973 0
-1974 324 329 0
-1974 -324 -329 0
1974 -324 329 0
1974 324 -329 0
-128 -1974 0
-1975 339 344 0
-1975 -339 -344 0
1975 -339 344 0
1975 339 -344 0
-128 -1975 0
-1976 322 324 0
-1976 -322 -324 0
1976 -322 324 0
1976 322 -324 0
-1977 1976 329 0
-1977 -1976 -329 0
1977 -1976 329 0
1977 1976 -329 0
-129 -1977 0
-1978 337 339 0
-1978 -337 -339 0
1978 -337 339 0
1978 337 -339 0
-1979 1978 344 0
-1979 -1978 -344 0
1979 -1978 344 0
1979 1978 -344 0
-129 -1979 0
-1980 316 318 0
-1980 -316 -318 0
1980 -316 318 0
1980 316 -318 0
-1981 1980 321 0
-1981 -1980 -321 0
1981 -1980 321 0
1981 1980 -321 0
-1982 1981 324 0
-1982 -1981 -324 0
1982 -1981 324 0
1982 1981 -324 0
-1983 1982 325 0
-1983 -1982 -325 0
1983 -1982 325 0
1983 1982 -325 0
-1984 1983 329 0
-1984 -1983 -329 0
1984 -1983 329 0
1984 1983 -329 0
-130 -1984 0
-1985 331 333 0
-1985 -331 -333 0
1985 -331 333 0
1985 331 -333 0
-1986 1985 336 0
-1986 -1985 -336 0
1986 -1985 336 0
1986 1985 -336 0
-1987 1986 339 0
-1987 -1986 -339 0
1987 -1986 339 0
1987 1986 -339 0
-1988 1987 340 0
-1988 -1987 -340 0
1988 -1987 340 0
1988 1987 -340 0
-1989 1988 344 0
-1989 -1988 -344 0
1989 -1988 344 0
1989 1988 -344 0
-130 -1989 0
-1990 316 318 0
-1990 -316 -318 0
1990 -316 318 0
1990 316 -318 0
-1991 1990 321 0
-1991 -1990 -321 0
1991 -1990 321 0
1991 1990 -321 0
-1992 1991 322 0
-1992 -1991 -322 0
1992 -1991 322 0
1992 1991 -322 0
-1993 1992 324 0
-1993 -1992 -324 0
1993 -1992 324 0
1993 1992 -324 0
-1994 1993 325 0
-1994 -1993 -325 0
1994 -1993 325 0
1994 1993 -325 0
-1995 1994 329 0
-1995 -1994 -329 0
1995 -1994 329 0
1995 1994 -329 0
-131 -1995 0
-1996 331 333 0
-1996 -331 -333 0
1996 -331 333 0
1996 331 -333 0
-1997 1996 336 0
-1997 -1996 -336 0
1997 -1996 336 0
1997 1996 -336 0
-1998 1997 337 0
-1998 -1997 -337 0
1998 -1997 337 0
1998 1997 -337 0
-1999 1998 339 0
-1999 -1998 -339 0
1999 -1998 339 0
1999 1998 -339 0
-2000 1999 340 0
-2000 -1999 -340 0
2000 -1999 340 0
2000 1999 -340 0
-2001 2000 344 0
-2001 -2000 -344 0
2001 -2000 344 0
2001 2000 -344 0
-131 -2001 0
-2002 323 324 0
-2002 -323 -324 0
2002 -323 324 0
2002 323 -324 0
-2003 2002 328 0
-2003 -2002 -328 0
2003 -2002 328 0
2003 2002 -328 0
-2004 2003 329 0
-2004 -2003 -329 0
2004 -2003 329 0
2004 2003 -329 0
-132 -2004 0
-2005 338 339 0
-2005 -338 -339 0
2005 -338 339 0
2005 338 -339 0
-2006 2005 343 0
-2006 -2005 -343 0
2006 -2005 343 0
2006 2005 -343 0
-2007 2006 344 0
-2007 -2006 -344 0
2007 -2006 344 0
2007 2006 -344 0
-132 -2007 0
-2008 322 323 0
-2008 -322 -323 0
2008 -322 323 0
2008 322 -323 0
-2009 2008 324 0
-2009 -2008 -324 0
2009 -2008 324 0
2009 2008 -324 0
-2010 2009 328 0
-2010 -2009 -328 0
2010 -2009 328 0
2010 2009 -328 0
-2011 2010 329 0
-2011 -2010 -329 0
2011 -2010 329 0
2011 2010 -329 0
-133 -2011 0
-2012 337 338 0
-2012 -337 -338 0
2012 -337 338 0
2012 337 -338 0
-2013 2012 339 0
-2013 -2012 -339 0
2013 -2012 339 0
2013 2012 -339 0
-2014 2013 343 0
-2014 -2013 -343 0
2014 -2013 343 0
2014 2013 -343 0
-2015 2014 344 0
-2015 -2014 -344 0
2015 -2014 344 0
2015 2014 -344 0
-133 -2015 0
-2016 316 318 0
-2016 -316 -318 0
2016 -316 318 0
2016 316 -318 0
-2017 2016 321 0
-2017 -2016 -321 0
2017 -2016 321 0
2017 2016 -321 0
-2018 2017 323 0
-2018 -2017 -323 0
2018 -2017 323 0
2018 2017 -323 0
-2019 2018 324 0
-2019 -2018 -324 0
2019 -2018 324 0
2019 2018 -324 0
-2020 2019 325 0
-2020 -2019 -325 0
2020 -2019 325 0
2020 2019 -325 0
-2021 2020 328 0
-2021 -2020 -328 0
2021 -2020 328 0
2021 2020 -328 0
-2022 2021 329 0
-2022 -2021 -329 0
2022 -2021 329 0
2022 2021 -329 0
-134 -2022 0
-2023 331 333 0
-2023 -331 -333 0
2023 -331 333 0
2023 331 -333 0
-2024 2023 336 0
-2024 -2023 -336 0
2024 -2023 336 0
2024 2023 -336 0
-2025 2024 338 0
-2025 -2024 -338 0
2025 -2024 338 0
2025 2024 -338 0
-2026 2025 339 0
-2026 -2025 -339 0
2026 -2025 339 0
2026 2025 -339 0
-2027 2026 340 0
-2027 -2026 -340 0
2027 -2026 340 0
2027 2026 -340 0
-2028 2027 343 0
-2028 -2027 -343 0
2028 -2027 343 0
2028 2027 -343 0
-2029 2028 344 0
-2029 -2028 -344 0
2029 -2028 344 0
2029 2028 -344 0
-134 -2029 0
-2030 316 318 0
-2030 -316 -318 0
2030 -316 318 0
2030 316 -318 0
-2031 2030 321 0
-2031 -2030 -321 0
2031 -2030 321 0
2031 2030 -321 0
-2032 2031 322 0
-2032 -2031 -322 0
2032 -2031 322 0
2032 2031 -322 0
-2033 2032 323 0
-2033 -2032 -323 0
2033 -2032 323 0
2033 2032 -323 0
-2034 2033 324 0
-2034 -2033 -324 0
2034 -2033 324 0
2034 2033 -324 0
-2035 2034 325 0
-2035 -2034 -325 0
2035 -2034 325 0
2035 2034 -325 0
-2036 2035 328 0
-2036 -2035 -328 0
2036 -2035 328 0
2036 2035 -328 0
-2037 2036 329 0
-2037 -2036 -329 0
2037 -2036 329 0
2037 2036 -329 0
-135 -2037 0
-2038 331 333 0
-2038 -331 -333 0
2038 -331 333 0
2038 331 -333 0
-2039 2038 336 0
-2039 -2038 -336 0
2039 -2038 336 0
2039 2038 -336 0
-2040 2039 337 0
-2040 -2039 -337 0
2040 -2039 337 0
2040 2039 -337 0
-2041 2040 338 0
-2041 -2040 -338 0
2041 -2040 338 0
2041 2040 -338 0
-2042 2041 339 0
-2042 -2041 -339 0
2042 -2041 339 0
2042 2041 -339 0
-2043 2042 340 0
-2043 -2042 -340 0
2043 -2042 340 0
2043 2042 -340 0
-2044 2043 343 0
-2044 -2043 -343 0
2044 -2043 343 0
2044 2043 -343 0
-2045 2044 344 0
-2045 -2044 -344 0
2045 -2044 344 0
2045 2044 -344 0
-135 -2045 0
-2046 319 323 0
-2046 -319 -323 0
2046 -319 323 0
2046 319 -323 0
-2047 2046 328 0
-2047 -2046 -328 0
2047 -2046 328 0
2047 2046 -328 0
-136 -2047 0
-2048 334 338 0
-2048 -334 -338 0
2048 -334 338 0
2048 334 -338 0
-2049 2048 343 0
-2049 -2048 -343 0
2049 -2048 343 0
2049 2048 -343 0
-136 -2049 0
-2050 318 319 0
-2050 -318 -319 0
2050 -318 319 0
2050 318 -319 0
-2051 2050 322 0
-2051 -2050 -322 0
2051 -2050 322 0
2051 2050 -322 0
-2052 2051 323 0
-2052 -2051 -323 0
2052 -2051 323 0
2052 2051 -323 0
-2053 2052 328 0
-2053 -2052 -328 0
2053 -2052 328 0
2053 2052 -328 0
-137 -2053 0
-2054 333 334 0
-2054 -333 -334 0
2054 -333 334 0
2054 333 -334 0
-2055 2054 337 0
-2055 -2054 -337 0
2055 -2054 337 0
2055 2054 -337 0
-2056 2055 338 0
-2056 -2055 -338 0
2056 -2055 338 0
2056 2055 -338 0
-2057 2056 343 0
-2057 -2056 -343 0
2057 -2056 343 0
2057 2056 -343 0
-137 -2057 0
-2058 316 317 0
-2058 -316 -317 0
2058 -316 317 0
2058 316 -317 0
-2059 2058 318 0
-2059 -2058 -318 0
2059 -2058 318 0
2059 2058 -318 0
-2060 2059 319 0
-2060 -2059 -319 0
2060 -2059 319 0
2060 2059 -319 0
-2061 2060 321 0
-2061 -2060 -321 0
2061 -2060 321 0
2061 2060 -321 0
-2062 2061 323 0
-2062 -2061 -323 0
2062 -2061 323 0
2062 2061 -323 0
-2063 2062 325 0
-2063 -2062 -325 0
2063 -2062 325 0
2063 2062 -325 0
-2064 2063 328 0
-2064 -2063 -328 0
2064 -2063 328 0
2064 2063 -328 0
-138 -2064 0
-2065 331 332 0
-2065 -331 -332 0
2065 -331 332 0
2065 331 -332 0
-2066 2065 333 0
-2066 -2065 -333 0
2066 -2065 333 0
2066 2065 -333 0
-2067 2066 334 0
-2067 -2066 -334 0
2067 -2066 334 0
2067 2066 -334 0
-2068 2067 336 0
-2068 -2067 -336 0
2068 -2067 336 0
2068 2067 -336 0
-2069 2068 338 0
-2069 -2068 -338 0
2069 -2068 338 0
2069 2068 -338 0
-2070 2069 340 0
-2070 -2069 -340 0
2070 -2069 340 0
2070 2069 -340 0
-2071 2070 343 0
-2071 -2070 -343 0
2071 -2070 343 0
2071 2070 -343 0
-138 -2071 0
-2072 316 317 0
-2072 -316 -317 0
2072 -316 317 0
2072 316 -317 0
-2073 2072 319 0
-2073 -2072 -319 0
2073 -2072 319 0
2073 2072 -319 0
-2074 2073 321 0
-2074 -2073 -321 0
2074 -2073 321 0
2074 2073 -321 0
-2075 2074 322 0
-2075 -2074 -322 0
2075 -2074 322 0
2075 2074 -322 0
-2076 2075 323 0
-2076 -2075 -323 0
2076 -2075 323 0
2076 2075 -323 0
-2077 2076 325 0
-2077 -2076 -325 0
2077 -2076 325 0
2077 2076 -325 0
-2078 2077 328 0
-2078 -2077 -328 0
2078 -2077 328 0
2078 2077 -328 0
-139 -2078 0
-2079 331 332 0
-2079 -331 -332 0
2079 -331 332 0
2079 331 -332 0
-2080 2079 334 0
-2080 -2079 -334 0
2080 -2079 334 0
2080 2079 -334 0
-2081 2080 336 0
-2081 -2080 -336 0
2081 -2080 336 0
2081 2080 -336 0
-2082 2081 337 0
-2082 -2081 -337 0
2082 -2081 337 0
2082 2081 -337 0
-2083 2082 338 0
-2083 -2082 -338 0
2083 -2082 338 0
2083 2082 -338 0
-2084 2083 340 0
-2084 -2083 -340 0
2084 -2083 340 0
2084 2083 -340 0
-2085 2084 343 0
-2085 -2084 -343 0
2085 -2084 343 0
2085 2084 -343 0
-139 -2085 0
-2086 320 324 0
-2086 -320 -324 0
2086 -320 324 0
2086 320 -324 0
-2087 2086 329 0
-2087 -2086 -329 0
2087 -2086 329 0
2087 2086 -329 0
-140 -2087 0
-2088 335 339 0
-2088 -335 -339 0
2088 -335 339 0
2088 335 -339 0
-2089 2088 344 0
-2089 -2088 -344 0
2089 -2088 344 0
2089 2088 -344 0
-140 -2089 0
-2090 318 320 0
-2090 -318 -320 0
2090 -318 320 0
2090 318 -320 0
-2091 2090 322 0
-2091 -2090 -322 0
2091 -2090 322 0
2091 2090 -322 0
-2092 2091 324 0
-2092 -2091 -324 0
2092 -2091 324 0
2092 2091 -324 0
-2093 2092 329 0
-2093 -2092 -329 0
2093 -2092 329 0
2093 2092 -329 0
-141 -2093 0
-2094 333 335 0
-2094 -333 -335 0
2094 -333 335 0
2094 333 -335 0
-2095 2094 337 0
-2095 -2094 -337 0
2095 -2094 337 0
2095 2094 -337 0
-2096 2095 339 0
-2096 -2095 -339 0
2096 -2095 339 0
2096 2095 -339 0
-2097 2096 344 0
-2097 -2096 -344 0
2097 -2096 344 0
2097 2096 -344 0
-141 -2097 0
-2098 316 317 0
-2098 -316 -317 0
2098 -316 317 0
2098 316 -317 0
-2099 2098 318 0
-2099 -2098 -318 0
2099 -2098 318 0
2099 2098 -318 0
-2100 2099 320 0
-2100 -2099 -320 0
2100 -2099 320 0
2100 2099 -320 0
-2101 2100 321 0
-2101 -2100 -321 0
2101 -2100 321 0
2101 2100 -321 0
-2102 2101 324 0
-2102 -2101 -324 0
2102 -2101 324 0
2102 2101 -324 0
-2103 2102 325 0
-2103 -2102 -325 0
2103 -2102 325 0
2103 2102 -325 0
-2104 2103 329 0
-2104 -2103 -329 0
2104 -2103 329 0
2104 2103 -329 0
-142 -2104 0
-2105 331 332 0
-2105 -331 -332 0
2105 -331 332 0
2105 331 -332 0
-2106 2105 333 0
-2106 -2105 -333 0
2106 -2105 333 0
2106 2105 -333 0
-2107 2106 335 0
-2107 -2106 -335 0
2107 -2106 335 0
2107 2106 -335 0
-2108 2107 336 0
-2108 -2107 -336 0
2108 -2107 336 0
2108 2107 -336 0
-2109 2108 339 0
-2109 -2108 -339 0
2109 -2108 339 0
2109 2108 -339 0
-2110 2109 340 0
-2110 -2109 -340 0
2110 -2109 340 0
2110 2109 -340 0
-2111 2110 344 0
-2111 -2110 -344 0
2111 -2110 344 0
2111 2110 -344 0
-142 -2111 0
-2112 316 317 0
-2112 -316 -317 0
2112 -316 317 0
2112 316 -317 0
-2113 2112 320 0
-2113 -2112 -320 0
2113 -2112 320 0
2113 2112 -320 0
-2114 2113 321 0
-2114 -2113 -321 0
2114 -2113 321 0
2114 2113 -321 0
-2115 2114 322 0
-2115 -2114 -322 0
2115 -2114 322 0
2115 2114 -322 0
-2116 2115 324 0
-2116 -2115 -324 0
2116 -2115 324 0
2116 2115 -324 0
-2117 2116 325 0
-2117 -2116 -325 0
2117 -2116 325 0
2117 2116 -325 0
-2118 2117 329 0
-2118 -2117 -329 0
2118 -2117 329 0
2118 2117 -329 0
-143 -2118 0
-2119 331 332 0
-2119 -331 -332 0
2119 -331 332 0
2119 331 -332 0
-2120 2119 335 0
-2120 -2119 -335 0
2120 -2119 335 0
2120 2119 -335 0
-2121 2120 336 0
-2121 -2120 -336 0
2121 -2120 336 0
2121 2120 -336 0
-2122 2121 337 0
-2122 -2121 -337 0
2122 -2121 337 0
2122 2121 -337 0
-2123 2122 339 0
-2123 -2122 -339 0
2123 -2122 339 0
2123 2122 -339 0
-2124 2123 340 0
-2124 -2123 -340 0
2124 -2123 340 0
2124 2123 -340 0
-2125 2124 344 0
-2125 -2124 -344 0
2125 -2124 344 0
2125 2124 -344 0
-143 -2125 0
-2126 319 320 0
-2126 -319 -320 0
2126 -319 320 0
2126 319 -320 0
-2127 2126 323 0
-2127 -2126 -323 0
2127 -2126 323 0
2127 2126 -323 0
-2128 2127 324 0
-2128 -2127 -324 0
2128 -2127 324 0
2128 2127 -324 0
-2129 2128 328 0
-2129 -2128 -328 0
2129 -2128 328 0
2129 2128 -328 0
-2130 2129 329 0
-2130 -2129 -329 0
2130 -2129 329 0
2130 2129 -329 0
-144 -2130 0
-2131 334 335 0
-2131 -334 -335 0
2131 -334 335 0
2131 334 -335 0
-2132 2131 338 0
-2132 -2131 -338 0
2132 -2131 338 0
2132 2131 -338 0
-2133 2132 339 0
-2133 -2132 -339 0
2133 -2132 339 0
2133 2132 -339 0
-2134 2133 343 0
-2134 -2133 -343 0
2134 -2133 343 0
2134 2133 -343 0
-2135 2134 344 0
-2135 -2134 -344 0
2135 -2134 344 0
2135 2134 -344 0
-144 -2135 0
-2136 318 319 0
-2136 -318 -319 0
2136 -318 319 0
2136 318 -319 0
-2137 2136 320 0
-2137 -2136 -320 0
2137 -2136 320 0
2137 2136 -320 0
-2138 2137 322 0
-2138 -2137 -322 0
2138 -2137 322 0
2138 2137 -322 0
-2139 2138 323 0
-2139 -2138 -323 0
2139 -2138 323 0
2139 2138 -323 0
-2140 2139 324 0
-2140 -2139 -324 0
2140 -2139 324 0
2140 2139 -324 0
-2141 2140 328 0
-2141 -2140 -328 0
2141 -2140 328 0
2141 2140 -328 0
-2142 2141 329 0
-2142 -2141 -329 0
2142 -2141 329 0
2142 2141 -329 0
-145 -2142 0
-2143 333 334 0
-2143 -333 -334 0
2143 -333 334 0
2143 333 -334 0
-2144 2143 335 0
-2144 -2143 -335 0
2144 -2143 335 0
2144 2143 -335 0
-2145 2144 337 0
-2145 -2144 -337 0
2145 -2144 337 0
2145 2144 -337 0
-2146 2145 338 0
-2146 -2145 -338 0
2146 -2145 338 0
2146 2145 -338 0
-2147 2146 339 0
-2147 -2146 -339 0
2147 -2146 339 0
2147 2146 -339 0
-2148 2147 343 0
-2148 -2147 -343 0
2148 -2147 343 0
2148 2147 -343 0
-2149 2148 344 0
-2149 -2148 -344 0
2149 -2148 344 0
2149 2148 -344 0
-145 -2149 0
-2150 316 317 0
-2150 -316 -317 0
2150 -316 317 0
2150 316 -317 0
-2151 2150 318 0
-2151 -2150 -318 0
2151 -2150 318 0
2151 2150 -318 0
-2152 2151 319 0
-2152 -2151 -319 0
2152 -2151 319 0
2152 2151 -319 0
-2153 2152 320 0
-2153 -2152 -320 0
2153 -2152 320 0
2153 2152 -320 0
-2154 2153 321 0
-2154 -2153 -321 0
2154 -2153 321 0
2154 2153 -321 0
-2155 2154 323 0
-2155 -2154 -323 0
2155 -2154 323 0
2155 2154 -323 0
-2156 2155 324 0
-2156 -2155 -324 0
2156 -2155 324 0
2156 2155 -324 0
-2157 2156 325 0
-2157 -2156 -325 0
2157 -2156 325 0
2157 2156 -325 0
-2158 2157 328 0
-2158 -2157 -328 0
2158 -2157 328 0
2158 2157 -328 0
-2159 2158 329 0
-2159 -2158 -329 0
2159 -2158 329 0
2159 2158 -329 0
-146 -2159 0
-2160 331 332 0
-2160 -331 -332 0
2160 -331 332 0
2160 331 -332 0
-2161 2160 333 0
-2161 -2160 -333 0
2161 -2160 333 0
2161 2160 -333 0
-2162 2161 334 0
-2162 -2161 -334 0
2162 -2161 334 0
2162 2161 -334 0
-2163 2162 335 0
-2163 -2162 -335 0
2163 -2162 335 0
2163 2162 -335 0
-2164 2163 336 0
-2164 -2163 -336 0
2164 -2163 336 0
2164 2163 -336 0
-2165 2164 338 0
-2165 -2164 -338 0
2165 -2164 338 0
2165 2164 -338 0
-2166 2165 339 0
-2166 -2165 -339 0
2166 -2165 339 0
2166 2165 -339 0
-2167 2166 340 0
-2167 -2166 -340 0
2167 -2166 340 0
2167 2166 -340 0
-2168 2167 343 0
-2168 -2167 -343 0
2168 -2167 343 0
2168 2167 -343 0
-2169 2168 344 0
-2169 -2168 -344 0
2169 -2168 344 0
2169 2168 -344 0
-146 -2169 0
-2170 316 317 0
-2170 -316 -317 0
2170 -316 317 0
2170 316 -317 0
-2171 2170 319 0
-2171 -2170 -319 0
2171 -2170 319 0
2171 2170 -319 0
-2172 2171 320 0
-2172 -2171 -320 0
2172 -2171 320 0
2172 2171 -320 0
-2173 2172 321 0
-2173 -2172 -321 0
2173 -2172 321 0
2173 2172 -321 0
-2174 2173 322 0
-2174 -2173 -322 0
2174 -2173 322 0
2174 2173 -322 0
-2175 2174 323 0
-2175 -2174 -323 0
2175 -2174 323 0
2175 2174 -323 0
-2176 2175 324 0
-2176 -2175 -324 0
2176 -2175 324 0
2176 2175 -324 0
-2177 2176 325 0
-2177 -2176 -325 0
2177 -2176 325 0
2177 2176 -325 0
-2178 2177 328 0
-2178 -2177 -328 0
2178 -2177 328 0
2178 2177 -328 0
-2179 2178 329 0
-2179 -2178 -329 0
2179 -2178 329 0
2179 2178 -329 0
-147 -2179 0
-2180 331 332 0
-2180 -331 -332 0
2180 -331 332 0
2180 331 -332 0
-2181 2180 334 0
-2181 -2180 -334 0
2181 -2180 334 0
2181 2180 -334 0
-2182 2181 335 0
-2182 -2181 -335 0
2182 -2181 335 0
2182 2181 -335 0
-2183 2182 336 0
-2183 -2182 -336 0
2183 -2182 336 0
2183 2182 -336 0
-2184 2183 337 0
-2184 -2183 -337 0
2184 -2183 337 0
2184 2183 -337 0
-2185 2184 338 0
-2185 -2184 -338 0
2185 -2184 338 0
2185 2184 -338 0
-2186 2185 339 0
-2186 -2185 -339 0
2186 -2185 339 0
2186 2185 -339 0
-2187 2186 340 0
-2187 -2186 -340 0
2187 -2186 340 0
2187 2186 -340 0
-2188 2187 343 0
-2188 -2187 -343 0
2188 -2187 343 0
2188 2187 -343 0
-2189 2188 344 0
-2189 -2188 -344 0
2189 -2188 344 0
2189 2188 -344 0
-147 -2189 0
-2190 326 328 0
-2190 -326 -328 0
2190 -326 328 0
2190 326 -328 0
-148 -2190 0
-2191 341 343 0
-2191 -341 -343 0
2191 -341 343 0
2191 341 -343 0
-148 -2191 0
-2192 317 318 0
-2192 -317 -318 0
2192 -317 318 0
2192 317 -318 0
-2193 2192 326 0
-2193 -2192 -326 0
2193 -2192 326 0
2193 2192 -326 0
-2194 2193 328 0
-2194 -2193 -328 0
2194 -2193 328 0
2194 2193 -328 0
-149 -2194 0
-2195 332 333 0
-2195 -332 -333 0
2195 -332 333 0
2195 332 -333 0
-2196 2195 341 0
-2196 -2195 -341 0
2196 -2195 341 0
2196 2195 -341 0
-2197 2196 343 0
-2197 -2196 -343 0
2197 -2196 343 0
2197 2196 -343 0
-149 -2197 0
-2198 321 322 0
-2198 -321 -322 0
2198 -321 322 0
2198 321 -322 0
-2199 2198 326 0
-2199 -2198 -326 0
2199 -2198 326 0
2199 2198 -326 0
-2200 2199 328 0
-2200 -2199 -328 0
2200 -2199 328 0
2200 2199 -328 0
-150 -2200 0
-2201 336 337 0
-2201 -336 -337 0
2201 -336 337 0
2201 336 -337 0
-2202 2201 341 0
-2202 -2201 -341 0
2202 -2201 341 0
2202 2201 -341 0
-2203 2202 343 0
-2203 -2202 -343 0
2203 -2202 343 0
2203 2202 -343 0
-150 -2203 0
-2204 317 318 0
-2204 -317 -318 0
2204 -317 318 0
2204 317 -318 0
-2205 2204 321 0
-2205 -2204 -321 0
2205 -2204 321 0
2205 2204 -321 0
-2206 2205 322 0
-2206 -2205 -322 0
2206 -2205 322 0
2206 2205 -322 0
-2207 2206 326 0
-2207 -2206 -326 0
2207 -2206 326 0
2207 2206 -326 0
-2208 2207 328 0
-2208 -2207 -328 0
2208 -2207 328 0
2208 2207 -328 0
-151 -2208 0
-2209 332 333 0
-2209 -332 -333 0
2209 -332 333 0
2209 332 -333 0
-2210 2209 336 0
-2210 -2209 -336 0
2210 -2209 336 0
2210 2209 -336 0
-2211 2210 337 0
-2211 -2210 -337 0
2211 -2210 337 0
2211 2210 -337 0
-2212 2211 341 0
-2212 -2211 -341 0
2212 -2211 341 0
2212 2211 -341 0
-2213 2212 343 0
-2213 -2212 -343 0
2213 -2212 343 0
2213 2212 -343 0
-151 -2213 0
-2214 327 329 0
-2214 -327 -329 0
2214 -327 329 0
2214 327 -329 0
-152 -2214 0
-2215 342 344 0
-2215 -342 -344 0
2215 -342 344 0
2215 342 -344 0
-152 -2215 0
-2216 317 318 0
-2216 -317 -318 0
2216 -317 318 0
2216 317 -318 0
-2217 2216 327 0
-2217 -2216 -327 0
2217 -2216 327 0
2217 2216 -327 0
-2218 2217 329 0
-2218 -2217 -329 0
2218 -2217 329 0
2218 2217 -329 0
-153 -2218 0
-2219 332 333 0
-2219 -332 -333 0
2219 -332 333 0
2219 332 -333 0
-2220 2219 342 0
-2220 -2219 -342 0
2220 -2219 342 0
2220 2219 -342 0
-2221 2220 344 0
-2221 -2220 -344 0
2221 -2220 344 0
2221 2220 -344 0
-153 -2221 0
-2222 321 322 0
-2222 -321 -322 0
2222 -321 322 0
2222 321 -322 0
-2223 2222 327 0
-2223 -2222 -327 0
2223 -2222 327 0
2223 2222 -327 0
-2224 2223 329 0
-2224 -2223 -329 0
2224 -2223 329 0
2224 2223 -329 0
-154 -2224 0
-2225 336 337 0
-2225 -336 -337 0
2225 -336 337 0
2225 336 -337 0
-2226 2225 342 0
-2226 -2225 -342 0
2226 -2225 342 0
2226 2225 -342 0
-2227 2226 344 0
-2227 -2226 -344 0
2227 -2226 344 0
2227 2226 -344 0
-154 -2227 0
-2228 317 318 0
-2228 -317 -318 0
2228 -317 318 0
2228 317 -318 0
-2229 2228 321 0
-2229 -2228 -321 0
2229 -2228 321 0
2229 2228 -321 0
-2230 2229 322 0
-2230 -2229 -322 0
2230 -2229 322 0
2230 2229 -322 0
-2231 2230 327 0
-2231 -2230 -327 0
2231 -2230 327 0
2231 2230 -327 0
-2232 2231 329 0
-2232 -2231 -329 0
2232 -2231 329 0
2232 2231 -329 0
-155 -2232 0
-2233 332 333 0
-2233 -332 -333 0
2233 -332 333 0
2233 332 -333 0
-2234 2233 336 0
-2234 -2233 -336 0
2234 -2233 336 0
2234 2233 -336 0
-2235 2234 337 0
-2235 -2234 -337 0
2235 -2234 337 0
2235 2234 -337 0
-2236 2235 342 0
-2236 -2235 -342 0
2236 -2235 342 0
2236 2235 -342 0
-2237 2236 344 0
-2237 -2236 -344 0
2237 -2236 344 0
2237 2236 -344 0
-155 -2237 0
-2238 326 327 0
-2238 -326 -327 0
2238 -326 327 0
2238 326 -327 0
-2239 2238 328 0
-2239 -2238 -328 0
2239 -2238 328 0
2239 2238 -328 0
-2240 2239 329 0
-2240 -2239 -329 0
2240 -2239 329 0
2240 2239 -329 0
-156 -2240 0
-2241 341 342 0
-2241 -341 -342 0
2241 -341 342 0
2241 341 -342 0
-2242 2241 343 0
-2242 -2241 -343 0
2242 -2241 343 0
2242 2241 -343 0
-2243 2242 344 0
-2243 -2242 -344 0
2243 -2242 344 0
2243 2242 -344 0
-156 -2243 0
-2244 317 318 0
-2244 -317 -318 0
2244 -317 318 0
2244 317 -318 0
-2245 2244 326 0
-2245 -2244 -326 0
2245 -2244 326 0
2245 2244 -326 0
-2246 2245 327 0
-2246 -2245 -327 0
2246 -2245 327 0
2246 2245 -327 0
-2247 2246 328 0
-2247 -2246 -328 0
2247 -2246 328 0
2247 2246 -328 0
-2248 2247 329 0
-2248 -2247 -329 0
2248 -2247 329 0
2248 2247 -329 0
-157 -2248 0
-2249 332 333 0
-2249 -332 -333 0
2249 -332 333 0
2249 332 -333 0
-2250 2249 341 0
-2250 -2249 -341 0
2250 -2249 341 0
2250 2249 -341 0
-2251 2250 342 0
-2251 -2250 -342 0
2251 -2250 342 0
2251 2250 -342 0
-2252 2251 343 0
-2252 -2251 -343 0
2252 -2251 343 0
2252 2251 -343 0
-2253 2252 344 0
-2253 -2252 -344 0
2253 -2252 344 0
2253 2252 -344 0
-157 -2253 0
-2254 321 322 0
-2254 -321 -322 0
2254 -321 322 0
2254 321 -322 0
-2255 2254 326 0
-2255 -2254 -326 0
2255 -2254 326 0
2255 2254 -326 0
-2256 2255 327 0
-2256 -2255 -327 0
2256 -2255 327 0
2256 2255 -327 0
-2257 2256 328 0
-2257 -2256 -328 0
2257 -2256 328 0
2257 2256 -328 0
-2258 2257 329 0
-2258 -2257 -329 0
2258 -2257 329 0
2258 2257 -329 0
-158 -2258 0
-2259 336 337 0
-2259 -336 -337 0
2259 -336 337 0
2259 336 -337 0
-2260 2259 341 0
-2260 -2259 -341 0
2260 -2259 341 0
2260 2259 -341 0
-2261 2260 342 0
-2261 -2260 -342 0
2261 -2260 342 0
2261 2260 -342 0
-2262 2261 343 0
-2262 -2261 -343 0
2262 -2261 343 0
2262 2261 -343 0
-2263 2262 344 0
-2263 -2262 -344 0
2263 -2262 344 0
2263 2262 -344 0
-158 -2263 0
-2264 317 318 0
-2264 -317 -318 0
2264 -317 318 0
2264 317 -318 0
-2265 2264 321 0
-2265 -2264 -321 0
2265 -2264 321 0
2265 2264 -321 0
-2266 2265 322 0
-2266 -2265 -322 0
2266 -2265 322 0
2266 2265 -322 0
-2267 2266 326 0
-2267 -2266 -326 0
2267 -2266 326 0
2267 2266 -326 0
-2268 2267 327 0
-2268 -2267 -327 0
2268 -2267 327 0
2268 2267 -327 0
-2269 2268 328 0
-2269 -2268 -328 0
2269 -2268 328 0
2269 2268 -328 0
-2270 2269 329 0
-2270 -2269 -329 0
2270 -2269 329 0
2270 2269 -329 0
-159 -2270 0
-2271 332 333 0
-2271 -332 -333 0
2271 -332 333 0
2271 332 -333 0
-2272 2271 336 0
-2272 -2271 -336 0
2272 -2271 336 0
2272 2271 -336 0
-2273 2272 337 0
-2273 -2272 -337 0
2273 -2272 337 0
2273 2272 -337 0
-2274 2273 341 0
-2274 -2273 -341 0
2274 -2273 341 0
2274 2273 -341 0
-2275 2274 342 0
-2275 -2274 -342 0
2275 -2274 342 0
2275 2274 -342 0
-2276 2275 343 0
-2276 -2275 -343 0
2276 -2275 343 0
2276 2275 -343 0
-2277 2276 344 0
-2277 -2276 -344 0
2277 -2276 344 0
2277 2276 -344 0
-159 -2277 0
-2278 319 326 0
-2278 -319 -326 0
2278 -319 326 0
2278 319 -326 0
-2279 2278 328 0
-2279 -2278 -328 0
2279 -2278 328 0
2279 2278 -328 0
-160 -2279 0
-2280 334 341 0
-2280 -334 -341 0
2280 -334 341 0
2280 334 -341 0
-2281 2280 343 0
-2281 -2280 -343 0
2281 -2280 343 0
2281 2280 -343 0
-160 -2281 0
-2282 317 318 0
-2282 -317 -318 0
2282 -317 318 0
2282 317 -318 0
-2283 2282 319 0
-2283 -2282 -319 0
2283 -2282 319 0
2283 2282 -319 0
-2284 2283 326 0
-2284 -2283 -326 0
2284 -2283 326 0
2284 2283 -326 0
-2285 2284 328 0
-2285 -2284 -328 0
2285 -2284 328 0
2285 2284 -328 0
-161 -2285 0
-2286 332 333 0
-2286 -332 -333 0
2286 -332 333 0
2286 332 -333 0
-2287 2286 334 0
-2287 -2286 -334 0
2287 -2286 334 0
2287 2286 -334 0
-2288 2287 341 0
-2288 -2287 -341 0
2288 -2287 341 0
2288 2287 -341 0
-2289 2288 343 0
-2289 -2288 -343 0
2289 -2288 343 0
2289 2288 -343 0
-161 -2289 0
-2290 316 317 0
-2290 -316 -317 0
2290 -316 317 0
2290 316 -317 0
-2291 2290 319 0
-2291 -2290 -319 0
2291 -2290 319 0
2291 2290 -319 0
-2292 2291 321 0
-2292 -2291 -321 0
2292 -2291 321 0
2292 2291 -321 0
-2293 2292 322 0
-2293 -2292 -322 0
2293 -2292 322 0
2293 2292 -322 0
-2294 2293 325 0
-2294 -2293 -325 0
2294 -2293 325 0
2294 2293 -325 0
-2295 2294 326 0
-2295 -2294 -326 0
2295 -2294 326 0
2295 2294 -326 0
-2296 2295 328 0
-2296 -2295 -328 0
2296 -2295 328 0
2296 2295 -328 0
-162 -2296 0
-2297 331 332 0
-2297 -331 -332 0
2297 -331 332 0
2297 331 -332 0
-2298 2297 334 0
-2298 -2297 -334 0
2298 -2297 334 0
2298 2297 -334 0
-2299 2298 336 0
-2299 -2298 -336 0
2299 -2298 336 0
2299 2298 -336 0
-2300 2299 337 0
-2300 -2299 -337 0
2300 -2299 337 0
2300 2299 -337 0
-2301 2300 340 0
-2301 -2300 -340 0
2301 -2300 340 0
2301 2300 -340 0
-2302 2301 341 0
-2302 -2301 -341 0
2302 -2301 341 0
2302 2301 -341 0
-2303 2302 343 0
-2303 -2302 -343 0
2303 -2302 343 0
2303 2302 -343 0
-162 -2303 0
-2304 316 318 0
-2304 -316 -318 0
2304 -316 318 0
2304 316 -318 0
-2305 2304 319 0
-2305 -2304 -319 0
2305 -2304 319 0
2305 2304 -319 0
-2306 2305 321 0
-2306 -2305 -321 0
2306 -2305 321 0
2306 2305 -321 0
-2307 2306 322 0
-2307 -2306 -322 0
2307 -2306 322 0
2307 2306 -322 0
-2308 2307 325 0
-2308 -2307 -325 0
2308 -2307 325 0
2308 2307 -325 0
-2309 2308 326 0
-2309 -2308 -326 0
2309 -2308 326 0
2309 2308 -326 0
-2310 2309 328 0
-2310 -2309 -328 0
2310 -2309 328 0
2310 2309 -328 0
-163 -2310 0
-2311 331 333 0
-2311 -331 -333 0
2311 -331 333 0
2311 331 -333 0
-2312 2311 334 0
-2312 -2311 -334 0
2312 -2311 334 0
2312 2311 -334 0
-2313 2312 336 0
-2313 -2312 -336 0
2313 -2312 336 0
2313 2312 -336 0
-2314 2313 337 0
-2314 -2313 -337 0
2314 -2313 337 0
2314 2313 -337 0
-2315 2314 340 0
-2315 -2314 -340 0
2315 -2314 340 0
2315 2314 -340 0
-2316 2315 341 0
-2316 -2315 -341 0
2316 -2315 341 0
2316 2315 -341 0
-2317 2316 343 0
-2317 -2316 -343 0
2317 -2316 343 0
2317 2316 -343 0
-163 -2317 0
-2318 320 327 0
-2318 -320 -327 0
2318 -320 327 0
2318 320 -327 0
-2319 2318 329 0
-2319 -2318 -329 0
2319 -2318 329 0
2319 2318 -329 0
-164 -2319 0
-2320 335 342 0
-2320 -335 -342 0
2320 -335 342 0
2320 335 -342 0
-2321 2320 344 0
-2321 -2320 -344 0
2321 -2320 344 0
2321 2320 -344 0
-164 -2321 0
-2322 317 318 0
-2322 -317 -318 0
2322 -317 318 0
2322 317 -318 0
-2323 2322 320 0
-2323 -2322 -320 0
2323 -2322 320 0
2323 2322 -320 0
-2324 2323 327 0
-2324 -2323 -327 0
2324 -2323 327 0
2324 2323 -327 0
-2325 2324 329 0
-2325 -2324 -329 0
2325 -2324 329 0
2325 2324 -329 0
-165 -2325 0
-2326 332 333 0
-2326 -332 -333 0
2326 -332 333 0
2326 332 -333 0
-2327 2326 335 0
-2327 -2326 -335 0
2327 -2326 335 0
2327 2326 -335 0
-2328 2327 342 0
-2328 -2327 -342 0
2328 -2327 342 0
2328 2327 -342 0
-2329 2328 344 0
-2329 -2328 -344 0
2329 -2328 344 0
2329 2328 -344 0
-165 -2329 0
-2330 316 317 0
-2330 -316 -317 0
2330 -316 317 0
2330 316 -317 0
-2331 2330 320 0
-2331 -2330 -320 0
2331 -2330 320 0
2331 2330 -320 0
-2332 2331 321 0
-2332 -2331 -321 0
2332 -2331 321 0
2332 2331 -321 0
-2333 2332 322 0
-2333 -2332 -322 0
2333 -2332 322 0
2333 2332 -322 0
-2334 2333 325 0
-2334 -2333 -325 0
2334 -2333 325 0
2334 2333 -325 0
-2335 2334 327 0
-2335 -2334 -327 0
2335 -2334 327 0
2335 2334 -327 0
-2336 2335 329 0
-2336 -2335 -329 0
2336 -2335 329 0
2336 2335 -329 0
-166 -2336 0
-2337 331 332 0
-2337 -331 -332 0
2337 -331 332 0
2337 331 -332 0
-2338 2337 335 0
-2338 -2337 -335 0
2338 -2337 335 0
2338 2337 -335 0
-2339 2338 336 0
-2339 -2338 -336 0
2339 -2338 336 0
2339 2338 -336 0
-2340 2339 337 0
-2340 -2339 -337 0
2340 -2339 337 0
2340 2339 -337 0
-2341 2340 340 0
-2341 -2340 -340 0
2341 -2340 340 0
2341 2340 -340 0
-2342 2341 342 0
-2342 -2341 -342 0
2342 -2341 342 0
2342 2341 -342 0
-2343 2342 344 0
-2343 -2342 -344 0
2343 -2342 344 0
2343 2342 -344 0
-166 -2343 0
-2344 316 318 0
-2344 -316 -318 0
2344 -316 318 0
2344 316 -318 0
-2345 2344 320 0
-2345 -2344 -320 0
2345 -2344 320 0
2345 2344 -320 0
-2346 2345 321 0
-2346 -2345 -321 0
2346 -2345 321 0
2346 2345 -321 0
-2347 2346 322 0
-2347 -2346 -322 0
2347 -2346 322 0
2347 2346 -322 0
-2348 2347 325 0
-2348 -2347 -325 0
2348 -2347 325 0
2348 2347 -325 0
-2349 2348 327 0
-2349 -2348 -327 0
2349 -2348 327 0
2349 2348 -327 0
-2350 2349 329 0
-2350 -2349 -329 0
2350 -2349 329 0
2350 2349 -329 0
-167 -2350 0
-2351 331 333 0
-2351 -331 -333 0
2351 -331 333 0
2351 331 -333 0
-2352 2351 335 0
-2352 -2351 -335 0
2352 -2351 335 0
2352 2351 -335 0
-2353 2352 336 0
-2353 -2352 -336 0
2353 -2352 336 0
2353 2352 -336 0
-2354 2353 337 0
-2354 -2353 -337 0
2354 -2353 337 0
2354 2353 -337 0
-2355 2354 340 0
-2355 -2354 -340 0
2355 -2354 340 0
2355 2354 -340 0
-2356 2355 342 0
-2356 -2355 -342 0
2356 -2355 342 0
2356 2355 -342 0
-2357 2356 344 0
-2357 -2356 -344 0
2357 -2356 344 0
2357 2356 -344 0
-167 -2357 0
-2358 319 320 0
-2358 -319 -320 0
2358 -319 320 0
2358 319 -320 0
-2359 2358 326 0
-2359 -2358 -326 0
2359 -2358 326 0
2359 2358 -326 0
-2360 2359 327 0
-2360 -2359 -327 0
2360 -2359 327 0
2360 2359 -327 0
-2361 2360 328 0
-2361 -2360 -328 0
2361 -2360 328 0
2361 2360 -328 0
-2362 2361 329 0
-2362 -2361 -329 0
2362 -2361 329 0
2362 2361 -329 0
-168 -2362 0
-2363 334 335 0
-2363 -334 -335 0
2363 -334 335 0
2363 334 -335 0
-2364 2363 341 0
-2364 -2363 -341 0
2364 -2363 341 0
2364 2363 -341 0
-2365 2364 342 0
-2365 -2364 -342 0
2365 -2364 342 0
2365 2364 -342 0
-2366 2365 343 0
-2366 -2365 -343 0
2366 -2365 343 0
2366 2365 -343 0
-2367 2366 344 0
-2367 -2366 -344 0
2367 -2366 344 0
2367 2366 -344 0
-168 -2367 0
-2368 317 318 0
-2368 -317 -318 0
2368 -317 318 0
2368 317 -318 0
-2369 2368 319 0
-2369 -2368 -319 0
2369 -2368 319 0
2369 2368 -319 0
-2370 2369 320 0
-2370 -2369 -320 0
2370 -2369 320 0
2370 2369 -320 0
-2371 2370 326 0
-2371 -2370 -326 0
2371 -2370 326 0
2371 2370 -326 0
-2372 2371 327 0
-2372 -2371 -327 0
2372 -2371 327 0
2372 2371 -327 0
-2373 2372 328 0
-2373 -2372 -328 0
2373 -2372 328 0
2373 2372 -328 0
-2374 2373 329 0
-2374 -2373 -329 0
2374 -2373 329 0
2374 2373 -329 0
-169 -2374 0
-2375 332 333 0
-2375 -332 -333 0
2375 -332 333 0
2375 332 -333 0
-2376 2375 334 0
-2376 -2375 -334 0
2376 -2375 334 0
2376 2375 -334 0
-2377 2376 335 0
-2377 -2376 -335 0
2377 -2376 335 0
2377 2376 -335 0
-2378 2377 341 0
-2378 -2377 -341 0
2378 -2377 341 0
2378 2377 -341 0
-2379 2378 342 0
-2379 -2378 -342 0
2379 -2378 342 0
2379 2378 -342 0
-2380 2379 343 0
-2380 -2379 -343 0
2380 -2379 343 0
2380 2379 -343 0
-2381 2380 344 0
-2381 -2380 -344 0
2381 -2380 344 0
2381 2380 -344 0
-169 -2381 0
-2382 316 317 0
-2382 -316 -317 0
2382 -316 317 0
2382 316 -317 0
-2383 2382 319 0
-2383 -2382 -319 0
2383 -2382 319 0
2383 2382 -319 0
-2384 2383 320 0
-2384 -2383 -320 0
2384 -2383 320 0
2384 2383 -320 0
-2385 2384 321 0
-2385 -2384 -321 0
2385 -2384 321 0
2385 2384 -321 0
-2386 2385 322 0
-2386 -2385 -322 0
2386 -2385 322 0
2386 2385 -322 0
-2387 2386 325 0
-2387 -2386 -325 0
2387 -2386 325 0
2387 2386 -325 0
-2388 2387 326 0
-2388 -2387 -326 0
2388 -2387 326 0
2388 2387 -326 0
-2389 2388 327 0
-2389 -2388 -327 0
2389 -2388 327 0
2389 2388 -327 0
-2390 2389 328 0
-2390 -2389 -328 0
2390 -2389 328 0
2390 2389 -328 0
-2391 2390 329 0
-2391 -2390 -329 0
2391 -2390 329 0
2391 2390 -329 0
-170 -2391 0
-2392 331 332 0
-2392 -331 -332 0
2392 -331 332 0
2392 331 -332 0
-2393 2392 334 0
-2393 -2392 -334 0
2393 -2392 334 0
2393 2392 -334 0
-2394 2393 335 0
-2394 -2393 -335 0
2394 -2393 335 0
2394 2393 -335 0
-2395 2394 336 0
-2395 -2394 -336 0
2395 -2394 336 0
2395 2394 -336 0
-2396 2395 337 0
-2396 -2395 -337 0
2396 -2395 337 0
2396 2395 -337 0
-2397 2396 340 0
-2397 -2396 -340 0
2397 -2396 340 0
2397 2396 -340 0
-2398 2397 341 0
-2398 -2397 -341 0
2398 -2397 341 0
2398 2397 -341 0
-2399 2398 342 0
-2399 -2398 -342 0
2399 -2398 342 0
2399 2398 -342 0
-2400 2399 343 0
-2400 -2399 -343 0
2400 -2399 343 0
2400 2399 -343 0
-2401 2400 344 0
-2401 -2400 -344 0
2401 -2400 344 0
2401 2400 -344 0
-170 -2401 0
-2402 316 318 0
-2402 -316 -318 0
2402 -316 318 0
2402 316 -318 0
-2403 2402 319 0
-2403 -2402 -319 0
2403 -2402 319 0
2403 2402 -319 0
-2404 2403 320 0
-2404 -2403 -320 0
2404 -2403 320 0
2404 2403 -320 0
-2405 2404 321 0
-2405 -2404 -321 0
2405 -2404 321 0
2405 2404 -321 0
-2406 2405 322 0
-2406 -2405 -322 0
2406 -2405 322 0
2406 2405 -322 0
-2407 2406 325 0
-2407 -2406 -325 0
2407 -2406 325 0
2407 2406 -325 0
-2408 2407 326 0
-2408 -2407 -326 0
2408 -2407 326 0
2408 2407 -326 0
-2409 2408 327 0
-2409 -2408 -327 0
2409 -2408 327 0
2409 2408 -327 0
-2410 2409 328 0
-2410 -2409 -328 0
2410 -2409 328 0
2410 2409 -328 0
-2411 2410 329 0
-2411 -2410 -329 0
2411 -2410 329 0
2411 2410 -329 0
-171 -2411 0
-2412 331 333 0
-2412 -331 -333 0
2412 -331 333 0
2412 331 -333 0
-2413 2412 334 0
-2413 -2412 -334 0
2413 -2412 334 0
2413 2412 -334 0
-2414 2413 335 0
-2414 -2413 -335 0
2414 -2413 335 0
2414 2413 -335 0
-2415 2414 336 0
-2415 -2414 -336 0
2415 -2414 336 0
2415 2414 -336 0
-2416 2415 337 0
-2416 -2415 -337 0
2416 -2415 337 0
2416 2415 -337 0
-2417 2416 340 0
-2417 -2416 -340 0
2417 -2416 340 0
2417 2416 -340 0
-2418 2417 341 0
-2418 -2417 -341 0
2418 -2417 341 0
2418 2417 -341 0
-2419 2418 342 0
-2419 -2418 -342 0
2419 -2418 342 0
2419 2418 -342 0
-2420 2419 343 0
-2420 -2419 -343 0
2420 -2419 343 0
2420 2419 -343 0
-2421 2420 344 0
-2421 -2420 -344 0
2421 -2420 344 0
2421 2420 -344 0
-171 -2421 0
-2422 323 326 0
-2422 -323 -326 0
2422 -323 326 0
2422 323 -326 0
-2423 2422 328 0
-2423 -2422 -328 0
2423 -2422 328 0
2423 2422 -328 0
-172 -2423 0
-2424 338 341 0
-2424 -338 -341 0
2424 -338 341 0
2424 338 -341 0
-2425 2424 343 0
-2425 -2424 -343 0
2425 -2424 343 0
2425 2424 -343 0
-172 -2425 0
-2426 321 322 0
-2426 -321 -322 0
2426 -321 322 0
2426 321 -322 0
-2427 2426 323 0
-2427 -2426 -323 0
2427 -2426 323 0
2427 2426 -323 0
-2428 2427 326 0
-2428 -2427 -326 0
2428 -2427 326 0
2428 2427 -326 0
-2429 2428 328 0
-2429 -2428 -328 0
2429 -2428 328 0
2429 2428 -328 0
-173 -2429 0
-2430 336 337 0
-2430 -336 -337 0
2430 -336 337 0
2430 336 -337 0
-2431 2430 338 0
-2431 -2430 -338 0
2431 -2430 338 0
2431 2430 -338 0
-2432 2431 341 0
-2432 -2431 -341 0
2432 -2431 341 0
2432 2431 -341 0
-2433 2432 343 0
-2433 -2432 -343 0
2433 -2432 343 0
2433 2432 -343 0
-173 -2433 0
-2434 316 317 0
-2434 -316 -317 0
2434 -316 317 0
2434 316 -317 0
-2435 2434 318 0
-2435 -2434 -318 0
2435 -2434 318 0
2435 2434 -318 0
-2436 2435 321 0
-2436 -2435 -321 0
2436 -2435 321 0
2436 2435 -321 0
-2437 2436 323 0
-2437 -2436 -323 0
2437 -2436 323 0
2437 2436 -323 0
-2438 2437 325 0
-2438 -2437 -325 0
2438 -2437 325 0
2438 2437 -325 0
-2439 2438 326 0
-2439 -2438 -326 0
2439 -2438 326 0
2439 2438 -326 0
-2440 2439 328 0
-2440 -2439 -328 0
2440 -2439 328 0
2440 2439 -328 0
-174 -2440 0
-2441 331 332 0
-2441 -331 -332 0
2441 -331 332 0
2441 331 -332 0
-2442 2441 333 0
-2442 -2441 -333 0
2442 -2441 333 0
2442 2441 -333 0
-2443 2442 336 0
-2443 -2442 -336 0
2443 -2442 336 0
2443 2442 -336 0
-2444 2443 338 0
-2444 -2443 -338 0
2444 -2443 338 0
2444 2443 -338 0
-2445 2444 340 0
-2445 -2444 -340 0
2445 -2444 340 0
2445 2444 -340 0
-2446 2445 341 0
-2446 -2445 -341 0
2446 -2445 341 0
2446 2445 -341 0
-2447 2446 343 0
-2447 -2446 -343 0
2447 -2446 343 0
2447 2446 -343 0
-174 -2447 0
-2448 316 317 0
-2448 -316 -317 0
2448 -316 317 0
2448 316 -317 0
-2449 2448 318 0
-2449 -2448 -318 0
2449 -2448 318 0
2449 2448 -318 0
-2450 2449 322 0
-2450 -2449 -322 0
2450 -2449 322 0
2450 2449 -322 0
-2451 2450 323 0
-2451 -2450 -323 0
2451 -2450 323 0
2451 2450 -323 0
-2452 2451 325 0
-2452 -2451 -325 0
2452 -2451 325 0
2452 2451 -325 0
-2453 2452 326 0
-2453 -2452 -326 0
2453 -2452 326 0
2453 2452 -326 0
-2454 2453 328 0
-2454 -2453 -328 0
2454 -2453 328 0
2454 2453 -328 0
-175 -2454 0
-2455 331 332 0
-2455 -331 -332 0
2455 -331 332 0
2455 331 -332 0
-2456 2455 333 0
-2456 -2455 -333 0
2456 -2455 333 0
2456 2455 -333 0
-2457 2456 337 0
-2457 -2456 -337 0
2457 -2456 337 0
2457 2456 -337 0
-2458 2457 338 0
-2458 -2457 -338 0
2458 -2457 338 0
2458 2457 -338 0
-2459 2458 340 0
-2459 -2458 -340 0
2459 -2458 340 0
2459 2458 -340 0
-2460 2459 341 0
-2460 -2459 -341 0
2460 -2459 341 0
2460 2459 -341 0
-2461 2460 343 0
-2461 -2460 -343 0
2461 -2460 343 0
2461 2460 -343 0
-175 -2461 0
-2462 324 327 0
-2462 -324 -327 0
2462 -324 327 0
2462 324 -327 0
-2463 2462 329 0
-2463 -2462 -329 0
2463 -2462 329 0
2463 2462 -329 0
-176 -2463 0
-2464 339 342 0
-2464 -339 -342 0
2464 -339 342 0
2464 339 -342 0
-2465 2464 344 0
-2465 -2464 -344 0
2465 -2464 344 0
2465 2464 -344 0
-176 -2465 0
-2466 321 322 0
-2466 -321 -322 0
2466 -321 322 0
2466 321 -322 0
-2467 2466 324 0
-2467 -2466 -324 0
2467 -2466 324 0
2467 2466 -324 0
-2468 2467 327 0
-2468 -2467 -327 0
2468 -2467 327 0
2468 2467 -327 0
-2469 2468 329 0
-2469 -2468 -329 0
2469 -2468 329 0
2469 2468 -329 0
-177 -2469 0
-2470 336 337 0
-2470 -336 -337 0
2470 -336 337 0
2470 336 -337 0
-2471 2470 339 0
-2471 -2470 -339 0
2471 -2470 339 0
2471 2470 -339 0
-2472 2471 342 0
-2472 -2471 -342 0
2472 -2471 342 0
2472 2471 -342 0
-2473 2472 344 0
-2473 -2472 -344 0
2473 -2472 344 0
2473 2472 -344 0
-177 -2473 0
-2474 316 317 0
-2474 -316 -317 0
2474 -316 317 0
2474 316 -317 0
-2475 2474 318 0
-2475 -2474 -318 0
2475 -2474 318 0
2475 2474 -318 0
-2476 2475 321 0
-2476 -2475 -321 0
2476 -2475 321 0
2476 2475 -321 0
-2477 2476 324 0
-2477 -2476 -324 0
2477 -2476 324 0
2477 2476 -324 0
-2478 2477 325 0
-2478 -2477 -325 0
2478 -2477 325 0
2478 2477 -325 0
-2479 2478 327 0
-2479 -2478 -327 0
2479 -2478 327 0
2479 2478 -327 0
-2480 2479 329 0
-2480 -2479 -329 0
2480 -2479 329 0
2480 2479 -329 0
-178 -2480 0
-2481 331 332 0
-2481 -331 -332 0
2481 -331 332 0
2481 331 -332 0
-2482 2481 333 0
-2482 -2481 -333 0
2482 -2481 333 0
2482 2481 -333 0
-2483 2482 336 0
-2483 -2482 -336 0
2483 -2482 336 0
2483 2482 -336 0
-2484 2483 339 0
-2484 -2483 -339 0
2484 -2483 339 0
2484 2483 -339 0
-2485 2484 340 0
-2485 -2484 -340 0
2485 -2484 340 0
2485 2484 -340 0
-2486 2485 342 0
-2486 -2485 -342 0
2486 -2485 342 0
2486 2485 -342 0
-2487 2486 344 0
-2487 -2486 -344 0
2487 -2486 344 0
2487 2486 -344 0
-178 -2487 0
-2488 316 317 0
-2488 -316 -317 0
2488 -316 317 0
2488 316 -317 0
-2489 2488 318 0
-2489 -2488 -318 0
2489 -2488 318 0
2489 2488 -318 0
-2490 2489 322 0
-2490 -2489 -322 0
2490 -2489 322 0
2490 2489 -322 0
-2491 2490 324 0
-2491 -2490 -324 0
2491 -2490 324 0
2491 2490 -324 0
-2492 2491 325 0
-2492 -2491 -325 0
2492 -2491 325 0
2492 2491 -325 0
-2493 2492 327 0
-2493 -2492 -327 0
2493 -2492 327 0
2493 2492 -327 0
-2494 2493 329 0
-2494 -2493 -329 0
2494 -2493 329 0
2494 2493 -329 0
-179 -2494 0
-2495 331 332 0
-2495 -331 -332 0
2495 -331 332 0
2495 331 -332 0
-2496 2495 333 0
-2496 -2495 -333 0
2496 -2495 333 0
2496 2495 -333 0
-2497 2496 337 0
-2497 -2496 -337 0
2497 -2496 337 0
2497 2496 -337 0
-2498 2497 339 0
-2498 -2497 -339 0
2498 -2497 339 0
2498 2497 -339 0
-2499 2498 340 0
-2499 -2498 -340 0
2499 -2498 340 0
2499 2498 -340 0
-2500 2499 342 0
-2500 -2499 -342 0
2500 -2499 342 0
2500 2499 -342 0
-2501 2500 344 0
-2501 -2500 -344 0
2501 -2500 344 0
2501 2500 -344 0
-179 -2501 0
-2502 323 324 0
-2502 -323 -324 0
2502 -323 324 0
2502 323 -324 0
-2503 2502 326 0
-2503 -2502 -326 0
2503 -2502 326 0
2503 2502 -326 0
-2504 2503 327 0
-2504 -2503 -327 0
2504 -2503 327 0
2504 2503 -327 0
-2505 2504 328 0
-2505 -2504 -328 0
2505 -2504 328 0
2505 2504 -328 0
-2506 2505 329 0
-2506 -2505 -329 0
2506 -2505 329 0
2506 2505 -329 0
-180 -2506 0
-2507 338 339 0
-2507 -338 -339 0
2507 -338 339 0
2507 338 -339 0
-2508 2507 341 0
-2508 -2507 -341 0
2508 -2507 341 0
2508 2507 -341 0
-2509 2508 342 0
-2509 -2508 -342 0
2509 -2508 342 0
2509 2508 -342 0
-2510 2509 343 0
-2510 -2509 -343 0
2510 -2509 343 0
2510 2509 -343 0
-2511 2510 344 0
-2511 -2510 -344 0
2511 -2510 344 0
2511 2510 -344 0
-180 -2511 0
-2512 321 322 0
-2512 -321 -322 0
2512 -321 322 0
2512 321 -322 0
-2513 2512 323 0
-2513 -2512 -323 0
2513 -2512 323 0
2513 2512 -323 0
-2514 2513 324 0
-2514 -2513 -324 0
2514 -2513 324 0
2514 2513 -324 0
-2515 2514 326 0
-2515 -2514 -326 0
2515 -2514 326 0
2515 2514 -326 0
-2516 2515 327 0
-2516 -2515 -327 0
2516 -2515 327 0
2516 2515 -327 0
-2517 2516 328 0
-2517 -2516 -328 0
2517 -2516 328 0
2517 2516 -328 0
-2518 2517 329 0
-2518 -2517 -329 0
2518 -2517 329 0
2518 2517 -329 0
-181 -2518 0
-2519 336 337 0
-2519 -336 -337 0
2519 -336 337 0
2519 336 -337 0
-2520 2519 338 0
-2520 -2519 -338 0
2520 -2519 338 0
2520 2519 -338 0
-2521 2520 339 0
-2521 -2520 -339 0
2521 -2520 339 0
2521 2520 -339 0
-2522 2521 341 0
-2522 -2521 -341 0
2522 -2521 341 0
2522 2521 -341 0
-2523 2522 342 0
-2523 -2522 -342 0
2523 -2522 342 0
2523 2522 -342 0
-2524 2523 343 0
-2524 -2523 -343 0
2524 -2523 343 0
2524 2523 -343 0
-2525 2524 344 0
-2525 -2524 -344 0
2525 -2524 344 0
2525 2524 -344 0
-181 -2525 0
-2526 316 317 0
-2526 -316 -317 0
2526 -316 317 0
2526 316 -317 0
-2527 2526 318 0
-2527 -2526 -318 0
2527 -2526 318 0
2527 2526 -318 0
-2528 2527 321 0
-2528 -2527 -321 0
2528 -2527 321 0
2528 2527 -321 0
-2529 2528 323 0
-2529 -2528 -323 0
2529 -2528 323 0
2529 2528 -323 0
-2530 2529 324 0
-2530 -2529 -324 0
2530 -2529 324 0
2530 2529 -324 0
-2531 2530 325 0
-2531 -2530 -325 0
2531 -2530 325 0
2531 2530 -325 0
-2532 2531 326 0
-2532 -2531 -326 0
2532 -2531 326 0
2532 2531 -326 0
-2533 2532 327 0
-2533 -2532 -327 0
2533 -2532 327 0
2533 2532 -327 0
-2534 2533 328 0
-2534 -2533 -328 0
2534 -2533 328 0
2534 2533 -328 0
-2535 2534 329 0
-2535 -2534 -329 0
2535 -2534 329 0
2535 2534 -329 0
-182 -2535 0
-2536 331 332 0
-2536 -331 -332 0
2536 -331 332 0
2536 331 -332 0
-2537 2536 333 0
-2537 -2536 -333 0
2537 -2536 333 0
2537 2536 -333 0
-2538 2537 336 0
-2538 -2537 -336 0
2538 -2537 336 0
2538 2537 -336 0
-2539 2538 338 0
-2539 -2538 -338 0
2539 -2538 338 0
2539 2538 -338 0
-2540 2539 339 0
-2540 -2539 -339 0
2540 -2539 339 0
2540 2539 -339 0
-2541 2540 340 0
-2541 -2540 -340 0
2541 -2540 340 0
2541 2540 -340 0
-2542 2541 341 0
-2542 -2541 -341 0
2542 -2541 341 0
2542 2541 -341 0
-2543 2542 342 0
-2543 -2542 -342 0
2543 -2542 342 0
2543 2542 -342 0
-2544 2543 343 0
-2544 -2543 -343 0
2544 -2543 343 0
2544 2543 -343 0
-2545 2544 344 0
-2545 -2544 -344 0
2545 -2544 344 0
2545 2544 -344 0
-182 -2545 0
-2546 316 317 0
-2546 -316 -317 0
2546 -316 317 0
2546 316 -317 0
-2547 2546 318 0
-2547 -2546 -318 0
2547 -2546 318 0
2547 2546 -318 0
-2548 2547 322 0
-2548 -2547 -322 0
2548 -2547 322 0
2548 2547 -322 0
-2549 2548 323 0
-2549 -2548 -323 0
2549 -2548 323 0
2549 2548 -323 0
-2550 2549 324 0
-2550 -2549 -324 0
2550 -2549 324 0
2550 2549 -324 0
-2551 2550 325 0
-2551 -2550 -325 0
2551 -2550 325 0
2551 2550 -325 0
-2552 2551 326 0
-2552 -2551 -326 0
2552 -2551 326 0
2552 2551 -326 0
-2553 2552 327 0
-2553 -2552 -327 0
2553 -2552 327 0
2553 2552 -327 0
-2554 2553 328 0
-2554 -2553 -328 0
2554 -2553 328 0
2554 2553 -328 0
-2555 2554 329 0
-2555 -2554 -329 0
2555 -2554 329 0
2555 2554 -329 0
-183 -2555 0
-2556 331 332 0
-2556 -331 -332 0
2556 -331 332 0
2556 331 -332 0
-2557 2556 333 0
-2557 -2556 -333 0
2557 -2556 333 0
2557 2556 -333 0
-2558 2557 337 0
-2558 -2557 -337 0
2558 -2557 337 0
2558 2557 -337 0
-2559 2558 338 0
-2559 -2558 -338 0
2559 -2558 338 0
2559 2558 -338 0
-2560 2559 339 0
-2560 -2559 -339 0
2560 -2559 339 0
2560 2559 -339 0
-2561 2560 340 0
-2561 -2560 -340 0
2561 -2560 340 0
2561 2560 -340 0
-2562 2561 341 0
-2562 -2561 -341 0
2562 -2561 341 0
2562 2561 -341 0
-2563 2562 342 0
-2563 -2562 -342 0
2563 -2562 342 0
2563 2562 -342 0
-2564 2563 343 0
-2564 -2563 -343 0
2564 -2563 343 0
2564 2563 -343 0
-2565 2564 344 0
-2565 -2564 -344 0
2565 -2564 344 0
2565 2564 -344 0
-183 -2565 0
-2566 319 323 0
-2566 -319 -323 0
2566 -319 323 0
2566 319 -323 0
-2567 2566 326 0
-2567 -2566 -326 0
2567 -2566 326 0
2567 2566 -326 0
-2568 2567 328 0
-2568 -2567 -328 0
2568 -2567 328 0
2568 2567 -328 0
-184 -2568 0
-2569 334 338 0
-2569 -334 -338 0
2569 -334 338 0
2569 334 -338 0
-2570 2569 341 0
-2570 -2569 -341 0
2570 -2569 341 0
2570 2569 -341 0
-2571 2570 343 0
-2571 -2570 -343 0
2571 -2570 343 0
2571 2570 -343 0
-184 -2571 0
-2572 317 318 0
-2572 -317 -318 0
2572 -317 318 0
2572 317 -318 0
-2573 2572 319 0
-2573 -2572 -319 0
2573 -2572 319 0
2573 2572 -319 0
-2574 2573 321 0
-2574 -2573 -321 0
2574 -2573 321 0
2574 2573 -321 0
-2575 2574 322 0
-2575 -2574 -322 0
2575 -2574 322 0
2575 2574 -322 0
-2576 2575 323 0
-2576 -2575 -323 0
2576 -2575 323 0
2576 2575 -323 0
-2577 2576 326 0
-2577 -2576 -326 0
2577 -2576 326 0
2577 2576 -326 0
-2578 2577 328 0
-2578 -2577 -328 0
2578 -2577 328 0
2578 2577 -328 0
-185 -2578 0
-2579 332 333 0
-2579 -332 -333 0
2579 -332 333 0
2579 332 -333 0
-2580 2579 334 0
-2580 -2579 -334 0
2580 -2579 334 0
2580 2579 -334 0
-2581 2580 336 0
-2581 -2580 -336 0
2581 -2580 336 0
2581 2580 -336 0
-2582 2581 337 0
-2582 -2581 -337 0
2582 -2581 337 0
2582 2581 -337 0
-2583 2582 338 0
-2583 -2582 -338 0
2583 -2582 338 0
2583 2582 -338 0
-2584 2583 341 0
-2584 -2583 -341 0
2584 -2583 341 0
2584 2583 -341 0
-2585 2584 343 0
-2585 -2584 -343 0
2585 -2584 343 0
2585 2584 -343 0
-185 -2585 0
-2586 316 318 0
-2586 -316 -318 0
2586 -316 318 0
2586 316 -318 0
-2587 2586 319 0
-2587 -2586 -319 0
2587 -2586 319 0
2587 2586 -319 0
-2588 2587 321 0
-2588 -2587 -321 0
2588 -2587 321 0
2588 2587 -321 0
-2589 2588 323 0
-2589 -2588 -323 0
2589 -2588 323 0
2589 2588 -323 0
-2590 2589 325 0
-2590 -2589 -325 0
2590 -2589 325 0
2590 2589 -325 0
-2591 2590 326 0
-2591 -2590 -326 0
2591 -2590 326 0
2591 2590 -326 0
-2592 2591 328 0
-2592 -2591 -328 0
2592 -2591 328 0
2592 2591 -328 0
-186 -2592 0
-2593 331 333 0
-2593 -331 -333 0
2593 -331 333 0
2593 331 -333 0
-2594 2593 334 0
-2594 -2593 -334 0
2594 -2593 334 0
2594 2593 -334 0
-2595 2594 336 0
-2595 -2594 -336 0
2595 -2594 336 0
2595 2594 -336 0
-2596 2595 338 0
-2596 -2595 -338 0
2596 -2595 338 0
2596 2595 -338 0
-2597 2596 340 0
-2597 -2596 -340 0
2597 -2596 340 0
2597 2596 -340 0
-2598 2597 341 0
-2598 -2597 -341 0
2598 -2597 341 0
2598 2597 -341 0
-2599 2598 343 0
-2599 -2598 -343 0
2599 -2598 343 0
2599 2598 -343 0
-186 -2599 0
-2600 316 317 0
-2600 -316 -317 0
2600 -316 317 0
2600 316 -317 0
-2601 2600 319 0
-2601 -2600 -319 0
2601 -2600 319 0
2601 2600 -319 0
-2602 2601 322 0
-2602 -2601 -322 0
2602 -2601 322 0
2602 2601 -322 0
-2603 2602 323 0
-2603 -2602 -323 0
2603 -2602 323 0
2603 2602 -323 0
-2604 2603 325 0
-2604 -2603 -325 0
2604 -2603 325 0
2604 2603 -325 0
-2605 2604 326 0
-2605 -2604 -326 0
2605 -2604 326 0
2605 2604 -326 0
-2606 2605 328 0
-2606 -2605 -328 0
2606 -2605 328 0
2606 2605 -328 0
-187 -2606 0
-2607 331 332 0
-2607 -331 -332 0
2607 -331 332 0
2607 331 -332 0
-2608 2607 334 0
-2608 -2607 -334 0
2608 -2607 334 0
2608 2607 -334 0
-2609 2608 337 0
-2609 -2608 -337 0
2609 -2608 337 0
2609 2608 -337 0
-2610 2609 338 0
-2610 -2609 -338 0
2610 -2609 338 0
2610 2609 -338 0
-2611 2610 340 0
-2611 -2610 -340 0
2611 -2610 340 0
2611 2610 -340 0
-2612 2611 341 0
-2612 -2611 -341 0
2612 -2611 341 0
2612 2611 -341 0
-2613 2612 343 0
-2613 -2612 -343 0
2613 -2612 343 0
2613 2612 -343 0
-187 -2613 0
-2614 320 324 0
-2614 -320 -324 0
2614 -320 324 0
2614 320 -324 0
-2615 2614 327 0
-2615 -2614 -327 0
2615 -2614 327 0
2615 2614 -327 0
-2616 2615 329 0
-2616 -2615 -329 0
2616 -2615 329 0
2616 2615 -329 0
-188 -2616 0
-2617 335 339 0
-2617 -335 -339 0
2617 -335 339 0
2617 335 -339 0
-2618 2617 342 0
-2618 -2617 -342 0
2618 -2617 342 0
2618 2617 -342 0
-2619 2618 344 0
-2619 -2618 -344 0
2619 -2618 344 0
2619 2618 -344 0
-188 -2619 0
-2620 317 318 0
-2620 -317 -318 0
2620 -317 318 0
2620 317 -318 0
-2621 2620 320 0
-2621 -2620 -320 0
2621 -2620 320 0
2621 2620 -320 0
-2622 2621 321 0
-2622 -2621 -321 0
2622 -2621 321 0
2622 2621 -321 0
-2623 2622 322 0
-2623 -2622 -322 0
2623 -2622 322 0
2623 2622 -322 0
-2624 2623 324 0
-2624 -2623 -324 0
2624 -2623 324 0
2624 2623 -324 0
-2625 2624 327 0
-2625 -2624 -327 0
2625 -2624 327 0
2625 2624 -327 0
-2626 2625 329 0
-2626 -2625 -329 0
2626 -2625 329 0
2626 2625 -329 0
-189 -2626 0
-2627 332 333 0
-2627 -332 -333 0
2627 -332 333 0
2627 332 -333 0
-2628 2627 335 0
-2628 -2627 -335 0
2628 -2627 335 0
2628 2627 -335 0
-2629 2628 336 0
-2629 -2628 -336 0
2629 -2628 336 0
2629 2628 -336 0
-2630 2629 337 0
-2630 -2629 -337 0
2630 -2629 337 0
2630 2629 -337 0
-2631 2630 339 0
-2631 -2630 -339 0
2631 -2630 339 0
2631 2630 -339 0
-2632 2631 342 0
-2632 -2631 -342 0
2632 -2631 342 0
2632 2631 -342 0
-2633 2632 344 0
-2633 -2632 -344 0
2633 -2632 344 0
2633 2632 -344 0
-189 -2633 0
-2634 316 318 0
-2634 -316 -318 0
2634 -316 318 0
2634 316 -318 0
-2635 2634 320 0
-2635 -2634 -320 0
2635 -2634 320 0
2635 2634 -320 0
-2636 2635 321 0
-2636 -2635 -321 0
2636 -2635 321 0
2636 2635 -321 0
-2637 2636 324 0
-2637 -2636 -324 0
2637 -2636 324 0
2637 2636 -324 0
-2638 2637 325 0
-2638 -2637 -325 0
2638 -2637 325 0
2638 2637 -325 0
-2639 2638 327 0
-2639 -2638 -327 0
2639 -2638 327 0
2639 2638 -327 0
-2640 2639 329 0
-2640 -2639 -329 0
2640 -2639 329 0
2640 2639 -329 0
-190 -2640 0
-2641 331 333 0
-2641 -331 -333 0
2641 -331 333 0
2641 331 -333 0
-2642 2641 335 0
-2642 -2641 -335 0
2642 -2641 335 0
2642 2641 -335 0
-2643 2642 336 0
-2643 -2642 -336 0
2643 -2642 336 0
2643 2642 -336 0
-2644 2643 339 0
-2644 -2643 -339 0
2644 -2643 339 0
2644 2643 -339 0
-2645 2644 340 0
-2645 -2644 -340 0
2645 -2644 340 0
2645 2644 -340 0
-2646 2645 342 0
-2646 -2645 -342 0
2646 -2645 342 0
2646 2645 -342 0
-2647 2646 344 0
-2647 -2646 -344 0
2647 -2646 344 0
2647 2646 -344 0
-190 -2647 0
-2648 316 317 0
-2648 -316 -317 0
2648 -316 317 0
2648 316 -317 0
-2649 2648 320 0
-2649 -2648 -320 0
2649 -2648 320 0
2649 2648 -320 0
-2650 2649 322 0
-2650 -2649 -322 0
2650 -2649 322 0
2650 2649 -322 0
-2651 2650 324 0
-2651 -2650 -324 0
2651 -2650 324 0
2651 2650 -324 0
-2652 2651 325 0
-2652 -2651 -325 0
2652 -2651 325 0
2652 2651 -325 0
-2653 2652 327 0
-2653 -2652 -327 0
2653 -2652 327 0
2653 2652 -327 0
-2654 2653 329 0
-2654 -2653 -329 0
2654 -2653 329 0
2654 2653 -329 0
-191 -2654 0
-2655 331 332 0
-2655 -331 -332 0
2655 -331 332 0
2655 331 -332 0
-2656 2655 335 0
-2656 -2655 -335 0
2656 -2655 335 0
2656 2655 -335 0
-2657 2656 337 0
-2657 -2656 -337 0
2657 -2656 337 0
2657 2656 -337 0
-2658 2657 339 0
-2658 -2657 -339 0
2658 -2657 339 0
2658 2657 -339 0
-2659 2658 340 0
-2659 -2658 -340 0
2659 -2658 340 0
2659 2658 -340 0
-2660 2659 342 0
-2660 -2659 -342 0
2660 -2659 342 0
2660 2659 -342 0
-2661 2660 344 0
-2661 -2660 -344 0
2661 -2660 344 0
2661 2660 -344 0
-191 -2661 0
-2662 319 320 0
-2662 -319 -320 0
2662 -319 320 0
2662 319 -320 0
-2663 2662 323 0
-2663 -2662 -323 0
2663 -2662 323 0
2663 2662 -323 0
-2664 2663 324 0
-2664 -2663 -324 0
2664 -2663 324 0
2664 2663 -324 0
-2665 2664 326 0
-2665 -2664 -326 0
2665 -2664 326 0
2665 2664 -326 0
-2666 2665 327 0
-2666 -2665 -327 0
2666 -2665 327 0
2666 2665 -327 0
-2667 2666 328 0
-2667 -2666 -328 0
2667 -2666 328 0
2667 2666 -328 0
-2668 2667 329 0
-2668 -2667 -329 0
2668 -2667 329 0
2668 2667 -329 0
-192 -2668 0
-2669 334 335 0
-2669 -334 -335 0
2669 -334 335 0
2669 334 -335 0
-2670 2669 338 0
-2670 -2669 -338 0
2670 -2669 338 0
2670 2669 -338 0
-2671 2670 339 0
-2671 -2670 -339 0
2671 -2670 339 0
2671 2670 -339 0
-2672 2671 341 0
-2672 -2671 -341 0
2672 -2671 341 0
2672 2671 -341 0
-2673 2672 342 0
-2673 -2672 -342 0
2673 -2672 342 0
2673 2672 -342 0
-2674 2673 343 0
-2674 -2673 -343 0
2674 -2673 343 0
2674 2673 -343 0
-2675 2674 344 0
-2675 -2674 -344 0
2675 -2674 344 0
2675 2674 -344 0
-192 -2675 0
-2676 317 318 0
-2676 -317 -318 0
2676 -317 318 0
2676 317 -318 0
-2677 2676 319 0
-2677 -2676 -319 0
2677 -2676 319 0
2677 2676 -319 0
-2678 2677 320 0
-2678 -2677 -320 0
2678 -2677 320 0
2678 2677 -320 0
-2679 2678 321 0
-2679 -2678 -321 0
2679 -2678 321 0
2679 2678 -321 0
-2680 2679 322 0
-2680 -2679 -322 0
2680 -2679 322 0
2680 2679 -322 0
-2681 2680 323 0
-2681 -2680 -323 0
2681 -2680 323 0
2681 2680 -323 0
-2682 2681 324 0
-2682 -2681 -324 0
2682 -2681 324 0
2682 2681 -324 0
-2683 2682 326 0
-2683 -2682 -326 0
2683 -2682 326 0
2683 2682 -326 0
-2684 2683 327 0
-2684 -2683 -327 0
2684 -2683 327 0
2684 2683 -327 0
-2685 2684 328 0
-2685 -2684 -328 0
2685 -2684 328 0
2685 2684 -328 0
-2686 2685 329 0
-2686 -2685 -329 0
2686 -2685 329 0
2686 2685 -329 0
-193 -2686 0
-2687 332 333 0
-2687 -332 -333 0
2687 -332 333 0
2687 332 -333 0
-2688 2687 334 0
-2688 -2687 -334 0
2688 -2687 334 0
2688 2687 -334 0
-2689 2688 335 0
-2689 -2688 -335 0
2689 -2688 335 0
2689 2688 -335 0
-2690 2689 336 0
-2690 -2689 -336 0
2690 -2689 336 0
2690 2689 -336 0
-2691 2690 337 0
-2691 -2690 -337 0
2691 -2690 337 0
2691 2690 -337 0
-2692 2691 338 0
-2692 -2691 -338 0
2692 -2691 338 0
2692 2691 -338 0
-2693 2692 339 0
-2693 -2692 -339 0
2693 -2692 339 0
2693 2692 -339 0
-2694 2693 341 0
-2694 -2693 -341 0
2694 -2693 341 0
2694 2693 -341 0
-2695 2694 342 0
-2695 -2694 -342 0
2695 -2694 342 0
2695 2694 -342 0
-2696 2695 343 0
-2696 -2695 -343 0
2696 -2695 343 0
2696 2695 -343 0
-2697 2696 344 0
-2697 -2696 -344 0
2697 -2696 344 0
2697 2696 -344 0
-193 -2697 0
-2698 316 318 0
-2698 -316 -318 0
2698 -316 318 0
2698 316 -318 0
-2699 2698 319 0
-2699 -2698 -319 0
2699 -2698 319 0
2699 2698 -319 0
-2700 2699 320 0
-2700 -2699 -320 0
2700 -2699 320 0
2700 2699 -320 0
-2701 2700 321 0
-2701 -2700 -321 0
2701 -2700 321 0
2701 2700 -321 0
-2702 2701 323 0
-2702 -2701 -323 0
2702 -2701 323 0
2702 2701 -323 0
-2703 2702 324 0
-2703 -2702 -324 0
2703 -2702 324 0
2703 2702 -324 0
-2704 2703 325 0
-2704 -2703 -325 0
2704 -2703 325 0
2704 2703 -325 0
-2705 2704 326 0
-2705 -2704 -326 0
2705 -2704 326 0
2705 2704 -326 0
-2706 2705 327 0
-2706 -2705 -327 0
2706 -2705 327 0
2706 2705 -327 0
-2707 2706 328 0
-2707 -2706 -328 0
2707 -2706 328 0
2707 2706 -328 0
-2708 2707 329 0
-2708 -2707 -329 0
2708 -2707 329 0
2708 2707 -329 0
-194 -2708 0
-2709 331 333 0
-2709 -331 -333 0
2709 -331 333 0
2709 331 -333 0
-2710 2709 334 0
-2710 -2709 -334 0
2710 -2709 334 0
2710 2709 -334 0
-2711 2710 335 0
-2711 -2710 -335 0
2711 -2710 335 0
2711 2710 -335 0
-2712 2711 336 0
-2712 -2711 -336 0
2712 -2711 336 0
2712 2711 -336 0
-2713 2712 338 0
-2713 -2712 -338 0
2713 -2712 338 0
2713 2712 -338 0
-2714 2713 339 0
-2714 -2713 -339 0
2714 -2713 339 0
2714 2713 -339 0
-2715 2714 340 0
-2715 -2714 -340 0
2715 -2714 340 0
2715 2714 -340 0
-2716 2715 341 0
-2716 -2715 -341 0
2716 -2715 341 0
2716 2715 -341 0
-2717 2716 342 0
-2717 -2716 -342 0
2717 -2716 342 0
2717 2716 -342 0
-2718 2717 343 0
-2718 -2717 -343 0
2718 -2717 343 0
2718 2717 -343 0
-2719 2718 344 0
-2719 -2718 -344 0
2719 -2718 344 0
2719 2718 -344 0
-194 -2719 0
-2720 316 317 0
-2720 -316 -317 0
2720 -316 317 0
2720 316 -317 0
-2721 2720 319 0
-2721 -2720 -319 0
2721 -2720 319 0
2721 2720 -319 0
-2722 2721 320 0
-2722 -2721 -320 0
2722 -2721 320 0
2722 2721 -320 0
-2723 2722 322 0
-2723 -2722 -322 0
2723 -2722 322 0
2723 2722 -322 0
-2724 2723 323 0
-2724 -2723 -323 0
2724 -2723 323 0
2724 2723 -323 0
-2725 2724 324 0
-2725 -2724 -324 0
2725 -2724 324 0
2725 2724 -324 0
-2726 2725 325 0
-2726 -2725 -325 0
2726 -2725 325 0
2726 2725 -325 0
-2727 2726 326 0
-2727 -2726 -326 0
2727 -2726 326 0
2727 2726 -326 0
-2728 2727 327 0
-2728 -2727 -327 0
2728 -2727 327 0
2728 2727 -327 0
-2729 2728 328 0
-2729 -2728 -328 0
2729 -2728 328 0
2729 2728 -328 0
-2730 2729 329 0
-2730 -2729 -329 0
2730 -2729 329 0
2730 2729 -329 0
-195 -2730 0
-2731 331 332 0
-2731 -331 -332 0
2731 -331 332 0
2731 331 -332 0
-2732 2731 334 0
-2732 -2731 -334 0
2732 -2731 334 0
2732 2731 -334 0
-2733 2732 335 0
-2733 -2732 -335 0
2733 -2732 335 0
2733 2732 -335 0
-2734 2733 337 0
-2734 -2733 -337 0
2734 -2733 337 0
2734 2733 -337 0
-2735 2734 338 0
-2735 -2734 -338 0
2735 -2734 338 0
2735 2734 -338 0
-2736 2735 339 0
-2736 -2735 -339 0
2736 -2735 339 0
2736 2735 -339 0
-2737 2736 340 0
-2737 -2736 -340 0
2737 -2736 340 0
2737 2736 -340 0
-2738 2737 341 0
-2738 -2737 -341 0
2738 -2737 341 0
2738 2737 -341 0
-2739 2738 342 0
-2739 -2738 -342 0
2739 -2738 342 0
2739 2738 -342 0
-2740 2739 343 0
-2740 -2739 -343 0
2740 -2739 343 0
2740 2739 -343 0
-2741 2740 344 0
-2741 -2740 -344 0
2741 -2740 344 0
2741 2740 -344 0
-195 -2741 0
-2742 316 320 0
-2742 -316 -320 0
2742 -316 320 0
2742 316 -320 0
-2743 2742 323 0
-2743 -2742 -323 0
2743 -2742 323 0
2743 2742 -323 0
-2744 2743 330 0
-2744 -2743 -330 0
2744 -2743 330 0
2744 2743 -330 0
-196 -2744 0
-2745 331 335 0
-2745 -331 -335 0
2745 -331 335 0
2745 331 -335 0
-2746 2745 338 0
-2746 -2745 -338 0
2746 -2745 338 0
2746 2745 -338 0
-2747 2746 345 0
-2747 -2746 -345 0
2747 -2746 345 0
2747 2746 -345 0
-196 -2747 0
-2748 316 319 0
-2748 -316 -319 0
2748 -316 319 0
2748 316 -319 0
-2749 2748 320 0
-2749 -2748 -320 0
2749 -2748 320 0
2749 2748 -320 0
-2750 2749 323 0
-2750 -2749 -323 0
2750 -2749 323 0
2750 2749 -323 0
-2751 2750 330 0
-2751 -2750 -330 0
2751 -2750 330 0
2751 2750 -330 0
-197 -2751 0
-2752 331 334 0
-2752 -331 -334 0
2752 -331 334 0
2752 331 -334 0
-2753 2752 335 0
-2753 -2752 -335 0
2753 -2752 335 0
2753 2752 -335 0
-2754 2753 338 0
-2754 -2753 -338 0
2754 -2753 338 0
2754 2753 -338 0
-2755 2754 345 0
-2755 -2754 -345 0
2755 -2754 345 0
2755 2754 -345 0
-197 -2755 0
-2756 316 317 0
-2756 -316 -317 0
2756 -316 317 0
2756 316 -317 0
-2757 2756 320 0
-2757 -2756 -320 0
2757 -2756 320 0
2757 2756 -320 0
-2758 2757 323 0
-2758 -2757 -323 0
2758 -2757 323 0
2758 2757 -323 0
-2759 2758 326 0
-2759 -2758 -326 0
2759 -2758 326 0
2759 2758 -326 0
-2760 2759 330 0
-2760 -2759 -330 0
2760 -2759 330 0
2760 2759 -330 0
-198 -2760 0
-2761 331 332 0
-2761 -331 -332 0
2761 -331 332 0
2761 331 -332 0
-2762 2761 335 0
-2762 -2761 -335 0
2762 -2761 335 0
2762 2761 -335 0
-2763 2762 338 0
-2763 -2762 -338 0
2763 -2762 338 0
2763 2762 -338 0
-2764 2763 341 0
-2764 -2763 -341 0
2764 -2763 341 0
2764 2763 -341 0
-2765 2764 345 0
-2765 -2764 -345 0
2765 -2764 345 0
2765 2764 -345 0
-198 -2765 0
-2766 316 317 0
-2766 -316 -317 0
2766 -316 317 0
2766 316 -317 0
-2767 2766 319 0
-2767 -2766 -319 0
2767 -2766 319 0
2767 2766 -319 0
-2768 2767 320 0
-2768 -2767 -320 0
2768 -2767 320 0
2768 2767 -320 0
-2769 2768 323 0
-2769 -2768 -323 0
2769 -2768 323 0
2769 2768 -323 0
-2770 2769 326 0
-2770 -2769 -326 0
2770 -2769 326 0
2770 2769 -326 0
-2771 2770 330 0
-2771 -2770 -330 0
2771 -2770 330 0
2771 2770 -330 0
-199 -2771 0
-2772 331 332 0
-2772 -331 -332 0
2772 -331 332 0
2772 331 -332 0
-2773 2772 334 0
-2773 -2772 -334 0
2773 -2772 334 0
2773 2772 -334 0
-2774 2773 335 0
-2774 -2773 -335 0
2774 -2773 335 0
2774 2773 -335 0
-2775 2774 338 0
-2775 -2774 -338 0
2775 -2774 338 0
2775 2774 -338 0
-2776 2775 341 0
-2776 -2775 -341 0
2776 -2775 341 0
2776 2775 -341 0
-2777 2776 345 0
-2777 -2776 -345 0
2777 -2776 345 0
2777 2776 -345 0
-199 -2777 0
-2778 316 318 0
-2778 -316 -318 0
2778 -316 318 0
2778 316 -318 0
-2779 2778 320 0
-2779 -2778 -320 0
2779 -2778 320 0
2779 2778 -320 0
-2780 2779 323 0
-2780 -2779 -323 0
2780 -2779 323 0
2780 2779 -323 0
-2781 2780 328 0
-2781 -2780 -328 0
2781 -2780 328 0
2781 2780 -328 0
-2782 2781 330 0
-2782 -2781 -330 0
2782 -2781 330 0
2782 2781 -330 0
-200 -2782 0
-2783 331 333 0
-2783 -331 -333 0
2783 -331 333 0
2783 331 -333 0
-2784 2783 335 0
-2784 -2783 -335 0
2784 -2783 335 0
2784 2783 -335 0
-2785 2784 338 0
-2785 -2784 -338 0
2785 -2784 338 0
2785 2784 -338 0
-2786 2785 343 0
-2786 -2785 -343 0
2786 -2785 343 0
2786 2785 -343 0
-2787 2786 345 0
-2787 -2786 -345 0
2787 -2786 345 0
2787 2786 -345 0
-200 -2787 0
-2788 316 318 0
-2788 -316 -318 0
2788 -316 318 0
2788 316 -318 0
-2789 2788 319 0
-2789 -2788 -319 0
2789 -2788 319 0
2789 2788 -319 0
-2790 2789 320 0
-2790 -2789 -320 0
2790 -2789 320 0
2790 2789 -320 0
-2791 2790 323 0
-2791 -2790 -323 0
2791 -2790 323 0
2791 2790 -323 0
-2792 2791 328 0
-2792 -2791 -328 0
2792 -2791 328 0
2792 2791 -328 0
-2793 2792 330 0
-2793 -2792 -330 0
2793 -2792 330 0
2793 2792 -330 0
-201 -2793 0
-2794 331 333 0
-2794 -331 -333 0
2794 -331 333 0
2794 331 -333 0
-2795 2794 334 0
-2795 -2794 -334 0
2795 -2794 334 0
2795 2794 -334 0
-2796 2795 335 0
-2796 -2795 -335 0
2796 -2795 335 0
2796 2795 -335 0
-2797 2796 338 0
-2797 -2796 -338 0
2797 -2796 338 0
2797 2796 -338 0
-2798 2797 343 0
-2798 -2797 -343 0
2798 -2797 343 0
2798 2797 -343 0
-2799 2798 345 0
-2799 -2798 -345 0
2799 -2798 345 0
2799 2798 -345 0
-201 -2799 0
-2800 316 317 0
-2800 -316 -317 0
2800 -316 317 0
2800 316 -317 0
-2801 2800 318 0
-2801 -2800 -318 0
2801 -2800 318 0
2801 2800 -318 0
-2802 2801 320 0
-2802 -2801 -320 0
2802 -2801 320 0
2802 2801 -320 0
-2803 2802 323 0
-2803 -2802 -323 0
2803 -2802 323 0
2803 2802 -323 0
-2804 2803 326 0
-2804 -2803 -326 0
2804 -2803 326 0
2804 2803 -326 0
-2805 2804 328 0
-2805 -2804 -328 0
2805 -2804 328 0
2805 2804 -328 0
-2806 2805 330 0
-2806 -2805 -330 0
2806 -2805 330 0
2806 2805 -330 0
-202 -2806 0
-2807 331 332 0
-2807 -331 -332 0
2807 -331 332 0
2807 331 -332 0
-2808 2807 333 0
-2808 -2807 -333 0
2808 -2807 333 0
2808 2807 -333 0
-2809 2808 335 0
-2809 -2808 -335 0
2809 -2808 335 0
2809 2808 -335 0
-2810 2809 338 0
-2810 -2809 -338 0
2810 -2809 338 0
2810 2809 -338 0
-2811 2810 341 0
-2811 -2810 -341 0
2811 -2810 341 0
2811 2810 -341 0
-2812 2811 343 0
-2812 -2811 -343 0
2812 -2811 343 0
2812 2811 -343 0
-2813 2812 345 0
-2813 -2812 -345 0
2813 -2812 345 0
2813 2812 -345 0
-202 -2813 0
-2814 316 317 0
-2814 -316 -317 0
2814 -316 317 0
2814 316 -317 0
-2815 2814 318 0
-2815 -2814 -318 0
2815 -2814 318 0
2815 2814 -318 0
-2816 2815 319 0
-2816 -2815 -319 0
2816 -2815 319 0
2816 2815 -319 0
-2817 2816 320 0
-2817 -2816 -320 0
2817 -2816 320 0
2817 2816 -320 0
-2818 2817 323 0
-2818 -2817 -323 0
2818 -2817 323 0
2818 2817 -323 0
-2819 2818 326 0
-2819 -2818 -326 0
2819 -2818 326 0
2819 2818 -326 0
-2820 2819 328 0
-2820 -2819 -328 0
2820 -2819 328 0
2820 2819 -328 0
-2821 2820 330 0
-2821 -2820 -330 0
2821 -2820 330 0
2821 2820 -330 0
-203 -2821 0
-2822 331 332 0
-2822 -331 -332 0
2822 -331 332 0
2822 331 -332 0
-2823 2822 333 0
-2823 -2822 -333 0
2823 -2822 333 0
2823 2822 -333 0
-2824 2823 334 0
-2824 -2823 -334 0
2824 -2823 334 0
2824 2823 -334 0
-2825 2824 335 0
-2825 -2824 -335 0
2825 -2824 335 0
2825 2824 -335 0
-2826 2825 338 0
-2826 -2825 -338 0
2826 -2825 338 0
2826 2825 -338 0
-2827 2826 341 0
-2827 -2826 -341 0
2827 -2826 341 0
2827 2826 -341 0
-2828 2827 343 0
-2828 -2827 -343 0
2828 -2827 343 0
2828 2827 -343 0
-2829 2828 345 0
-2829 -2828 -345 0
2829 -2828 345 0
2829 2828 -345 0
-203 -2829 0
-2830 316 319 0
-2830 -316 -319 0
2830 -316 319 0
2830 316 -319 0
-2831 2830 324 0
-2831 -2830 -324 0
2831 -2830 324 0
2831 2830 -324 0
-2832 2831 330 0
-2832 -2831 -330 0
2832 -2831 330 0
2832 2831 -330 0
-204 -2832 0
-2833 331 334 0
-2833 -331 -334 0
2833 -331 334 0
2833 331 -334 0
-2834 2833 339 0
-2834 -2833 -339 0
2834 -2833 339 0
2834 2833 -339 0
-2835 2834 345 0
-2835 -2834 -345 0
2835 -2834 345 0
2835 2834 -345 0
-204 -2835 0
-2836 316 319 0
-2836 -316 -319 0
2836 -316 319 0
2836 316 -319 0
-2837 2836 323 0
-2837 -2836 -323 0
2837 -2836 323 0
2837 2836 -323 0
-2838 2837 324 0
-2838 -2837 -324 0
2838 -2837 324 0
2838 2837 -324 0
-2839 2838 330 0
-2839 -2838 -330 0
2839 -2838 330 0
2839 2838 -330 0
-205 -2839 0
-2840 331 334 0
-2840 -331 -334 0
2840 -331 334 0
2840 331 -334 0
-2841 2840 338 0
-2841 -2840 -338 0
2841 -2840 338 0
2841 2840 -338 0
-2842 2841 339 0
-2842 -2841 -339 0
2842 -2841 339 0
2842 2841 -339 0
-2843 2842 345 0
-2843 -2842 -345 0
2843 -2842 345 0
2843 2842 -345 0
-205 -2843 0
-2844 316 319 0
-2844 -316 -319 0
2844 -316 319 0
2844 316 -319 0
-2845 2844 321 0
-2845 -2844 -321 0
2845 -2844 321 0
2845 2844 -321 0
-2846 2845 324 0
-2846 -2845 -324 0
2846 -2845 324 0
2846 2845 -324 0
-2847 2846 326 0
-2847 -2846 -326 0
2847 -2846 326 0
2847 2846 -326 0
-2848 2847 330 0
-2848 -2847 -330 0
2848 -2847 330 0
2848 2847 -330 0
-206 -2848 0
-2849 331 334 0
-2849 -331 -334 0
2849 -331 334 0
2849 331 -334 0
-2850 2849 336 0
-2850 -2849 -336 0
2850 -2849 336 0
2850 2849 -336 0
-2851 2850 339 0
-2851 -2850 -339 0
2851 -2850 339 0
2851 2850 -339 0
-2852 2851 341 0
-2852 -2851 -341 0
2852 -2851 341 0
2852 2851 -341 0
-2853 2852 345 0
-2853 -2852 -345 0
2853 -2852 345 0
2853 2852 -345 0
-206 -2853 0
-2854 316 319 0
-2854 -316 -319 0
2854 -316 319 0
2854 316 -319 0
-2855 2854 321 0
-2855 -2854 -321 0
2855 -2854 321 0
2855 2854 -321 0
-2856 2855 323 0
-2856 -2855 -323 0
2856 -2855 323 0
2856 2855 -323 0
-2857 2856 324 0
-2857 -2856 -324 0
2857 -2856 324 0
2857 2856 -324 0
-2858 2857 326 0
-2858 -2857 -326 0
2858 -2857 326 0
2858 2857 -326 0
-2859 2858 330 0
-2859 -2858 -330 0
2859 -2858 330 0
2859 2858 -330 0
-207 -2859 0
-2860 331 334 0
-2860 -331 -334 0
2860 -331 334 0
2860 331 -334 0
-2861 2860 336 0
-2861 -2860 -336 0
2861 -2860 336 0
2861 2860 -336 0
-2862 2861 338 0
-2862 -2861 -338 0
2862 -2861 338 0
2862 2861 -338 0
-2863 2862 339 0
-2863 -2862 -339 0
2863 -2862 339 0
2863 2862 -339 0
-2864 2863 341 0
-2864 -2863 -341 0
2864 -2863 341 0
2864 2863 -341 0
-2865 2864 345 0
-2865 -2864 -345 0
2865 -2864 345 0
2865 2864 -345 0
-207 -2865 0
-2866 316 319 0
-2866 -316 -319 0
2866 -316 319 0
2866 316 -319 0
-2867 2866 322 0
-2867 -2866 -322 0
2867 -2866 322 0
2867 2866 -322 0
-2868 2867 324 0
-2868 -2867 -324 0
2868 -2867 324 0
2868 2867 -324 0
-2869 2868 328 0
-2869 -2868 -328 0
2869 -2868 328 0
2869 2868 -328 0
-2870 2869 330 0
-2870 -2869 -330 0
2870 -2869 330 0
2870 2869 -330 0
-208 -2870 0
-2871 331 334 0
-2871 -331 -334 0
2871 -331 334 0
2871 331 -334 0
-2872 2871 337 0
-2872 -2871 -337 0
2872 -2871 337 0
2872 2871 -337 0
-2873 2872 339 0
-2873 -2872 -339 0
2873 -2872 339 0
2873 2872 -339 0
-2874 2873 343 0
-2874 -2873 -343 0
2874 -2873 343 0
2874 2873 -343 0
-2875 2874 345 0
-2875 -2874 -345 0
2875 -2874 345 0
2875 2874 -345 0
-208 -2875 0
-2876 316 319 0
-2876 -316 -319 0
2876 -316 319 0
2876 316 -319 0
-2877 2876 322 0
-2877 -2876 -322 0
2877 -2876 322 0
2877 2876 -322 0
-2878 2877 323 0
-2878 -2877 -323 0
2878 -2877 323 0
2878 2877 -323 0
-2879 2878 324 0
-2879 -2878 -324 0
2879 -2878 324 0
2879 2878 -324 0
-2880 2879 328 0
-2880 -2879 -328 0
2880 -2879 328 0
2880 2879 -328 0
-2881 2880 330 0
-2881 -2880 -330 0
2881 -2880 330 0
2881 2880 -330 0
-209 -2881 0
-2882 331 334 0
-2882 -331 -334 0
2882 -331 334 0
2882 331 -334 0
-2883 2882 337 0
-2883 -2882 -337 0
2883 -2882 337 0
2883 2882 -337 0
-2884 2883 338 0
-2884 -2883 -338 0
2884 -2883 338 0
2884 2883 -338 0
-2885 2884 339 0
-2885 -2884 -339 0
2885 -2884 339 0
2885 2884 -339 0
-2886 2885 343 0
-2886 -2885 -343 0
2886 -2885 343 0
2886 2885 -343 0
-2887 2886 345 0
-2887 -2886 -345 0
2887 -2886 345 0
2887 2886 -345 0
-209 -2887 0
-2888 316 319 0
-2888 -316 -319 0
2888 -316 319 0
2888 316 -319 0
-2889 2888 321 0
-2889 -2888 -321 0
2889 -2888 321 0
2889 2888 -321 0
-2890 2889 322 0
-2890 -2889 -322 0
2890 -2889 322 0
2890 2889 -322 0
-2891 2890 324 0
-2891 -2890 -324 0
2891 -2890 324 0
2891 2890 -324 0
-2892 2891 326 0
-2892 -2891 -326 0
2892 -2891 326 0
2892 2891 -326 0
-2893 2892 328 0
-2893 -2892 -328 0
2893 -2892 328 0
2893 2892 -328 0
-2894 2893 330 0
-2894 -2893 -330 0
2894 -2893 330 0
2894 2893 -330 0
-210 -2894 0
-2895 331 334 0
-2895 -331 -334 0
2895 -331 334 0
2895 331 -334 0
-2896 2895 336 0
-2896 -2895 -336 0
2896 -2895 336 0
2896 2895 -336 0
-2897 2896 337 0
-2897 -2896 -337 0
2897 -2896 337 0
2897 2896 -337 0
-2898 2897 339 0
-2898 -2897 -339 0
2898 -2897 339 0
2898 2897 -339 0
-2899 2898 341 0
-2899 -2898 -341 0
2899 -2898 341 0
2899 2898 -341 0
-2900 2899 343 0
-2900 -2899 -343 0
2900 -2899 343 0
2900 2899 -343 0
-2901 2900 345 0
-2901 -2900 -345 0
2901 -2900 345 0
2901 2900 -345 0
-210 -2901 0
-2902 316 319 0
-2902 -316 -319 0
2902 -316 319 0
2902 316 -319 0
-2903 2902 321 0
-2903 -2902 -321 0
2903 -2902 321 0
2903 2902 -321 0
-2904 2903 322 0
-2904 -2903 -322 0
2904 -2903 322 0
2904 2903 -322 0
-2905 2904 323 0
-2905 -2904 -323 0
2905 -2904 323 0
2905 2904 -323 0
-2906 2905 324 0
-2906 -2905 -324 0
2906 -2905 324 0
2906 2905 -324 0
-2907 2906 326 0
-2907 -2906 -326 0
2907 -2906 326 0
2907 2906 -326 0
-2908 2907 328 0
-2908 -2907 -328 0
2908 -2907 328 0
2908 2907 -328 0
-2909 2908 330 0
-2909 -2908 -330 0
2909 -2908 330 0
2909 2908 -330 0
-211 -2909 0
-2910 331 334 0
-2910 -331 -334 0
2910 -331 334 0
2910 331 -334 0
-2911 2910 336 0
-2911 -2910 -336 0
2911 -2910 336 0
2911 2910 -336 0
-2912 2911 337 0
-2912 -2911 -337 0
2912 -2911 337 0
2912 2911 -337 0
-2913 2912 338 0
-2913 -2912 -338 0
2913 -2912 338 0
2913 2912 -338 0
-2914 2913 339 0
-2914 -2913 -339 0
2914 -2913 339 0
2914 2913 -339 0
-2915 2914 341 0
-2915 -2914 -341 0
2915 -2914 341 0
2915 2914 -341 0
-2916 2915 343 0
-2916 -2915 -343 0
2916 -2915 343 0
2916 2915 -343 0
-2917 2916 345 0
-2917 -2916 -345 0
2917 -2916 345 0
2917 2916 -345 0
-211 -2917 0
-2918 316 319 0
-2918 -316 -319 0
2918 -316 319 0
2918 316 -319 0
-2919 2918 320 0
-2919 -2918 -320 0
2919 -2918 320 0
2919 2918 -320 0
-2920 2919 324 0
-2920 -2919 -324 0
2920 -2919 324 0
2920 2919 -324 0
-2921 2920 330 0
-2921 -2920 -330 0
2921 -2920 330 0
2921 2920 -330 0
-212 -2921 0
-2922 331 334 0
-2922 -331 -334 0
2922 -331 334 0
2922 331 -334 0
-2923 2922 335 0
-2923 -2922 -335 0
2923 -2922 335 0
2923 2922 -335 0
-2924 2923 339 0
-2924 -2923 -339 0
2924 -2923 339 0
2924 2923 -339 0
-2925 2924 345 0
-2925 -2924 -345 0
2925 -2924 345 0
2925 2924 -345 0
-212 -2925 0
-2926 316 320 0
-2926 -316 -320 0
2926 -316 320 0
2926 316 -320 0
-2927 2926 323 0
-2927 -2926 -323 0
2927 -2926 323 0
2927 2926 -323 0
-2928 2927 324 0
-2928 -2927 -324 0
2928 -2927 324 0
2928 2927 -324 0
-2929 2928 330 0
-2929 -2928 -330 0
2929 -2928 330 0
2929 2928 -330 0
-213 -2929 0
-2930 331 335 0
-2930 -331 -335 0
2930 -331 335 0
2930 331 -335 0
-2931 2930 338 0
-2931 -2930 -338 0
2931 -2930 338 0
2931 2930 -338 0
-2932 2931 339 0
-2932 -2931 -339 0
2932 -2931 339 0
2932 2931 -339 0
-2933 2932 345 0
-2933 -2932 -345 0
2933 -2932 345 0
2933 2932 -345 0
-213 -2933 0
-2934 316 317 0
-2934 -316 -317 0
2934 -316 317 0
2934 316 -317 0
-2935 2934 319 0
-2935 -2934 -319 0
2935 -2934 319 0
2935 2934 -319 0
-2936 2935 320 0
-2936 -2935 -320 0
2936 -2935 320 0
2936 2935 -320 0
-2937 2936 321 0
-2937 -2936 -321 0
2937 -2936 321 0
2937 2936 -321 0
-2938 2937 324 0
-2938 -2937 -324 0
2938 -2937 324 0
2938 2937 -324 0
-2939 2938 326 0
-2939 -2938 -326 0
2939 -2938 326 0
2939 2938 -326 0
-2940 2939 330 0
-2940 -2939 -330 0
2940 -2939 330 0
2940 2939 -330 0
-214 -2940 0
-2941 331 332 0
-2941 -331 -332 0
2941 -331 332 0
2941 331 -332 0
-2942 2941 334 0
-2942 -2941 -334 0
2942 -2941 334 0
2942 2941 -334 0
-2943 2942 335 0
-2943 -2942 -335 0
2943 -2942 335 0
2943 2942 -335 0
-2944 2943 336 0
-2944 -2943 -336 0
2944 -2943 336 0
2944 2943 -336 0
-2945 2944 339 0
-2945 -2944 -339 0
2945 -2944 339 0
2945 2944 -339 0
-2946 2945 341 0
-2946 -2945 -341 0
2946 -2945 341 0
2946 2945 -341 0
-2947 2946 345 0
-2947 -2946 -345 0
2947 -2946 345 0
2947 2946 -345 0
-214 -2947 0
-2948 316 317 0
-2948 -316 -317 0
2948 -316 317 0
2948 316 -317 0
-2949 2948 320 0
-2949 -2948 -320 0
2949 -2948 320 0
2949 2948 -320 0
-2950 2949 321 0
-2950 -2949 -321 0
2950 -2949 321 0
2950 2949 -321 0
-2951 2950 323 0
-2951 -2950 -323 0
2951 -2950 323 0
2951 2950 -323 0
-2952 2951 324 0
-2952 -2951 -324 0
2952 -2951 324 0
2952 2951 -324 0
-2953 2952 326 0
-2953 -2952 -326 0
2953 -2952 326 0
2953 2952 -326 0
-2954 2953 330 0
-2954 -2953 -330 0
2954 -2953 330 0
2954 2953 -330 0
-215 -2954 0
-2955 331 332 0
-2955 -331 -332 0
2955 -331 332 0
2955 331 -332 0
-2956 2955 335 0
-2956 -2955 -335 0
2956 -2955 335 0
2956 2955 -335 0
-2957 2956 336 0
-2957 -2956 -336 0
2957 -2956 336 0
2957 2956 -336 0
-2958 2957 338 0
-2958 -2957 -338 0
2958 -2957 338 0
2958 2957 -338 0
-2959 2958 339 0
-2959 -2958 -339 0
2959 -2958 339 0
2959 2958 -339 0
-2960 2959 341 0
-2960 -2959 -341 0
2960 -2959 341 0
2960 2959 -341 0
-2961 2960 345 0
-2961 -2960 -345 0
2961 -2960 345 0
2961 2960 -345 0
-215 -2961 0
-2962 316 318 0
-2962 -316 -318 0
2962 -316 318 0
2962 316 -318 0
-2963 2962 319 0
-2963 -2962 -319 0
2963 -2962 319 0
2963 2962 -319 0
-2964 2963 320 0
-2964 -2963 -320 0
2964 -2963 320 0
2964 2963 -320 0
-2965 2964 322 0
-2965 -2964 -322 0
2965 -2964 322 0
2965 2964 -322 0
-2966 2965 324 0
-2966 -2965 -324 0
2966 -2965 324 0
2966 2965 -324 0
-2967 2966 328 0
-2967 -2966 -328 0
2967 -2966 328 0
2967 2966 -328 0
-2968 2967 330 0
-2968 -2967 -330 0
2968 -2967 330 0
2968 2967 -330 0
-216 -2968 0
-2969 331 333 0
-2969 -331 -333 0
2969 -331 333 0
2969 331 -333 0
-2970 2969 334 0
-2970 -2969 -334 0
2970 -2969 334 0
2970 2969 -334 0
-2971 2970 335 0
-2971 -2970 -335 0
2971 -2970 335 0
2971 2970 -335 0
-2972 2971 337 0
-2972 -2971 -337 0
2972 -2971 337 0
2972 2971 -337 0
-2973 2972 339 0
-2973 -2972 -339 0
2973 -2972 339 0
2973 2972 -339 0
-2974 2973 343 0
-2974 -2973 -343 0
2974 -2973 343 0
2974 2973 -343 0
-2975 2974 345 0
-2975 -2974 -345 0
2975 -2974 345 0
2975 2974 -345 0
-216 -2975 0
-2976 316 318 0
-2976 -316 -318 0
2976 -316 318 0
2976 316 -318 0
-2977 2976 320 0
-2977 -2976 -320 0
2977 -2976 320 0
2977 2976 -320 0
-2978 2977 322 0
-2978 -2977 -322 0
2978 -2977 322 0
2978 2977 -322 0
-2979 2978 323 0
-2979 -2978 -323 0
2979 -2978 323 0
2979 2978 -323 0
-2980 2979 324 0
-2980 -2979 -324 0
2980 -2979 324 0
2980 2979 -324 0
-2981 2980 328 0
-2981 -2980 -328 0
2981 -2980 328 0
2981 2980 -328 0
-2982 2981 330 0
-2982 -2981 -330 0
2982 -2981 330 0
2982 2981 -330 0
-217 -2982 0
-2983 331 333 0
-2983 -331 -333 0
2983 -331 333 0
2983 331 -333 0
-2984 2983 335 0
-2984 -2983 -335 0
2984 -2983 335 0
2984 2983 -335 0
-2985 2984 337 0
-2985 -2984 -337 0
2985 -2984 337 0
2985 2984 -337 0
-2986 2985 338 0
-2986 -2985 -338 0
2986 -2985 338 0
2986 2985 -338 0
-2987 2986 339 0
-2987 -2986 -339 0
2987 -2986 339 0
2987 2986 -339 0
-2988 2987 343 0
-2988 -2987 -343 0
2988 -2987 343 0
2988 2987 -343 0
-2989 2988 345 0
-2989 -2988 -345 0
2989 -2988 345 0
2989 2988 -345 0
-217 -2989 0
-2990 316 317 0
-2990 -316 -317 0
2990 -316 317 0
2990 316 -317 0
-2991 2990 318 0
-2991 -2990 -318 0
2991 -2990 318 0
2991 2990 -318 0
-2992 2991 319 0
-2992 -2991 -319 0
2992 -2991 319 0
2992 2991 -319 0
-2993 2992 320 0
-2993 -2992 -320 0
2993 -2992 320 0
2993 2992 -320 0
-2994 2993 321 0
-2994 -2993 -321 0
2994 -2993 321 0
2994 2993 -321 0
-2995 2994 322 0
-2995 -2994 -322 0
2995 -2994 322 0
2995 2994 -322 0
-2996 2995 324 0
-2996 -2995 -324 0
2996 -2995 324 0
2996 2995 -324 0
-2997 2996 326 0
-2997 -2996 -326 0
2997 -2996 326 0
2997 2996 -326 0
-2998 2997 328 0
-2998 -2997 -328 0
2998 -2997 328 0
2998 2997 -328 0
-2999 2998 330 0
-2999 -2998 -330 0
2999 -2998 330 0
2999 2998 -330 0
-218 -2999 0
-3000 331 332 0
-3000 -331 -332 0
3000 -331 332 0
3000 331 -332 0
-3001 3000 333 0
-3001 -3000 -333 0
3001 -3000 333 0
3001 3000 -333 0
-3002 3001 334 0
-3002 -3001 -334 0
3002 -3001 334 0
3002 3001 -334 0
-3003 3002 335 0
-3003 -3002 -335 0
3003 -3002 335 0
3003 3002 -335 0
-3004 3003 336 0
-3004 -3003 -336 0
3004 -3003 336 0
3004 3003 -336 0
-3005 3004 337 0
-3005 -3004 -337 0
3005 -3004 337 0
3005 3004 -337 0
-3006 3005 339 0
-3006 -3005 -339 0
3006 -3005 339 0
3006 3005 -339 0
-3007 3006 341 0
-3007 -3006 -341 0
3007 -3006 341 0
3007 3006 -341 0
-3008 3007 343 0
-3008 -3007 -343 0
3008 -3007 343 0
3008 3007 -343 0
-3009 3008 345 0
-3009 -3008 -345 0
3009 -3008 345 0
3009 3008 -345 0
-218 -3009 0
-3010 316 317 0
-3010 -316 -317 0
3010 -316 317 0
3010 316 -317 0
-3011 3010 318 0
-3011 -3010 -318 0
3011 -3010 318 0
3011 3010 -318 0
-3012 3011 320 0
-3012 -3011 -320 0
3012 -3011 320 0
3012 3011 -320 0
-3013 3012 321 0
-3013 -3012 -321 0
3013 -3012 321 0
3013 3012 -321 0
-3014 3013 322 0
-3014 -3013 -322 0
3014 -3013 322 0
3014 3013 -322 0
-3015 3014 323 0
-3015 -3014 -323 0
3015 -3014 323 0
3015 3014 -323 0
-3016 3015 324 0
-3016 -3015 -324 0
3016 -3015 324 0
3016 3015 -324 0
-3017 3016 326 0
-3017 -3016 -326 0
3017 -3016 326 0
3017 3016 -326 0
-3018 3017 328 0
-3018 -3017 -328 0
3018 -3017 328 0
3018 3017 -328 0
-3019 3018 330 0
-3019 -3018 -330 0
3019 -3018 330 0
3019 3018 -330 0
-219 -3019 0
-3020 331 332 0
-3020 -331 -332 0
3020 -331 332 0
3020 331 -332 0
-3021 3020 333 0
-3021 -3020 -333 0
3021 -3020 333 0
3021 3020 -333 0
-3022 3021 335 0
-3022 -3021 -335 0
3022 -3021 335 0
3022 3021 -335 0
-3023 3022 336 0
-3023 -3022 -336 0
3023 -3022 336 0
3023 3022 -336 0
-3024 3023 337 0
-3024 -3023 -337 0
3024 -3023 337 0
3024 3023 -337 0
-3025 3024 338 0
-3025 -3024 -338 0
3025 -3024 338 0
3025 3024 -338 0
-3026 3025 339 0
-3026 -3025 -339 0
3026 -3025 339 0
3026 3025 -339 0
-3027 3026 341 0
-3027 -3026 -341 0
3027 -3026 341 0
3027 3026 -341 0
-3028 3027 343 0
-3028 -3027 -343 0
3028 -3027 343 0
3028 3027 -343 0
-3029 3028 345 0
-3029 -3028 -345 0
3029 -3028 345 0
3029 3028 -345 0
-219 -3029 0
-3030 325 327 0
-3030 -325 -327 0
3030 -325 327 0
3030 325 -327 0
-3031 3030 328 0
-3031 -3030 -328 0
3031 -3030 328 0
3031 3030 -328 0
-3032 3031 330 0
-3032 -3031 -330 0
3032 -3031 330 0
3032 3031 -330 0
-220 -3032 0
-3033 340 342 0
-3033 -340 -342 0
3033 -340 342 0
3033 340 -342 0
-3034 3033 343 0
-3034 -3033 -343 0
3034 -3033 343 0
3034 3033 -343 0
-3035 3034 345 0
-3035 -3034 -345 0
3035 -3034 345 0
3035 3034 -345 0
-220 -3035 0
-3036 317 319 0
-3036 -317 -319 0
3036 -317 319 0
3036 317 -319 0
-3037 3036 325 0
-3037 -3036 -325 0
3037 -3036 325 0
3037 3036 -325 0
-3038 3037 327 0
-3038 -3037 -327 0
3038 -3037 327 0
3038 3037 -327 0
-3039 3038 328 0
-3039 -3038 -328 0
3039 -3038 328 0
3039 3038 -328 0
-3040 3039 330 0
-3040 -3039 -330 0
3040 -3039 330 0
3040 3039 -330 0
-221 -3040 0
-3041 332 334 0
-3041 -332 -334 0
3041 -332 334 0
3041 332 -334 0
-3042 3041 340 0
-3042 -3041 -340 0
3042 -3041 340 0
3042 3041 -340 0
-3043 3042 342 0
-3043 -3042 -342 0
3043 -3042 342 0
3043 3042 -342 0
-3044 3043 343 0
-3044 -3043 -343 0
3044 -3043 343 0
3044 3043 -343 0
-3045 3044 345 0
-3045 -3044 -345 0
3045 -3044 345 0
3045 3044 -345 0
-221 -3045 0
-3046 321 323 0
-3046 -321 -323 0
3046 -321 323 0
3046 321 -323 0
-3047 3046 325 0
-3047 -3046 -325 0
3047 -3046 325 0
3047 3046 -325 0
-3048 3047 327 0
-3048 -3047 -327 0
3048 -3047 327 0
3048 3047 -327 0
-3049 3048 328 0
-3049 -3048 -328 0
3049 -3048 328 0
3049 3048 -328 0
-3050 3049 330 0
-3050 -3049 -330 0
3050 -3049 330 0
3050 3049 -330 0
-222 -3050 0
-3051 336 338 0
-3051 -336 -338 0
3051 -336 338 0
3051 336 -338 0
-3052 3051 340 0
-3052 -3051 -340 0
3052 -3051 340 0
3052 3051 -340 0
-3053 3052 342 0
-3053 -3052 -342 0
3053 -3052 342 0
3053 3052 -342 0
-3054 3053 343 0
-3054 -3053 -343 0
3054 -3053 343 0
3054 3053 -343 0
-3055 3054 345 0
-3055 -3054 -345 0
3055 -3054 345 0
3055 3054 -345 0
-222 -3055 0
-3056 317 319 0
-3056 -317 -319 0
3056 -317 319 0
3056 317 -319 0
-3057 3056 321 0
-3057 -3056 -321 0
3057 -3056 321 0
3057 3056 -321 0
-3058 3057 323 0
-3058 -3057 -323 0
3058 -3057 323 0
3058 3057 -323 0
-3059 3058 325 0
-3059 -3058 -325 0
3059 -3058 325 0
3059 3058 -325 0
-3060 3059 327 0
-3060 -3059 -327 0
3060 -3059 327 0
3060 3059 -327 0
-3061 3060 328 0
-3061 -3060 -328 0
3061 -3060 328 0
3061 3060 -328 0
-3062 3061 330 0
-3062 -3061 -330 0
3062 -3061 330 0
3062 3061 -330 0
-223 -3062 0
-3063 332 334 0
-3063 -332 -334 0
3063 -332 334 0
3063 332 -334 0
-3064 3063 336 0
-3064 -3063 -336 0
3064 -3063 336 0
3064 3063 -336 0
-3065 3064 338 0
-3065 -3064 -338 0
3065 -3064 338 0
3065 3064 -338 0
-3066 3065 340 0
-3066 -3065 -340 0
3066 -3065 340 0
3066 3065 -340 0
-3067 3066 342 0
-3067 -3066 -342 0
3067 -3066 342 0
3067 3066 -342 0
-3068 3067 343 0
-3068 -3067 -343 0
3068 -3067 343 0
3068 3067 -343 0
-3069 3068 345 0
-3069 -3068 -345 0
3069 -3068 345 0
3069 3068 -345 0
-223 -3069 0
-3070 325 326 0
-3070 -325 -326 0
3070 -325 326 0
3070 325 -326 0
-3071 3070 327 0
-3071 -3070 -327 0
3071 -3070 327 0
3071 3070 -327 0
-3072 3071 328 0
-3072 -3071 -328 0
3072 -3071 328 0
3072 3071 -328 0
-3073 3072 330 0
-3073 -3072 -330 0
3073 -3072 330 0
3073 3072 -330 0
-224 -3073 0
-3074 340 341 0
-3074 -340 -341 0
3074 -340 341 0
3074 340 -341 0
-3075 3074 342 0
-3075 -3074 -342 0
3075 -3074 342 0
3075 3074 -342 0
-3076 3075 343 0
-3076 -3075 -343 0
3076 -3075 343 0
3076 3075 -343 0
-3077 3076 345 0
-3077 -3076 -345 0
3077 -3076 345 0
3077 3076 -345 0
-224 -3077 0
-3078 317 319 0
-3078 -317 -319 0
3078 -317 319 0
3078 317 -319 0
-3079 3078 325 0
-3079 -3078 -325 0
3079 -3078 325 0
3079 3078 -325 0
-3080 3079 326 0
-3080 -3079 -326 0
3080 -3079 326 0
3080 3079 -326 0
-3081 3080 327 0
-3081 -3080 -327 0
3081 -3080 327 0
3081 3080 -327 0
-3082 3081 328 0
-3082 -3081 -328 0
3082 -3081 328 0
3082 3081 -328 0
-3083 3082 330 0
-3083 -3082 -330 0
3083 -3082 330 0
3083 3082 -330 0
-225 -3083 0
-3084 332 334 0
-3084 -332 -334 0
3084 -332 334 0
3084 332 -334 0
-3085 3084 340 0
-3085 -3084 -340 0
3085 -3084 340 0
3085 3084 -340 0
-3086 3085 341 0
-3086 -3085 -341 0
3086 -3085 341 0
3086 3085 -341 0
-3087 3086 342 0
-3087 -3086 -342 0
3087 -3086 342 0
3087 3086 -342 0
-3088 3087 343 0
-3088 -3087 -343 0
3088 -3087 343 0
3088 3087 -343 0
-3089 3088 345 0
-3089 -3088 -345 0
3089 -3088 345 0
3089 3088 -345 0
-225 -3089 0
-3090 321 323 0
-3090 -321 -323 0
3090 -321 323 0
3090 321 -323 0
-3091 3090 325 0
-3091 -3090 -325 0
3091 -3090 325 0
3091 3090 -325 0
-3092 3091 326 0
-3092 -3091 -326 0
3092 -3091 326 0
3092 3091 -326 0
-3093 3092 327 0
-3093 -3092 -327 0
3093 -3092 327 0
3093 3092 -327 0
-3094 3093 328 0
-3094 -3093 -328 0
3094 -3093 328 0
3094 3093 -328 0
-3095 3094 330 0
-3095 -3094 -330 0
3095 -3094 330 0
3095 3094 -330 0
-226 -3095 0
-3096 336 338 0
-3096 -336 -338 0
3096 -336 338 0
3096 336 -338 0
-3097 3096 340 0
-3097 -3096 -340 0
3097 -3096 340 0
3097 3096 -340 0
-3098 3097 341 0
-3098 -3097 -341 0
3098 -3097 341 0
3098 3097 -341 0
-3099 3098 342 0
-3099 -3098 -342 0
3099 -3098 342 0
3099 3098 -342 0
-3100 3099 343 0
-3100 -3099 -343 0
3100 -3099 343 0
3100 3099 -343 0
-3101 3100 345 0
-3101 -3100 -345 0
3101 -3100 345 0
3101 3100 -345 0
-226 -3101 0
-3102 317 319 0
-3102 -317 -319 0
3102 -317 319 0
3102 317 -319 0
-3103 3102 321 0
-3103 -3102 -321 0
3103 -3102 321 0
3103 3102 -321 0
-3104 3103 323 0
-3104 -3103 -323 0
3104 -3103 323 0
3104 3103 -323 0
-3105 3104 325 0
-3105 -3104 -325 0
3105 -3104 325 0
3105 3104 -325 0
-3106 3105 326 0
-3106 -3105 -326 0
3106 -3105 326 0
3106 3105 -326 0
-3107 3106 327 0
-3107 -3106 -327 0
3107 -3106 327 0
3107 3106 -327 0
-3108 3107 328 0
-3108 -3107 -328 0
3108 -3107 328 0
3108 3107 -328 0
-3109 3108 330 0
-3109 -3108 -330 0
3109 -3108 330 0
3109 3108 -330 0
-227 -3109 0
-3110 332 334 0
-3110 -332 -334 0
3110 -332 334 0
3110 332 -334 0
-3111 3110 336 0
-3111 -3110 -336 0
3111 -3110 336 0
3111 3110 -336 0
-3112 3111 338 0
-3112 -3111 -338 0
3112 -3111 338 0
3112 3111 -338 0
-3113 3112 340 0
-3113 -3112 -340 0
3113 -3112 340 0
3113 3112 -340 0
-3114 3113 341 0
-3114 -3113 -341 0
3114 -3113 341 0
3114 3113 -341 0
-3115 3114 342 0
-3115 -3114 -342 0
3115 -3114 342 0
3115 3114 -342 0
-3116 3115 343 0
-3116 -3115 -343 0
3116 -3115 343 0
3116 3115 -343 0
-3117 3116 345 0
-3117 -3116 -345 0
3117 -3116 345 0
3117 3116 -345 0
-227 -3117 0
-3118 316 320 0
-3118 -316 -320 0
3118 -316 320 0
3118 316 -320 0
-3119 3118 321 0
-3119 -3118 -321 0
3119 -3118 321 0
3119 3118 -321 0
-3120 3119 323 0
-3120 -3119 -323 0
3120 -3119 323 0
3120 3119 -323 0
-3121 3120 327 0
-3121 -3120 -327 0
3121 -3120 327 0
3121 3120 -327 0
-3122 3121 330 0
-3122 -3121 -330 0
3122 -3121 330 0
3122 3121 -330 0
-228 -3122 0
-3123 331 335 0
-3123 -331 -335 0
3123 -331 335 0
3123 331 -335 0
-3124 3123 336 0
-3124 -3123 -336 0
3124 -3123 336 0
3124 3123 -336 0
-3125 3124 338 0
-3125 -3124 -338 0
3125 -3124 338 0
3125 3124 -338 0
-3126 3125 342 0
-3126 -3125 -342 0
3126 -3125 342 0
3126 3125 -342 0
-3127 3126 345 0
-3127 -3126 -345 0
3127 -3126 345 0
3127 3126 -345 0
-228 -3127 0
-3128 316 317 0
-3128 -316 -317 0
3128 -316 317 0
3128 316 -317 0
-3129 3128 319 0
-3129 -3128 -319 0
3129 -3128 319 0
3129 3128 -319 0
-3130 3129 320 0
-3130 -3129 -320 0
3130 -3129 320 0
3130 3129 -320 0
-3131 3130 321 0
-3131 -3130 -321 0
3131 -3130 321 0
3131 3130 -321 0
-3132 3131 323 0
-3132 -3131 -323 0
3132 -3131 323 0
3132 3131 -323 0
-3133 3132 327 0
-3133 -3132 -327 0
3133 -3132 327 0
3133 3132 -327 0
-3134 3133 330 0
-3134 -3133 -330 0
3134 -3133 330 0
3134 3133 -330 0
-229 -3134 0
-3135 331 332 0
-3135 -331 -332 0
3135 -331 332 0
3135 331 -332 0
-3136 3135 334 0
-3136 -3135 -334 0
3136 -3135 334 0
3136 3135 -334 0
-3137 3136 335 0
-3137 -3136 -335 0
3137 -3136 335 0
3137 3136 -335 0
-3138 3137 336 0
-3138 -3137 -336 0
3138 -3137 336 0
3138 3137 -336 0
-3139 3138 338 0
-3139 -3138 -338 0
3139 -3138 338 0
3139 3138 -338 0
-3140 3139 342 0
-3140 -3139 -342 0
3140 -3139 342 0
3140 3139 -342 0
-3141 3140 345 0
-3141 -3140 -345 0
3141 -3140 345 0
3141 3140 -345 0
-229 -3141 0
-3142 316 317 0
-3142 -316 -317 0
3142 -316 317 0
3142 316 -317 0
-3143 3142 320 0
-3143 -3142 -320 0
3143 -3142 320 0
3143 3142 -320 0
-3144 3143 321 0
-3144 -3143 -321 0
3144 -3143 321 0
3144 3143 -321 0
-3145 3144 323 0
-3145 -3144 -323 0
3145 -3144 323 0
3145 3144 -323 0
-3146 3145 326 0
-3146 -3145 -326 0
3146 -3145 326 0
3146 3145 -326 0
-3147 3146 327 0
-3147 -3146 -327 0
3147 -3146 327 0
3147 3146 -327 0
-3148 3147 330 0
-3148 -3147 -330 0
3148 -3147 330 0
3148 3147 -330 0
-230 -3148 0
-3149 331 332 0
-3149 -331 -332 0
3149 -331 332 0
3149 331 -332 0
-3150 3149 335 0
-3150 -3149 -335 0
3150 -3149 335 0
3150 3149 -335 0
-3151 3150 336 0
-3151 -3150 -336 0
3151 -3150 336 0
3151 3150 -336 0
-3152 3151 338 0
-3152 -3151 -338 0
3152 -3151 338 0
3152 3151 -338 0
-3153 3152 341 0
-3153 -3152 -341 0
3153 -3152 341 0
3153 3152 -341 0
-3154 3153 342 0
-3154 -3153 -342 0
3154 -3153 342 0
3154 3153 -342 0
-3155 3154 345 0
-3155 -3154 -345 0
3155 -3154 345 0
3155 3154 -345 0
-230 -3155 0
-3156 316 319 0
-3156 -316 -319 0
3156 -316 319 0
3156 316 -319 0
-3157 3156 320 0
-3157 -3156 -320 0
3157 -3156 320 0
3157 3156 -320 0
-3158 3157 321 0
-3158 -3157 -321 0
3158 -3157 321 0
3158 3157 -321 0
-3159 3158 323 0
-3159 -3158 -323 0
3159 -3158 323 0
3159 3158 -323 0
-3160 3159 326 0
-3160 -3159 -326 0
3160 -3159 326 0
3160 3159 -326 0
-3161 3160 327 0
-3161 -3160 -327 0
3161 -3160 327 0
3161 3160 -327 0
-3162 3161 330 0
-3162 -3161 -330 0
3162 -3161 330 0
3162 3161 -330 0
-231 -3162 0
-3163 331 334 0
-3163 -331 -334 0
3163 -331 334 0
3163 331 -334 0
-3164 3163 335 0
-3164 -3163 -335 0
3164 -3163 335 0
3164 3163 -335 0
-3165 3164 336 0
-3165 -3164 -336 0
3165 -3164 336 0
3165 3164 -336 0
-3166 3165 338 0
-3166 -3165 -338 0
3166 -3165 338 0
3166 3165 -338 0
-3167 3166 341 0
-3167 -3166 -341 0
3167 -3166 341 0
3167 3166 -341 0
-3168 3167 342 0
-3168 -3167 -342 0
3168 -3167 342 0
3168 3167 -342 0
-3169 3168 345 0
-3169 -3168 -345 0
3169 -3168 345 0
3169 3168 -345 0
-231 -3169 0
-3170 318 320 0
-3170 -318 -320 0
3170 -318 320 0
3170 318 -320 0
-3171 3170 325 0
-3171 -3170 -325 0
3171 -3170 325 0
3171 3170 -325 0
-3172 3171 327 0
-3172 -3171 -327 0
3172 -3171 327 0
3172 3171 -327 0
-3173 3172 328 0
-3173 -3172 -328 0
3173 -3172 328 0
3173 3172 -328 0
-3174 3173 330 0
-3174 -3173 -330 0
3174 -3173 330 0
3174 3173 -330 0
-232 -3174 0
-3175 333 335 0
-3175 -333 -335 0
3175 -333 335 0
3175 333 -335 0
-3176 3175 340 0
-3176 -3175 -340 0
3176 -3175 340 0
3176 3175 -340 0
-3177 3176 342 0
-3177 -3176 -342 0
3177 -3176 342 0
3177 3176 -342 0
-3178 3177 343 0
-3178 -3177 -343 0
3178 -3177 343 0
3178 3177 -343 0
-3179 3178 345 0
-3179 -3178 -345 0
3179 -3178 345 0
3179 3178 -345 0
-232 -3179 0
-3180 317 318 0
-3180 -317 -318 0
3180 -317 318 0
3180 317 -318 0
-3181 3180 319 0
-3181 -3180 -319 0
3181 -3180 319 0
3181 3180 -319 0
-3182 3181 320 0
-3182 -3181 -320 0
3182 -3181 320 0
3182 3181 -320 0
-3183 3182 325 0
-3183 -3182 -325 0
3183 -3182 325 0
3183 3182 -325 0
-3184 3183 327 0
-3184 -3183 -327 0
3184 -3183 327 0
3184 3183 -327 0
-3185 3184 328 0
-3185 -3184 -328 0
3185 -3184 328 0
3185 3184 -328 0
-3186 3185 330 0
-3186 -3185 -330 0
3186 -3185 330 0
3186 3185 -330 0
-233 -3186 0
-3187 332 333 0
-3187 -332 -333 0
3187 -332 333 0
3187 332 -333 0
-3188 3187 334 0
-3188 -3187 -334 0
3188 -3187 334 0
3188 3187 -334 0
-3189 3188 335 0
-3189 -3188 -335 0
3189 -3188 335 0
3189 3188 -335 0
-3190 3189 340 0
-3190 -3189 -340 0
3190 -3189 340 0
3190 3189 -340 0
-3191 3190 342 0
-3191 -3190 -342 0
3191 -3190 342 0
3191 3190 -342 0
-3192 3191 343 0
-3192 -3191 -343 0
3192 -3191 343 0
3192 3191 -343 0
-3193 3192 345 0
-3193 -3192 -345 0
3193 -3192 345 0
3193 3192 -345 0
-233 -3193 0
-3194 317 318 0
-3194 -317 -318 0
3194 -317 318 0
3194 317 -318 0
-3195 3194 320 0
-3195 -3194 -320 0
3195 -3194 320 0
3195 3194 -320 0
-3196 3195 325 0
-3196 -3195 -325 0
3196 -3195 325 0
3196 3195 -325 0
-3197 3196 326 0
-3197 -3196 -326 0
3197 -3196 326 0
3197 3196 -326 0
-3198 3197 327 0
-3198 -3197 -327 0
3198 -3197 327 0
3198 3197 -327 0
-3199 3198 328 0
-3199 -3198 -328 0
3199 -3198 328 0
3199 3198 -328 0
-3200 3199 330 0
-3200 -3199 -330 0
3200 -3199 330 0
3200 3199 -330 0
-234 -3200 0
-3201 332 333 0
-3201 -332 -333 0
3201 -332 333 0
3201 332 -333 0
-3202 3201 335 0
-3202 -3201 -335 0
3202 -3201 335 0
3202 3201 -335 0
-3203 3202 340 0
-3203 -3202 -340 0
3203 -3202 340 0
3203 3202 -340 0
-3204 3203 341 0
-3204 -3203 -341 0
3204 -3203 341 0
3204 3203 -341 0
-3205 3204 342 0
-3205 -3204 -342 0
3205 -3204 342 0
3205 3204 -342 0
-3206 3205 343 0
-3206 -3205 -343 0
3206 -3205 343 0
3206 3205 -343 0
-3207 3206 345 0
-3207 -3206 -345 0
3207 -3206 345 0
3207 3206 -345 0
-234 -3207 0
-3208 318 319 0
-3208 -318 -319 0
3208 -318 319 0
3208 318 -319 0
-3209 3208 320 0
-3209 -3208 -320 0
3209 -3208 320 0
3209 3208 -320 0
-3210 3209 325 0
-3210 -3209 -325 0
3210 -3209 325 0
3210 3209 -325 0
-3211 3210 326 0
-3211 -3210 -326 0
3211 -3210 326 0
3211 3210 -326 0
-3212 3211 327 0
-3212 -3211 -327 0
3212 -3211 327 0
3212 3211 -327 0
-3213 3212 328 0
-3213 -3212 -328 0
3213 -3212 328 0
3213 3212 -328 0
-3214 3213 330 0
-3214 -3213 -330 0
3214 -3213 330 0
3214 3213 -330 0
-235 -3214 0
-3215 333 334 0
-3215 -333 -334 0
3215 -333 334 0
3215 333 -334 0
-3216 3215 335 0
-3216 -3215 -335 0
3216 -3215 335 0
3216 3215 -335 0
-3217 3216 340 0
-3217 -3216 -340 0
3217 -3216 340 0
3217 3216 -340 0
-3218 3217 341 0
-3218 -3217 -341 0
3218 -3217 341 0
3218 3217 -341 0
-3219 3218 342 0
-3219 -3218 -342 0
3219 -3218 342 0
3219 3218 -342 0
-3220 3219 343 0
-3220 -3219 -343 0
3220 -3219 343 0
3220 3219 -343 0
-3221 3220 345 0
-3221 -3220 -345 0
3221 -3220 345 0
3221 3220 -345 0
-235 -3221 0
-3222 316 317 0
-3222 -316 -317 0
3222 -316 317 0
3222 316 -317 0
-3223 3222 319 0
-3223 -3222 -319 0
3223 -3222 319 0
3223 3222 -319 0
-3224 3223 324 0
-3224 -3223 -324 0
3224 -3223 324 0
3224 3223 -324 0
-3225 3224 327 0
-3225 -3224 -327 0
3225 -3224 327 0
3225 3224 -327 0
-3226 3225 330 0
-3226 -3225 -330 0
3226 -3225 330 0
3226 3225 -330 0
-236 -3226 0
-3227 331 332 0
-3227 -331 -332 0
3227 -331 332 0
3227 331 -332 0
-3228 3227 334 0
-3228 -3227 -334 0
3228 -3227 334 0
3228 3227 -334 0
-3229 3228 339 0
-3229 -3228 -339 0
3229 -3228 339 0
3229 3228 -339 0
-3230 3229 342 0
-3230 -3229 -342 0
3230 -3229 342 0
3230 3229 -342 0
-3231 3230 345 0
-3231 -3230 -345 0
3231 -3230 345 0
3231 3230 -345 0
-236 -3231 0
-3232 316 317 0
-3232 -316 -317 0
3232 -316 317 0
3232 316 -317 0
-3233 3232 319 0
-3233 -3232 -319 0
3233 -3232 319 0
3233 3232 -319 0
-3234 3233 321 0
-3234 -3233 -321 0
3234 -3233 321 0
3234 3233 -321 0
-3235 3234 323 0
-3235 -3234 -323 0
3235 -3234 323 0
3235 3234 -323 0
-3236 3235 324 0
-3236 -3235 -324 0
3236 -3235 324 0
3236 3235 -324 0
-3237 3236 327 0
-3237 -3236 -327 0
3237 -3236 327 0
3237 3236 -327 0
-3238 3237 330 0
-3238 -3237 -330 0
3238 -3237 330 0
3238 3237 -330 0
-237 -3238 0
-3239 331 332 0
-3239 -331 -332 0
3239 -331 332 0
3239 331 -332 0
-3240 3239 334 0
-3240 -3239 -334 0
3240 -3239 334 0
3240 3239 -334 0
-3241 3240 336 0
-3241 -3240 -336 0
3241 -3240 336 0
3241 3240 -336 0
-3242 3241 338 0
-3242 -3241 -338 0
3242 -3241 338 0
3242 3241 -338 0
-3243 3242 339 0
-3243 -3242 -339 0
3243 -3242 339 0
3243 3242 -339 0
-3244 3243 342 0
-3244 -3243 -342 0
3244 -3243 342 0
3244 3243 -342 0
-3245 3244 345 0
-3245 -3244 -345 0
3245 -3244 345 0
3245 3244 -345 0
-237 -3245 0
-3246 316 317 0
-3246 -316 -317 0
3246 -316 317 0
3246 316 -317 0
-3247 3246 319 0
-3247 -3246 -319 0
3247 -3246 319 0
3247 3246 -319 0
-3248 3247 321 0
-3248 -3247 -321 0
3248 -3247 321 0
3248 3247 -321 0
-3249 3248 324 0
-3249 -3248 -324 0
3249 -3248 324 0
3249 3248 -324 0
-3250 3249 326 0
-3250 -3249 -326 0
3250 -3249 326 0
3250 3249 -326 0
-3251 3250 327 0
-3251 -3250 -327 0
3251 -3250 327 0
3251 3250 -327 0
-3252 3251 330 0
-3252 -3251 -330 0
3252 -3251 330 0
3252 3251 -330 0
-238 -3252 0
-3253 331 332 0
-3253 -331 -332 0
3253 -331 332 0
3253 331 -332 0
-3254 3253 334 0
-3254 -3253 -334 0
3254 -3253 334 0
3254 3253 -334 0
-3255 3254 336 0
-3255 -3254 -336 0
3255 -3254 336 0
3255 3254 -336 0
-3256 3255 339 0
-3256 -3255 -339 0
3256 -3255 339 0
3256 3255 -339 0
-3257 3256 341 0
-3257 -3256 -341 0
3257 -3256 341 0
3257 3256 -341 0
-3258 3257 342 0
-3258 -3257 -342 0
3258 -3257 342 0
3258 3257 -342 0
-3259 3258 345 0
-3259 -3258 -345 0
3259 -3258 345 0
3259 3258 -345 0
-238 -3259 0
-3260 316 317 0
-3260 -316 -317 0
3260 -316 317 0
3260 316 -317 0
-3261 3260 319 0
-3261 -3260 -319 0
3261 -3260 319 0
3261 3260 -319 0
-3262 3261 323 0
-3262 -3261 -323 0
3262 -3261 323 0
3262 3261 -323 0
-3263 3262 324 0
-3263 -3262 -324 0
3263 -3262 324 0
3263 3262 -324 0
-3264 3263 326 0
-3264 -3263 -326 0
3264 -3263 326 0
3264 3263 -326 0
-3265 3264 327 0
-3265 -3264 -327 0
3265 -3264 327 0
3265 3264 -327 0
-3266 3265 330 0
-3266 -3265 -330 0
3266 -3265 330 0
3266 3265 -330 0
-239 -3266 0
-3267 331 332 0
-3267 -331 -332 0
3267 -331 332 0
3267 331 -332 0
-3268 3267 334 0
-3268 -3267 -334 0
3268 -3267 334 0
3268 3267 -334 0
-3269 3268 338 0
-3269 -3268 -338 0
3269 -3268 338 0
3269 3268 -338 0
-3270 3269 339 0
-3270 -3269 -339 0
3270 -3269 339 0
3270 3269 -339 0
-3271 3270 341 0
-3271 -3270 -341 0
3271 -3270 341 0
3271 3270 -341 0
-3272 3271 342 0
-3272 -3271 -342 0
3272 -3271 342 0
3272 3271 -342 0
-3273 3272 345 0
-3273 -3272 -345 0
3273 -3272 345 0
3273 3272 -345 0
-239 -3273 0
-3274 322 324 0
-3274 -322 -324 0
3274 -322 324 0
3274 322 -324 0
-3275 3274 325 0
-3275 -3274 -325 0
3275 -3274 325 0
3275 3274 -325 0
-3276 3275 327 0
-3276 -3275 -327 0
3276 -3275 327 0
3276 3275 -327 0
-3277 3276 328 0
-3277 -3276 -328 0
3277 -3276 328 0
3277 3276 -328 0
-3278 3277 330 0
-3278 -3277 -330 0
3278 -3277 330 0
3278 3277 -330 0
-240 -3278 0
-3279 337 339 0
-3279 -337 -339 0
3279 -337 339 0
3279 337 -339 0
-3280 3279 340 0
-3280 -3279 -340 0
3280 -3279 340 0
3280 3279 -340 0
-3281 3280 342 0
-3281 -3280 -342 0
3281 -3280 342 0
3281 3280 -342 0
-3282 3281 343 0
-3282 -3281 -343 0
3282 -3281 343 0
3282 3281 -343 0
-3283 3282 345 0
-3283 -3282 -345 0
3283 -3282 345 0
3283 3282 -345 0
-240 -3283 0
-3284 321 322 0
-3284 -321 -322 0
3284 -321 322 0
3284 321 -322 0
-3285 3284 323 0
-3285 -3284 -323 0
3285 -3284 323 0
3285 3284 -323 0
-3286 3285 324 0
-3286 -3285 -324 0
3286 -3285 324 0
3286 3285 -324 0
-3287 3286 325 0
-3287 -3286 -325 0
3287 -3286 325 0
3287 3286 -325 0
-3288 3287 327 0
-3288 -3287 -327 0
3288 -3287 327 0
3288 3287 -327 0
-3289 3288 328 0
-3289 -3288 -328 0
3289 -3288 328 0
3289 3288 -328 0
-3290 3289 330 0
-3290 -3289 -330 0
3290 -3289 330 0
3290 3289 -330 0
-241 -3290 0
-3291 336 337 0
-3291 -336 -337 0
3291 -336 337 0
3291 336 -337 0
-3292 3291 338 0
-3292 -3291 -338 0
3292 -3291 338 0
3292 3291 -338 0
-3293 3292 339 0
-3293 -3292 -339 0
3293 -3292 339 0
3293 3292 -339 0
-3294 3293 340 0
-3294 -3293 -340 0
3294 -3293 340 0
3294 3293 -340 0
-3295 3294 342 0
-3295 -3294 -342 0
3295 -3294 342 0
3295 3294 -342 0
-3296 3295 343 0
-3296 -3295 -343 0
3296 -3295 343 0
3296 3295 -343 0
-3297 3296 345 0
-3297 -3296 -345 0
3297 -3296 345 0
3297 3296 -345 0
-241 -3297 0
-3298 321 322 0
-3298 -321 -322 0
3298 -321 322 0
3298 321 -322 0
-3299 3298 324 0
-3299 -3298 -324 0
3299 -3298 324 0
3299 3298 -324 0
-3300 3299 325 0
-3300 -3299 -325 0
3300 -3299 325 0
3300 3299 -325 0
-3301 3300 326 0
-3301 -3300 -326 0
3301 -3300 326 0
3301 3300 -326 0
-3302 3301 327 0
-3302 -3301 -327 0
3302 -3301 327 0
3302 3301 -327 0
-3303 3302 328 0
-3303 -3302 -328 0
3303 -3302 328 0
3303 3302 -328 0
-3304 3303 330 0
-3304 -3303 -330 0
3304 -3303 330 0
3304 3303 -330 0
-242 -3304 0
-3305 336 337 0
-3305 -336 -337 0
3305 -336 337 0
3305 336 -337 0
-3306 3305 339 0
-3306 -3305 -339 0
3306 -3305 339 0
3306 3305 -339 0
-3307 3306 340 0
-3307 -3306 -340 0
3307 -3306 340 0
3307 3306 -340 0
-3308 3307 341 0
-3308 -3307 -341 0
3308 -3307 341 0
3308 3307 -341 0
-3309 3308 342 0
-3309 -3308 -342 0
3309 -3308 342 0
3309 3308 -342 0
-3310 3309 343 0
-3310 -3309 -343 0
3310 -3309 343 0
3310 3309 -343 0
-3311 3310 345 0
-3311 -3310 -345 0
3311 -3310 345 0
3311 3310 -345 0
-242 -3311 0
-3312 322 323 0
-3312 -322 -323 0
3312 -322 323 0
3312 322 -323 0
-3313 3312 324 0
-3313 -3312 -324 0
3313 -3312 324 0
3313 3312 -324 0
-3314 3313 325 0
-3314 -3313 -325 0
3314 -3313 325 0
3314 3313 -325 0
-3315 3314 326 0
-3315 -3314 -326 0
3315 -3314 326 0
3315 3314 -326 0
-3316 3315 327 0
-3316 -3315 -327 0
3316 -3315 327 0
3316 3315 -327 0
-3317 3316 328 0
-3317 -3316 -328 0
3317 -3316 328 0
3317 3316 -328 0
-3318 3317 330 0
-3318 -3317 -330 0
3318 -3317 330 0
3318 3317 -330 0
-243 -3318 0
-3319 337 338 0
-3319 -337 -338 0
3319 -337 338 0
3319 337 -338 0
-3320 3319 339 0
-3320 -3319 -339 0
3320 -3319 339 0
3320 3319 -339 0
-3321 3320 340 0
-3321 -3320 -340 0
3321 -3320 340 0
3321 3320 -340 0
-3322 3321 341 0
-3322 -3321 -341 0
3322 -3321 341 0
3322 3321 -341 0
-3323 3322 342 0
-3323 -3322 -342 0
3323 -3322 342 0
3323 3322 -342 0
-3324 3323 343 0
-3324 -3323 -343 0
3324 -3323 343 0
3324 3323 -343 0
-3325 3324 345 0
-3325 -3324 -345 0
3325 -3324 345 0
3325 3324 -345 0
-243 -3325 0
-3326 316 317 0
-3326 -316 -317 0
3326 -316 317 0
3326 316 -317 0
-3327 3326 319 0
-3327 -3326 -319 0
3327 -3326 319 0
3327 3326 -319 0
-3328 3327 320 0
-3328 -3327 -320 0
3328 -3327 320 0
3328 3327 -320 0
-3329 3328 324 0
-3329 -3328 -324 0
3329 -3328 324 0
3329 3328 -324 0
-3330 3329 327 0
-3330 -3329 -327 0
3330 -3329 327 0
3330 3329 -327 0
-3331 3330 330 0
-3331 -3330 -330 0
3331 -3330 330 0
3331 3330 -330 0
-244 -3331 0
-3332 331 332 0
-3332 -331 -332 0
3332 -331 332 0
3332 331 -332 0
-3333 3332 334 0
-3333 -3332 -334 0
3333 -3332 334 0
3333 3332 -334 0
-3334 3333 335 0
-3334 -3333 -335 0
3334 -3333 335 0
3334 3333 -335 0
-3335 3334 339 0
-3335 -3334 -339 0
3335 -3334 339 0
3335 3334 -339 0
-3336 3335 342 0
-3336 -3335 -342 0
3336 -3335 342 0
3336 3335 -342 0
-3337 3336 345 0
-3337 -3336 -345 0
3337 -3336 345 0
3337 3336 -345 0
-244 -3337 0
-3338 316 320 0
-3338 -316 -320 0
3338 -316 320 0
3338 316 -320 0
-3339 3338 321 0
-3339 -3338 -321 0
3339 -3338 321 0
3339 3338 -321 0
-3340 3339 323 0
-3340 -3339 -323 0
3340 -3339 323 0
3340 3339 -323 0
-3341 3340 324 0
-3341 -3340 -324 0
3341 -3340 324 0
3341 3340 -324 0
-3342 3341 327 0
-3342 -3341 -327 0
3342 -3341 327 0
3342 3341 -327 0
-3343 3342 330 0
-3343 -3342 -330 0
3343 -3342 330 0
3343 3342 -330 0
-245 -3343 0
-3344 331 335 0
-3344 -331 -335 0
3344 -331 335 0
3344 331 -335 0
-3345 3344 336 0
-3345 -3344 -336 0
3345 -3344 336 0
3345 3344 -336 0
-3346 3345 338 0
-3346 -3345 -338 0
3346 -3345 338 0
3346 3345 -338 0
-3347 3346 339 0
-3347 -3346 -339 0
3347 -3346 339 0
3347 3346 -339 0
-3348 3347 342 0
-3348 -3347 -342 0
3348 -3347 342 0
3348 3347 -342 0
-3349 3348 345 0
-3349 -3348 -345 0
3349 -3348 345 0
3349 3348 -345 0
-245 -3349 0
-3350 316 319 0
-3350 -316 -319 0
3350 -316 319 0
3350 316 -319 0
-3351 3350 320 0
-3351 -3350 -320 0
3351 -3350 320 0
3351 3350 -320 0
-3352 3351 321 0
-3352 -3351 -321 0
3352 -3351 321 0
3352 3351 -321 0
-3353 3352 324 0
-3353 -3352 -324 0
3353 -3352 324 0
3353 3352 -324 0
-3354 3353 326 0
-3354 -3353 -326 0
3354 -3353 326 0
3354 3353 -326 0
-3355 3354 327 0
-3355 -3354 -327 0
3355 -3354 327 0
3355 3354 -327 0
-3356 3355 330 0
-3356 -3355 -330 0
3356 -3355 330 0
3356 3355 -330 0
-246 -3356 0
-3357 331 334 0
-3357 -331 -334 0
3357 -331 334 0
3357 331 -334 0
-3358 3357 335 0
-3358 -3357 -335 0
3358 -3357 335 0
3358 3357 -335 0
-3359 3358 336 0
-3359 -3358 -336 0
3359 -3358 336 0
3359 3358 -336 0
-3360 3359 339 0
-3360 -3359 -339 0
3360 -3359 339 0
3360 3359 -339 0
-3361 3360 341 0
-3361 -3360 -341 0
3361 -3360 341 0
3361 3360 -341 0
-3362 3361 342 0
-3362 -3361 -342 0
3362 -3361 342 0
3362 3361 -342 0
-3363 3362 345 0
-3363 -3362 -345 0
3363 -3362 345 0
3363 3362 -345 0
-246 -3363 0
-3364 316 317 0
-3364 -316 -317 0
3364 -316 317 0
3364 316 -317 0
-3365 3364 320 0
-3365 -3364 -320 0
3365 -3364 320 0
3365 3364 -320 0
-3366 3365 323 0
-3366 -3365 -323 0
3366 -3365 323 0
3366 3365 -323 0
-3367 3366 324 0
-3367 -3366 -324 0
3367 -3366 324 0
3367 3366 -324 0
-3368 3367 326 0
-3368 -3367 -326 0
3368 -3367 326 0
3368 3367 -326 0
-3369 3368 327 0
-3369 -3368 -327 0
3369 -3368 327 0
3369 3368 -327 0
-3370 3369 330 0
-3370 -3369 -330 0
3370 -3369 330 0
3370 3369 -330 0
-247 -3370 0
-3371 331 332 0
-3371 -331 -332 0
3371 -331 332 0
3371 331 -332 0
-3372 3371 335 0
-3372 -3371 -335 0
3372 -3371 335 0
3372 3371 -335 0
-3373 3372 338 0
-3373 -3372 -338 0
3373 -3372 338 0
3373 3372 -338 0
-3374 3373 339 0
-3374 -3373 -339 0
3374 -3373 339 0
3374 3373 -339 0
-3375 3374 341 0
-3375 -3374 -341 0
3375 -3374 341 0
3375 3374 -341 0
-3376 3375 342 0
-3376 -3375 -342 0
3376 -3375 342 0
3376 3375 -342 0
-3377 3376 345 0
-3377 -3376 -345 0
3377 -3376 345 0
3377 3376 -345 0
-247 -3377 0
-3378 318 320 0
-3378 -318 -320 0
3378 -318 320 0
3378 318 -320 0
-3379 3378 322 0
-3379 -3378 -322 0
3379 -3378 322 0
3379 3378 -322 0
-3380 3379 324 0
-3380 -3379 -324 0
3380 -3379 324 0
3380 3379 -324 0
-3381 3380 325 0
-3381 -3380 -325 0
3381 -3380 325 0
3381 3380 -325 0
-3382 3381 327 0
-3382 -3381 -327 0
3382 -3381 327 0
3382 3381 -327 0
-3383 3382 328 0
-3383 -3382 -328 0
3383 -3382 328 0
3383 3382 -328 0
-3384 3383 330 0
-3384 -3383 -330 0
3384 -3383 330 0
3384 3383 -330 0
-248 -3384 0
-3385 333 335 0
-3385 -333 -335 0
3385 -333 335 0
3385 333 -335 0
-3386 3385 337 0
-3386 -3385 -337 0
3386 -3385 337 0
3386 3385 -337 0
-3387 3386 339 0
-3387 -3386 -339 0
3387 -3386 339 0
3387 3386 -339 0
-3388 3387 340 0
-3388 -3387 -340 0
3388 -3387 340 0
3388 3387 -340 0
-3389 3388 342 0
-3389 -3388 -342 0
3389 -3388 342 0
3389 3388 -342 0
-3390 3389 343 0
-3390 -3389 -343 0
3390 -3389 343 0
3390 3389 -343 0
-3391 3390 345 0
-3391 -3390 -345 0
3391 -3390 345 0
3391 3390 -345 0
-248 -3391 0
-3392 317 318 0
-3392 -317 -318 0
3392 -317 318 0
3392 317 -318 0
-3393 3392 319 0
-3393 -3392 -319 0
3393 -3392 319 0
3393 3392 -319 0
-3394 3393 320 0
-3394 -3393 -320 0
3394 -3393 320 0
3394 3393 -320 0
-3395 3394 321 0
-3395 -3394 -321 0
3395 -3394 321 0
3395 3394 -321 0
-3396 3395 322 0
-3396 -3395 -322 0
3396 -3395 322 0
3396 3395 -322 0
-3397 3396 323 0
-3397 -3396 -323 0
3397 -3396 323 0
3397 3396 -323 0
-3398 3397 324 0
-3398 -3397 -324 0
3398 -3397 324 0
3398 3397 -324 0
-3399 3398 325 0
-3399 -3398 -325 0
3399 -3398 325 0
3399 3398 -325 0
-3400 3399 327 0
-3400 -3399 -327 0
3400 -3399 327 0
3400 3399 -327 0
-3401 3400 328 0
-3401 -3400 -328 0
3401 -3400 328 0
3401 3400 -328 0
-3402 3401 330 0
-3402 -3401 -330 0
3402 -3401 330 0
3402 3401 -330 0
-249 -3402 0
-3403 332 333 0
-3403 -332 -333 0
3403 -332 333 0
3403 332 -333 0
-3404 3403 334 0
-3404 -3403 -334 0
3404 -3403 334 0
3404 3403 -334 0
-3405 3404 335 0
-3405 -3404 -335 0
3405 -3404 335 0
3405 3404 -335 0
-3406 3405 336 0
-3406 -3405 -336 0
3406 -3405 336 0
3406 3405 -336 0
-3407 3406 337 0
-3407 -3406 -337 0
3407 -3406 337 0
3407 3406 -337 0
-3408 3407 338 0
-3408 -3407 -338 0
3408 -3407 338 0
3408 3407 -338 0
-3409 3408 339 0
-3409 -3408 -339 0
3409 -3408 339 0
3409 3408 -339 0
-3410 3409 340 0
-3410 -3409 -340 0
3410 -3409 340 0
3410 3409 -340 0
-3411 3410 342 0
-3411 -3410 -342 0
3411 -3410 342 0
3411 3410 -342 0
-3412 3411 343 0
-3412 -3411 -343 0
3412 -3411 343 0
3412 3411 -343 0
-3413 3412 345 0
-3413 -3412 -345 0
3413 -3412 345 0
3413 3412 -345 0
-249 -3413 0
-3414 317 318 0
-3414 -317 -318 0
3414 -317 318 0
3414 317 -318 0
-3415 3414 320 0
-3415 -3414 -320 0
3415 -3414 320 0
3415 3414 -320 0
-3416 3415 321 0
-3416 -3415 -321 0
3416 -3415 321 0
3416 3415 -321 0
-3417 3416 322 0
-3417 -3416 -322 0
3417 -3416 322 0
3417 3416 -322 0
-3418 3417 324 0
-3418 -3417 -324 0
3418 -3417 324 0
3418 3417 -324 0
-3419 3418 325 0
-3419 -3418 -325 0
3419 -3418 325 0
3419 3418 -325 0
-3420 3419 326 0
-3420 -3419 -326 0
3420 -3419 326 0
3420 3419 -326 0
-3421 3420 327 0
-3421 -3420 -327 0
3421 -3420 327 0
3421 3420 -327 0
-3422 3421 328 0
-3422 -3421 -328 0
3422 -3421 328 0
3422 3421 -328 0
-3423 3422 330 0
-3423 -3422 -330 0
3423 -3422 330 0
3423 3422 -330 0
-250 -3423 0
-3424 332 333 0
-3424 -332 -333 0
3424 -332 333 0
3424 332 -333 0
-3425 3424 335 0
-3425 -3424 -335 0
3425 -3424 335 0
3425 3424 -335 0
-3426 3425 336 0
-3426 -3425 -336 0
3426 -3425 336 0
3426 3425 -336 0
-3427 3426 337 0
-3427 -3426 -337 0
3427 -3426 337 0
3427 3426 -337 0
-3428 3427 339 0
-3428 -3427 -339 0
3428 -3427 339 0
3428 3427 -339 0
-3429 3428 340 0
-3429 -3428 -340 0
3429 -3428 340 0
3429 3428 -340 0
-3430 3429 341 0
-3430 -3429 -341 0
3430 -3429 341 0
3430 3429 -341 0
-3431 3430 342 0
-3431 -3430 -342 0
3431 -3430 342 0
3431 3430 -342 0
-3432 3431 343 0
-3432 -3431 -343 0
3432 -3431 343 0
3432 3431 -343 0
-3433 3432 345 0
-3433 -3432 -345 0
3433 -3432 345 0
3433 3432 -345 0
-250 -3433 0
-3434 318 319 0
-3434 -318 -319 0
3434 -318 319 0
3434 318 -319 0
-3435 3434 320 0
-3435 -3434 -320 0
3435 -3434 320 0
3435 3434 -320 0
-3436 3435 322 0
-3436 -3435 -322 0
3436 -3435 322 0
3436 3435 -322 0
-3437 3436 323 0
-3437 -3436 -323 0
3437 -3436 323 0
3437 3436 -323 0
-3438 3437 324 0
-3438 -3437 -324 0
3438 -3437 324 0
3438 3437 -324 0
-3439 3438 325 0
-3439 -3438 -325 0
3439 -3438 325 0
3439 3438 -325 0
-3440 3439 326 0
-3440 -3439 -326 0
3440 -3439 326 0
3440 3439 -326 0
-3441 3440 327 0
-3441 -3440 -327 0
3441 -3440 327 0
3441 3440 -327 0
-3442 3441 328 0
-3442 -3441 -328 0
3442 -3441 328 0
3442 3441 -328 0
-3443 3442 330 0
-3443 -3442 -330 0
3443 -3442 330 0
3443 3442 -330 0
-251 -3443 0
-3444 333 334 0
-3444 -333 -334 0
3444 -333 334 0
3444 333 -334 0
-3445 3444 335 0
-3445 -3444 -335 0
3445 -3444 335 0
3445 3444 -335 0
-3446 3445 337 0
-3446 -3445 -337 0
3446 -3445 337 0
3446 3445 -337 0
-3447 3446 338 0
-3447 -3446 -338 0
3447 -3446 338 0
3447 3446 -338 0
-3448 3447 339 0
-3448 -3447 -339 0
3448 -3447 339 0
3448 3447 -339 0
-3449 3448 340 0
-3449 -3448 -340 0
3449 -3448 340 0
3449 3448 -340 0
-3450 3449 341 0
-3450 -3449 -341 0
3450 -3449 341 0
3450 3449 -341 0
-3451 3450 342 0
-3451 -3450 -342 0
3451 -3450 342 0
3451 3450 -342 0
-3452 3451 343 0
-3452 -3451 -343 0
3452 -3451 343 0
3452 3451 -343 0
-3453 3452 345 0
-3453 -3452 -345 0
3453 -3452 345 0
3453 3452 -345 0
-251 -3453 0
-3454 325 326 0
-3454 -325 -326 0
3454 -325 326 0
3454 325 -326 0
-3455 3454 329 0
-3455 -3454 -329 0
3455 -3454 329 0
3455 3454 -329 0
-3456 3455 330 0
-3456 -3455 -330 0
3456 -3455 330 0
3456 3455 -330 0
-252 -3456 0
-3457 340 341 0
-3457 -340 -341 0
3457 -340 341 0
3457 340 -341 0
-3458 3457 344 0
-3458 -3457 -344 0
3458 -3457 344 0
3458 3457 -344 0
-3459 3458 345 0
-3459 -3458 -345 0
3459 -3458 345 0
3459 3458 -345 0
-252 -3459 0
-3460 318 319 0
-3460 -318 -319 0
3460 -318 319 0
3460 318 -319 0
-3461 3460 325 0
-3461 -3460 -325 0
3461 -3460 325 0
3461 3460 -325 0
-3462 3461 326 0
-3462 -3461 -326 0
3462 -3461 326 0
3462 3461 -326 0
-3463 3462 329 0
-3463 -3462 -329 0
3463 -3462 329 0
3463 3462 -329 0
-3464 3463 330 0
-3464 -3463 -330 0
3464 -3463 330 0
3464 3463 -330 0
-253 -3464 0
-3465 333 334 0
-3465 -333 -334 0
3465 -333 334 0
3465 333 -334 0
-3466 3465 340 0
-3466 -3465 -340 0
3466 -3465 340 0
3466 3465 -340 0
-3467 3466 341 0
-3467 -3466 -341 0
3467 -3466 341 0
3467 3466 -341 0
-3468 3467 344 0
-3468 -3467 -344 0
3468 -3467 344 0
3468 3467 -344 0
-3469 3468 345 0
-3469 -3468 -345 0
3469 -3468 345 0
3469 3468 -345 0
-253 -3469 0
-3470 322 323 0
-3470 -322 -323 0
3470 -322 323 0
3470 322 -323 0
-3471 3470 325 0
-3471 -3470 -325 0
3471 -3470 325 0
3471 3470 -325 0
-3472 3471 326 0
-3472 -3471 -326 0
3472 -3471 326 0
3472 3471 -326 0
-3473 3472 329 0
-3473 -3472 -329 0
3473 -3472 329 0
3473 3472 -329 0
-3474 3473 330 0
-3474 -3473 -330 0
3474 -3473 330 0
3474 3473 -330 0
-254 -3474 0
-3475 337 338 0
-3475 -337 -338 0
3475 -337 338 0
3475 337 -338 0
-3476 3475 340 0
-3476 -3475 -340 0
3476 -3475 340 0
3476 3475 -340 0
-3477 3476 341 0
-3477 -3476 -341 0
3477 -3476 341 0
3477 3476 -341 0
-3478 3477 344 0
-3478 -3477 -344 0
3478 -3477 344 0
3478 3477 -344 0
-3479 3478 345 0
-3479 -3478 -345 0
3479 -3478 345 0
3479 3478 -345 0
-254 -3479 0
-3480 318 319 0
-3480 -318 -319 0
3480 -318 319 0
3480 318 -319 0
-3481 3480 322 0
-3481 -3480 -322 0
3481 -3480 322 0
3481 3480 -322 0
-3482 3481 323 0
-3482 -3481 -323 0
3482 -3481 323 0
3482 3481 -323 0
-3483 3482 325 0
-3483 -3482 -325 0
3483 -3482 325 0
3483 3482 -325 0
-3484 3483 326 0
-3484 -3483 -326 0
3484 -3483 326 0
3484 3483 -326 0
-3485 3484 329 0
-3485 -3484 -329 0
3485 -3484 329 0
3485 3484 -329 0
-3486 3485 330 0
-3486 -3485 -330 0
3486 -3485 330 0
3486 3485 -330 0
-255 -3486 0
-3487 333 334 0
-3487 -333 -334 0
3487 -333 334 0
3487 333 -334 0
-3488 3487 337 0
-3488 -3487 -337 0
3488 -3487 337 0
3488 3487 -337 0
-3489 3488 338 0
-3489 -3488 -338 0
3489 -3488 338 0
3489 3488 -338 0
-3490 3489 340 0
-3490 -3489 -340 0
3490 -3489 340 0
3490 3489 -340 0
-3491 3490 341 0
-3491 -3490 -341 0
3491 -3490 341 0
3491 3490 -341 0
-3492 3491 344 0
-3492 -3491 -344 0
3492 -3491 344 0
3492 3491 -344 0
-3493 3492 345 0
-3493 -3492 -345 0
3493 -3492 345 0
3493 3492 -345 0
-255 -3493 0
-3494 325 326 0
-3494 -325 -326 0
3494 -325 326 0
3494 325 -326 0
-3495 3494 328 0
-3495 -3494 -328 0
3495 -3494 328 0
3495 3494 -328 0
-3496 3495 329 0
-3496 -3495 -329 0
3496 -3495 329 0
3496 3495 -329 0
-3497 3496 330 0
-3497 -3496 -330 0
3497 -3496 330 0
3497 3496 -330 0
-256 -3497 0
-3498 340 341 0
-3498 -340 -341 0
3498 -340 341 0
3498 340 -341 0
-3499 3498 343 0
-3499 -3498 -343 0
3499 -3498 343 0
3499 3498 -343 0
-3500 3499 344 0
-3500 -3499 -344 0
3500 -3499 344 0
3500 3499 -344 0
-3501 3500 345 0
-3501 -3500 -345 0
3501 -3500 345 0
3501 3500 -345 0
-256 -3501 0
-3502 318 319 0
-3502 -318 -319 0
3502 -318 319 0
3502 318 -319 0
-3503 3502 325 0
-3503 -3502 -325 0
3503 -3502 325 0
3503 3502 -325 0
-3504 3503 326 0
-3504 -3503 -326 0
3504 -3503 326 0
3504 3503 -326 0
-3505 3504 328 0
-3505 -3504 -328 0
3505 -3504 328 0
3505 3504 -328 0
-3506 3505 329 0
-3506 -3505 -329 0
3506 -3505 329 0
3506 3505 -329 0
-3507 3506 330 0
-3507 -3506 -330 0
3507 -3506 330 0
3507 3506 -330 0
-257 -3507 0
-3508 333 334 0
-3508 -333 -334 0
3508 -333 334 0
3508 333 -334 0
-3509 3508 340 0
-3509 -3508 -340 0
3509 -3508 340 0
3509 3508 -340 0
-3510 3509 341 0
-3510 -3509 -341 0
3510 -3509 341 0
3510 3509 -341 0
-3511 3510 343 0
-3511 -3510 -343 0
3511 -3510 343 0
3511 3510 -343 0
-3512 3511 344 0
-3512 -3511 -344 0
3512 -3511 344 0
3512 3511 -344 0
-3513 3512 345 0
-3513 -3512 -345 0
3513 -3512 345 0
3513 3512 -345 0
-257 -3513 0
-3514 322 323 0
-3514 -322 -323 0
3514 -322 323 0
3514 322 -323 0
-3515 3514 325 0
-3515 -3514 -325 0
3515 -3514 325 0
3515 3514 -325 0
-3516 3515 326 0
-3516 -3515 -326 0
3516 -3515 326 0
3516 3515 -326 0
-3517 3516 328 0
-3517 -3516 -328 0
3517 -3516 328 0
3517 3516 -328 0
-3518 3517 329 0
-3518 -3517 -329 0
3518 -3517 329 0
3518 3517 -329 0
-3519 3518 330 0
-3519 -3518 -330 0
3519 -3518 330 0
3519 3518 -330 0
-258 -3519 0
-3520 337 338 0
-3520 -337 -338 0
3520 -337 338 0
3520 337 -338 0
-3521 3520 340 0
-3521 -3520 -340 0
3521 -3520 340 0
3521 3520 -340 0
-3522 3521 341 0
-3522 -3521 -341 0
3522 -3521 341 0
3522 3521 -341 0
-3523 3522 343 0
-3523 -3522 -343 0
3523 -3522 343 0
3523 3522 -343 0
-3524 3523 344 0
-3524 -3523 -344 0
3524 -3523 344 0
3524 3523 -344 0
-3525 3524 345 0
-3525 -3524 -345 0
3525 -3524 345 0
3525 3524 -345 0
-258 -3525 0
-3526 318 319 0
-3526 -318 -319 0
3526 -318 319 0
3526 318 -319 0
-3527 3526 322 0
-3527 -3526 -322 0
3527 -3526 322 0
3527 3526 -322 0
-3528 3527 323 0
-3528 -3527 -323 0
3528 -3527 323 0
3528 3527 -323 0
-3529 3528 325 0
-3529 -3528 -325 0
3529 -3528 325 0
3529 3528 -325 0
-3530 3529 326 0
-3530 -3529 -326 0
3530 -3529 326 0
3530 3529 -326 0
-3531 3530 328 0
-3531 -3530 -328 0
3531 -3530 328 0
3531 3530 -328 0
-3532 3531 329 0
-3532 -3531 -329 0
3532 -3531 329 0
3532 3531 -329 0
-3533 3532 330 0
-3533 -3532 -330 0
3533 -3532 330 0
3533 3532 -330 0
-259 -3533 0
-3534 333 334 0
-3534 -333 -334 0
3534 -333 334 0
3534 333 -334 0
-3535 3534 337 0
-3535 -3534 -337 0
3535 -3534 337 0
3535 3534 -337 0
-3536 3535 338 0
-3536 -3535 -338 0
3536 -3535 338 0
3536 3535 -338 0
-3537 3536 340 0
-3537 -3536 -340 0
3537 -3536 340 0
3537 3536 -340 0
-3538 3537 341 0
-3538 -3537 -341 0
3538 -3537 341 0
3538 3537 -341 0
-3539 3538 343 0
-3539 -3538 -343 0
3539 -3538 343 0
3539 3538 -343 0
-3540 3539 344 0
-3540 -3539 -344 0
3540 -3539 344 0
3540 3539 -344 0
-3541 3540 345 0
-3541 -3540 -345 0
3541 -3540 345 0
3541 3540 -345 0
-259 -3541 0
-3542 316 320 0
-3542 -316 -320 0
3542 -316 320 0
3542 316 -320 0
-3543 3542 322 0
-3543 -3542 -322 0
3543 -3542 322 0
3543 3542 -322 0
-3544 3543 323 0
-3544 -3543 -323 0
3544 -3543 323 0
3544 3543 -323 0
-3545 3544 329 0
-3545 -3544 -329 0
3545 -3544 329 0
3545 3544 -329 0
-3546 3545 330 0
-3546 -3545 -330 0
3546 -3545 330 0
3546 3545 -330 0
-260 -3546 0
-3547 331 335 0
-3547 -331 -335 0
3547 -331 335 0
3547 331 -335 0
-3548 3547 337 0
-3548 -3547 -337 0
3548 -3547 337 0
3548 3547 -337 0
-3549 3548 338 0
-3549 -3548 -338 0
3549 -3548 338 0
3549 3548 -338 0
-3550 3549 344 0
-3550 -3549 -344 0
3550 -3549 344 0
3550 3549 -344 0
-3551 3550 345 0
-3551 -3550 -345 0
3551 -3550 345 0
3551 3550 -345 0
-260 -3551 0
-3552 316 318 0
-3552 -316 -318 0
3552 -316 318 0
3552 316 -318 0
-3553 3552 319 0
-3553 -3552 -319 0
3553 -3552 319 0
3553 3552 -319 0
-3554 3553 320 0
-3554 -3553 -320 0
3554 -3553 320 0
3554 3553 -320 0
-3555 3554 322 0
-3555 -3554 -322 0
3555 -3554 322 0
3555 3554 -322 0
-3556 3555 323 0
-3556 -3555 -323 0
3556 -3555 323 0
3556 3555 -323 0
-3557 3556 329 0
-3557 -3556 -329 0
3557 -3556 329 0
3557 3556 -329 0
-3558 3557 330 0
-3558 -3557 -330 0
3558 -3557 330 0
3558 3557 -330 0
-261 -3558 0
-3559 331 333 0
-3559 -331 -333 0
3559 -331 333 0
3559 331 -333 0
-3560 3559 334 0
-3560 -3559 -334 0
3560 -3559 334 0
3560 3559 -334 0
-3561 3560 335 0
-3561 -3560 -335 0
3561 -3560 335 0
3561 3560 -335 0
-3562 3561 337 0
-3562 -3561 -337 0
3562 -3561 337 0
3562 3561 -337 0
-3563 3562 338 0
-3563 -3562 -338 0
3563 -3562 338 0
3563 3562 -338 0
-3564 3563 344 0
-3564 -3563 -344 0
3564 -3563 344 0
3564 3563 -344 0
-3565 3564 345 0
-3565 -3564 -345 0
3565 -3564 345 0
3565 3564 -345 0
-261 -3565 0
-3566 317 320 0
-3566 -317 -320 0
3566 -317 320 0
3566 317 -320 0
-3567 3566 325 0
-3567 -3566 -325 0
3567 -3566 325 0
3567 3566 -325 0
-3568 3567 326 0
-3568 -3567 -326 0
3568 -3567 326 0
3568 3567 -326 0
-3569 3568 329 0
-3569 -3568 -329 0
3569 -3568 329 0
3569 3568 -329 0
-3570 3569 330 0
-3570 -3569 -330 0
3570 -3569 330 0
3570 3569 -330 0
-262 -3570 0
-3571 332 335 0
-3571 -332 -335 0
3571 -332 335 0
3571 332 -335 0
-3572 3571 340 0
-3572 -3571 -340 0
3572 -3571 340 0
3572 3571 -340 0
-3573 3572 341 0
-3573 -3572 -341 0
3573 -3572 341 0
3573 3572 -341 0
-3574 3573 344 0
-3574 -3573 -344 0
3574 -3573 344 0
3574 3573 -344 0
-3575 3574 345 0
-3575 -3574 -345 0
3575 -3574 345 0
3575 3574 -345 0
-262 -3575 0
-3576 317 318 0
-3576 -317 -318 0
3576 -317 318 0
3576 317 -318 0
-3577 3576 319 0
-3577 -3576 -319 0
3577 -3576 319 0
3577 3576 -319 0
-3578 3577 320 0
-3578 -3577 -320 0
3578 -3577 320 0
3578 3577 -320 0
-3579 3578 325 0
-3579 -3578 -325 0
3579 -3578 325 0
3579 3578 -325 0
-3580 3579 326 0
-3580 -3579 -326 0
3580 -3579 326 0
3580 3579 -326 0
-3581 3580 329 0
-3581 -3580 -329 0
3581 -3580 329 0
3581 3580 -329 0
-3582 3581 330 0
-3582 -3581 -330 0
3582 -3581 330 0
3582 3581 -330 0
-263 -3582 0
-3583 332 333 0
-3583 -332 -333 0
3583 -332 333 0
3583 332 -333 0
-3584 3583 334 0
-3584 -3583 -334 0
3584 -3583 334 0
3584 3583 -334 0
-3585 3584 335 0
-3585 -3584 -335 0
3585 -3584 335 0
3585 3584 -335 0
-3586 3585 340 0
-3586 -3585 -340 0
3586 -3585 340 0
3586 3585 -340 0
-3587 3586 341 0
-3587 -3586 -341 0
3587 -3586 341 0
3587 3586 -341 0
-3588 3587 344 0
-3588 -3587 -344 0
3588 -3587 344 0
3588 3587 -344 0
-3589 3588 345 0
-3589 -3588 -345 0
3589 -3588 345 0
3589 3588 -345 0
-263 -3589 0
-3590 316 318 0
-3590 -316 -318 0
3590 -316 318 0
3590 316 -318 0
-3591 3590 320 0
-3591 -3590 -320 0
3591 -3590 320 0
3591 3590 -320 0
-3592 3591 322 0
-3592 -3591 -322 0
3592 -3591 322 0
3592 3591 -322 0
-3593 3592 323 0
-3593 -3592 -323 0
3593 -3592 323 0
3593 3592 -323 0
-3594 3593 328 0
-3594 -3593 -328 0
3594 -3593 328 0
3594 3593 -328 0
-3595 3594 329 0
-3595 -3594 -329 0
3595 -3594 329 0
3595 3594 -329 0
-3596 3595 330 0
-3596 -3595 -330 0
3596 -3595 330 0
3596 3595 -330 0
-264 -3596 0
-3597 331 333 0
-3597 -331 -333 0
3597 -331 333 0
3597 331 -333 0
-3598 3597 335 0
-3598 -3597 -335 0
3598 -3597 335 0
3598 3597 -335 0
-3599 3598 337 0
-3599 -3598 -337 0
3599 -3598 337 0
3599 3598 -337 0
-3600 3599 338 0
-3600 -3599 -338 0
3600 -3599 338 0
3600 3599 -338 0
-3601 3600 343 0
-3601 -3600 -343 0
3601 -3600 343 0
3601 3600 -343 0
-3602 3601 344 0
-3602 -3601 -344 0
3602 -3601 344 0
3602 3601 -344 0
-3603 3602 345 0
-3603 -3602 -345 0
3603 -3602 345 0
3603 3602 -345 0
-264 -3603 0
-3604 316 319 0
-3604 -316 -319 0
3604 -316 319 0
3604 316 -319 0
-3605 3604 320 0
-3605 -3604 -320 0
3605 -3604 320 0
3605 3604 -320 0
-3606 3605 322 0
-3606 -3605 -322 0
3606 -3605 322 0
3606 3605 -322 0
-3607 3606 323 0
-3607 -3606 -323 0
3607 -3606 323 0
3607 3606 -323 0
-3608 3607 328 0
-3608 -3607 -328 0
3608 -3607 328 0
3608 3607 -328 0
-3609 3608 329 0
-3609 -3608 -329 0
3609 -3608 329 0
3609 3608 -329 0
-3610 3609 330 0
-3610 -3609 -330 0
3610 -3609 330 0
3610 3609 -330 0
-265 -3610 0
-3611 331 334 0
-3611 -331 -334 0
3611 -331 334 0
3611 331 -334 0
-3612 3611 335 0
-3612 -3611 -335 0
3612 -3611 335 0
3612 3611 -335 0
-3613 3612 337 0
-3613 -3612 -337 0
3613 -3612 337 0
3613 3612 -337 0
-3614 3613 338 0
-3614 -3613 -338 0
3614 -3613 338 0
3614 3613 -338 0
-3615 3614 343 0
-3615 -3614 -343 0
3615 -3614 343 0
3615 3614 -343 0
-3616 3615 344 0
-3616 -3615 -344 0
3616 -3615 344 0
3616 3615 -344 0
-3617 3616 345 0
-3617 -3616 -345 0
3617 -3616 345 0
3617 3616 -345 0
-265 -3617 0
-3618 317 318 0
-3618 -317 -318 0
3618 -317 318 0
3618 317 -318 0
-3619 3618 320 0
-3619 -3618 -320 0
3619 -3618 320 0
3619 3618 -320 0
-3620 3619 325 0
-3620 -3619 -325 0
3620 -3619 325 0
3620 3619 -325 0
-3621 3620 326 0
-3621 -3620 -326 0
3621 -3620 326 0
3621 3620 -326 0
-3622 3621 328 0
-3622 -3621 -328 0
3622 -3621 328 0
3622 3621 -328 0
-3623 3622 329 0
-3623 -3622 -329 0
3623 -3622 329 0
3623 3622 -329 0
-3624 3623 330 0
-3624 -3623 -330 0
3624 -3623 330 0
3624 3623 -330 0
-266 -3624 0
-3625 332 333 0
-3625 -332 -333 0
3625 -332 333 0
3625 332 -333 0
-3626 3625 335 0
-3626 -3625 -335 0
3626 -3625 335 0
3626 3625 -335 0
-3627 3626 340 0
-3627 -3626 -340 0
3627 -3626 340 0
3627 3626 -340 0
-3628 3627 341 0
-3628 -3627 -341 0
3628 -3627 341 0
3628 3627 -341 0
-3629 3628 343 0
-3629 -3628 -343 0
3629 -3628 343 0
3629 3628 -343 0
-3630 3629 344 0
-3630 -3629 -344 0
3630 -3629 344 0
3630 3629 -344 0
-3631 3630 345 0
-3631 -3630 -345 0
3631 -3630 345 0
3631 3630 -345 0
-266 -3631 0
-3632 317 319 0
-3632 -317 -319 0
3632 -317 319 0
3632 317 -319 0
-3633 3632 320 0
-3633 -3632 -320 0
3633 -3632 320 0
3633 3632 -320 0
-3634 3633 325 0
-3634 -3633 -325 0
3634 -3633 325 0
3634 3633 -325 0
-3635 3634 326 0
-3635 -3634 -326 0
3635 -3634 326 0
3635 3634 -326 0
-3636 3635 328 0
-3636 -3635 -328 0
3636 -3635 328 0
3636 3635 -328 0
-3637 3636 329 0
-3637 -3636 -329 0
3637 -3636 329 0
3637 3636 -329 0
-3638 3637 330 0
-3638 -3637 -330 0
3638 -3637 330 0
3638 3637 -330 0
-267 -3638 0
-3639 332 334 0
-3639 -332 -334 0
3639 -332 334 0
3639 332 -334 0
-3640 3639 335 0
-3640 -3639 -335 0
3640 -3639 335 0
3640 3639 -335 0
-3641 3640 340 0
-3641 -3640 -340 0
3641 -3640 340 0
3641 3640 -340 0
-3642 3641 341 0
-3642 -3641 -341 0
3642 -3641 341 0
3642 3641 -341 0
-3643 3642 343 0
-3643 -3642 -343 0
3643 -3642 343 0
3643 3642 -343 0
-3644 3643 344 0
-3644 -3643 -344 0
3644 -3643 344 0
3644 3643 -344 0
-3645 3644 345 0
-3645 -3644 -345 0
3645 -3644 345 0
3645 3644 -345 0
-267 -3645 0
-3646 316 318 0
-3646 -316 -318 0
3646 -316 318 0
3646 316 -318 0
-3647 3646 319 0
-3647 -3646 -319 0
3647 -3646 319 0
3647 3646 -319 0
-3648 3647 324 0
-3648 -3647 -324 0
3648 -3647 324 0
3648 3647 -324 0
-3649 3648 329 0
-3649 -3648 -329 0
3649 -3648 329 0
3649 3648 -329 0
-3650 3649 330 0
-3650 -3649 -330 0
3650 -3649 330 0
3650 3649 -330 0
-268 -3650 0
-3651 331 333 0
-3651 -331 -333 0
3651 -331 333 0
3651 331 -333 0
-3652 3651 334 0
-3652 -3651 -334 0
3652 -3651 334 0
3652 3651 -334 0
-3653 3652 339 0
-3653 -3652 -339 0
3653 -3652 339 0
3653 3652 -339 0
-3654 3653 344 0
-3654 -3653 -344 0
3654 -3653 344 0
3654 3653 -344 0
-3655 3654 345 0
-3655 -3654 -345 0
3655 -3654 345 0
3655 3654 -345 0
-268 -3655 0
-3656 316 318 0
-3656 -316 -318 0
3656 -316 318 0
3656 316 -318 0
-3657 3656 319 0
-3657 -3656 -319 0
3657 -3656 319 0
3657 3656 -319 0
-3658 3657 322 0
-3658 -3657 -322 0
3658 -3657 322 0
3658 3657 -322 0
-3659 3658 323 0
-3659 -3658 -323 0
3659 -3658 323 0
3659 3658 -323 0
-3660 3659 324 0
-3660 -3659 -324 0
3660 -3659 324 0
3660 3659 -324 0
-3661 3660 329 0
-3661 -3660 -329 0
3661 -3660 329 0
3661 3660 -329 0
-3662 3661 330 0
-3662 -3661 -330 0
3662 -3661 330 0
3662 3661 -330 0
-269 -3662 0
-3663 331 333 0
-3663 -331 -333 0
3663 -331 333 0
3663 331 -333 0
-3664 3663 334 0
-3664 -3663 -334 0
3664 -3663 334 0
3664 3663 -334 0
-3665 3664 337 0
-3665 -3664 -337 0
3665 -3664 337 0
3665 3664 -337 0
-3666 3665 338 0
-3666 -3665 -338 0
3666 -3665 338 0
3666 3665 -338 0
-3667 3666 339 0
-3667 -3666 -339 0
3667 -3666 339 0
3667 3666 -339 0
-3668 3667 344 0
-3668 -3667 -344 0
3668 -3667 344 0
3668 3667 -344 0
-3669 3668 345 0
-3669 -3668 -345 0
3669 -3668 345 0
3669 3668 -345 0
-269 -3669 0
-3670 321 324 0
-3670 -321 -324 0
3670 -321 324 0
3670 321 -324 0
-3671 3670 325 0
-3671 -3670 -325 0
3671 -3670 325 0
3671 3670 -325 0
-3672 3671 326 0
-3672 -3671 -326 0
3672 -3671 326 0
3672 3671 -326 0
-3673 3672 329 0
-3673 -3672 -329 0
3673 -3672 329 0
3673 3672 -329 0
-3674 3673 330 0
-3674 -3673 -330 0
3674 -3673 330 0
3674 3673 -330 0
-270 -3674 0
-3675 336 339 0
-3675 -336 -339 0
3675 -336 339 0
3675 336 -339 0
-3676 3675 340 0
-3676 -3675 -340 0
3676 -3675 340 0
3676 3675 -340 0
-3677 3676 341 0
-3677 -3676 -341 0
3677 -3676 341 0
3677 3676 -341 0
-3678 3677 344 0
-3678 -3677 -344 0
3678 -3677 344 0
3678 3677 -344 0
-3679 3678 345 0
-3679 -3678 -345 0
3679 -3678 345 0
3679 3678 -345 0
-270 -3679 0
-3680 321 322 0
-3680 -321 -322 0
3680 -321 322 0
3680 321 -322 0
-3681 3680 323 0
-3681 -3680 -323 0
3681 -3680 323 0
3681 3680 -323 0
-3682 3681 324 0
-3682 -3681 -324 0
3682 -3681 324 0
3682 3681 -324 0
-3683 3682 325 0
-3683 -3682 -325 0
3683 -3682 325 0
3683 3682 -325 0
-3684 3683 326 0
-3684 -3683 -326 0
3684 -3683 326 0
3684 3683 -326 0
-3685 3684 329 0
-3685 -3684 -329 0
3685 -3684 329 0
3685 3684 -329 0
-3686 3685 330 0
-3686 -3685 -330 0
3686 -3685 330 0
3686 3685 -330 0
-271 -3686 0
-3687 336 337 0
-3687 -336 -337 0
3687 -336 337 0
3687 336 -337 0
-3688 3687 338 0
-3688 -3687 -338 0
3688 -3687 338 0
3688 3687 -338 0
-3689 3688 339 0
-3689 -3688 -339 0
3689 -3688 339 0
3689 3688 -339 0
-3690 3689 340 0
-3690 -3689 -340 0
3690 -3689 340 0
3690 3689 -340 0
-3691 3690 341 0
-3691 -3690 -341 0
3691 -3690 341 0
3691 3690 -341 0
-3692 3691 344 0
-3692 -3691 -344 0
3692 -3691 344 0
3692 3691 -344 0
-3693 3692 345 0
-3693 -3692 -345 0
3693 -3692 345 0
3693 3692 -345 0
-271 -3693 0
-3694 316 318 0
-3694 -316 -318 0
3694 -316 318 0
3694 316 -318 0
-3695 3694 319 0
-3695 -3694 -319 0
3695 -3694 319 0
3695 3694 -319 0
-3696 3695 322 0
-3696 -3695 -322 0
3696 -3695 322 0
3696 3695 -322 0
-3697 3696 324 0
-3697 -3696 -324 0
3697 -3696 324 0
3697 3696 -324 0
-3698 3697 328 0
-3698 -3697 -328 0
3698 -3697 328 0
3698 3697 -328 0
-3699 3698 329 0
-3699 -3698 -329 0
3699 -3698 329 0
3699 3698 -329 0
-3700 3699 330 0
-3700 -3699 -330 0
3700 -3699 330 0
3700 3699 -330 0
-272 -3700 0
-3701 331 333 0
-3701 -331 -333 0
3701 -331 333 0
3701 331 -333 0
-3702 3701 334 0
-3702 -3701 -334 0
3702 -3701 334 0
3702 3701 -334 0
-3703 3702 337 0
-3703 -3702 -337 0
3703 -3702 337 0
3703 3702 -337 0
-3704 3703 339 0
-3704 -3703 -339 0
3704 -3703 339 0
3704 3703 -339 0
-3705 3704 343 0
-3705 -3704 -343 0
3705 -3704 343 0
3705 3704 -343 0
-3706 3705 344 0
-3706 -3705 -344 0
3706 -3705 344 0
3706 3705 -344 0
-3707 3706 345 0
-3707 -3706 -345 0
3707 -3706 345 0
3707 3706 -345 0
-272 -3707 0
-3708 316 318 0
-3708 -316 -318 0
3708 -316 318 0
3708 316 -318 0
-3709 3708 319 0
-3709 -3708 -319 0
3709 -3708 319 0
3709 3708 -319 0
-3710 3709 323 0
-3710 -3709 -323 0
3710 -3709 323 0
3710 3709 -323 0
-3711 3710 324 0
-3711 -3710 -324 0
3711 -3710 324 0
3711 3710 -324 0
-3712 3711 328 0
-3712 -3711 -328 0
3712 -3711 328 0
3712 3711 -328 0
-3713 3712 329 0
-3713 -3712 -329 0
3713 -3712 329 0
3713 3712 -329 0
-3714 3713 330 0
-3714 -3713 -330 0
3714 -3713 330 0
3714 3713 -330 0
-273 -3714 0
-3715 331 333 0
-3715 -331 -333 0
3715 -331 333 0
3715 331 -333 0
-3716 3715 334 0
-3716 -3715 -334 0
3716 -3715 334 0
3716 3715 -334 0
-3717 3716 338 0
-3717 -3716 -338 0
3717 -3716 338 0
3717 3716 -338 0
-3718 3717 339 0
-3718 -3717 -339 0
3718 -3717 339 0
3718 3717 -339 0
-3719 3718 343 0
-3719 -3718 -343 0
3719 -3718 343 0
3719 3718 -343 0
-3720 3719 344 0
-3720 -3719 -344 0
3720 -3719 344 0
3720 3719 -344 0
-3721 3720 345 0
-3721 -3720 -345 0
3721 -3720 345 0
3721 3720 -345 0
-273 -3721 0
-3722 321 322 0
-3722 -321 -322 0
3722 -321 322 0
3722 321 -322 0
-3723 3722 324 0
-3723 -3722 -324 0
3723 -3722 324 0
3723 3722 -324 0
-3724 3723 325 0
-3724 -3723 -325 0
3724 -3723 325 0
3724 3723 -325 0
-3725 3724 326 0
-3725 -3724 -326 0
3725 -3724 326 0
3725 3724 -326 0
-3726 3725 328 0
-3726 -3725 -328 0
3726 -3725 328 0
3726 3725 -328 0
-3727 3726 329 0
-3727 -3726 -329 0
3727 -3726 329 0
3727 3726 -329 0
-3728 3727 330 0
-3728 -3727 -330 0
3728 -3727 330 0
3728 3727 -330 0
-274 -3728 0
-3729 336 337 0
-3729 -336 -337 0
3729 -336 337 0
3729 336 -337 0
-3730 3729 339 0
-3730 -3729 -339 0
3730 -3729 339 0
3730 3729 -339 0
-3731 3730 340 0
-3731 -3730 -340 0
3731 -3730 340 0
3731 3730 -340 0
-3732 3731 341 0
-3732 -3731 -341 0
3732 -3731 341 0
3732 3731 -341 0
-3733 3732 343 0
-3733 -3732 -343 0
3733 -3732 343 0
3733 3732 -343 0
-3734 3733 344 0
-3734 -3733 -344 0
3734 -3733 344 0
3734 3733 -344 0
-3735 3734 345 0
-3735 -3734 -345 0
3735 -3734 345 0
3735 3734 -345 0
-274 -3735 0
-3736 321 323 0
-3736 -321 -323 0
3736 -321 323 0
3736 321 -323 0
-3737 3736 324 0
-3737 -3736 -324 0
3737 -3736 324 0
3737 3736 -324 0
-3738 3737 325 0
-3738 -3737 -325 0
3738 -3737 325 0
3738 3737 -325 0
-3739 3738 326 0
-3739 -3738 -326 0
3739 -3738 326 0
3739 3738 -326 0
-3740 3739 328 0
-3740 -3739 -328 0
3740 -3739 328 0
3740 3739 -328 0
-3741 3740 329 0
-3741 -3740 -329 0
3741 -3740 329 0
3741 3740 -329 0
-3742 3741 330 0
-3742 -3741 -330 0
3742 -3741 330 0
3742 3741 -330 0
-275 -3742 0
-3743 336 338 0
-3743 -336 -338 0
3743 -336 338 0
3743 336 -338 0
-3744 3743 339 0
-3744 -3743 -339 0
3744 -3743 339 0
3744 3743 -339 0
-3745 3744 340 0
-3745 -3744 -340 0
3745 -3744 340 0
3745 3744 -340 0
-3746 3745 341 0
-3746 -3745 -341 0
3746 -3745 341 0
3746 3745 -341 0
-3747 3746 343 0
-3747 -3746 -343 0
3747 -3746 343 0
3747 3746 -343 0
-3748 3747 344 0
-3748 -3747 -344 0
3748 -3747 344 0
3748 3747 -344 0
-3749 3748 345 0
-3749 -3748 -345 0
3749 -3748 345 0
3749 3748 -345 0
-275 -3749 0
-3750 316 318 0
-3750 -316 -318 0
3750 -316 318 0
3750 316 -318 0
-3751 3750 319 0
-3751 -3750 -319 0
3751 -3750 319 0
3751 3750 -319 0
-3752 3751 320 0
-3752 -3751 -320 0
3752 -3751 320 0
3752 3751 -320 0
-3753 3752 324 0
-3753 -3752 -324 0
3753 -3752 324 0
3753 3752 -324 0
-3754 3753 329 0
-3754 -3753 -329 0
3754 -3753 329 0
3754 3753 -329 0
-3755 3754 330 0
-3755 -3754 -330 0
3755 -3754 330 0
3755 3754 -330 0
-276 -3755 0
-3756 331 333 0
-3756 -331 -333 0
3756 -331 333 0
3756 331 -333 0
-3757 3756 334 0
-3757 -3756 -334 0
3757 -3756 334 0
3757 3756 -334 0
-3758 3757 335 0
-3758 -3757 -335 0
3758 -3757 335 0
3758 3757 -335 0
-3759 3758 339 0
-3759 -3758 -339 0
3759 -3758 339 0
3759 3758 -339 0
-3760 3759 344 0
-3760 -3759 -344 0
3760 -3759 344 0
3760 3759 -344 0
-3761 3760 345 0
-3761 -3760 -345 0
3761 -3760 345 0
3761 3760 -345 0
-276 -3761 0
-3762 316 320 0
-3762 -316 -320 0
3762 -316 320 0
3762 316 -320 0
-3763 3762 322 0
-3763 -3762 -322 0
3763 -3762 322 0
3763 3762 -322 0
-3764 3763 323 0
-3764 -3763 -323 0
3764 -3763 323 0
3764 3763 -323 0
-3765 3764 324 0
-3765 -3764 -324 0
3765 -3764 324 0
3765 3764 -324 0
-3766 3765 329 0
-3766 -3765 -329 0
3766 -3765 329 0
3766 3765 -329 0
-3767 3766 330 0
-3767 -3766 -330 0
3767 -3766 330 0
3767 3766 -330 0
-277 -3767 0
-3768 331 335 0
-3768 -331 -335 0
3768 -331 335 0
3768 331 -335 0
-3769 3768 337 0
-3769 -3768 -337 0
3769 -3768 337 0
3769 3768 -337 0
-3770 3769 338 0
-3770 -3769 -338 0
3770 -3769 338 0
3770 3769 -338 0
-3771 3770 339 0
-3771 -3770 -339 0
3771 -3770 339 0
3771 3770 -339 0
-3772 3771 344 0
-3772 -3771 -344 0
3772 -3771 344 0
3772 3771 -344 0
-3773 3772 345 0
-3773 -3772 -345 0
3773 -3772 345 0
3773 3772 -345 0
-277 -3773 0
-3774 317 320 0
-3774 -317 -320 0
3774 -317 320 0
3774 317 -320 0
-3775 3774 321 0
-3775 -3774 -321 0
3775 -3774 321 0
3775 3774 -321 0
-3776 3775 324 0
-3776 -3775 -324 0
3776 -3775 324 0
3776 3775 -324 0
-3777 3776 325 0
-3777 -3776 -325 0
3777 -3776 325 0
3777 3776 -325 0
-3778 3777 326 0
-3778 -3777 -326 0
3778 -3777 326 0
3778 3777 -326 0
-3779 3778 329 0
-3779 -3778 -329 0
3779 -3778 329 0
3779 3778 -329 0
-3780 3779 330 0
-3780 -3779 -330 0
3780 -3779 330 0
3780 3779 -330 0
-278 -3780 0
-3781 332 335 0
-3781 -332 -335 0
3781 -332 335 0
3781 332 -335 0
-3782 3781 336 0
-3782 -3781 -336 0
3782 -3781 336 0
3782 3781 -336 0
-3783 3782 339 0
-3783 -3782 -339 0
3783 -3782 339 0
3783 3782 -339 0
-3784 3783 340 0
-3784 -3783 -340 0
3784 -3783 340 0
3784 3783 -340 0
-3785 3784 341 0
-3785 -3784 -341 0
3785 -3784 341 0
3785 3784 -341 0
-3786 3785 344 0
-3786 -3785 -344 0
3786 -3785 344 0
3786 3785 -344 0
-3787 3786 345 0
-3787 -3786 -345 0
3787 -3786 345 0
3787 3786 -345 0
-278 -3787 0
-3788 317 318 0
-3788 -317 -318 0
3788 -317 318 0
3788 317 -318 0
-3789 3788 319 0
-3789 -3788 -319 0
3789 -3788 319 0
3789 3788 -319 0
-3790 3789 320 0
-3790 -3789 -320 0
3790 -3789 320 0
3790 3789 -320 0
-3791 3790 321 0
-3791 -3790 -321 0
3791 -3790 321 0
3791 3790 -321 0
-3792 3791 322 0
-3792 -3791 -322 0
3792 -3791 322 0
3792 3791 -322 0
-3793 3792 323 0
-3793 -3792 -323 0
3793 -3792 323 0
3793 3792 -323 0
-3794 3793 324 0
-3794 -3793 -324 0
3794 -3793 324 0
3794 3793 -324 0
-3795 3794 325 0
-3795 -3794 -325 0
3795 -3794 325 0
3795 3794 -325 0
-3796 3795 326 0
-3796 -3795 -326 0
3796 -3795 326 0
3796 3795 -326 0
-3797 3796 329 0
-3797 -3796 -329 0
3797 -3796 329 0
3797 3796 -329 0
-3798 3797 330 0
-3798 -3797 -330 0
3798 -3797 330 0
3798 3797 -330 0
-279 -3798 0
-3799 332 333 0
-3799 -332 -333 0
3799 -332 333 0
3799 332 -333 0
-3800 3799 334 0
-3800 -3799 -334 0
3800 -3799 334 0
3800 3799 -334 0
-3801 3800 335 0
-3801 -3800 -335 0
3801 -3800 335 0
3801 3800 -335 0
-3802 3801 336 0
-3802 -3801 -336 0
3802 -3801 336 0
3802 3801 -336 0
-3803 3802 337 0
-3803 -3802 -337 0
3803 -3802 337 0
3803 3802 -337 0
-3804 3803 338 0
-3804 -3803 -338 0
3804 -3803 338 0
3804 3803 -338 0
-3805 3804 339 0
-3805 -3804 -339 0
3805 -3804 339 0
3805 3804 -339 0
-3806 3805 340 0
-3806 -3805 -340 0
3806 -3805 340 0
3806 3805 -340 0
-3807 3806 341 0
-3807 -3806 -341 0
3807 -3806 341 0
3807 3806 -341 0
-3808 3807 344 0
-3808 -3807 -344 0
3808 -3807 344 0
3808 3807 -344 0
-3809 3808 345 0
-3809 -3808 -345 0
3809 -3808 345 0
3809 3808 -345 0
-279 -3809 0
-3810 316 319 0
-3810 -316 -319 0
3810 -316 319 0
3810 316 -319 0
-3811 3810 320 0
-3811 -3810 -320 0
3811 -3810 320 0
3811 3810 -320 0
-3812 3811 322 0
-3812 -3811 -322 0
3812 -3811 322 0
3812 3811 -322 0
-3813 3812 324 0
-3813 -3812 -324 0
3813 -3812 324 0
3813 3812 -324 0
-3814 3813 328 0
-3814 -3813 -328 0
3814 -3813 328 0
3814 3813 -328 0
-3815 3814 329 0
-3815 -3814 -329 0
3815 -3814 329 0
3815 3814 -329 0
-3816 3815 330 0
-3816 -3815 -330 0
3816 -3815 330 0
3816 3815 -330 0
-280 -3816 0
-3817 331 334 0
-3817 -331 -334 0
3817 -331 334 0
3817 331 -334 0
-3818 3817 335 0
-3818 -3817 -335 0
3818 -3817 335 0
3818 3817 -335 0
-3819 3818 337 0
-3819 -3818 -337 0
3819 -3818 337 0
3819 3818 -337 0
-3820 3819 339 0
-3820 -3819 -339 0
3820 -3819 339 0
3820 3819 -339 0
-3821 3820 343 0
-3821 -3820 -343 0
3821 -3820 343 0
3821 3820 -343 0
-3822 3821 344 0
-3822 -3821 -344 0
3822 -3821 344 0
3822 3821 -344 0
-3823 3822 345 0
-3823 -3822 -345 0
3823 -3822 345 0
3823 3822 -345 0
-280 -3823 0
-3824 316 318 0
-3824 -316 -318 0
3824 -316 318 0
3824 316 -318 0
-3825 3824 320 0
-3825 -3824 -320 0
3825 -3824 320 0
3825 3824 -320 0
-3826 3825 323 0
-3826 -3825 -323 0
3826 -3825 323 0
3826 3825 -323 0
-3827 3826 324 0
-3827 -3826 -324 0
3827 -3826 324 0
3827 3826 -324 0
-3828 3827 328 0
-3828 -3827 -328 0
3828 -3827 328 0
3828 3827 -328 0
-3829 3828 329 0
-3829 -3828 -329 0
3829 -3828 329 0
3829 3828 -329 0
-3830 3829 330 0
-3830 -3829 -330 0
3830 -3829 330 0
3830 3829 -330 0
-281 -3830 0
-3831 331 333 0
-3831 -331 -333 0
3831 -331 333 0
3831 331 -333 0
-3832 3831 335 0
-3832 -3831 -335 0
3832 -3831 335 0
3832 3831 -335 0
-3833 3832 338 0
-3833 -3832 -338 0
3833 -3832 338 0
3833 3832 -338 0
-3834 3833 339 0
-3834 -3833 -339 0
3834 -3833 339 0
3834 3833 -339 0
-3835 3834 343 0
-3835 -3834 -343 0
3835 -3834 343 0
3835 3834 -343 0
-3836 3835 344 0
-3836 -3835 -344 0
3836 -3835 344 0
3836 3835 -344 0
-3837 3836 345 0
-3837 -3836 -345 0
3837 -3836 345 0
3837 3836 -345 0
-281 -3837 0
-3838 317 318 0
-3838 -317 -318 0
3838 -317 318 0
3838 317 -318 0
-3839 3838 320 0
-3839 -3838 -320 0
3839 -3838 320 0
3839 3838 -320 0
-3840 3839 321 0
-3840 -3839 -321 0
3840 -3839 321 0
3840 3839 -321 0
-3841 3840 322 0
-3841 -3840 -322 0
3841 -3840 322 0
3841 3840 -322 0
-3842 3841 324 0
-3842 -3841 -324 0
3842 -3841 324 0
3842 3841 -324 0
-3843 3842 325 0
-3843 -3842 -325 0
3843 -3842 325 0
3843 3842 -325 0
-3844 3843 326 0
-3844 -3843 -326 0
3844 -3843 326 0
3844 3843 -326 0
-3845 3844 328 0
-3845 -3844 -328 0
3845 -3844 328 0
3845 3844 -328 0
-3846 3845 329 0
-3846 -3845 -329 0
3846 -3845 329 0
3846 3845 -329 0
-3847 3846 330 0
-3847 -3846 -330 0
3847 -3846 330 0
3847 3846 -330 0
-282 -3847 0
-3848 332 333 0
-3848 -332 -333 0
3848 -332 333 0
3848 332 -333 0
-3849 3848 335 0
-3849 -3848 -335 0
3849 -3848 335 0
3849 3848 -335 0
-3850 3849 336 0
-3850 -3849 -336 0
3850 -3849 336 0
3850 3849 -336 0
-3851 3850 337 0
-3851 -3850 -337 0
3851 -3850 337 0
3851 3850 -337 0
-3852 3851 339 0
-3852 -3851 -339 0
3852 -3851 339 0
3852 3851 -339 0
-3853 3852 340 0
-3853 -3852 -340 0
3853 -3852 340 0
3853 3852 -340 0
-3854 3853 341 0
-3854 -3853 -341 0
3854 -3853 341 0
3854 3853 -341 0
-3855 3854 343 0
-3855 -3854 -343 0
3855 -3854 343 0
3855 3854 -343 0
-3856 3855 344 0
-3856 -3855 -344 0
3856 -3855 344 0
3856 3855 -344 0
-3857 3856 345 0
-3857 -3856 -345 0
3857 -3856 345 0
3857 3856 -345 0
-282 -3857 0
-3858 317 319 0
-3858 -317 -319 0
3858 -317 319 0
3858 317 -319 0
-3859 3858 320 0
-3859 -3858 -320 0
3859 -3858 320 0
3859 3858 -320 0
-3860 3859 321 0
-3860 -3859 -321 0
3860 -3859 321 0
3860 3859 -321 0
-3861 3860 323 0
-3861 -3860 -323 0
3861 -3860 323 0
3861 3860 -323 0
-3862 3861 324 0
-3862 -3861 -324 0
3862 -3861 324 0
3862 3861 -324 0
-3863 3862 325 0
-3863 -3862 -325 0
3863 -3862 325 0
3863 3862 -325 0
-3864 3863 326 0
-3864 -3863 -326 0
3864 -3863 326 0
3864 3863 -326 0
-3865 3864 328 0
-3865 -3864 -328 0
3865 -3864 328 0
3865 3864 -328 0
-3866 3865 329 0
-3866 -3865 -329 0
3866 -3865 329 0
3866 3865 -329 0
-3867 3866 330 0
-3867 -3866 -330 0
3867 -3866 330 0
3867 3866 -330 0
-283 -3867 0
-3868 332 334 0
-3868 -332 -334 0
3868 -332 334 0
3868 332 -334 0
-3869 3868 335 0
-3869 -3868 -335 0
3869 -3868 335 0
3869 3868 -335 0
-3870 3869 336 0
-3870 -3869 -336 0
3870 -3869 336 0
3870 3869 -336 0
-3871 3870 338 0
-3871 -3870 -338 0
3871 -3870 338 0
3871 3870 -338 0
-3872 3871 339 0
-3872 -3871 -339 0
3872 -3871 339 0
3872 3871 -339 0
-3873 3872 340 0
-3873 -3872 -340 0
3873 -3872 340 0
3873 3872 -340 0
-3874 3873 341 0
-3874 -3873 -341 0
3874 -3873 341 0
3874 3873 -341 0
-3875 3874 343 0
-3875 -3874 -343 0
3875 -3874 343 0
3875 3874 -343 0
-3876 3875 344 0
-3876 -3875 -344 0
3876 -3875 344 0
3876 3875 -344 0
-3877 3876 345 0
-3877 -3876 -345 0
3877 -3876 345 0
3877 3876 -345 0
-283 -3877 0
-3878 325 326 0
-3878 -325 -326 0
3878 -325 326 0
3878 325 -326 0
-3879 3878 327 0
-3879 -3878 -327 0
3879 -3878 327 0
3879 3878 -327 0
-3880 3879 329 0
-3880 -3879 -329 0
3880 -3879 329 0
3880 3879 -329 0
-3881 3880 330 0
-3881 -3880 -330 0
3881 -3880 330 0
3881 3880 -330 0
-284 -3881 0
-3882 340 341 0
-3882 -340 -341 0
3882 -340 341 0
3882 340 -341 0
-3883 3882 342 0
-3883 -3882 -342 0
3883 -3882 342 0
3883 3882 -342 0
-3884 3883 344 0
-3884 -3883 -344 0
3884 -3883 344 0
3884 3883 -344 0
-3885 3884 345 0
-3885 -3884 -345 0
3885 -3884 345 0
3885 3884 -345 0
-284 -3885 0
-3886 317 318 0
-3886 -317 -318 0
3886 -317 318 0
3886 317 -318 0
-3887 3886 319 0
-3887 -3886 -319 0
3887 -3886 319 0
3887 3886 -319 0
-3888 3887 325 0
-3888 -3887 -325 0
3888 -3887 325 0
3888 3887 -325 0
-3889 3888 326 0
-3889 -3888 -326 0
3889 -3888 326 0
3889 3888 -326 0
-3890 3889 327 0
-3890 -3889 -327 0
3890 -3889 327 0
3890 3889 -327 0
-3891 3890 329 0
-3891 -3890 -329 0
3891 -3890 329 0
3891 3890 -329 0
-3892 3891 330 0
-3892 -3891 -330 0
3892 -3891 330 0
3892 3891 -330 0
-285 -3892 0
-3893 332 333 0
-3893 -332 -333 0
3893 -332 333 0
3893 332 -333 0
-3894 3893 334 0
-3894 -3893 -334 0
3894 -3893 334 0
3894 3893 -334 0
-3895 3894 340 0
-3895 -3894 -340 0
3895 -3894 340 0
3895 3894 -340 0
-3896 3895 341 0
-3896 -3895 -341 0
3896 -3895 341 0
3896 3895 -341 0
-3897 3896 342 0
-3897 -3896 -342 0
3897 -3896 342 0
3897 3896 -342 0
-3898 3897 344 0
-3898 -3897 -344 0
3898 -3897 344 0
3898 3897 -344 0
-3899 3898 345 0
-3899 -3898 -345 0
3899 -3898 345 0
3899 3898 -345 0
-285 -3899 0
-3900 321 322 0
-3900 -321 -322 0
3900 -321 322 0
3900 321 -322 0
-3901 3900 323 0
-3901 -3900 -323 0
3901 -3900 323 0
3901 3900 -323 0
-3902 3901 325 0
-3902 -3901 -325 0
3902 -3901 325 0
3902 3901 -325 0
-3903 3902 326 0
-3903 -3902 -326 0
3903 -3902 326 0
3903 3902 -326 0
-3904 3903 327 0
-3904 -3903 -327 0
3904 -3903 327 0
3904 3903 -327 0
-3905 3904 329 0
-3905 -3904 -329 0
3905 -3904 329 0
3905 3904 -329 0
-3906 3905 330 0
-3906 -3905 -330 0
3906 -3905 330 0
3906 3905 -330 0
-286 -3906 0
-3907 336 337 0
-3907 -336 -337 0
3907 -336 337 0
3907 336 -337 0
-3908 3907 338 0
-3908 -3907 -338 0
3908 -3907 338 0
3908 3907 -338 0
-3909 3908 340 0
-3909 -3908 -340 0
3909 -3908 340 0
3909 3908 -340 0
-3910 3909 341 0
-3910 -3909 -341 0
3910 -3909 341 0
3910 3909 -341 0
-3911 3910 342 0
-3911 -3910 -342 0
3911 -3910 342 0
3911 3910 -342 0
-3912 3911 344 0
-3912 -3911 -344 0
3912 -3911 344 0
3912 3911 -344 0
-3913 3912 345 0
-3913 -3912 -345 0
3913 -3912 345 0
3913 3912 -345 0
-286 -3913 0
-3914 317 318 0
-3914 -317 -318 0
3914 -317 318 0
3914 317 -318 0
-3915 3914 319 0
-3915 -3914 -319 0
3915 -3914 319 0
3915 3914 -319 0
-3916 3915 321 0
-3916 -3915 -321 0
3916 -3915 321 0
3916 3915 -321 0
-3917 3916 322 0
-3917 -3916 -322 0
3917 -3916 322 0
3917 3916 -322 0
-3918 3917 323 0
-3918 -3917 -323 0
3918 -3917 323 0
3918 3917 -323 0
-3919 3918 325 0
-3919 -3918 -325 0
3919 -3918 325 0
3919 3918 -325 0
-3920 3919 326 0
-3920 -3919 -326 0
3920 -3919 326 0
3920 3919 -326 0
-3921 3920 327 0
-3921 -3920 -327 0
3921 -3920 327 0
3921 3920 -327 0
-3922 3921 329 0
-3922 -3921 -329 0
3922 -3921 329 0
3922 3921 -329 0
-3923 3922 330 0
-3923 -3922 -330 0
3923 -3922 330 0
3923 3922 -330 0
-287 -3923 0
-3924 332 333 0
-3924 -332 -333 0
3924 -332 333 0
3924 332 -333 0
-3925 3924 334 0
-3925 -3924 -334 0
3925 -3924 334 0
3925 3924 -334 0
-3926 3925 336 0
-3926 -3925 -336 0
3926 -3925 336 0
3926 3925 -336 0
-3927 3926 337 0
-3927 -3926 -337 0
3927 -3926 337 0
3927 3926 -337 0
-3928 3927 338 0
-3928 -3927 -338 0
3928 -3927 338 0
3928 3927 -338 0
-3929 3928 340 0
-3929 -3928 -340 0
3929 -3928 340 0
3929 3928 -340 0
-3930 3929 341 0
-3930 -3929 -341 0
3930 -3929 341 0
3930 3929 -341 0
-3931 3930 342 0
-3931 -3930 -342 0
3931 -3930 342 0
3931 3930 -342 0
-3932 3931 344 0
-3932 -3931 -344 0
3932 -3931 344 0
3932 3931 -344 0
-3933 3932 345 0
-3933 -3932 -345 0
3933 -3932 345 0
3933 3932 -345 0
-287 -3933 0
-3934 325 327 0
-3934 -325 -327 0
3934 -325 327 0
3934 325 -327 0
-3935 3934 328 0
-3935 -3934 -328 0
3935 -3934 328 0
3935 3934 -328 0
-3936 3935 329 0
-3936 -3935 -329 0
3936 -3935 329 0
3936 3935 -329 0
-3937 3936 330 0
-3937 -3936 -330 0
3937 -3936 330 0
3937 3936 -330 0
-288 -3937 0
-3938 340 342 0
-3938 -340 -342 0
3938 -340 342 0
3938 340 -342 0
-3939 3938 343 0
-3939 -3938 -343 0
3939 -3938 343 0
3939 3938 -343 0
-3940 3939 344 0
-3940 -3939 -344 0
3940 -3939 344 0
3940 3939 -344 0
-3941 3940 345 0
-3941 -3940 -345 0
3941 -3940 345 0
3941 3940 -345 0
-288 -3941 0
-3942 317 318 0
-3942 -317 -318 0
3942 -317 318 0
3942 317 -318 0
-3943 3942 319 0
-3943 -3942 -319 0
3943 -3942 319 0
3943 3942 -319 0
-3944 3943 325 0
-3944 -3943 -325 0
3944 -3943 325 0
3944 3943 -325 0
-3945 3944 327 0
-3945 -3944 -327 0
3945 -3944 327 0
3945 3944 -327 0
-3946 3945 328 0
-3946 -3945 -328 0
3946 -3945 328 0
3946 3945 -328 0
-3947 3946 329 0
-3947 -3946 -329 0
3947 -3946 329 0
3947 3946 -329 0
-3948 3947 330 0
-3948 -3947 -330 0
3948 -3947 330 0
3948 3947 -330 0
-289 -3948 0
-3949 332 333 0
-3949 -332 -333 0
3949 -332 333 0
3949 332 -333 0
-3950 3949 334 0
-3950 -3949 -334 0
3950 -3949 334 0
3950 3949 -334 0
-3951 3950 340 0
-3951 -3950 -340 0
3951 -3950 340 0
3951 3950 -340 0
-3952 3951 342 0
-3952 -3951 -342 0
3952 -3951 342 0
3952 3951 -342 0
-3953 3952 343 0
-3953 -3952 -343 0
3953 -3952 343 0
3953 3952 -343 0
-3954 3953 344 0
-3954 -3953 -344 0
3954 -3953 344 0
3954 3953 -344 0
-3955 3954 345 0
-3955 -3954 -345 0
3955 -3954 345 0
3955 3954 -345 0
-289 -3955 0
-3956 321 322 0
-3956 -321 -322 0
3956 -321 322 0
3956 321 -322 0
-3957 3956 323 0
-3957 -3956 -323 0
3957 -3956 323 0
3957 3956 -323 0
-3958 3957 325 0
-3958 -3957 -325 0
3958 -3957 325 0
3958 3957 -325 0
-3959 3958 327 0
-3959 -3958 -327 0
3959 -3958 327 0
3959 3958 -327 0
-3960 3959 328 0
-3960 -3959 -328 0
3960 -3959 328 0
3960 3959 -328 0
-3961 3960 329 0
-3961 -3960 -329 0
3961 -3960 329 0
3961 3960 -329 0
-3962 3961 330 0
-3962 -3961 -330 0
3962 -3961 330 0
3962 3961 -330 0
-290 -3962 0
-3963 336 337 0
-3963 -336 -337 0
3963 -336 337 0
3963 336 -337 0
-3964 3963 338 0
-3964 -3963 -338 0
3964 -3963 338 0
3964 3963 -338 0
-3965 3964 340 0
-3965 -3964 -340 0
3965 -3964 340 0
3965 3964 -340 0
-3966 3965 342 0
-3966 -3965 -342 0
3966 -3965 342 0
3966 3965 -342 0
-3967 3966 343 0
-3967 -3966 -343 0
3967 -3966 343 0
3967 3966 -343 0
-3968 3967 344 0
-3968 -3967 -344 0
3968 -3967 344 0
3968 3967 -344 0
-3969 3968 345 0
-3969 -3968 -345 0
3969 -3968 345 0
3969 3968 -345 0
-290 -3969 0
-3970 317 318 0
-3970 -317 -318 0
3970 -317 318 0
3970 317 -318 0
-3971 3970 319 0
-3971 -3970 -319 0
3971 -3970 319 0
3971 3970 -319 0
-3972 3971 321 0
-3972 -3971 -321 0
3972 -3971 321 0
3972 3971 -321 0
-3973 3972 322 0
-3973 -3972 -322 0
3973 -3972 322 0
3973 3972 -322 0
-3974 3973 323 0
-3974 -3973 -323 0
3974 -3973 323 0
3974 3973 -323 0
-3975 3974 325 0
-3975 -3974 -325 0
3975 -3974 325 0
3975 3974 -325 0
-3976 3975 327 0
-3976 -3975 -327 0
3976 -3975 327 0
3976 3975 -327 0
-3977 3976 328 0
-3977 -3976 -328 0
3977 -3976 328 0
3977 3976 -328 0
-3978 3977 329 0
-3978 -3977 -329 0
3978 -3977 329 0
3978 3977 -329 0
-3979 3978 330 0
-3979 -3978 -330 0
3979 -3978 330 0
3979 3978 -330 0
-291 -3979 0
-3980 332 333 0
-3980 -332 -333 0
3980 -332 333 0
3980 332 -333 0
-3981 3980 334 0
-3981 -3980 -334 0
3981 -3980 334 0
3981 3980 -334 0
-3982 3981 336 0
-3982 -3981 -336 0
3982 -3981 336 0
3982 3981 -336 0
-3983 3982 337 0
-3983 -3982 -337 0
3983 -3982 337 0
3983 3982 -337 0
-3984 3983 338 0
-3984 -3983 -338 0
3984 -3983 338 0
3984 3983 -338 0
-3985 3984 340 0
-3985 -3984 -340 0
3985 -3984 340 0
3985 3984 -340 0
-3986 3985 342 0
-3986 -3985 -342 0
3986 -3985 342 0
3986 3985 -342 0
-3987 3986 343 0
-3987 -3986 -343 0
3987 -3986 343 0
3987 3986 -343 0
-3988 3987 344 0
-3988 -3987 -344 0
3988 -3987 344 0
3988 3987 -344 0
-3989 3988 345 0
-3989 -3988 -345 0
3989 -3988 345 0
3989 3988 -345 0
-291 -3989 0
-3990 316 320 0
-3990 -316 -320 0
3990 -316 320 0
3990 316 -320 0
-3991 3990 321 0
-3991 -3990 -321 0
3991 -3990 321 0
3991 3990 -321 0
-3992 3991 322 0
-3992 -3991 -322 0
3992 -3991 322 0
3992 3991 -322 0
-3993 3992 323 0
-3993 -3992 -323 0
3993 -3992 323 0
3993 3992 -323 0
-3994 3993 327 0
-3994 -3993 -327 0
3994 -3993 327 0
3994 3993 -327 0
-3995 3994 329 0
-3995 -3994 -329 0
3995 -3994 329 0
3995 3994 -329 0
-3996 3995 330 0
-3996 -3995 -330 0
3996 -3995 330 0
3996 3995 -330 0
-292 -3996 0
-3997 331 335 0
-3997 -331 -335 0
3997 -331 335 0
3997 331 -335 0
-3998 3997 336 0
-3998 -3997 -336 0
3998 -3997 336 0
3998 3997 -336 0
-3999 3998 337 0
-3999 -3998 -337 0
3999 -3998 337 0
3999 3998 -337 0
-4000 3999 338 0
-4000 -3999 -338 0
4000 -3999 338 0
4000 3999 -338 0
-4001 4000 342 0
-4001 -4000 -342 0
4001 -4000 342 0
4001 4000 -342 0
-4002 4001 344 0
-4002 -4001 -344 0
4002 -4001 344 0
4002 4001 -344 0
-4003 4002 345 0
-4003 -4002 -345 0
4003 -4002 345 0
4003 4002 -345 0
-292 -4003 0
-4004 316 317 0
-4004 -316 -317 0
4004 -316 317 0
4004 316 -317 0
-4005 4004 318 0
-4005 -4004 -318 0
4005 -4004 318 0
4005 4004 -318 0
-4006 4005 319 0
-4006 -4005 -319 0
4006 -4005 319 0
4006 4005 -319 0
-4007 4006 320 0
-4007 -4006 -320 0
4007 -4006 320 0
4007 4006 -320 0
-4008 4007 321 0
-4008 -4007 -321 0
4008 -4007 321 0
4008 4007 -321 0
-4009 4008 322 0
-4009 -4008 -322 0
4009 -4008 322 0
4009 4008 -322 0
-4010 4009 323 0
-4010 -4009 -323 0
4010 -4009 323 0
4010 4009 -323 0
-4011 4010 327 0
-4011 -4010 -327 0
4011 -4010 327 0
4011 4010 -327 0
-4012 4011 329 0
-4012 -4011 -329 0
4012 -4011 329 0
4012 4011 -329 0
-4013 4012 330 0
-4013 -4012 -330 0
4013 -4012 330 0
4013 4012 -330 0
-293 -4013 0
-4014 331 332 0
-4014 -331 -332 0
4014 -331 332 0
4014 331 -332 0
-4015 4014 333 0
-4015 -4014 -333 0
4015 -4014 333 0
4015 4014 -333 0
-4016 4015 334 0
-4016 -4015 -334 0
4016 -4015 334 0
4016 4015 -334 0
-4017 4016 335 0
-4017 -4016 -335 0
4017 -4016 335 0
4017 4016 -335 0
-4018 4017 336 0
-4018 -4017 -336 0
4018 -4017 336 0
4018 4017 -336 0
-4019 4018 337 0
-4019 -4018 -337 0
4019 -4018 337 0
4019 4018 -337 0
-4020 4019 338 0
-4020 -4019 -338 0
4020 -4019 338 0
4020 4019 -338 0
-4021 4020 342 0
-4021 -4020 -342 0
4021 -4020 342 0
4021 4020 -342 0
-4022 4021 344 0
-4022 -4021 -344 0
4022 -4021 344 0
4022 4021 -344 0
-4023 4022 345 0
-4023 -4022 -345 0
4023 -4022 345 0
4023 4022 -345 0
-293 -4023 0
-4024 317 320 0
-4024 -317 -320 0
4024 -317 320 0
4024 317 -320 0
-4025 4024 325 0
-4025 -4024 -325 0
4025 -4024 325 0
4025 4024 -325 0
-4026 4025 326 0
-4026 -4025 -326 0
4026 -4025 326 0
4026 4025 -326 0
-4027 4026 327 0
-4027 -4026 -327 0
4027 -4026 327 0
4027 4026 -327 0
-4028 4027 329 0
-4028 -4027 -329 0
4028 -4027 329 0
4028 4027 -329 0
-4029 4028 330 0
-4029 -4028 -330 0
4029 -4028 330 0
4029 4028 -330 0
-294 -4029 0
-4030 332 335 0
-4030 -332 -335 0
4030 -332 335 0
4030 332 -335 0
-4031 4030 340 0
-4031 -4030 -340 0
4031 -4030 340 0
4031 4030 -340 0
-4032 4031 341 0
-4032 -4031 -341 0
4032 -4031 341 0
4032 4031 -341 0
-4033 4032 342 0
-4033 -4032 -342 0
4033 -4032 342 0
4033 4032 -342 0
-4034 4033 344 0
-4034 -4033 -344 0
4034 -4033 344 0
4034 4033 -344 0
-4035 4034 345 0
-4035 -4034 -345 0
4035 -4034 345 0
4035 4034 -345 0
-294 -4035 0
-4036 318 319 0
-4036 -318 -319 0
4036 -318 319 0
4036 318 -319 0
-4037 4036 320 0
-4037 -4036 -320 0
4037 -4036 320 0
4037 4036 -320 0
-4038 4037 325 0
-4038 -4037 -325 0
4038 -4037 325 0
4038 4037 -325 0
-4039 4038 326 0
-4039 -4038 -326 0
4039 -4038 326 0
4039 4038 -326 0
-4040 4039 327 0
-4040 -4039 -327 0
4040 -4039 327 0
4040 4039 -327 0
-4041 4040 329 0
-4041 -4040 -329 0
4041 -4040 329 0
4041 4040 -329 0
-4042 4041 330 0
-4042 -4041 -330 0
4042 -4041 330 0
4042 4041 -330 0
-295 -4042 0
-4043 333 334 0
-4043 -333 -334 0
4043 -333 334 0
4043 333 -334 0
-4044 4043 335 0
-4044 -4043 -335 0
4044 -4043 335 0
4044 4043 -335 0
-4045 4044 340 0
-4045 -4044 -340 0
4045 -4044 340 0
4045 4044 -340 0
-4046 4045 341 0
-4046 -4045 -341 0
4046 -4045 341 0
4046 4045 -341 0
-4047 4046 342 0
-4047 -4046 -342 0
4047 -4046 342 0
4047 4046 -342 0
-4048 4047 344 0
-4048 -4047 -344 0
4048 -4047 344 0
4048 4047 -344 0
-4049 4048 345 0
-4049 -4048 -345 0
4049 -4048 345 0
4049 4048 -345 0
-295 -4049 0
-4050 318 320 0
-4050 -318 -320 0
4050 -318 320 0
4050 318 -320 0
-4051 4050 325 0
-4051 -4050 -325 0
4051 -4050 325 0
4051 4050 -325 0
-4052 4051 327 0
-4052 -4051 -327 0
4052 -4051 327 0
4052 4051 -327 0
-4053 4052 328 0
-4053 -4052 -328 0
4053 -4052 328 0
4053 4052 -328 0
-4054 4053 329 0
-4054 -4053 -329 0
4054 -4053 329 0
4054 4053 -329 0
-4055 4054 330 0
-4055 -4054 -330 0
4055 -4054 330 0
4055 4054 -330 0
-296 -4055 0
-4056 333 335 0
-4056 -333 -335 0
4056 -333 335 0
4056 333 -335 0
-4057 4056 340 0
-4057 -4056 -340 0
4057 -4056 340 0
4057 4056 -340 0
-4058 4057 342 0
-4058 -4057 -342 0
4058 -4057 342 0
4058 4057 -342 0
-4059 4058 343 0
-4059 -4058 -343 0
4059 -4058 343 0
4059 4058 -343 0
-4060 4059 344 0
-4060 -4059 -344 0
4060 -4059 344 0
4060 4059 -344 0
-4061 4060 345 0
-4061 -4060 -345 0
4061 -4060 345 0
4061 4060 -345 0
-296 -4061 0
-4062 317 319 0
-4062 -317 -319 0
4062 -317 319 0
4062 317 -319 0
-4063 4062 320 0
-4063 -4062 -320 0
4063 -4062 320 0
4063 4062 -320 0
-4064 4063 325 0
-4064 -4063 -325 0
4064 -4063 325 0
4064 4063 -325 0
-4065 4064 327 0
-4065 -4064 -327 0
4065 -4064 327 0
4065 4064 -327 0
-4066 4065 328 0
-4066 -4065 -328 0
4066 -4065 328 0
4066 4065 -328 0
-4067 4066 329 0
-4067 -4066 -329 0
4067 -4066 329 0
4067 4066 -329 0
-4068 4067 330 0
-4068 -4067 -330 0
4068 -4067 330 0
4068 4067 -330 0
-297 -4068 0
-4069 332 334 0
-4069 -332 -334 0
4069 -332 334 0
4069 332 -334 0
-4070 4069 335 0
-4070 -4069 -335 0
4070 -4069 335 0
4070 4069 -335 0
-4071 4070 340 0
-4071 -4070 -340 0
4071 -4070 340 0
4071 4070 -340 0
-4072 4071 342 0
-4072 -4071 -342 0
4072 -4071 342 0
4072 4071 -342 0
-4073 4072 343 0
-4073 -4072 -343 0
4073 -4072 343 0
4073 4072 -343 0
-4074 4073 344 0
-4074 -4073 -344 0
4074 -4073 344 0
4074 4073 -344 0
-4075 4074 345 0
-4075 -4074 -345 0
4075 -4074 345 0
4075 4074 -345 0
-297 -4075 0
-4076 316 317 0
-4076 -316 -317 0
4076 -316 317 0
4076 316 -317 0
-4077 4076 318 0
-4077 -4076 -318 0
4077 -4076 318 0
4077 4076 -318 0
-4078 4077 320 0
-4078 -4077 -320 0
4078 -4077 320 0
4078 4077 -320 0
-4079 4078 321 0
-4079 -4078 -321 0
4079 -4078 321 0
4079 4078 -321 0
-4080 4079 322 0
-4080 -4079 -322 0
4080 -4079 322 0
4080 4079 -322 0
-4081 4080 323 0
-4081 -4080 -323 0
4081 -4080 323 0
4081 4080 -323 0
-4082 4081 326 0
-4082 -4081 -326 0
4082 -4081 326 0
4082 4081 -326 0
-4083 4082 327 0
-4083 -4082 -327 0
4083 -4082 327 0
4083 4082 -327 0
-4084 4083 328 0
-4084 -4083 -328 0
4084 -4083 328 0
4084 4083 -328 0
-4085 4084 329 0
-4085 -4084 -329 0
4085 -4084 329 0
4085 4084 -329 0
-4086 4085 330 0
-4086 -4085 -330 0
4086 -4085 330 0
4086 4085 -330 0
-298 -4086 0
-4087 331 332 0
-4087 -331 -332 0
4087 -331 332 0
4087 331 -332 0
-4088 4087 333 0
-4088 -4087 -333 0
4088 -4087 333 0
4088 4087 -333 0
-4089 4088 335 0
-4089 -4088 -335 0
4089 -4088 335 0
4089 4088 -335 0
-4090 4089 336 0
-4090 -4089 -336 0
4090 -4089 336 0
4090 4089 -336 0
-4091 4090 337 0
-4091 -4090 -337 0
4091 -4090 337 0
4091 4090 -337 0
-4092 4091 338 0
-4092 -4091 -338 0
4092 -4091 338 0
4092 4091 -338 0
-4093 4092 341 0
-4093 -4092 -341 0
4093 -4092 341 0
4093 4092 -341 0
-4094 4093 342 0
-4094 -4093 -342 0
4094 -4093 342 0
4094 4093 -342 0
-4095 4094 343 0
-4095 -4094 -343 0
4095 -4094 343 0
4095 4094 -343 0
-4096 4095 344 0
-4096 -4095 -344 0
4096 -4095 344 0
4096 4095 -344 0
-4097 4096 345 0
-4097 -4096 -345 0
4097 -4096 345 0
4097 4096 -345 0
-298 -4097 0
-4098 316 319 0
-4098 -316 -319 0
4098 -316 319 0
4098 316 -319 0
-4099 4098 320 0
-4099 -4098 -320 0
4099 -4098 320 0
4099 4098 -320 0
-4100 4099 321 0
-4100 -4099 -321 0
4100 -4099 321 0
4100 4099 -321 0
-4101 4100 322 0
-4101 -4100 -322 0
4101 -4100 322 0
4101 4100 -322 0
-4102 4101 323 0
-4102 -4101 -323 0
4102 -4101 323 0
4102 4101 -323 0
-4103 4102 326 0
-4103 -4102 -326 0
4103 -4102 326 0
4103 4102 -326 0
-4104 4103 327 0
-4104 -4103 -327 0
4104 -4103 327 0
4104 4103 -327 0
-4105 4104 328 0
-4105 -4104 -328 0
4105 -4104 328 0
4105 4104 -328 0
-4106 4105 329 0
-4106 -4105 -329 0
4106 -4105 329 0
4106 4105 -329 0
-4107 4106 330 0
-4107 -4106 -330 0
4107 -4106 330 0
4107 4106 -330 0
-299 -4107 0
-4108 331 334 0
-4108 -331 -334 0
4108 -331 334 0
4108 331 -334 0
-4109 4108 335 0
-4109 -4108 -335 0
4109 -4108 335 0
4109 4108 -335 0
-4110 4109 336 0
-4110 -4109 -336 0
4110 -4109 336 0
4110 4109 -336 0
-4111 4110 337 0
-4111 -4110 -337 0
4111 -4110 337 0
4111 4110 -337 0
-4112 4111 338 0
-4112 -4111 -338 0
4112 -4111 338 0
4112 4111 -338 0
-4113 4112 341 0
-4113 -4112 -341 0
4113 -4112 341 0
4113 4112 -341 0
-4114 4113 342 0
-4114 -4113 -342 0
4114 -4113 342 0
4114 4113 -342 0
-4115 4114 343 0
-4115 -4114 -343 0
4115 -4114 343 0
4115 4114 -343 0
-4116 4115 344 0
-4116 -4115 -344 0
4116 -4115 344 0
4116 4115 -344 0
-4117 4116 345 0
-4117 -4116 -345 0
4117 -4116 345 0
4117 4116 -345 0
-299 -4117 0
-4118 316 317 0
-4118 -316 -317 0
4118 -316 317 0
4118 316 -317 0
-4119 4118 318 0
-4119 -4118 -318 0
4119 -4118 318 0
4119 4118 -318 0
-4120 4119 319 0
-4120 -4119 -319 0
4120 -4119 319 0
4120 4119 -319 0
-4121 4120 324 0
-4121 -4120 -324 0
4121 -4120 324 0
4121 4120 -324 0
-4122 4121 327 0
-4122 -4121 -327 0
4122 -4121 327 0
4122 4121 -327 0
-4123 4122 329 0
-4123 -4122 -329 0
4123 -4122 329 0
4123 4122 -329 0
-4124 4123 330 0
-4124 -4123 -330 0
4124 -4123 330 0
4124 4123 -330 0
-300 -4124 0
-4125 331 332 0
-4125 -331 -332 0
4125 -331 332 0
4125 331 -332 0
-4126 4125 333 0
-4126 -4125 -333 0
4126 -4125 333 0
4126 4125 -333 0
-4127 4126 334 0
-4127 -4126 -334 0
4127 -4126 334 0
4127 4126 -334 0
-4128 4127 339 0
-4128 -4127 -339 0
4128 -4127 339 0
4128 4127 -339 0
-4129 4128 342 0
-4129 -4128 -342 0
4129 -4128 342 0
4129 4128 -342 0
-4130 4129 344 0
-4130 -4129 -344 0
4130 -4129 344 0
4130 4129 -344 0
-4131 4130 345 0
-4131 -4130 -345 0
4131 -4130 345 0
4131 4130 -345 0
-300 -4131 0
-4132 316 317 0
-4132 -316 -317 0
4132 -316 317 0
4132 316 -317 0
-4133 4132 318 0
-4133 -4132 -318 0
4133 -4132 318 0
4133 4132 -318 0
-4134 4133 319 0
-4134 -4133 -319 0
4134 -4133 319 0
4134 4133 -319 0
-4135 4134 321 0
-4135 -4134 -321 0
4135 -4134 321 0
4135 4134 -321 0
-4136 4135 322 0
-4136 -4135 -322 0
4136 -4135 322 0
4136 4135 -322 0
-4137 4136 323 0
-4137 -4136 -323 0
4137 -4136 323 0
4137 4136 -323 0
-4138 4137 324 0
-4138 -4137 -324 0
4138 -4137 324 0
4138 4137 -324 0
-4139 4138 327 0
-4139 -4138 -327 0
4139 -4138 327 0
4139 4138 -327 0
-4140 4139 329 0
-4140 -4139 -329 0
4140 -4139 329 0
4140 4139 -329 0
-4141 4140 330 0
-4141 -4140 -330 0
4141 -4140 330 0
4141 4140 -330 0
-301 -4141 0
-4142 331 332 0
-4142 -331 -332 0
4142 -331 332 0
4142 331 -332 0
-4143 4142 333 0
-4143 -4142 -333 0
4143 -4142 333 0
4143 4142 -333 0
-4144 4143 334 0
-4144 -4143 -334 0
4144 -4143 334 0
4144 4143 -334 0
-4145 4144 336 0
-4145 -4144 -336 0
4145 -4144 336 0
4145 4144 -336 0
-4146 4145 337 0
-4146 -4145 -337 0
4146 -4145 337 0
4146 4145 -337 0
-4147 4146 338 0
-4147 -4146 -338 0
4147 -4146 338 0
4147 4146 -338 0
-4148 4147 339 0
-4148 -4147 -339 0
4148 -4147 339 0
4148 4147 -339 0
-4149 4148 342 0
-4149 -4148 -342 0
4149 -4148 342 0
4149 4148 -342 0
-4150 4149 344 0
-4150 -4149 -344 0
4150 -4149 344 0
4150 4149 -344 0
-4151 4150 345 0
-4151 -4150 -345 0
4151 -4150 345 0
4151 4150 -345 0
-301 -4151 0
-4152 321 324 0
-4152 -321 -324 0
4152 -321 324 0
4152 321 -324 0
-4153 4152 325 0
-4153 -4152 -325 0
4153 -4152 325 0
4153 4152 -325 0
-4154 4153 326 0
-4154 -4153 -326 0
4154 -4153 326 0
4154 4153 -326 0
-4155 4154 327 0
-4155 -4154 -327 0
4155 -4154 327 0
4155 4154 -327 0
-4156 4155 329 0
-4156 -4155 -329 0
4156 -4155 329 0
4156 4155 -329 0
-4157 4156 330 0
-4157 -4156 -330 0
4157 -4156 330 0
4157 4156 -330 0
-302 -4157 0
-4158 336 339 0
-4158 -336 -339 0
4158 -336 339 0
4158 336 -339 0
-4159 4158 340 0
-4159 -4158 -340 0
4159 -4158 340 0
4159 4158 -340 0
-4160 4159 341 0
-4160 -4159 -341 0
4160 -4159 341 0
4160 4159 -341 0
-4161 4160 342 0
-4161 -4160 -342 0
4161 -4160 342 0
4161 4160 -342 0
-4162 4161 344 0
-4162 -4161 -344 0
4162 -4161 344 0
4162 4161 -344 0
-4163 4162 345 0
-4163 -4162 -345 0
4163 -4162 345 0
4163 4162 -345 0
-302 -4163 0
-4164 322 323 0
-4164 -322 -323 0
4164 -322 323 0
4164 322 -323 0
-4165 4164 324 0
-4165 -4164 -324 0
4165 -4164 324 0
4165 4164 -324 0
-4166 4165 325 0
-4166 -4165 -325 0
4166 -4165 325 0
4166 4165 -325 0
-4167 4166 326 0
-4167 -4166 -326 0
4167 -4166 326 0
4167 4166 -326 0
-4168 4167 327 0
-4168 -4167 -327 0
4168 -4167 327 0
4168 4167 -327 0
-4169 4168 329 0
-4169 -4168 -329 0
4169 -4168 329 0
4169 4168 -329 0
-4170 4169 330 0
-4170 -4169 -330 0
4170 -4169 330 0
4170 4169 -330 0
-303 -4170 0
-4171 337 338 0
-4171 -337 -338 0
4171 -337 338 0
4171 337 -338 0
-4172 4171 339 0
-4172 -4171 -339 0
4172 -4171 339 0
4172 4171 -339 0
-4173 4172 340 0
-4173 -4172 -340 0
4173 -4172 340 0
4173 4172 -340 0
-4174 4173 341 0
-4174 -4173 -341 0
4174 -4173 341 0
4174 4173 -341 0
-4175 4174 342 0
-4175 -4174 -342 0
4175 -4174 342 0
4175 4174 -342 0
-4176 4175 344 0
-4176 -4175 -344 0
4176 -4175 344 0
4176 4175 -344 0
-4177 4176 345 0
-4177 -4176 -345 0
4177 -4176 345 0
4177 4176 -345 0
-303 -4177 0
-4178 322 324 0
-4178 -322 -324 0
4178 -322 324 0
4178 322 -324 0
-4179 4178 325 0
-4179 -4178 -325 0
4179 -4178 325 0
4179 4178 -325 0
-4180 4179 327 0
-4180 -4179 -327 0
4180 -4179 327 0
4180 4179 -327 0
-4181 4180 328 0
-4181 -4180 -328 0
4181 -4180 328 0
4181 4180 -328 0
-4182 4181 329 0
-4182 -4181 -329 0
4182 -4181 329 0
4182 4181 -329 0
-4183 4182 330 0
-4183 -4182 -330 0
4183 -4182 330 0
4183 4182 -330 0
-304 -4183 0
-4184 337 339 0
-4184 -337 -339 0
4184 -337 339 0
4184 337 -339 0
-4185 4184 340 0
-4185 -4184 -340 0
4185 -4184 340 0
4185 4184 -340 0
-4186 4185 342 0
-4186 -4185 -342 0
4186 -4185 342 0
4186 4185 -342 0
-4187 4186 343 0
-4187 -4186 -343 0
4187 -4186 343 0
4187 4186 -343 0
-4188 4187 344 0
-4188 -4187 -344 0
4188 -4187 344 0
4188 4187 -344 0
-4189 4188 345 0
-4189 -4188 -345 0
4189 -4188 345 0
4189 4188 -345 0
-304 -4189 0
-4190 321 323 0
-4190 -321 -323 0
4190 -321 323 0
4190 321 -323 0
-4191 4190 324 0
-4191 -4190 -324 0
4191 -4190 324 0
4191 4190 -324 0
-4192 4191 325 0
-4192 -4191 -325 0
4192 -4191 325 0
4192 4191 -325 0
-4193 4192 327 0
-4193 -4192 -327 0
4193 -4192 327 0
4193 4192 -327 0
-4194 4193 328 0
-4194 -4193 -328 0
4194 -4193 328 0
4194 4193 -328 0
-4195 4194 329 0
-4195 -4194 -329 0
4195 -4194 329 0
4195 4194 -329 0
-4196 4195 330 0
-4196 -4195 -330 0
4196 -4195 330 0
4196 4195 -330 0
-305 -4196 0
-4197 336 338 0
-4197 -336 -338 0
4197 -336 338 0
4197 336 -338 0
-4198 4197 339 0
-4198 -4197 -339 0
4198 -4197 339 0
4198 4197 -339 0
-4199 4198 340 0
-4199 -4198 -340 0
4199 -4198 340 0
4199 4198 -340 0
-4200 4199 342 0
-4200 -4199 -342 0
4200 -4199 342 0
4200 4199 -342 0
-4201 4200 343 0
-4201 -4200 -343 0
4201 -4200 343 0
4201 4200 -343 0
-4202 4201 344 0
-4202 -4201 -344 0
4202 -4201 344 0
4202 4201 -344 0
-4203 4202 345 0
-4203 -4202 -345 0
4203 -4202 345 0
4203 4202 -345 0
-305 -4203 0
-4204 316 317 0
-4204 -316 -317 0
4204 -316 317 0
4204 316 -317 0
-4205 4204 318 0
-4205 -4204 -318 0
4205 -4204 318 0
4205 4204 -318 0
-4206 4205 319 0
-4206 -4205 -319 0
4206 -4205 319 0
4206 4205 -319 0
-4207 4206 321 0
-4207 -4206 -321 0
4207 -4206 321 0
4207 4206 -321 0
-4208 4207 322 0
-4208 -4207 -322 0
4208 -4207 322 0
4208 4207 -322 0
-4209 4208 324 0
-4209 -4208 -324 0
4209 -4208 324 0
4209 4208 -324 0
-4210 4209 326 0
-4210 -4209 -326 0
4210 -4209 326 0
4210 4209 -326 0
-4211 4210 327 0
-4211 -4210 -327 0
4211 -4210 327 0
4211 4210 -327 0
-4212 4211 328 0
-4212 -4211 -328 0
4212 -4211 328 0
4212 4211 -328 0
-4213 4212 329 0
-4213 -4212 -329 0
4213 -4212 329 0
4213 4212 -329 0
-4214 4213 330 0
-4214 -4213 -330 0
4214 -4213 330 0
4214 4213 -330 0
-306 -4214 0
-4215 331 332 0
-4215 -331 -332 0
4215 -331 332 0
4215 331 -332 0
-4216 4215 333 0
-4216 -4215 -333 0
4216 -4215 333 0
4216 4215 -333 0
-4217 4216 334 0
-4217 -4216 -334 0
4217 -4216 334 0
4217 4216 -334 0
-4218 4217 336 0
-4218 -4217 -336 0
4218 -4217 336 0
4218 4217 -336 0
-4219 4218 337 0
-4219 -4218 -337 0
4219 -4218 337 0
4219 4218 -337 0
-4220 4219 339 0
-4220 -4219 -339 0
4220 -4219 339 0
4220 4219 -339 0
-4221 4220 341 0
-4221 -4220 -341 0
4221 -4220 341 0
4221 4220 -341 0
-4222 4221 342 0
-4222 -4221 -342 0
4222 -4221 342 0
4222 4221 -342 0
-4223 4222 343 0
-4223 -4222 -343 0
4223 -4222 343 0
4223 4222 -343 0
-4224 4223 344 0
-4224 -4223 -344 0
4224 -4223 344 0
4224 4223 -344 0
-4225 4224 345 0
-4225 -4224 -345 0
4225 -4224 345 0
4225 4224 -345 0
-306 -4225 0
-4226 316 317 0
-4226 -316 -317 0
4226 -316 317 0
4226 316 -317 0
-4227 4226 318 0
-4227 -4226 -318 0
4227 -4226 318 0
4227 4226 -318 0
-4228 4227 319 0
-4228 -4227 -319 0
4228 -4227 319 0
4228 4227 -319 0
-4229 4228 323 0
-4229 -4228 -323 0
4229 -4228 323 0
4229 4228 -323 0
-4230 4229 324 0
-4230 -4229 -324 0
4230 -4229 324 0
4230 4229 -324 0
-4231 4230 326 0
-4231 -4230 -326 0
4231 -4230 326 0
4231 4230 -326 0
-4232 4231 327 0
-4232 -4231 -327 0
4232 -4231 327 0
4232 4231 -327 0
-4233 4232 328 0
-4233 -4232 -328 0
4233 -4232 328 0
4233 4232 -328 0
-4234 4233 329 0
-4234 -4233 -329 0
4234 -4233 329 0
4234 4233 -329 0
-4235 4234 330 0
-4235 -4234 -330 0
4235 -4234 330 0
4235 4234 -330 0
-307 -4235 0
-4236 331 332 0
-4236 -331 -332 0
4236 -331 332 0
4236 331 -332 0
-4237 4236 333 0
-4237 -4236 -333 0
4237 -4236 333 0
4237 4236 -333 0
-4238 4237 334 0
-4238 -4237 -334 0
4238 -4237 334 0
4238 4237 -334 0
-4239 4238 338 0
-4239 -4238 -338 0
4239 -4238 338 0
4239 4238 -338 0
-4240 4239 339 0
-4240 -4239 -339 0
4240 -4239 339 0
4240 4239 -339 0
-4241 4240 341 0
-4241 -4240 -341 0
4241 -4240 341 0
4241 4240 -341 0
-4242 4241 342 0
-4242 -4241 -342 0
4242 -4241 342 0
4242 4241 -342 0
-4243 4242 343 0
-4243 -4242 -343 0
4243 -4242 343 0
4243 4242 -343 0
-4244 4243 344 0
-4244 -4243 -344 0
4244 -4243 344 0
4244 4243 -344 0
-4245 4244 345 0
-4245 -4244 -345 0
4245 -4244 345 0
4245 4244 -345 0
-307 -4245 0
-4246 316 317 0
-4246 -316 -317 0
4246 -316 317 0
4246 316 -317 0
-4247 4246 318 0
-4247 -4246 -318 0
4247 -4246 318 0
4247 4246 -318 0
-4248 4247 319 0
-4248 -4247 -319 0
4248 -4247 319 0
4248 4247 -319 0
-4249 4248 320 0
-4249 -4248 -320 0
4249 -4248 320 0
4249 4248 -320 0
-4250 4249 324 0
-4250 -4249 -324 0
4250 -4249 324 0
4250 4249 -324 0
-4251 4250 327 0
-4251 -4250 -327 0
4251 -4250 327 0
4251 4250 -327 0
-4252 4251 329 0
-4252 -4251 -329 0
4252 -4251 329 0
4252 4251 -329 0
-4253 4252 330 0
-4253 -4252 -330 0
4253 -4252 330 0
4253 4252 -330 0
-308 -4253 0
-4254 331 332 0
-4254 -331 -332 0
4254 -331 332 0
4254 331 -332 0
-4255 4254 333 0
-4255 -4254 -333 0
4255 -4254 333 0
4255 4254 -333 0
-4256 4255 334 0
-4256 -4255 -334 0
4256 -4255 334 0
4256 4255 -334 0
-4257 4256 335 0
-4257 -4256 -335 0
4257 -4256 335 0
4257 4256 -335 0
-4258 4257 339 0
-4258 -4257 -339 0
4258 -4257 339 0
4258 4257 -339 0
-4259 4258 342 0
-4259 -4258 -342 0
4259 -4258 342 0
4259 4258 -342 0
-4260 4259 344 0
-4260 -4259 -344 0
4260 -4259 344 0
4260 4259 -344 0
-4261 4260 345 0
-4261 -4260 -345 0
4261 -4260 345 0
4261 4260 -345 0
-308 -4261 0
-4262 316 320 0
-4262 -316 -320 0
4262 -316 320 0
4262 316 -320 0
-4263 4262 321 0
-4263 -4262 -321 0
4263 -4262 321 0
4263 4262 -321 0
-4264 4263 322 0
-4264 -4263 -322 0
4264 -4263 322 0
4264 4263 -322 0
-4265 4264 323 0
-4265 -4264 -323 0
4265 -4264 323 0
4265 4264 -323 0
-4266 4265 324 0
-4266 -4265 -324 0
4266 -4265 324 0
4266 4265 -324 0
-4267 4266 327 0
-4267 -4266 -327 0
4267 -4266 327 0
4267 4266 -327 0
-4268 4267 329 0
-4268 -4267 -329 0
4268 -4267 329 0
4268 4267 -329 0
-4269 4268 330 0
-4269 -4268 -330 0
4269 -4268 330 0
4269 4268 -330 0
-309 -4269 0
-4270 331 335 0
-4270 -331 -335 0
4270 -331 335 0
4270 331 -335 0
-4271 4270 336 0
-4271 -4270 -336 0
4271 -4270 336 0
4271 4270 -336 0
-4272 4271 337 0
-4272 -4271 -337 0
4272 -4271 337 0
4272 4271 -337 0
-4273 4272 338 0
-4273 -4272 -338 0
4273 -4272 338 0
4273 4272 -338 0
-4274 4273 339 0
-4274 -4273 -339 0
4274 -4273 339 0
4274 4273 -339 0
-4275 4274 342 0
-4275 -4274 -342 0
4275 -4274 342 0
4275 4274 -342 0
-4276 4275 344 0
-4276 -4275 -344 0
4276 -4275 344 0
4276 4275 -344 0
-4277 4276 345 0
-4277 -4276 -345 0
4277 -4276 345 0
4277 4276 -345 0
-309 -4277 0
-4278 317 320 0
-4278 -317 -320 0
4278 -317 320 0
4278 317 -320 0
-4279 4278 321 0
-4279 -4278 -321 0
4279 -4278 321 0
4279 4278 -321 0
-4280 4279 324 0
-4280 -4279 -324 0
4280 -4279 324 0
4280 4279 -324 0
-4281 4280 325 0
-4281 -4280 -325 0
4281 -4280 325 0
4281 4280 -325 0
-4282 4281 326 0
-4282 -4281 -326 0
4282 -4281 326 0
4282 4281 -326 0
-4283 4282 327 0
-4283 -4282 -327 0
4283 -4282 327 0
4283 4282 -327 0
-4284 4283 329 0
-4284 -4283 -329 0
4284 -4283 329 0
4284 4283 -329 0
-4285 4284 330 0
-4285 -4284 -330 0
4285 -4284 330 0
4285 4284 -330 0
-310 -4285 0
-4286 332 335 0
-4286 -332 -335 0
4286 -332 335 0
4286 332 -335 0
-4287 4286 336 0
-4287 -4286 -336 0
4287 -4286 336 0
4287 4286 -336 0
-4288 4287 339 0
-4288 -4287 -339 0
4288 -4287 339 0
4288 4287 -339 0
-4289 4288 340 0
-4289 -4288 -340 0
4289 -4288 340 0
4289 4288 -340 0
-4290 4289 341 0
-4290 -4289 -341 0
4290 -4289 341 0
4290 4289 -341 0
-4291 4290 342 0
-4291 -4290 -342 0
4291 -4290 342 0
4291 4290 -342 0
-4292 4291 344 0
-4292 -4291 -344 0
4292 -4291 344 0
4292 4291 -344 0
-4293 4292 345 0
-4293 -4292 -345 0
4293 -4292 345 0
4293 4292 -345 0
-310 -4293 0
-4294 318 319 0
-4294 -318 -319 0
4294 -318 319 0
4294 318 -319 0
-4295 4294 320 0
-4295 -4294 -320 0
4295 -4294 320 0
4295 4294 -320 0
-4296 4295 322 0
-4296 -4295 -322 0
4296 -4295 322 0
4296 4295 -322 0
-4297 4296 323 0
-4297 -4296 -323 0
4297 -4296 323 0
4297 4296 -323 0
-4298 4297 324 0
-4298 -4297 -324 0
4298 -4297 324 0
4298 4297 -324 0
-4299 4298 325 0
-4299 -4298 -325 0
4299 -4298 325 0
4299 4298 -325 0
-4300 4299 326 0
-4300 -4299 -326 0
4300 -4299 326 0
4300 4299 -326 0
-4301 4300 327 0
-4301 -4300 -327 0
4301 -4300 327 0
4301 4300 -327 0
-4302 4301 329 0
-4302 -4301 -329 0
4302 -4301 329 0
4302 4301 -329 0
-4303 4302 330 0
-4303 -4302 -330 0
4303 -4302 330 0
4303 4302 -330 0
-311 -4303 0
-4304 333 334 0
-4304 -333 -334 0
4304 -333 334 0
4304 333 -334 0
-4305 4304 335 0
-4305 -4304 -335 0
4305 -4304 335 0
4305 4304 -335 0
-4306 4305 337 0
-4306 -4305 -337 0
4306 -4305 337 0
4306 4305 -337 0
-4307 4306 338 0
-4307 -4306 -338 0
4307 -4306 338 0
4307 4306 -338 0
-4308 4307 339 0
-4308 -4307 -339 0
4308 -4307 339 0
4308 4307 -339 0
-4309 4308 340 0
-4309 -4308 -340 0
4309 -4308 340 0
4309 4308 -340 0
-4310 4309 341 0
-4310 -4309 -341 0
4310 -4309 341 0
4310 4309 -341 0
-4311 4310 342 0
-4311 -4310 -342 0
4311 -4310 342 0
4311 4310 -342 0
-4312 4311 344 0
-4312 -4311 -344 0
4312 -4311 344 0
4312 4311 -344 0
-4313 4312 345 0
-4313 -4312 -345 0
4313 -4312 345 0
4313 4312 -345 0
-311 -4313 0
-4314 318 320 0
-4314 -318 -320 0
4314 -318 320 0
4314 318 -320 0
-4315 4314 322 0
-4315 -4314 -322 0
4315 -4314 322 0
4315 4314 -322 0
-4316 4315 324 0
-4316 -4315 -324 0
4316 -4315 324 0
4316 4315 -324 0
-4317 4316 325 0
-4317 -4316 -325 0
4317 -4316 325 0
4317 4316 -325 0
-4318 4317 327 0
-4318 -4317 -327 0
4318 -4317 327 0
4318 4317 -327 0
-4319 4318 328 0
-4319 -4318 -328 0
4319 -4318 328 0
4319 4318 -328 0
-4320 4319 329 0
-4320 -4319 -329 0
4320 -4319 329 0
4320 4319 -329 0
-4321 4320 330 0
-4321 -4320 -330 0
4321 -4320 330 0
4321 4320 -330 0
-312 -4321 0
-4322 333 335 0
-4322 -333 -335 0
4322 -333 335 0
4322 333 -335 0
-4323 4322 337 0
-4323 -4322 -337 0
4323 -4322 337 0
4323 4322 -337 0
-4324 4323 339 0
-4324 -4323 -339 0
4324 -4323 339 0
4324 4323 -339 0
-4325 4324 340 0
-4325 -4324 -340 0
4325 -4324 340 0
4325 4324 -340 0
-4326 4325 342 0
-4326 -4325 -342 0
4326 -4325 342 0
4326 4325 -342 0
-4327 4326 343 0
-4327 -4326 -343 0
4327 -4326 343 0
4327 4326 -343 0
-4328 4327 344 0
-4328 -4327 -344 0
4328 -4327 344 0
4328 4327 -344 0
-4329 4328 345 0
-4329 -4328 -345 0
4329 -4328 345 0
4329 4328 -345 0
-312 -4329 0
-4330 317 319 0
-4330 -317 -319 0
4330 -317 319 0
4330 317 -319 0
-4331 4330 320 0
-4331 -4330 -320 0
4331 -4330 320 0
4331 4330 -320 0
-4332 4331 321 0
-4332 -4331 -321 0
4332 -4331 321 0
4332 4331 -321 0
-4333 4332 323 0
-4333 -4332 -323 0
4333 -4332 323 0
4333 4332 -323 0
-4334 4333 324 0
-4334 -4333 -324 0
4334 -4333 324 0
4334 4333 -324 0
-4335 4334 325 0
-4335 -4334 -325 0
4335 -4334 325 0
4335 4334 -325 0
-4336 4335 327 0
-4336 -4335 -327 0
4336 -4335 327 0
4336 4335 -327 0
-4337 4336 328 0
-4337 -4336 -328 0
4337 -4336 328 0
4337 4336 -328 0
-4338 4337 329 0
-4338 -4337 -329 0
4338 -4337 329 0
4338 4337 -329 0
-4339 4338 330 0
-4339 -4338 -330 0
4339 -4338 330 0
4339 4338 -330 0
-313 -4339 0
-4340 332 334 0
-4340 -332 -334 0
4340 -332 334 0
4340 332 -334 0
-4341 4340 335 0
-4341 -4340 -335 0
4341 -4340 335 0
4341 4340 -335 0
-4342 4341 336 0
-4342 -4341 -336 0
4342 -4341 336 0
4342 4341 -336 0
-4343 4342 338 0
-4343 -4342 -338 0
4343 -4342 338 0
4343 4342 -338 0
-4344 4343 339 0
-4344 -4343 -339 0
4344 -4343 339 0
4344 4343 -339 0
-4345 4344 340 0
-4345 -4344 -340 0
4345 -4344 340 0
4345 4344 -340 0
-4346 4345 342 0
-4346 -4345 -342 0
4346 -4345 342 0
4346 4345 -342 0
-4347 4346 343 0
-4347 -4346 -343 0
4347 -4346 343 0
4347 4346 -343 0
-4348 4347 344 0
-4348 -4347 -344 0
4348 -4347 344 0
4348 4347 -344 0
-4349 4348 345 0
-4349 -4348 -345 0
4349 -4348 345 0
4349 4348 -345 0
-313 -4349 0
-4350 316 319 0
-4350 -316 -319 0
4350 -316 319 0
4350 316 -319 0
-4351 4350 320 0
-4351 -4350 -320 0
4351 -4350 320 0
4351 4350 -320 0
-4352 4351 321 0
-4352 -4351 -321 0
4352 -4351 321 0
4352 4351 -321 0
-4353 4352 322 0
-4353 -4352 -322 0
4353 -4352 322 0
4353 4352 -322 0
-4354 4353 324 0
-4354 -4353 -324 0
4354 -4353 324 0
4354 4353 -324 0
-4355 4354 326 0
-4355 -4354 -326 0
4355 -4354 326 0
4355 4354 -326 0
-4356 4355 327 0
-4356 -4355 -327 0
4356 -4355 327 0
4356 4355 -327 0
-4357 4356 328 0
-4357 -4356 -328 0
4357 -4356 328 0
4357 4356 -328 0
-4358 4357 329 0
-4358 -4357 -329 0
4358 -4357 329 0
4358 4357 -329 0
-4359 4358 330 0
-4359 -4358 -330 0
4359 -4358 330 0
4359 4358 -330 0
-314 -4359 0
-4360 331 334 0
-4360 -331 -334 0
4360 -331 334 0
4360 331 -334 0
-4361 4360 335 0
-4361 -4360 -335 0
4361 -4360 335 0
4361 4360 -335 0
-4362 4361 336 0
-4362 -4361 -336 0
4362 -4361 336 0
4362 4361 -336 0
-4363 4362 337 0
-4363 -4362 -337 0
4363 -4362 337 0
4363 4362 -337 0
-4364 4363 339 0
-4364 -4363 -339 0
4364 -4363 339 0
4364 4363 -339 0
-4365 4364 341 0
-4365 -4364 -341 0
4365 -4364 341 0
4365 4364 -341 0
-4366 4365 342 0
-4366 -4365 -342 0
4366 -4365 342 0
4366 4365 -342 0
-4367 4366 343 0
-4367 -4366 -343 0
4367 -4366 343 0
4367 4366 -343 0
-4368 4367 344 0
-4368 -4367 -344 0
4368 -4367 344 0
4368 4367 -344 0
-4369 4368 345 0
-4369 -4368 -345 0
4369 -4368 345 0
4369 4368 -345 0
-314 -4369 0
-4370 316 317 0
-4370 -316 -317 0
4370 -316 317 0
4370 316 -317 0
-4371 4370 318 0
-4371 -4370 -318 0
4371 -4370 318 0
4371 4370 -318 0
-4372 4371 320 0
-4372 -4371 -320 0
4372 -4371 320 0
4372 4371 -320 0
-4373 4372 323 0
-4373 -4372 -323 0
4373 -4372 323 0
4373 4372 -323 0
-4374 4373 324 0
-4374 -4373 -324 0
4374 -4373 324 0
4374 4373 -324 0
-4375 4374 326 0
-4375 -4374 -326 0
4375 -4374 326 0
4375 4374 -326 0
-4376 4375 327 0
-4376 -4375 -327 0
4376 -4375 327 0
4376 4375 -327 0
-4377 4376 328 0
-4377 -4376 -328 0
4377 -4376 328 0
4377 4376 -328 0
-4378 4377 329 0
-4378 -4377 -329 0
4378 -4377 329 0
4378 4377 -329 0
-4379 4378 330 0
-4379 -4378 -330 0
4379 -4378 330 0
4379 4378 -330 0
-315 -4379 0
-4380 331 332 0
-4380 -331 -332 0
4380 -331 332 0
4380 331 -332 0
-4381 4380 333 0
-4381 -4380 -333 0
4381 -4380 333 0
4381 4380 -333 0
-4382 4381 335 0
-4382 -4381 -335 0
4382 -4381 335 0
4382 4381 -335 0
-4383 4382 338 0
-4383 -4382 -338 0
4383 -4382 338 0
4383 4382 -338 0
-4384 4383 339 0
-4384 -4383 -339 0
4384 -4383 339 0
4384 4383 -339 0
-4385 4384 341 0
-4385 -4384 -341 0
4385 -4384 341 0
4385 4384 -341 0
-4386 4385 342 0
-4386 -4385 -342 0
4386 -4385 342 0
4386 4385 -342 0
-4387 4386 343 0
-4387 -4386 -343 0
4387 -4386 343 0
4387 4386 -343 0
-4388 4387 344 0
-4388 -4387 -344 0
4388 -4387 344 0
4388 4387 -344 0
-4389 4388 345 0
-4389 -4388 -345 0
4389 -4388 345 0
4389 4388 -345 0
-315 -4389 0
316 317 318 319 320 321 322 323 324 325 326 327 328 329 330 0
-316 317 318 319 320 321 322 323 324 -325 326 327 328 329 -330 0
331 332 333 334 335 336 337 338 339 340 341 342 343 344 345 0
-331 332 333 334 335 336 337 338 339 -340 341 342 343 344 -345 0
-4390 316 331 0
-4390 -316 -331 0
4390 -316 331 0
4390 316 -331 0
-4391 317 332 0
-4391 -317 -332 0
4391 -317 332 0
4391 317 -332 0
-4392 318 333 0
-4392 -318 -333 0
4392 -318 333 0
4392 318 -333 0
-4393 319 334 0
-4393 -319 -334 0
4393 -319 334 0
4393 319 -334 0
-4394 320 335 0
-4394 -320 -335 0
4394 -320 335 0
4394 320 -335 0
-4395 321 336 0
-4395 -321 -336 0
4395 -321 336 0
4395 321 -336 0
-4396 322 337 0
-4396 -322 -337 0
4396 -322 337 0
4396 322 -337 0
-4397 323 338 0
-4397 -323 -338 0
4397 -323 338 0
4397 323 -338 0
-4398 324 339 0
-4398 -324 -339 0
4398 -324 339 0
4398 324 -339 0
-4399 325 340 0
-4399 -325 -340 0
4399 -325 340 0
4399 325 -340 0
-4400 326 341 0
-4400 -326 -341 0
4400 -326 341 0
4400 326 -341 0
-4401 327 342 0
-4401 -327 -342 0
4401 -327 342 0
4401 327 -342 0
-4402 328 343 0
-4402 -328 -343 0
4402 -328 343 0
4402 328 -343 0
-4403 329 344 0
-4403 -329 -344 0
4403 -329 344 0
4403 329 -344 0
-4404 330 345 0
-4404 -330 -345 0
4404 -330 345 0
4404 330 -345 0
4390 4391 4392 4393 4394 4395 4396 4397 4398 4399 4400 4401 4402 4403 4404 0
-4405 316 331 0
-4405 -316 -331 0
4405 -316 331 0
4405 316 -331 0
-4406 317 332 0
-4406 -317 -332 0
4406 -317 332 0
4406 317 -332 0
-4407 318 333 0
-4407 -318 -333 0
4407 -318 333 0
4407 318 -333 0
-4408 319 334 0
-4408 -319 -334 0
4408 -319 334 0
4408 319 -334 0
-4409 320 335 0
-4409 -320 -335 0
4409 -320 335 0
4409 320 -335 0
-4410 321 336 0
-4410 -321 -336 0
4410 -321 336 0
4410 321 -336 0
-4411 322 337 0
-4411 -322 -337 0
4411 -322 337 0
4411 322 -337 0
-4412 323 338 0
-4412 -323 -338 0
4412 -323 338 0
4412 323 -338 0
-4413 324 339 0
-4413 -324 -339 0
4413 -324 339 0
4413 324 -339 0
-4414 325 340 0
-4414 -325 -340 0
4414 -325 340 0
4414 325 -340 0
-4415 326 341 0
-4415 -326 -341 0
4415 -326 341 0
4415 326 -341 0
-4416 327 342 0
-4416 -327 -342 0
4416 -327 342 0
4416 327 -342 0
-4417 328 343 0
-4417 -328 -343 0
4417 -328 343 0
4417 328 -343 0
-4418 329 344 0
-4418 -329 -344 0
4418 -329 344 0
4418 329 -344 0
-4419 330 345 0
-4419 -330 -345 0
4419 -330 345 0
4419 330 -345 0
-4405 4406 4407 4408 4409 4410 4411 4412 4413 -4414 4415 4416 4417 4418 -4419 0
