p cnf 2809 9255
1 2 3 4 5 6 7 8 9 10 11 12 13 14 15 0
-1 347 0
-2 348 0
-347 348 0
-2 -347 0
-3 349 0
-348 349 0
-3 -348 0
-4 350 0
-349 350 0
-4 -349 0
-5 351 0
-350 351 0
-5 -350 0
-6 352 0
-351 352 0
-6 -351 0
-7 353 0
-352 353 0
-7 -352 0
-8 354 0
-353 354 0
-8 -353 0
-9 355 0
-354 355 0
-9 -354 0
-10 356 0
-355 356 0
-10 -355 0
-11 357 0
-356 357 0
-11 -356 0
-12 358 0
-357 358 0
-12 -357 0
-13 359 0
-358 359 0
-13 -358 0
-14 360 0
-359 360 0
-14 -359 0
-15 -360 0
16 17 18 19 20 21 22 23 24 25 26 27 28 29 30 0
-16 361 0
-17 362 0
-361 362 0
-17 -361 0
-18 363 0
-362 363 0
-18 -362 0
-19 364 0
-363 364 0
-19 -363 0
-20 365 0
-364 365 0
-20 -364 0
-21 366 0
-365 366 0
-21 -365 0
-22 367 0
-366 367 0
-22 -366 0
-23 368 0
-367 368 0
-23 -367 0
-24 369 0
-368 369 0
-24 -368 0
-25 370 0
-369 370 0
-25 -369 0
-26 371 0
-370 371 0
-26 -370 0
-27 372 0
-371 372 0
-27 -371 0
-28 373 0
-372 373 0
-28 -372 0
-29 374 0
-373 374 0
-29 -373 0
-30 -374 0
31 32 33 34 35 36 37 38 39 40 41 42 43 44 45 0
-31 375 0
-32 376 0
-375 376 0
-32 -375 0
-33 377 0
-376 377 0
-33 -376 0
-34 378 0
-377 378 0
-34 -377 0
-35 379 0
-378 379 0
-35 -378 0
-36 380 0
-379 380 0
-36 -379 0
-37 381 0
-380 381 0
-37 -380 0
-38 382 0
-381 382 0
-38 -381 0
-39 383 0
-382 383 0
-39 -382 0
-40 384 0
-383 384 0
-40 -383 0
-41 385 0
-384 385 0
-41 -384 0
-42 386 0
-385 386 0
-42 -385 0
-43 387 0
-386 387 0
-43 -386 0
-44 388 0
-387 388 0
-44 -387 0
-45 -388 0
1 16 31 46 47 48 49 50 51 52 53 54 55 56 57 0
-1 389 0
-16 390 0
-389 390 0
-16 -389 0
-31 391 0
-390 391 0
-31 -390 0
-46 392 0
-391 392 0
-46 -391 0
-47 393 0
-392 393 0
-47 -392 0
-48 394 0
-393 394 0
-48 -393 0
-49 395 0
-394 395 0
-49 -394 0
-50 396 0
-395 396 0
-50 -395 0
-51 397 0
-396 397 0
-51 -396 0
-52 398 0
-397 398 0
-52 -397 0
-53 399 0
-398 399 0
-53 -398 0
-54 400 0
-399 400 0
-54 -399 0
-55 401 0
-400 401 0
-55 -400 0
-56 402 0
-401 402 0
-56 -401 0
-57 -402 0
1 58 59 60 61 62 63 64 65 66 67 68 69 70 71 0
-1 403 0
-58 404 0
-403 404 0
-58 -403 0
-59 405 0
-404 405 0
-59 -404 0
-60 406 0
-405 406 0
-60 -405 0
-61 407 0
-406 407 0
-61 -406 0
-62 408 0
-407 408 0
-62 -407 0
-63 409 0
-408 409 0
-63 -408 0
-64 410 0
-409 410 0
-64 -409 0
-65 411 0
-410 411 0
-65 -410 0
-66 412 0
-411 412 0
-66 -411 0
-67 413 0
-412 413 0
-67 -412 0
-68 414 0
-413 414 0
-68 -413 0
-69 415 0
-414 415 0
-69 -414 0
-70 416 0
-415 416 0
-70 -415 0
-71 -416 0
16 72 73 74 75 76 77 78 79 80 81 82 83 84 85 0
-16 417 0
-72 418 0
-417 418 0
-72 -417 0
-73 419 0
-418 419 0
-73 -418 0
-74 420 0
-419 420 0
-74 -419 0
-75 421 0
-420 421 0
-75 -420 0
-76 422 0
-421 422 0
-76 -421 0
-77 423 0
-422 423 0
-77 -422 0
-78 424 0
-423 424 0
-78 -423 0
-79 425 0
-424 425 0
-79 -424 0
-80 426 0
-425 426 0
-80 -425 0
-81 427 0
-426 427 0
-81 -426 0
-82 428 0
-427 428 0
-82 -427 0
-83 429 0
-428 429 0
-83 -428 0
-84 430 0
-429 430 0
-84 -429 0
-85 -430 0
31 86 87 88 89 90 91 92 93 94 95 96 97 98 99 0
-31 431 0
-86 432 0
-431 432 0
-86 -431 0
-87 433 0
-432 433 0
-87 -432 0
-88 434 0
-433 434 0
-88 -433 0
-89 435 0
-434 435 0
-89 -434 0
-90 436 0
-435 436 0
-90 -435 0
-91 437 0
-436 437 0
-91 -436 0
-92 438 0
-437 438 0
-92 -437 0
-93 439 0
-438 439 0
-93 -438 0
-94 440 0
-439 440 0
-94 -439 0
-95 441 0
-440 441 0
-95 -440 0
-96 442 0
-441 442 0
-96 -441 0
-97 443 0
-442 443 0
-97 -442 0
-98 444 0
-443 444 0
-98 -443 0
-99 -444 0
2 17 32 100 101 102 103 104 105 106 107 108 109 110 111 0
-2 445 0
-17 446 0
-445 446 0
-17 -445 0
-32 447 0
-446 447 0
-32 -446 0
-100 448 0
-447 448 0
-100 -447 0
-101 449 0
-448 449 0
-101 -448 0
-102 450 0
-449 450 0
-102 -449 0
-103 451 0
-450 451 0
-103 -450 0
-104 452 0
-451 452 0
-104 -451 0
-105 453 0
-452 453 0
-105 -452 0
-106 454 0
-453 454 0
-106 -453 0
-107 455 0
-454 455 0
-107 -454 0
-108 456 0
-455 456 0
-108 -455 0
-109 457 0
-456 457 0
-109 -456 0
-110 458 0
-457 458 0
-110 -457 0
-111 -458 0
2 72 86 112 113 114 115 116 117 118 119 120 121 122 123 0
-2 459 0
-72 460 0
-459 460 0
-72 -459 0
-86 461 0
-460 461 0
-86 -460 0
-112 462 0
-461 462 0
-112 -461 0
-113 463 0
-462 463 0
-113 -462 0
-114 464 0
-463 464 0
-114 -463 0
-115 465 0
-464 465 0
-115 -464 0
-116 466 0
-465 466 0
-116 -465 0
-117 467 0
-466 467 0
-117 -466 0
-118 468 0
-467 468 0
-118 -467 0
-119 469 0
-468 469 0
-119 -468 0
-120 470 0
-469 470 0
-120 -469 0
-121 471 0
-470 471 0
-121 -470 0
-122 472 0
-471 472 0
-122 -471 0
-123 -472 0
17 58 87 124 125 126 127 128 129 130 131 132 133 134 135 0
-17 473 0
-58 474 0
-473 474 0
-58 -473 0
-87 475 0
-474 475 0
-87 -474 0
-124 476 0
-475 476 0
-124 -475 0
-125 477 0
-476 477 0
-125 -476 0
-126 478 0
-477 478 0
-126 -477 0
-127 479 0
-478 479 0
-127 -478 0
-128 480 0
-479 480 0
-128 -479 0
-129 481 0
-480 481 0
-129 -480 0
-130 482 0
-481 482 0
-130 -481 0
-131 483 0
-482 483 0
-131 -482 0
-132 484 0
-483 484 0
-132 -483 0
-133 485 0
-484 485 0
-133 -484 0
-134 486 0
-485 486 0
-134 -485 0
-135 -486 0
32 59 73 136 137 138 139 140 141 142 143 144 145 146 147 0
-32 487 0
-59 488 0
-487 488 0
-59 -487 0
-73 489 0
-488 489 0
-73 -488 0
-136 490 0
-489 490 0
-136 -489 0
-137 491 0
-490 491 0
-137 -490 0
-138 492 0
-491 492 0
-138 -491 0
-139 493 0
-492 493 0
-139 -492 0
-140 494 0
-493 494 0
-140 -493 0
-141 495 0
-494 495 0
-141 -494 0
-142 496 0
-495 496 0
-142 -495 0
-143 497 0
-496 497 0
-143 -496 0
-144 498 0
-497 498 0
-144 -497 0
-145 499 0
-498 499 0
-145 -498 0
-146 500 0
-499 500 0
-146 -499 0
-147 -500 0
3 18 33 148 149 150 151 152 153 154 155 156 157 158 159 0
-3 501 0
-18 502 0
-501 502 0
-18 -501 0
-33 503 0
-502 503 0
-33 -502 0
-148 504 0
-503 504 0
-148 -503 0
-149 505 0
-504 505 0
-149 -504 0
-150 506 0
-505 506 0
-150 -505 0
-151 507 0
-506 507 0
-151 -506 0
-152 508 0
-507 508 0
-152 -507 0
-153 509 0
-508 509 0
-153 -508 0
-154 510 0
-509 510 0
-154 -509 0
-155 511 0
-510 511 0
-155 -510 0
-156 512 0
-511 512 0
-156 -511 0
-157 513 0
-512 513 0
-157 -512 0
-158 514 0
-513 514 0
-158 -513 0
-159 -514 0
3 73 87 160 161 162 163 164 165 166 167 168 169 170 171 0
-3 515 0
-73 516 0
-515 516 0
-73 -515 0
-87 517 0
-516 517 0
-87 -516 0
-160 518 0
-517 518 0
-160 -517 0
-161 519 0
-518 519 0
-161 -518 0
-162 520 0
-519 520 0
-162 -519 0
-163 521 0
-520 521 0
-163 -520 0
-164 522 0
-521 522 0
-164 -521 0
-165 523 0
-522 523 0
-165 -522 0
-166 524 0
-523 524 0
-166 -523 0
-167 525 0
-524 525 0
-167 -524 0
-168 526 0
-525 526 0
-168 -525 0
-169 527 0
-526 527 0
-169 -526 0
-170 528 0
-527 528 0
-170 -527 0
-171 -528 0
18 59 86 172 173 174 175 176 177 178 179 180 181 182 183 0
-18 529 0
-59 530 0
-529 530 0
-59 -529 0
-86 531 0
-530 531 0
-86 -530 0
-172 532 0
-531 532 0
-172 -531 0
-173 533 0
-532 533 0
-173 -532 0
-174 534 0
-533 534 0
-174 -533 0
-175 535 0
-534 535 0
-175 -534 0
-176 536 0
-535 536 0
-176 -535 0
-177 537 0
-536 537 0
-177 -536 0
-178 538 0
-537 538 0
-178 -537 0
-179 539 0
-538 539 0
-179 -538 0
-180 540 0
-539 540 0
-180 -539 0
-181 541 0
-540 541 0
-181 -540 0
-182 542 0
-541 542 0
-182 -541 0
-183 -542 0
33 58 72 184 185 186 187 188 189 190 191 192 193 194 195 0
-33 543 0
-58 544 0
-543 544 0
-58 -543 0
-72 545 0
-544 545 0
-72 -544 0
-184 546 0
-545 546 0
-184 -545 0
-185 547 0
-546 547 0
-185 -546 0
-186 548 0
-547 548 0
-186 -547 0
-187 549 0
-548 549 0
-187 -548 0
-188 550 0
-549 550 0
-188 -549 0
-189 551 0
-550 551 0
-189 -550 0
-190 552 0
-551 552 0
-190 -551 0
-191 553 0
-552 553 0
-191 -552 0
-192 554 0
-553 554 0
-192 -553 0
-193 555 0
-554 555 0
-193 -554 0
-194 556 0
-555 556 0
-194 -555 0
-195 -556 0
4 19 34 46 60 74 88 100 112 124 136 148 160 172 184 196 197 198 199 200 201 202 203 204 205 206 207 208 209 210 211 0
-4 557 0
-19 558 0
-557 558 0
-19 -557 0
-34 559 0
-558 559 0
-34 -558 0
-46 560 0
-559 560 0
-46 -559 0
-60 561 0
-560 561 0
-60 -560 0
-74 562 0
-561 562 0
-74 -561 0
-88 563 0
-562 563 0
-88 -562 0
-100 564 0
-563 564 0
-100 -563 0
-112 565 0
-564 565 0
-112 -564 0
-124 566 0
-565 566 0
-124 -565 0
-136 567 0
-566 567 0
-136 -566 0
-148 568 0
-567 568 0
-148 -567 0
-160 569 0
-568 569 0
-160 -568 0
-172 570 0
-569 570 0
-172 -569 0
-184 571 0
-570 571 0
-184 -570 0
-196 572 0
-571 572 0
-196 -571 0
-197 573 0
-572 573 0
-197 -572 0
-198 574 0
-573 574 0
-198 -573 0
-199 575 0
-574 575 0
-199 -574 0
-200 576 0
-575 576 0
-200 -575 0
-201 577 0
-576 577 0
-201 -576 0
-202 578 0
-577 578 0
-202 -577 0
-203 579 0
-578 579 0
-203 -578 0
-204 580 0
-579 580 0
-204 -579 0
-205 581 0
-580 581 0
-205 -580 0
-206 582 0
-581 582 0
-206 -581 0
-207 583 0
-582 583 0
-207 -582 0
-208 584 0
-583 584 0
-208 -583 0
-209 585 0
-584 585 0
-209 -584 0
-210 586 0
-585 586 0
-210 -585 0
-211 -586 0
4 47 61 101 113 149 161 212 213 214 215 216 217 218 219 0
-4 587 0
-47 588 0
-587 588 0
-47 -587 0
-61 589 0
-588 589 0
-61 -588 0
-101 590 0
-589 590 0
-101 -589 0
-113 591 0
-590 591 0
-113 -590 0
-149 592 0
-591 592 0
-149 -591 0
-161 593 0
-592 593 0
-161 -592 0
-212 594 0
-593 594 0
-212 -593 0
-213 595 0
-594 595 0
-213 -594 0
-214 596 0
-595 596 0
-214 -595 0
-215 597 0
-596 597 0
-215 -596 0
-216 598 0
-597 598 0
-216 -597 0
-217 599 0
-598 599 0
-217 -598 0
-218 600 0
-599 600 0
-218 -599 0
-219 -600 0
19 48 75 102 125 150 173 220 221 222 223 224 225 226 227 0
-19 601 0
-48 602 0
-601 602 0
-48 -601 0
-75 603 0
-602 603 0
-75 -602 0
-102 604 0
-603 604 0
-102 -603 0
-125 605 0
-604 605 0
-125 -604 0
-150 606 0
-605 606 0
-150 -605 0
-173 607 0
-606 607 0
-173 -606 0
-220 608 0
-607 608 0
-220 -607 0
-221 609 0
-608 609 0
-221 -608 0
-222 610 0
-609 610 0
-222 -609 0
-223 611 0
-610 611 0
-223 -610 0
-224 612 0
-611 612 0
-224 -611 0
-225 613 0
-612 613 0
-225 -612 0
-226 614 0
-613 614 0
-226 -613 0
-227 -614 0
34 49 89 103 137 151 185 228 229 230 231 232 233 234 235 0
-34 615 0
-49 616 0
-615 616 0
-49 -615 0
-89 617 0
-616 617 0
-89 -616 0
-103 618 0
-617 618 0
-103 -617 0
-137 619 0
-618 619 0
-137 -618 0
-151 620 0
-619 620 0
-151 -619 0
-185 621 0
-620 621 0
-185 -620 0
-228 622 0
-621 622 0
-228 -621 0
-229 623 0
-622 623 0
-229 -622 0
-230 624 0
-623 624 0
-230 -623 0
-231 625 0
-624 625 0
-231 -624 0
-232 626 0
-625 626 0
-232 -625 0
-233 627 0
-626 627 0
-233 -626 0
-234 628 0
-627 628 0
-234 -627 0
-235 -628 0
5 20 35 46 61 75 89 236 237 238 239 240 241 242 243 0
-5 629 0
-20 630 0
-629 630 0
-20 -629 0
-35 631 0
-630 631 0
-35 -630 0
-46 632 0
-631 632 0
-46 -631 0
-61 633 0
-632 633 0
-61 -632 0
-75 634 0
-633 634 0
-75 -633 0
-89 635 0
-634 635 0
-89 -634 0
-236 636 0
-635 636 0
-236 -635 0
-237 637 0
-636 637 0
-237 -636 0
-238 638 0
-637 638 0
-238 -637 0
-239 639 0
-638 639 0
-239 -638 0
-240 640 0
-639 640 0
-240 -639 0
-241 641 0
-640 641 0
-241 -640 0
-242 642 0
-641 642 0
-242 -641 0
-243 -642 0
5 47 60 126 138 174 186 244 245 246 247 248 249 250 251 0
-5 643 0
-47 644 0
-643 644 0
-47 -643 0
-60 645 0
-644 645 0
-60 -644 0
-126 646 0
-645 646 0
-126 -645 0
-138 647 0
-646 647 0
-138 -646 0
-174 648 0
-647 648 0
-174 -647 0
-186 649 0
-648 649 0
-186 -648 0
-244 650 0
-649 650 0
-244 -649 0
-245 651 0
-650 651 0
-245 -650 0
-246 652 0
-651 652 0
-246 -651 0
-247 653 0
-652 653 0
-247 -652 0
-248 654 0
-653 654 0
-248 -653 0
-249 655 0
-654 655 0
-249 -654 0
-250 656 0
-655 656 0
-250 -655 0
-251 -656 0
20 48 74 114 139 162 187 252 253 254 255 256 257 258 259 0
-20 657 0
-48 658 0
-657 658 0
-48 -657 0
-74 659 0
-658 659 0
-74 -658 0
-114 660 0
-659 660 0
-114 -659 0
-139 661 0
-660 661 0
-139 -660 0
-162 662 0
-661 662 0
-162 -661 0
-187 663 0
-662 663 0
-187 -662 0
-252 664 0
-663 664 0
-252 -663 0
-253 665 0
-664 665 0
-253 -664 0
-254 666 0
-665 666 0
-254 -665 0
-255 667 0
-666 667 0
-255 -666 0
-256 668 0
-667 668 0
-256 -667 0
-257 669 0
-668 669 0
-257 -668 0
-258 670 0
-669 670 0
-258 -669 0
-259 -670 0
35 49 88 115 127 163 175 260 261 262 263 264 265 266 267 0
-35 671 0
-49 672 0
-671 672 0
-49 -671 0
-88 673 0
-672 673 0
-88 -672 0
-115 674 0
-673 674 0
-115 -673 0
-127 675 0
-674 675 0
-127 -674 0
-163 676 0
-675 676 0
-163 -675 0
-175 677 0
-676 677 0
-175 -676 0
-260 678 0
-677 678 0
-260 -677 0
-261 679 0
-678 679 0
-261 -678 0
-262 680 0
-679 680 0
-262 -679 0
-263 681 0
-680 681 0
-263 -680 0
-264 682 0
-681 682 0
-264 -681 0
-265 683 0
-682 683 0
-265 -682 0
-266 684 0
-683 684 0
-266 -683 0
-267 -684 0
6 21 36 100 113 125 137 268 269 270 271 272 273 274 275 0
-6 685 0
-21 686 0
-685 686 0
-21 -685 0
-36 687 0
-686 687 0
-36 -686 0
-100 688 0
-687 688 0
-100 -687 0
-113 689 0
-688 689 0
-113 -688 0
-125 690 0
-689 690 0
-125 -689 0
-137 691 0
-690 691 0
-137 -690 0
-268 692 0
-691 692 0
-268 -691 0
-269 693 0
-692 693 0
-269 -692 0
-270 694 0
-693 694 0
-270 -693 0
-271 695 0
-694 695 0
-271 -694 0
-272 696 0
-695 696 0
-272 -695 0
-273 697 0
-696 697 0
-273 -696 0
-274 698 0
-697 698 0
-274 -697 0
-275 -698 0
6 76 90 101 112 175 187 276 277 278 279 280 281 282 283 0
-6 699 0
-76 700 0
-699 700 0
-76 -699 0
-90 701 0
-700 701 0
-90 -700 0
-101 702 0
-701 702 0
-101 -701 0
-112 703 0
-702 703 0
-112 -702 0
-175 704 0
-703 704 0
-175 -703 0
-187 705 0
-704 705 0
-187 -704 0
-276 706 0
-705 706 0
-276 -705 0
-277 707 0
-706 707 0
-277 -706 0
-278 708 0
-707 708 0
-278 -707 0
-279 709 0
-708 709 0
-279 -708 0
-280 710 0
-709 710 0
-280 -709 0
-281 711 0
-710 711 0
-281 -710 0
-282 712 0
-711 712 0
-282 -711 0
-283 -712 0
21 62 91 102 124 163 186 284 285 286 287 288 289 290 291 0
-21 713 0
-62 714 0
-713 714 0
-62 -713 0
-91 715 0
-714 715 0
-91 -714 0
-102 716 0
-715 716 0
-102 -715 0
-124 717 0
-716 717 0
-124 -716 0
-163 718 0
-717 718 0
-163 -717 0
-186 719 0
-718 719 0
-186 -718 0
-284 720 0
-719 720 0
-284 -719 0
-285 721 0
-720 721 0
-285 -720 0
-286 722 0
-721 722 0
-286 -721 0
-287 723 0
-722 723 0
-287 -722 0
-288 724 0
-723 724 0
-288 -723 0
-289 725 0
-724 725 0
-289 -724 0
-290 726 0
-725 726 0
-290 -725 0
-291 -726 0
36 63 77 103 136 162 174 292 293 294 295 296 297 298 299 0
-36 727 0
-63 728 0
-727 728 0
-63 -727 0
-77 729 0
-728 729 0
-77 -728 0
-103 730 0
-729 730 0
-103 -729 0
-136 731 0
-730 731 0
-136 -730 0
-162 732 0
-731 732 0
-162 -731 0
-174 733 0
-732 733 0
-174 -732 0
-292 734 0
-733 734 0
-292 -733 0
-293 735 0
-734 735 0
-293 -734 0
-294 736 0
-735 736 0
-294 -735 0
-295 737 0
-736 737 0
-295 -736 0
-296 738 0
-737 738 0
-296 -737 0
-297 739 0
-738 739 0
-297 -738 0
-298 740 0
-739 740 0
-298 -739 0
-299 -740 0
7 22 37 148 161 173 185 300 301 302 303 304 305 306 307 0
-7 741 0
-22 742 0
-741 742 0
-22 -741 0
-37 743 0
-742 743 0
-37 -742 0
-148 744 0
-743 744 0
-148 -743 0
-161 745 0
-744 745 0
-161 -744 0
-173 746 0
-745 746 0
-173 -745 0
-185 747 0
-746 747 0
-185 -746 0
-300 748 0
-747 748 0
-300 -747 0
-301 749 0
-748 749 0
-301 -748 0
-302 750 0
-749 750 0
-302 -749 0
-303 751 0
-750 751 0
-303 -750 0
-304 752 0
-751 752 0
-304 -751 0
-305 753 0
-752 753 0
-305 -752 0
-306 754 0
-753 754 0
-306 -753 0
-307 -754 0
7 77 91 127 139 149 160 308 309 310 311 312 313 314 315 0
-7 755 0
-77 756 0
-755 756 0
-77 -755 0
-91 757 0
-756 757 0
-91 -756 0
-127 758 0
-757 758 0
-127 -757 0
-139 759 0
-758 759 0
-139 -758 0
-149 760 0
-759 760 0
-149 -759 0
-160 761 0
-760 761 0
-160 -760 0
-308 762 0
-761 762 0
-308 -761 0
-309 763 0
-762 763 0
-309 -762 0
-310 764 0
-763 764 0
-310 -763 0
-311 765 0
-764 765 0
-311 -764 0
-312 766 0
-765 766 0
-312 -765 0
-313 767 0
-766 767 0
-313 -766 0
-314 768 0
-767 768 0
-314 -767 0
-315 -768 0
22 63 90 115 138 150 172 316 317 318 319 320 321 322 323 0
-22 769 0
-63 770 0
-769 770 0
-63 -769 0
-90 771 0
-770 771 0
-90 -770 0
-115 772 0
-771 772 0
-115 -771 0
-138 773 0
-772 773 0
-138 -772 0
-150 774 0
-773 774 0
-150 -773 0
-172 775 0
-774 775 0
-172 -774 0
-316 776 0
-775 776 0
-316 -775 0
-317 777 0
-776 777 0
-317 -776 0
-318 778 0
-777 778 0
-318 -777 0
-319 779 0
-778 779 0
-319 -778 0
-320 780 0
-779 780 0
-320 -779 0
-321 781 0
-780 781 0
-321 -780 0
-322 782 0
-781 782 0
-322 -781 0
-323 -782 0
37 62 76 114 126 151 184 324 325 326 327 328 329 330 331 0
-37 783 0
-62 784 0
-783 784 0
-62 -783 0
-76 785 0
-784 785 0
-76 -784 0
-114 786 0
-785 786 0
-114 -785 0
-126 787 0
-786 787 0
-126 -786 0
-151 788 0
-787 788 0
-151 -787 0
-184 789 0
-788 789 0
-184 -788 0
-324 790 0
-789 790 0
-324 -789 0
-325 791 0
-790 791 0
-325 -790 0
-326 792 0
-791 792 0
-326 -791 0
-327 793 0
-792 793 0
-327 -792 0
-328 794 0
-793 794 0
-328 -793 0
-329 795 0
-794 795 0
-329 -794 0
-330 796 0
-795 796 0
-330 -795 0
-331 -796 0
8 23 38 50 64 78 92 104 116 128 140 152 164 176 188 196 212 220 228 236 244 252 260 268 276 284 292 300 308 316 324 0
-8 797 0
-23 798 0
-797 798 0
-23 -797 0
-38 799 0
-798 799 0
-38 -798 0
-50 800 0
-799 800 0
-50 -799 0
-64 801 0
-800 801 0
-64 -800 0
-78 802 0
-801 802 0
-78 -801 0
-92 803 0
-802 803 0
-92 -802 0
-104 804 0
-803 804 0
-104 -803 0
-116 805 0
-804 805 0
-116 -804 0
-128 806 0
-805 806 0
-128 -805 0
-140 807 0
-806 807 0
-140 -806 0
-152 808 0
-807 808 0
-152 -807 0
-164 809 0
-808 809 0
-164 -808 0
-176 810 0
-809 810 0
-176 -809 0
-188 811 0
-810 811 0
-188 -810 0
-196 812 0
-811 812 0
-196 -811 0
-212 813 0
-812 813 0
-212 -812 0
-220 814 0
-813 814 0
-220 -813 0
-228 815 0
-814 815 0
-228 -814 0
-236 816 0
-815 816 0
-236 -815 0
-244 817 0
-816 817 0
-244 -816 0
-252 818 0
-817 818 0
-252 -817 0
-260 819 0
-818 819 0
-260 -818 0
-268 820 0
-819 820 0
-268 -819 0
-276 821 0
-820 821 0
-276 -820 0
-284 822 0
-821 822 0
-284 -821 0
-292 823 0
-822 823 0
-292 -822 0
-300 824 0
-823 824 0
-300 -823 0
-308 825 0
-824 825 0
-308 -824 0
-316 826 0
-825 826 0
-316 -825 0
-324 -826 0
8 51 65 105 117 153 165 197 213 237 245 269 277 301 309 0
-8 827 0
-51 828 0
-827 828 0
-51 -827 0
-65 829 0
-828 829 0
-65 -828 0
-105 830 0
-829 830 0
-105 -829 0
-117 831 0
-830 831 0
-117 -830 0
-153 832 0
-831 832 0
-153 -831 0
-165 833 0
-832 833 0
-165 -832 0
-197 834 0
-833 834 0
-197 -833 0
-213 835 0
-834 835 0
-213 -834 0
-237 836 0
-835 836 0
-237 -835 0
-245 837 0
-836 837 0
-245 -836 0
-269 838 0
-837 838 0
-269 -837 0
-277 839 0
-838 839 0
-277 -838 0
-301 840 0
-839 840 0
-301 -839 0
-309 -840 0
23 52 79 106 129 154 177 198 221 238 253 270 285 302 317 0
-23 841 0
-52 842 0
-841 842 0
-52 -841 0
-79 843 0
-842 843 0
-79 -842 0
-106 844 0
-843 844 0
-106 -843 0
-129 845 0
-844 845 0
-129 -844 0
-154 846 0
-845 846 0
-154 -845 0
-177 847 0
-846 847 0
-177 -846 0
-198 848 0
-847 848 0
-198 -847 0
-221 849 0
-848 849 0
-221 -848 0
-238 850 0
-849 850 0
-238 -849 0
-253 851 0
-850 851 0
-253 -850 0
-270 852 0
-851 852 0
-270 -851 0
-285 853 0
-852 853 0
-285 -852 0
-302 854 0
-853 854 0
-302 -853 0
-317 -854 0
38 53 93 107 141 155 189 199 229 239 261 271 293 303 325 0
-38 855 0
-53 856 0
-855 856 0
-53 -855 0
-93 857 0
-856 857 0
-93 -856 0
-107 858 0
-857 858 0
-107 -857 0
-141 859 0
-858 859 0
-141 -858 0
-155 860 0
-859 860 0
-155 -859 0
-189 861 0
-860 861 0
-189 -860 0
-199 862 0
-861 862 0
-199 -861 0
-229 863 0
-862 863 0
-229 -862 0
-239 864 0
-863 864 0
-239 -863 0
-261 865 0
-864 865 0
-261 -864 0
-271 866 0
-865 866 0
-271 -865 0
-293 867 0
-866 867 0
-293 -866 0
-303 868 0
-867 868 0
-303 -867 0
-325 -868 0
9 24 39 50 65 79 93 200 214 222 230 240 246 254 262 0
-9 869 0
-24 870 0
-869 870 0
-24 -869 0
-39 871 0
-870 871 0
-39 -870 0
-50 872 0
-871 872 0
-50 -871 0
-65 873 0
-872 873 0
-65 -872 0
-79 874 0
-873 874 0
-79 -873 0
-93 875 0
-874 875 0
-93 -874 0
-200 876 0
-875 876 0
-200 -875 0
-214 877 0
-876 877 0
-214 -876 0
-222 878 0
-877 878 0
-222 -877 0
-230 879 0
-878 879 0
-230 -878 0
-240 880 0
-879 880 0
-240 -879 0
-246 881 0
-880 881 0
-246 -880 0
-254 882 0
-881 882 0
-254 -881 0
-262 -882 0
9 51 64 130 142 178 190 201 215 241 247 286 294 318 326 0
-9 883 0
-51 884 0
-883 884 0
-51 -883 0
-64 885 0
-884 885 0
-64 -884 0
-130 886 0
-885 886 0
-130 -885 0
-142 887 0
-886 887 0
-142 -886 0
-178 888 0
-887 888 0
-178 -887 0
-190 889 0
-888 889 0
-190 -888 0
-201 890 0
-889 890 0
-201 -889 0
-215 891 0
-890 891 0
-215 -890 0
-241 892 0
-891 892 0
-241 -891 0
-247 893 0
-892 893 0
-247 -892 0
-286 894 0
-893 894 0
-286 -893 0
-294 895 0
-894 895 0
-294 -894 0
-318 896 0
-895 896 0
-318 -895 0
-326 -896 0
24 52 78 118 143 166 191 202 223 242 255 278 295 310 327 0
-24 897 0
-52 898 0
-897 898 0
-52 -897 0
-78 899 0
-898 899 0
-78 -898 0
-118 900 0
-899 900 0
-118 -899 0
-143 901 0
-900 901 0
-143 -900 0
-166 902 0
-901 902 0
-166 -901 0
-191 903 0
-902 903 0
-191 -902 0
-202 904 0
-903 904 0
-202 -903 0
-223 905 0
-904 905 0
-223 -904 0
-242 906 0
-905 906 0
-242 -905 0
-255 907 0
-906 907 0
-255 -906 0
-278 908 0
-907 908 0
-278 -907 0
-295 909 0
-908 909 0
-295 -908 0
-310 910 0
-909 910 0
-310 -909 0
-327 -910 0
39 53 92 119 131 167 179 203 231 243 263 279 287 311 319 0
-39 911 0
-53 912 0
-911 912 0
-53 -911 0
-92 913 0
-912 913 0
-92 -912 0
-119 914 0
-913 914 0
-119 -913 0
-131 915 0
-914 915 0
-131 -914 0
-167 916 0
-915 916 0
-167 -915 0
-179 917 0
-916 917 0
-179 -916 0
-203 918 0
-917 918 0
-203 -917 0
-231 919 0
-918 919 0
-231 -918 0
-243 920 0
-919 920 0
-243 -919 0
-263 921 0
-920 921 0
-263 -920 0
-279 922 0
-921 922 0
-279 -921 0
-287 923 0
-922 923 0
-287 -922 0
-311 924 0
-923 924 0
-311 -923 0
-319 -924 0
10 25 40 104 117 129 141 204 216 224 232 272 280 288 296 0
-10 925 0
-25 926 0
-925 926 0
-25 -925 0
-40 927 0
-926 927 0
-40 -926 0
-104 928 0
-927 928 0
-104 -927 0
-117 929 0
-928 929 0
-117 -928 0
-129 930 0
-929 930 0
-129 -929 0
-141 931 0
-930 931 0
-141 -930 0
-204 932 0
-931 932 0
-204 -931 0
-216 933 0
-932 933 0
-216 -932 0
-224 934 0
-933 934 0
-224 -933 0
-232 935 0
-934 935 0
-232 -934 0
-272 936 0
-935 936 0
-272 -935 0
-280 937 0
-936 937 0
-280 -936 0
-288 938 0
-937 938 0
-288 -937 0
-296 -938 0
10 80 94 105 116 179 191 205 217 256 264 273 281 320 328 0
-10 939 0
-80 940 0
-939 940 0
-80 -939 0
-94 941 0
-940 941 0
-94 -940 0
-105 942 0
-941 942 0
-105 -941 0
-116 943 0
-942 943 0
-116 -942 0
-179 944 0
-943 944 0
-179 -943 0
-191 945 0
-944 945 0
-191 -944 0
-205 946 0
-945 946 0
-205 -945 0
-217 947 0
-946 947 0
-217 -946 0
-256 948 0
-947 948 0
-256 -947 0
-264 949 0
-948 949 0
-264 -948 0
-273 950 0
-949 950 0
-273 -949 0
-281 951 0
-950 951 0
-281 -950 0
-320 952 0
-951 952 0
-320 -951 0
-328 -952 0
25 66 95 106 128 167 190 206 225 248 265 274 289 312 329 0
-25 953 0
-66 954 0
-953 954 0
-66 -953 0
-95 955 0
-954 955 0
-95 -954 0
-106 956 0
-955 956 0
-106 -955 0
-128 957 0
-956 957 0
-128 -956 0
-167 958 0
-957 958 0
-167 -957 0
-190 959 0
-958 959 0
-190 -958 0
-206 960 0
-959 960 0
-206 -959 0
-225 961 0
-960 961 0
-225 -960 0
-248 962 0
-961 962 0
-248 -961 0
-265 963 0
-962 963 0
-265 -962 0
-274 964 0
-963 964 0
-274 -963 0
-289 965 0
-964 965 0
-289 -964 0
-312 966 0
-965 966 0
-312 -965 0
-329 -966 0
40 67 81 107 140 166 178 207 233 249 257 275 297 313 321 0
-40 967 0
-67 968 0
-967 968 0
-67 -967 0
-81 969 0
-968 969 0
-81 -968 0
-107 970 0
-969 970 0
-107 -969 0
-140 971 0
-970 971 0
-140 -970 0
-166 972 0
-971 972 0
-166 -971 0
-178 973 0
-972 973 0
-178 -972 0
-207 974 0
-973 974 0
-207 -973 0
-233 975 0
-974 975 0
-233 -974 0
-249 976 0
-975 976 0
-249 -975 0
-257 977 0
-976 977 0
-257 -976 0
-275 978 0
-977 978 0
-275 -977 0
-297 979 0
-978 979 0
-297 -978 0
-313 980 0
-979 980 0
-313 -979 0
-321 -980 0
11 26 41 152 165 177 189 208 218 226 234 304 314 322 330 0
-11 981 0
-26 982 0
-981 982 0
-26 -981 0
-41 983 0
-982 983 0
-41 -982 0
-152 984 0
-983 984 0
-152 -983 0
-165 985 0
-984 985 0
-165 -984 0
-177 986 0
-985 986 0
-177 -985 0
-189 987 0
-986 987 0
-189 -986 0
-208 988 0
-987 988 0
-208 -987 0
-218 989 0
-988 989 0
-218 -988 0
-226 990 0
-989 990 0
-226 -989 0
-234 991 0
-990 991 0
-234 -990 0
-304 992 0
-991 992 0
-304 -991 0
-314 993 0
-992 993 0
-314 -992 0
-322 994 0
-993 994 0
-322 -993 0
-330 -994 0
11 81 95 131 143 153 164 209 219 258 266 290 298 305 315 0
-11 995 0
-81 996 0
-995 996 0
-81 -995 0
-95 997 0
-996 997 0
-95 -996 0
-131 998 0
-997 998 0
-131 -997 0
-143 999 0
-998 999 0
-143 -998 0
-153 1000 0
-999 1000 0
-153 -999 0
-164 1001 0
-1000 1001 0
-164 -1000 0
-209 1002 0
-1001 1002 0
-209 -1001 0
-219 1003 0
-1002 1003 0
-219 -1002 0
-258 1004 0
-1003 1004 0
-258 -1003 0
-266 1005 0
-1004 1005 0
-266 -1004 0
-290 1006 0
-1005 1006 0
-290 -1005 0
-298 1007 0
-1006 1007 0
-298 -1006 0
-305 1008 0
-1007 1008 0
-305 -1007 0
-315 -1008 0
26 67 94 119 142 154 176 210 227 250 267 282 299 306 323 0
-26 1009 0
-67 1010 0
-1009 1010 0
-67 -1009 0
-94 1011 0
-1010 1011 0
-94 -1010 0
-119 1012 0
-1011 1012 0
-119 -1011 0
-142 1013 0
-1012 1013 0
-142 -1012 0
-154 1014 0
-1013 1014 0
-154 -1013 0
-176 1015 0
-1014 1015 0
-176 -1014 0
-210 1016 0
-1015 1016 0
-210 -1015 0
-227 1017 0
-1016 1017 0
-227 -1016 0
-250 1018 0
-1017 1018 0
-250 -1017 0
-267 1019 0
-1018 1019 0
-267 -1018 0
-282 1020 0
-1019 1020 0
-282 -1019 0
-299 1021 0
-1020 1021 0
-299 -1020 0
-306 1022 0
-1021 1022 0
-306 -1021 0
-323 -1022 0
41 66 80 118 130 155 188 211 235 251 259 283 291 307 331 0
-41 1023 0
-66 1024 0
-1023 1024 0
-66 -1023 0
-80 1025 0
-1024 1025 0
-80 -1024 0
-118 1026 0
-1025 1026 0
-118 -1025 0
-130 1027 0
-1026 1027 0
-130 -1026 0
-155 1028 0
-1027 1028 0
-155 -1027 0
-188 1029 0
-1028 1029 0
-188 -1028 0
-211 1030 0
-1029 1030 0
-211 -1029 0
-235 1031 0
-1030 1031 0
-235 -1030 0
-251 1032 0
-1031 1032 0
-251 -1031 0
-259 1033 0
-1032 1033 0
-259 -1032 0
-283 1034 0
-1033 1034 0
-283 -1033 0
-291 1035 0
-1034 1035 0
-291 -1034 0
-307 1036 0
-1035 1036 0
-307 -1035 0
-331 -1036 0
12 27 42 54 68 82 96 108 120 132 144 156 168 180 192 196 213 221 229 240 247 255 263 272 281 289 297 304 315 323 331 0
-12 1037 0
-27 1038 0
-1037 1038 0
-27 -1037 0
-42 1039 0
-1038 1039 0
-42 -1038 0
-54 1040 0
-1039 1040 0
-54 -1039 0
-68 1041 0
-1040 1041 0
-68 -1040 0
-82 1042 0
-1041 1042 0
-82 -1041 0
-96 1043 0
-1042 1043 0
-96 -1042 0
-108 1044 0
-1043 1044 0
-108 -1043 0
-120 1045 0
-1044 1045 0
-120 -1044 0
-132 1046 0
-1045 1046 0
-132 -1045 0
-144 1047 0
-1046 1047 0
-144 -1046 0
-156 1048 0
-1047 1048 0
-156 -1047 0
-168 1049 0
-1048 1049 0
-168 -1048 0
-180 1050 0
-1049 1050 0
-180 -1049 0
-192 1051 0
-1050 1051 0
-192 -1050 0
-196 1052 0
-1051 1052 0
-196 -1051 0
-213 1053 0
-1052 1053 0
-213 -1052 0
-221 1054 0
-1053 1054 0
-221 -1053 0
-229 1055 0
-1054 1055 0
-229 -1054 0
-240 1056 0
-1055 1056 0
-240 -1055 0
-247 1057 0
-1056 1057 0
-247 -1056 0
-255 1058 0
-1057 1058 0
-255 -1057 0
-263 1059 0
-1058 1059 0
-263 -1058 0
-272 1060 0
-1059 1060 0
-272 -1059 0
-281 1061 0
-1060 1061 0
-281 -1060 0
-289 1062 0
-1061 1062 0
-289 -1061 0
-297 1063 0
-1062 1063 0
-297 -1062 0
-304 1064 0
-1063 1064 0
-304 -1063 0
-315 1065 0
-1064 1065 0
-315 -1064 0
-323 1066 0
-1065 1066 0
-323 -1065 0
-331 -1066 0
12 55 69 109 121 157 169 197 212 241 246 273 280 305 314 0
-12 1067 0
-55 1068 0
-1067 1068 0
-55 -1067 0
-69 1069 0
-1068 1069 0
-69 -1068 0
-109 1070 0
-1069 1070 0
-109 -1069 0
-121 1071 0
-1070 1071 0
-121 -1070 0
-157 1072 0
-1071 1072 0
-157 -1071 0
-169 1073 0
-1072 1073 0
-169 -1072 0
-197 1074 0
-1073 1074 0
-197 -1073 0
-212 1075 0
-1074 1075 0
-212 -1074 0
-241 1076 0
-1075 1076 0
-241 -1075 0
-246 1077 0
-1076 1077 0
-246 -1076 0
-273 1078 0
-1077 1078 0
-273 -1077 0
-280 1079 0
-1078 1079 0
-280 -1078 0
-305 1080 0
-1079 1080 0
-305 -1079 0
-314 -1080 0
27 56 83 110 133 158 181 198 220 242 254 274 288 306 322 0
-27 1081 0
-56 1082 0
-1081 1082 0
-56 -1081 0
-83 1083 0
-1082 1083 0
-83 -1082 0
-110 1084 0
-1083 1084 0
-110 -1083 0
-133 1085 0
-1084 1085 0
-133 -1084 0
-158 1086 0
-1085 1086 0
-158 -1085 0
-181 1087 0
-1086 1087 0
-181 -1086 0
-198 1088 0
-1087 1088 0
-198 -1087 0
-220 1089 0
-1088 1089 0
-220 -1088 0
-242 1090 0
-1089 1090 0
-242 -1089 0
-254 1091 0
-1090 1091 0
-254 -1090 0
-274 1092 0
-1091 1092 0
-274 -1091 0
-288 1093 0
-1092 1093 0
-288 -1092 0
-306 1094 0
-1093 1094 0
-306 -1093 0
-322 -1094 0
42 57 97 111 145 159 193 199 228 243 262 275 296 307 330 0
-42 1095 0
-57 1096 0
-1095 1096 0
-57 -1095 0
-97 1097 0
-1096 1097 0
-97 -1096 0
-111 1098 0
-1097 1098 0
-111 -1097 0
-145 1099 0
-1098 1099 0
-145 -1098 0
-159 1100 0
-1099 1100 0
-159 -1099 0
-193 1101 0
-1100 1101 0
-193 -1100 0
-199 1102 0
-1101 1102 0
-199 -1101 0
-228 1103 0
-1102 1103 0
-228 -1102 0
-243 1104 0
-1103 1104 0
-243 -1103 0
-262 1105 0
-1104 1105 0
-262 -1104 0
-275 1106 0
-1105 1106 0
-275 -1105 0
-296 1107 0
-1106 1107 0
-296 -1106 0
-307 1108 0
-1107 1108 0
-307 -1107 0
-330 -1108 0
13 28 43 54 69 83 97 200 215 223 231 236 245 253 261 0
-13 1109 0
-28 1110 0
-1109 1110 0
-28 -1109 0
-43 1111 0
-1110 1111 0
-43 -1110 0
-54 1112 0
-1111 1112 0
-54 -1111 0
-69 1113 0
-1112 1113 0
-69 -1112 0
-83 1114 0
-1113 1114 0
-83 -1113 0
-97 1115 0
-1114 1115 0
-97 -1114 0
-200 1116 0
-1115 1116 0
-200 -1115 0
-215 1117 0
-1116 1117 0
-215 -1116 0
-223 1118 0
-1117 1118 0
-223 -1117 0
-231 1119 0
-1118 1119 0
-231 -1118 0
-236 1120 0
-1119 1120 0
-236 -1119 0
-245 1121 0
-1120 1121 0
-245 -1120 0
-253 1122 0
-1121 1122 0
-253 -1121 0
-261 -1122 0
13 55 68 134 146 182 194 201 214 237 244 291 299 321 329 0
-13 1123 0
-55 1124 0
-1123 1124 0
-55 -1123 0
-68 1125 0
-1124 1125 0
-68 -1124 0
-134 1126 0
-1125 1126 0
-134 -1125 0
-146 1127 0
-1126 1127 0
-146 -1126 0
-182 1128 0
-1127 1128 0
-182 -1127 0
-194 1129 0
-1128 1129 0
-194 -1128 0
-201 1130 0
-1129 1130 0
-201 -1129 0
-214 1131 0
-1130 1131 0
-214 -1130 0
-237 1132 0
-1131 1132 0
-237 -1131 0
-244 1133 0
-1132 1133 0
-244 -1132 0
-291 1134 0
-1133 1134 0
-291 -1133 0
-299 1135 0
-1134 1135 0
-299 -1134 0
-321 1136 0
-1135 1136 0
-321 -1135 0
-329 -1136 0
28 56 82 122 147 170 195 202 222 238 252 283 298 313 328 0
-28 1137 0
-56 1138 0
-1137 1138 0
-56 -1137 0
-82 1139 0
-1138 1139 0
-82 -1138 0
-122 1140 0
-1139 1140 0
-122 -1139 0
-147 1141 0
-1140 1141 0
-147 -1140 0
-170 1142 0
-1141 1142 0
-170 -1141 0
-195 1143 0
-1142 1143 0
-195 -1142 0
-202 1144 0
-1143 1144 0
-202 -1143 0
-222 1145 0
-1144 1145 0
-222 -1144 0
-238 1146 0
-1145 1146 0
-238 -1145 0
-252 1147 0
-1146 1147 0
-252 -1146 0
-283 1148 0
-1147 1148 0
-283 -1147 0
-298 1149 0
-1148 1149 0
-298 -1148 0
-313 1150 0
-1149 1150 0
-313 -1149 0
-328 -1150 0
43 57 96 123 135 171 183 203 230 239 260 282 290 312 320 0
-43 1151 0
-57 1152 0
-1151 1152 0
-57 -1151 0
-96 1153 0
-1152 1153 0
-96 -1152 0
-123 1154 0
-1153 1154 0
-123 -1153 0
-135 1155 0
-1154 1155 0
-135 -1154 0
-171 1156 0
-1155 1156 0
-171 -1155 0
-183 1157 0
-1156 1157 0
-183 -1156 0
-203 1158 0
-1157 1158 0
-203 -1157 0
-230 1159 0
-1158 1159 0
-230 -1158 0
-239 1160 0
-1159 1160 0
-239 -1159 0
-260 1161 0
-1160 1161 0
-260 -1160 0
-282 1162 0
-1161 1162 0
-282 -1161 0
-290 1163 0
-1162 1163 0
-290 -1162 0
-312 1164 0
-1163 1164 0
-312 -1163 0
-320 -1164 0
14 29 44 108 121 133 145 204 217 225 233 268 277 285 293 0
-14 1165 0
-29 1166 0
-1165 1166 0
-29 -1165 0
-44 1167 0
-1166 1167 0
-44 -1166 0
-108 1168 0
-1167 1168 0
-108 -1167 0
-121 1169 0
-1168 1169 0
-121 -1168 0
-133 1170 0
-1169 1170 0
-133 -1169 0
-145 1171 0
-1170 1171 0
-145 -1170 0
-204 1172 0
-1171 1172 0
-204 -1171 0
-217 1173 0
-1172 1173 0
-217 -1172 0
-225 1174 0
-1173 1174 0
-225 -1173 0
-233 1175 0
-1174 1175 0
-233 -1174 0
-268 1176 0
-1175 1176 0
-268 -1175 0
-277 1177 0
-1176 1177 0
-277 -1176 0
-285 1178 0
-1177 1178 0
-285 -1177 0
-293 -1178 0
14 84 98 109 120 183 195 205 216 259 267 269 276 319 327 0
-14 1179 0
-84 1180 0
-1179 1180 0
-84 -1179 0
-98 1181 0
-1180 1181 0
-98 -1180 0
-109 1182 0
-1181 1182 0
-109 -1181 0
-120 1183 0
-1182 1183 0
-120 -1182 0
-183 1184 0
-1183 1184 0
-183 -1183 0
-195 1185 0
-1184 1185 0
-195 -1184 0
-205 1186 0
-1185 1186 0
-205 -1185 0
-216 1187 0
-1186 1187 0
-216 -1186 0
-259 1188 0
-1187 1188 0
-259 -1187 0
-267 1189 0
-1188 1189 0
-267 -1188 0
-269 1190 0
-1189 1190 0
-269 -1189 0
-276 1191 0
-1190 1191 0
-276 -1190 0
-319 1192 0
-1191 1192 0
-319 -1191 0
-327 -1192 0
29 70 99 110 132 171 194 206 224 251 266 270 284 311 326 0
-29 1193 0
-70 1194 0
-1193 1194 0
-70 -1193 0
-99 1195 0
-1194 1195 0
-99 -1194 0
-110 1196 0
-1195 1196 0
-110 -1195 0
-132 1197 0
-1196 1197 0
-132 -1196 0
-171 1198 0
-1197 1198 0
-171 -1197 0
-194 1199 0
-1198 1199 0
-194 -1198 0
-206 1200 0
-1199 1200 0
-206 -1199 0
-224 1201 0
-1200 1201 0
-224 -1200 0
-251 1202 0
-1201 1202 0
-251 -1201 0
-266 1203 0
-1202 1203 0
-266 -1202 0
-270 1204 0
-1203 1204 0
-270 -1203 0
-284 1205 0
-1204 1205 0
-284 -1204 0
-311 1206 0
-1205 1206 0
-311 -1205 0
-326 -1206 0
44 71 85 111 144 170 182 207 232 250 258 271 292 310 318 0
-44 1207 0
-71 1208 0
-1207 1208 0
-71 -1207 0
-85 1209 0
-1208 1209 0
-85 -1208 0
-111 1210 0
-1209 1210 0
-111 -1209 0
-144 1211 0
-1210 1211 0
-144 -1210 0
-170 1212 0
-1211 1212 0
-170 -1211 0
-182 1213 0
-1212 1213 0
-182 -1212 0
-207 1214 0
-1213 1214 0
-207 -1213 0
-232 1215 0
-1214 1215 0
-232 -1214 0
-250 1216 0
-1215 1216 0
-250 -1215 0
-258 1217 0
-1216 1217 0
-258 -1216 0
-271 1218 0
-1217 1218 0
-271 -1217 0
-292 1219 0
-1218 1219 0
-292 -1218 0
-310 1220 0
-1219 1220 0
-310 -1219 0
-318 -1220 0
15 30 45 156 169 181 193 208 219 227 235 300 309 317 325 0
-15 1221 0
-30 1222 0
-1221 1222 0
-30 -1221 0
-45 1223 0
-1222 1223 0
-45 -1222 0
-156 1224 0
-1223 1224 0
-156 -1223 0
-169 1225 0
-1224 1225 0
-169 -1224 0
-181 1226 0
-1225 1226 0
-181 -1225 0
-193 1227 0
-1226 1227 0
-193 -1226 0
-208 1228 0
-1227 1228 0
-208 -1227 0
-219 1229 0
-1228 1229 0
-219 -1228 0
-227 1230 0
-1229 1230 0
-227 -1229 0
-235 1231 0
-1230 1231 0
-235 -1230 0
-300 1232 0
-1231 1232 0
-300 -1231 0
-309 1233 0
-1232 1233 0
-309 -1232 0
-317 1234 0
-1233 1234 0
-317 -1233 0
-325 -1234 0
15 85 99 135 147 157 168 209 218 257 265 287 295 301 308 0
-15 1235 0
-85 1236 0
-1235 1236 0
-85 -1235 0
-99 1237 0
-1236 1237 0
-99 -1236 0
-135 1238 0
-1237 1238 0
-135 -1237 0
-147 1239 0
-1238 1239 0
-147 -1238 0
-157 1240 0
-1239 1240 0
-157 -1239 0
-168 1241 0
-1240 1241 0
-168 -1240 0
-209 1242 0
-1241 1242 0
-209 -1241 0
-218 1243 0
-1242 1243 0
-218 -1242 0
-257 1244 0
-1243 1244 0
-257 -1243 0
-265 1245 0
-1244 1245 0
-265 -1244 0
-287 1246 0
-1245 1246 0
-287 -1245 0
-295 1247 0
-1246 1247 0
-295 -1246 0
-301 1248 0
-1247 1248 0
-301 -1247 0
-308 -1248 0
30 71 98 123 146 158 180 210 226 249 264 279 294 302 316 0
-30 1249 0
-71 1250 0
-1249 1250 0
-71 -1249 0
-98 1251 0
-1250 1251 0
-98 -1250 0
-123 1252 0
-1251 1252 0
-123 -1251 0
-146 1253 0
-1252 1253 0
-146 -1252 0
-158 1254 0
-1253 1254 0
-158 -1253 0
-180 1255 0
-1254 1255 0
-180 -1254 0
-210 1256 0
-1255 1256 0
-210 -1255 0
-226 1257 0
-1256 1257 0
-226 -1256 0
-249 1258 0
-1257 1258 0
-249 -1257 0
-264 1259 0
-1258 1259 0
-264 -1258 0
-279 1260 0
-1259 1260 0
-279 -1259 0
-294 1261 0
-1260 1261 0
-294 -1260 0
-302 1262 0
-1261 1262 0
-302 -1261 0
-316 -1262 0
45 70 84 122 134 159 192 211 234 248 256 278 286 303 324 0
-45 1263 0
-70 1264 0
-1263 1264 0
-70 -1263 0
-84 1265 0
-1264 1265 0
-84 -1264 0
-122 1266 0
-1265 1266 0
-122 -1265 0
-134 1267 0
-1266 1267 0
-134 -1266 0
-159 1268 0
-1267 1268 0
-159 -1267 0
-192 1269 0
-1268 1269 0
-192 -1268 0
-211 1270 0
-1269 1270 0
-211 -1269 0
-234 1271 0
-1270 1271 0
-234 -1270 0
-248 1272 0
-1271 1272 0
-248 -1271 0
-256 1273 0
-1272 1273 0
-256 -1272 0
-278 1274 0
-1273 1274 0
-278 -1273 0
-286 1275 0
-1274 1275 0
-286 -1274 0
-303 1276 0
-1275 1276 0
-303 -1275 0
-324 -1276 0
-1 -333 0
-2 -334 0
-1277 333 334 0
-1277 -333 -334 0
1277 -333 334 0
1277 333 -334 0
-3 -1277 0
-4 -335 0
-1278 333 335 0
-1278 -333 -335 0
1278 -333 335 0
1278 333 -335 0
-5 -1278 0
-1279 334 335 0
-1279 -334 -335 0
1279 -334 335 0
1279 334 -335 0
-6 -1279 0
-1280 333 334 0
-1280 -333 -334 0
1280 -333 334 0
1280 333 -334 0
-1281 1280 335 0
-1281 -1280 -335 0
1281 -1280 335 0
1281 1280 -335 0
-7 -1281 0
-8 -336 0
-1282 333 336 0
-1282 -333 -336 0
1282 -333 336 0
1282 333 -336 0
-9 -1282 0
-1283 334 336 0
-1283 -334 -336 0
1283 -334 336 0
1283 334 -336 0
-10 -1283 0
-1284 333 334 0
-1284 -333 -334 0
1284 -333 334 0
1284 333 -334 0
-1285 1284 336 0
-1285 -1284 -336 0
1285 -1284 336 0
1285 1284 -336 0
-11 -1285 0
-1286 335 336 0
-1286 -335 -336 0
1286 -335 336 0
1286 335 -336 0
-12 -1286 0
-1287 333 335 0
-1287 -333 -335 0
1287 -333 335 0
1287 333 -335 0
-1288 1287 336 0
-1288 -1287 -336 0
1288 -1287 336 0
1288 1287 -336 0
-13 -1288 0
-1289 334 335 0
-1289 -334 -335 0
1289 -334 335 0
1289 334 -335 0
-1290 1289 336 0
-1290 -1289 -336 0
1290 -1289 336 0
1290 1289 -336 0
-14 -1290 0
-1291 333 334 0
-1291 -333 -334 0
1291 -333 334 0
1291 333 -334 0
-1292 1291 335 0
-1292 -1291 -335 0
1292 -1291 335 0
1292 1291 -335 0
-1293 1292 336 0
-1293 -1292 -336 0
1293 -1292 336 0
1293 1292 -336 0
-15 -1293 0
-16 -337 0
-17 -338 0
-1294 337 338 0
-1294 -337 -338 0
1294 -337 338 0
1294 337 -338 0
-18 -1294 0
-19 -339 0
-1295 337 339 0
-1295 -337 -339 0
1295 -337 339 0
1295 337 -339 0
-20 -1295 0
-1296 338 339 0
-1296 -338 -339 0
1296 -338 339 0
1296 338 -339 0
-21 -1296 0
-1297 337 338 0
-1297 -337 -338 0
1297 -337 338 0
1297 337 -338 0
-1298 1297 339 0
-1298 -1297 -339 0
1298 -1297 339 0
1298 1297 -339 0
-22 -1298 0
-23 -340 0
-1299 337 340 0
-1299 -337 -340 0
1299 -337 340 0
1299 337 -340 0
-24 -1299 0
-1300 338 340 0
-1300 -338 -340 0
1300 -338 340 0
1300 338 -340 0
-25 -1300 0
-1301 337 338 0
-1301 -337 -338 0
1301 -337 338 0
1301 337 -338 0
-1302 1301 340 0
-1302 -1301 -340 0
1302 -1301 340 0
1302 1301 -340 0
-26 -1302 0
-1303 339 340 0
-1303 -339 -340 0
1303 -339 340 0
1303 339 -340 0
-27 -1303 0
-1304 337 339 0
-1304 -337 -339 0
1304 -337 339 0
1304 337 -339 0
-1305 1304 340 0
-1305 -1304 -340 0
1305 -1304 340 0
1305 1304 -340 0
-28 -1305 0
-1306 338 339 0
-1306 -338 -339 0
1306 -338 339 0
1306 338 -339 0
-1307 1306 340 0
-1307 -1306 -340 0
1307 -1306 340 0
1307 1306 -340 0
-29 -1307 0
-1308 337 338 0
-1308 -337 -338 0
1308 -337 338 0
1308 337 -338 0
-1309 1308 339 0
-1309 -1308 -339 0
1309 -1308 339 0
1309 1308 -339 0
-1310 1309 340 0
-1310 -1309 -340 0
1310 -1309 340 0
1310 1309 -340 0
-30 -1310 0
-1311 333 337 0
-1311 -333 -337 0
1311 -333 337 0
1311 333 -337 0
-31 -1311 0
-1312 334 338 0
-1312 -334 -338 0
1312 -334 338 0
1312 334 -338 0
-32 -1312 0
-1313 333 334 0
-1313 -333 -334 0
1313 -333 334 0
1313 333 -334 0
-1314 1313 337 0
-1314 -1313 -337 0
1314 -1313 337 0
1314 1313 -337 0
-1315 1314 338 0
-1315 -1314 -338 0
1315 -1314 338 0
1315 1314 -338 0
-33 -1315 0
-1316 335 339 0
-1316 -335 -339 0
1316 -335 339 0
1316 335 -339 0
-34 -1316 0
-1317 333 335 0
-1317 -333 -335 0
1317 -333 335 0
1317 333 -335 0
-1318 1317 337 0
-1318 -1317 -337 0
1318 -1317 337 0
1318 1317 -337 0
-1319 1318 339 0
-1319 -1318 -339 0
1319 -1318 339 0
1319 1318 -339 0
-35 -1319 0
-1320 334 335 0
-1320 -334 -335 0
1320 -334 335 0
1320 334 -335 0
-1321 1320 338 0
-1321 -1320 -338 0
1321 -1320 338 0
1321 1320 -338 0
-1322 1321 339 0
-1322 -1321 -339 0
1322 -1321 339 0
1322 1321 -339 0
-36 -1322 0
-1323 333 334 0
-1323 -333 -334 0
1323 -333 334 0
1323 333 -334 0
-1324 1323 335 0
-1324 -1323 -335 0
1324 -1323 335 0
1324 1323 -335 0
-1325 1324 337 0
-1325 -1324 -337 0
1325 -1324 337 0
1325 1324 -337 0
-1326 1325 338 0
-1326 -1325 -338 0
1326 -1325 338 0
1326 1325 -338 0
-1327 1326 339 0
-1327 -1326 -339 0
1327 -1326 339 0
1327 1326 -339 0
-37 -1327 0
-1328 336 340 0
-1328 -336 -340 0
1328 -336 340 0
1328 336 -340 0
-38 -1328 0
-1329 333 336 0
-1329 -333 -336 0
1329 -333 336 0
1329 333 -336 0
-1330 1329 337 0
-1330 -1329 -337 0
1330 -1329 337 0
1330 1329 -337 0
-1331 1330 340 0
-1331 -1330 -340 0
1331 -1330 340 0
1331 1330 -340 0
-39 -1331 0
-1332 334 336 0
-1332 -334 -336 0
1332 -334 336 0
1332 334 -336 0
-1333 1332 338 0
-1333 -1332 -338 0
1333 -1332 338 0
1333 1332 -338 0
-1334 1333 340 0
-1334 -1333 -340 0
1334 -1333 340 0
1334 1333 -340 0
-40 -1334 0
-1335 333 334 0
-1335 -333 -334 0
1335 -333 334 0
1335 333 -334 0
-1336 1335 336 0
-1336 -1335 -336 0
1336 -1335 336 0
1336 1335 -336 0
-1337 1336 337 0
-1337 -1336 -337 0
1337 -1336 337 0
1337 1336 -337 0
-1338 1337 338 0
-1338 -1337 -338 0
1338 -1337 338 0
1338 1337 -338 0
-1339 1338 340 0
-1339 -1338 -340 0
1339 -1338 340 0
1339 1338 -340 0
-41 -1339 0
-1340 335 336 0
-1340 -335 -336 0
1340 -335 336 0
1340 335 -336 0
-1341 1340 339 0
-1341 -1340 -339 0
1341 -1340 339 0
1341 1340 -339 0
-1342 1341 340 0
-1342 -1341 -340 0
1342 -1341 340 0
1342 1341 -340 0
-42 -1342 0
-1343 333 335 0
-1343 -333 -335 0
1343 -333 335 0
1343 333 -335 0
-1344 1343 336 0
-1344 -1343 -336 0
1344 -1343 336 0
1344 1343 -336 0
-1345 1344 337 0
-1345 -1344 -337 0
1345 -1344 337 0
1345 1344 -337 0
-1346 1345 339 0
-1346 -1345 -339 0
1346 -1345 339 0
1346 1345 -339 0
-1347 1346 340 0
-1347 -1346 -340 0
1347 -1346 340 0
1347 1346 -340 0
-43 -1347 0
-1348 334 335 0
-1348 -334 -335 0
1348 -334 335 0
1348 334 -335 0
-1349 1348 336 0
-1349 -1348 -336 0
1349 -1348 336 0
1349 1348 -336 0
-1350 1349 338 0
-1350 -1349 -338 0
1350 -1349 338 0
1350 1349 -338 0
-1351 1350 339 0
-1351 -1350 -339 0
1351 -1350 339 0
1351 1350 -339 0
-1352 1351 340 0
-1352 -1351 -340 0
1352 -1351 340 0
1352 1351 -340 0
-44 -1352 0
-1353 333 334 0
-1353 -333 -334 0
1353 -333 334 0
1353 333 -334 0
-1354 1353 335 0
-1354 -1353 -335 0
1354 -1353 335 0
1354 1353 -335 0
-1355 1354 336 0
-1355 -1354 -336 0
1355 -1354 336 0
1355 1354 -336 0
-1356 1355 337 0
-1356 -1355 -337 0
1356 -1355 337 0
1356 1355 -337 0
-1357 1356 338 0
-1357 -1356 -338 0
1357 -1356 338 0
1357 1356 -338 0
-1358 1357 339 0
-1358 -1357 -339 0
1358 -1357 339 0
1358 1357 -339 0
-1359 1358 340 0
-1359 -1358 -340 0
1359 -1358 340 0
1359 1358 -340 0
-45 -1359 0
-46 -342 0
-1360 333 342 0
-1360 -333 -342 0
1360 -333 342 0
1360 333 -342 0
-47 -1360 0
-1361 337 342 0
-1361 -337 -342 0
1361 -337 342 0
1361 337 -342 0
-48 -1361 0
-1362 333 337 0
-1362 -333 -337 0
1362 -333 337 0
1362 333 -337 0
-1363 1362 342 0
-1363 -1362 -342 0
1363 -1362 342 0
1363 1362 -342 0
-49 -1363 0
-50 -343 0
-1364 333 343 0
-1364 -333 -343 0
1364 -333 343 0
1364 333 -343 0
-51 -1364 0
-1365 337 343 0
-1365 -337 -343 0
1365 -337 343 0
1365 337 -343 0
-52 -1365 0
-1366 333 337 0
-1366 -333 -337 0
1366 -333 337 0
1366 333 -337 0
-1367 1366 343 0
-1367 -1366 -343 0
1367 -1366 343 0
1367 1366 -343 0
-53 -1367 0
-1368 342 343 0
-1368 -342 -343 0
1368 -342 343 0
1368 342 -343 0
-54 -1368 0
-1369 333 342 0
-1369 -333 -342 0
1369 -333 342 0
1369 333 -342 0
-1370 1369 343 0
-1370 -1369 -343 0
1370 -1369 343 0
1370 1369 -343 0
-55 -1370 0
-1371 337 342 0
-1371 -337 -342 0
1371 -337 342 0
1371 337 -342 0
-1372 1371 343 0
-1372 -1371 -343 0
1372 -1371 343 0
1372 1371 -343 0
-56 -1372 0
-1373 333 337 0
-1373 -333 -337 0
1373 -333 337 0
1373 333 -337 0
-1374 1373 342 0
-1374 -1373 -342 0
1374 -1373 342 0
1374 1373 -342 0
-1375 1374 343 0
-1375 -1374 -343 0
1375 -1374 343 0
1375 1374 -343 0
-57 -1375 0
-1376 332 334 0
-1376 -332 -334 0
1376 -332 334 0
1376 332 -334 0
-1377 1376 337 0
-1377 -1376 -337 0
1377 -1376 337 0
1377 1376 -337 0
-1378 1377 341 0
-1378 -1377 -341 0
1378 -1377 341 0
1378 1377 -341 0
-58 -1378 0
-1379 332 333 0
-1379 -332 -333 0
1379 -332 333 0
1379 332 -333 0
-1380 1379 334 0
-1380 -1379 -334 0
1380 -1379 334 0
1380 1379 -334 0
-1381 1380 337 0
-1381 -1380 -337 0
1381 -1380 337 0
1381 1380 -337 0
-1382 1381 341 0
-1382 -1381 -341 0
1382 -1381 341 0
1382 1381 -341 0
-59 -1382 0
-1383 335 342 0
-1383 -335 -342 0
1383 -335 342 0
1383 335 -342 0
-60 -1383 0
-1384 333 335 0
-1384 -333 -335 0
1384 -333 335 0
1384 333 -335 0
-1385 1384 342 0
-1385 -1384 -342 0
1385 -1384 342 0
1385 1384 -342 0
-61 -1385 0
-1386 332 334 0
-1386 -332 -334 0
1386 -332 334 0
1386 332 -334 0
-1387 1386 335 0
-1387 -1386 -335 0
1387 -1386 335 0
1387 1386 -335 0
-1388 1387 337 0
-1388 -1387 -337 0
1388 -1387 337 0
1388 1387 -337 0
-1389 1388 341 0
-1389 -1388 -341 0
1389 -1388 341 0
1389 1388 -341 0
-1390 1389 342 0
-1390 -1389 -342 0
1390 -1389 342 0
1390 1389 -342 0
-62 -1390 0
-1391 332 333 0
-1391 -332 -333 0
1391 -332 333 0
1391 332 -333 0
-1392 1391 334 0
-1392 -1391 -334 0
1392 -1391 334 0
1392 1391 -334 0
-1393 1392 335 0
-1393 -1392 -335 0
1393 -1392 335 0
1393 1392 -335 0
-1394 1393 337 0
-1394 -1393 -337 0
1394 -1393 337 0
1394 1393 -337 0
-1395 1394 341 0
-1395 -1394 -341 0
1395 -1394 341 0
1395 1394 -341 0
-1396 1395 342 0
-1396 -1395 -342 0
1396 -1395 342 0
1396 1395 -342 0
-63 -1396 0
-1397 336 343 0
-1397 -336 -343 0
1397 -336 343 0
1397 336 -343 0
-64 -1397 0
-1398 333 336 0
-1398 -333 -336 0
1398 -333 336 0
1398 333 -336 0
-1399 1398 343 0
-1399 -1398 -343 0
1399 -1398 343 0
1399 1398 -343 0
-65 -1399 0
-1400 332 334 0
-1400 -332 -334 0
1400 -332 334 0
1400 332 -334 0
-1401 1400 336 0
-1401 -1400 -336 0
1401 -1400 336 0
1401 1400 -336 0
-1402 1401 337 0
-1402 -1401 -337 0
1402 -1401 337 0
1402 1401 -337 0
-1403 1402 341 0
-1403 -1402 -341 0
1403 -1402 341 0
1403 1402 -341 0
-1404 1403 343 0
-1404 -1403 -343 0
1404 -1403 343 0
1404 1403 -343 0
-66 -1404 0
-1405 332 333 0
-1405 -332 -333 0
1405 -332 333 0
1405 332 -333 0
-1406 1405 334 0
-1406 -1405 -334 0
1406 -1405 334 0
1406 1405 -334 0
-1407 1406 336 0
-1407 -1406 -336 0
1407 -1406 336 0
1407 1406 -336 0
-1408 1407 337 0
-1408 -1407 -337 0
1408 -1407 337 0
1408 1407 -337 0
-1409 1408 341 0
-1409 -1408 -341 0
1409 -1408 341 0
1409 1408 -341 0
-1410 1409 343 0
-1410 -1409 -343 0
1410 -1409 343 0
1410 1409 -343 0
-67 -1410 0
-1411 335 336 0
-1411 -335 -336 0
1411 -335 336 0
1411 335 -336 0
-1412 1411 342 0
-1412 -1411 -342 0
1412 -1411 342 0
1412 1411 -342 0
-1413 1412 343 0
-1413 -1412 -343 0
1413 -1412 343 0
1413 1412 -343 0
-68 -1413 0
-1414 333 335 0
-1414 -333 -335 0
1414 -333 335 0
1414 333 -335 0
-1415 1414 336 0
-1415 -1414 -336 0
1415 -1414 336 0
1415 1414 -336 0
-1416 1415 342 0
-1416 -1415 -342 0
1416 -1415 342 0
1416 1415 -342 0
-1417 1416 343 0
-1417 -1416 -343 0
1417 -1416 343 0
1417 1416 -343 0
-69 -1417 0
-1418 332 334 0
-1418 -332 -334 0
1418 -332 334 0
1418 332 -334 0
-1419 1418 335 0
-1419 -1418 -335 0
1419 -1418 335 0
1419 1418 -335 0
-1420 1419 336 0
-1420 -1419 -336 0
1420 -1419 336 0
1420 1419 -336 0
-1421 1420 337 0
-1421 -1420 -337 0
1421 -1420 337 0
1421 1420 -337 0
-1422 1421 341 0
-1422 -1421 -341 0
1422 -1421 341 0
1422 1421 -341 0
-1423 1422 342 0
-1423 -1422 -342 0
1423 -1422 342 0
1423 1422 -342 0
-1424 1423 343 0
-1424 -1423 -343 0
1424 -1423 343 0
1424 1423 -343 0
-70 -1424 0
-1425 332 333 0
-1425 -332 -333 0
1425 -332 333 0
1425 332 -333 0
-1426 1425 334 0
-1426 -1425 -334 0
1426 -1425 334 0
1426 1425 -334 0
-1427 1426 335 0
-1427 -1426 -335 0
1427 -1426 335 0
1427 1426 -335 0
-1428 1427 336 0
-1428 -1427 -336 0
1428 -1427 336 0
1428 1427 -336 0
-1429 1428 337 0
-1429 -1428 -337 0
1429 -1428 337 0
1429 1428 -337 0
-1430 1429 341 0
-1430 -1429 -341 0
1430 -1429 341 0
1430 1429 -341 0
-1431 1430 342 0
-1431 -1430 -342 0
1431 -1430 342 0
1431 1430 -342 0
-1432 1431 343 0
-1432 -1431 -343 0
1432 -1431 343 0
1432 1431 -343 0
-71 -1432 0
-1433 332 333 0
-1433 -332 -333 0
1433 -332 333 0
1433 332 -333 0
-1434 1433 338 0
-1434 -1433 -338 0
1434 -1433 338 0
1434 1433 -338 0
-1435 1434 341 0
-1435 -1434 -341 0
1435 -1434 341 0
1435 1434 -341 0
-72 -1435 0
-1436 332 333 0
-1436 -332 -333 0
1436 -332 333 0
1436 332 -333 0
-1437 1436 337 0
-1437 -1436 -337 0
1437 -1436 337 0
1437 1436 -337 0
-1438 1437 338 0
-1438 -1437 -338 0
1438 -1437 338 0
1438 1437 -338 0
-1439 1438 341 0
-1439 -1438 -341 0
1439 -1438 341 0
1439 1438 -341 0
-73 -1439 0
-1440 339 342 0
-1440 -339 -342 0
1440 -339 342 0
1440 339 -342 0
-74 -1440 0
-1441 337 339 0
-1441 -337 -339 0
1441 -337 339 0
1441 337 -339 0
-1442 1441 342 0
-1442 -1441 -342 0
1442 -1441 342 0
1442 1441 -342 0
-75 -1442 0
-1443 332 333 0
-1443 -332 -333 0
1443 -332 333 0
1443 332 -333 0
-1444 1443 338 0
-1444 -1443 -338 0
1444 -1443 338 0
1444 1443 -338 0
-1445 1444 339 0
-1445 -1444 -339 0
1445 -1444 339 0
1445 1444 -339 0
-1446 1445 341 0
-1446 -1445 -341 0
1446 -1445 341 0
1446 1445 -341 0
-1447 1446 342 0
-1447 -1446 -342 0
1447 -1446 342 0
1447 1446 -342 0
-76 -1447 0
-1448 332 333 0
-1448 -332 -333 0
1448 -332 333 0
1448 332 -333 0
-1449 1448 337 0
-1449 -1448 -337 0
1449 -1448 337 0
1449 1448 -337 0
-1450 1449 338 0
-1450 -1449 -338 0
1450 -1449 338 0
1450 1449 -338 0
-1451 1450 339 0
-1451 -1450 -339 0
1451 -1450 339 0
1451 1450 -339 0
-1452 1451 341 0
-1452 -1451 -341 0
1452 -1451 341 0
1452 1451 -341 0
-1453 1452 342 0
-1453 -1452 -342 0
1453 -1452 342 0
1453 1452 -342 0
-77 -1453 0
-1454 340 343 0
-1454 -340 -343 0
1454 -340 343 0
1454 340 -343 0
-78 -1454 0
-1455 337 340 0
-1455 -337 -340 0
1455 -337 340 0
1455 337 -340 0
-1456 1455 343 0
-1456 -1455 -343 0
1456 -1455 343 0
1456 1455 -343 0
-79 -1456 0
-1457 332 333 0
-1457 -332 -333 0
1457 -332 333 0
1457 332 -333 0
-1458 1457 338 0
-1458 -1457 -338 0
1458 -1457 338 0
1458 1457 -338 0
-1459 1458 340 0
-1459 -1458 -340 0
1459 -1458 340 0
1459 1458 -340 0
-1460 1459 341 0
-1460 -1459 -341 0
1460 -1459 341 0
1460 1459 -341 0
-1461 1460 343 0
-1461 -1460 -343 0
1461 -1460 343 0
1461 1460 -343 0
-80 -1461 0
-1462 332 333 0
-1462 -332 -333 0
1462 -332 333 0
1462 332 -333 0
-1463 1462 337 0
-1463 -1462 -337 0
1463 -1462 337 0
1463 1462 -337 0
-1464 1463 338 0
-1464 -1463 -338 0
1464 -1463 338 0
1464 1463 -338 0
-1465 1464 340 0
-1465 -1464 -340 0
1465 -1464 340 0
1465 1464 -340 0
-1466 1465 341 0
-1466 -1465 -341 0
1466 -1465 341 0
1466 1465 -341 0
-1467 1466 343 0
-1467 -1466 -343 0
1467 -1466 343 0
1467 1466 -343 0
-81 -1467 0
-1468 339 340 0
-1468 -339 -340 0
1468 -339 340 0
1468 339 -340 0
-1469 1468 342 0
-1469 -1468 -342 0
1469 -1468 342 0
1469 1468 -342 0
-1470 1469 343 0
-1470 -1469 -343 0
1470 -1469 343 0
1470 1469 -343 0
-82 -1470 0
-1471 337 339 0
-1471 -337 -339 0
1471 -337 339 0
1471 337 -339 0
-1472 1471 340 0
-1472 -1471 -340 0
1472 -1471 340 0
1472 1471 -340 0
-1473 1472 342 0
-1473 -1472 -342 0
1473 -1472 342 0
1473 1472 -342 0
-1474 1473 343 0
-1474 -1473 -343 0
1474 -1473 343 0
1474 1473 -343 0
-83 -1474 0
-1475 332 333 0
-1475 -332 -333 0
1475 -332 333 0
1475 332 -333 0
-1476 1475 338 0
-1476 -1475 -338 0
1476 -1475 338 0
1476 1475 -338 0
-1477 1476 339 0
-1477 -1476 -339 0
1477 -1476 339 0
1477 1476 -339 0
-1478 1477 340 0
-1478 -1477 -340 0
1478 -1477 340 0
1478 1477 -340 0
-1479 1478 341 0
-1479 -1478 -341 0
1479 -1478 341 0
1479 1478 -341 0
-1480 1479 342 0
-1480 -1479 -342 0
1480 -1479 342 0
1480 1479 -342 0
-1481 1480 343 0
-1481 -1480 -343 0
1481 -1480 343 0
1481 1480 -343 0
-84 -1481 0
-1482 332 333 0
-1482 -332 -333 0
1482 -332 333 0
1482 332 -333 0
-1483 1482 337 0
-1483 -1482 -337 0
1483 -1482 337 0
1483 1482 -337 0
-1484 1483 338 0
-1484 -1483 -338 0
1484 -1483 338 0
1484 1483 -338 0
-1485 1484 339 0
-1485 -1484 -339 0
1485 -1484 339 0
1485 1484 -339 0
-1486 1485 340 0
-1486 -1485 -340 0
1486 -1485 340 0
1486 1485 -340 0
-1487 1486 341 0
-1487 -1486 -341 0
1487 -1486 341 0
1487 1486 -341 0
-1488 1487 342 0
-1488 -1487 -342 0
1488 -1487 342 0
1488 1487 -342 0
-1489 1488 343 0
-1489 -1488 -343 0
1489 -1488 343 0
1489 1488 -343 0
-85 -1489 0
-1490 332 333 0
-1490 -332 -333 0
1490 -332 333 0
1490 332 -333 0
-1491 1490 334 0
-1491 -1490 -334 0
1491 -1490 334 0
1491 1490 -334 0
-1492 1491 338 0
-1492 -1491 -338 0
1492 -1491 338 0
1492 1491 -338 0
-1493 1492 341 0
-1493 -1492 -341 0
1493 -1492 341 0
1493 1492 -341 0
-86 -1493 0
-1494 332 334 0
-1494 -332 -334 0
1494 -332 334 0
1494 332 -334 0
-1495 1494 337 0
-1495 -1494 -337 0
1495 -1494 337 0
1495 1494 -337 0
-1496 1495 338 0
-1496 -1495 -338 0
1496 -1495 338 0
1496 1495 -338 0
-1497 1496 341 0
-1497 -1496 -341 0
1497 -1496 341 0
1497 1496 -341 0
-87 -1497 0
-1498 335 339 0
-1498 -335 -339 0
1498 -335 339 0
1498 335 -339 0
-1499 1498 342 0
-1499 -1498 -342 0
1499 -1498 342 0
1499 1498 -342 0
-88 -1499 0
-1500 333 335 0
-1500 -333 -335 0
1500 -333 335 0
1500 333 -335 0
-1501 1500 337 0
-1501 -1500 -337 0
1501 -1500 337 0
1501 1500 -337 0
-1502 1501 339 0
-1502 -1501 -339 0
1502 -1501 339 0
1502 1501 -339 0
-1503 1502 342 0
-1503 -1502 -342 0
1503 -1502 342 0
1503 1502 -342 0
-89 -1503 0
-1504 332 333 0
-1504 -332 -333 0
1504 -332 333 0
1504 332 -333 0
-1505 1504 334 0
-1505 -1504 -334 0
1505 -1504 334 0
1505 1504 -334 0
-1506 1505 335 0
-1506 -1505 -335 0
1506 -1505 335 0
1506 1505 -335 0
-1507 1506 338 0
-1507 -1506 -338 0
1507 -1506 338 0
1507 1506 -338 0
-1508 1507 339 0
-1508 -1507 -339 0
1508 -1507 339 0
1508 1507 -339 0
-1509 1508 341 0
-1509 -1508 -341 0
1509 -1508 341 0
1509 1508 -341 0
-1510 1509 342 0
-1510 -1509 -342 0
1510 -1509 342 0
1510 1509 -342 0
-90 -1510 0
-1511 332 334 0
-1511 -332 -334 0
1511 -332 334 0
1511 332 -334 0
-1512 1511 335 0
-1512 -1511 -335 0
1512 -1511 335 0
1512 1511 -335 0
-1513 1512 337 0
-1513 -1512 -337 0
1513 -1512 337 0
1513 1512 -337 0
-1514 1513 338 0
-1514 -1513 -338 0
1514 -1513 338 0
1514 1513 -338 0
-1515 1514 339 0
-1515 -1514 -339 0
1515 -1514 339 0
1515 1514 -339 0
-1516 1515 341 0
-1516 -1515 -341 0
1516 -1515 341 0
1516 1515 -341 0
-1517 1516 342 0
-1517 -1516 -342 0
1517 -1516 342 0
1517 1516 -342 0
-91 -1517 0
-1518 336 340 0
-1518 -336 -340 0
1518 -336 340 0
1518 336 -340 0
-1519 1518 343 0
-1519 -1518 -343 0
1519 -1518 343 0
1519 1518 -343 0
-92 -1519 0
-1520 333 336 0
-1520 -333 -336 0
1520 -333 336 0
1520 333 -336 0
-1521 1520 337 0
-1521 -1520 -337 0
1521 -1520 337 0
1521 1520 -337 0
-1522 1521 340 0
-1522 -1521 -340 0
1522 -1521 340 0
1522 1521 -340 0
-1523 1522 343 0
-1523 -1522 -343 0
1523 -1522 343 0
1523 1522 -343 0
-93 -1523 0
-1524 332 333 0
-1524 -332 -333 0
1524 -332 333 0
1524 332 -333 0
-1525 1524 334 0
-1525 -1524 -334 0
1525 -1524 334 0
1525 1524 -334 0
-1526 1525 336 0
-1526 -1525 -336 0
1526 -1525 336 0
1526 1525 -336 0
-1527 1526 338 0
-1527 -1526 -338 0
1527 -1526 338 0
1527 1526 -338 0
-1528 1527 340 0
-1528 -1527 -340 0
1528 -1527 340 0
1528 1527 -340 0
-1529 1528 341 0
-1529 -1528 -341 0
1529 -1528 341 0
1529 1528 -341 0
-1530 1529 343 0
-1530 -1529 -343 0
1530 -1529 343 0
1530 1529 -343 0
-94 -1530 0
-1531 332 334 0
-1531 -332 -334 0
1531 -332 334 0
1531 332 -334 0
-1532 1531 336 0
-1532 -1531 -336 0
1532 -1531 336 0
1532 1531 -336 0
-1533 1532 337 0
-1533 -1532 -337 0
1533 -1532 337 0
1533 1532 -337 0
-1534 1533 338 0
-1534 -1533 -338 0
1534 -1533 338 0
1534 1533 -338 0
-1535 1534 340 0
-1535 -1534 -340 0
1535 -1534 340 0
1535 1534 -340 0
-1536 1535 341 0
-1536 -1535 -341 0
1536 -1535 341 0
1536 1535 -341 0
-1537 1536 343 0
-1537 -1536 -343 0
1537 -1536 343 0
1537 1536 -343 0
-95 -1537 0
-1538 335 336 0
-1538 -335 -336 0
1538 -335 336 0
1538 335 -336 0
-1539 1538 339 0
-1539 -1538 -339 0
1539 -1538 339 0
1539 1538 -339 0
-1540 1539 340 0
-1540 -1539 -340 0
1540 -1539 340 0
1540 1539 -340 0
-1541 1540 342 0
-1541 -1540 -342 0
1541 -1540 342 0
1541 1540 -342 0
-1542 1541 343 0
-1542 -1541 -343 0
1542 -1541 343 0
1542 1541 -343 0
-96 -1542 0
-1543 333 335 0
-1543 -333 -335 0
1543 -333 335 0
1543 333 -335 0
-1544 1543 336 0
-1544 -1543 -336 0
1544 -1543 336 0
1544 1543 -336 0
-1545 1544 337 0
-1545 -1544 -337 0
1545 -1544 337 0
1545 1544 -337 0
-1546 1545 339 0
-1546 -1545 -339 0
1546 -1545 339 0
1546 1545 -339 0
-1547 1546 340 0
-1547 -1546 -340 0
1547 -1546 340 0
1547 1546 -340 0
-1548 1547 342 0
-1548 -1547 -342 0
1548 -1547 342 0
1548 1547 -342 0
-1549 1548 343 0
-1549 -1548 -343 0
1549 -1548 343 0
1549 1548 -343 0
-97 -1549 0
-1550 332 333 0
-1550 -332 -333 0
1550 -332 333 0
1550 332 -333 0
-1551 1550 334 0
-1551 -1550 -334 0
1551 -1550 334 0
1551 1550 -334 0
-1552 1551 335 0
-1552 -1551 -335 0
1552 -1551 335 0
1552 1551 -335 0
-1553 1552 336 0
-1553 -1552 -336 0
1553 -1552 336 0
1553 1552 -336 0
-1554 1553 338 0
-1554 -1553 -338 0
1554 -1553 338 0
1554 1553 -338 0
-1555 1554 339 0
-1555 -1554 -339 0
1555 -1554 339 0
1555 1554 -339 0
-1556 1555 340 0
-1556 -1555 -340 0
1556 -1555 340 0
1556 1555 -340 0
-1557 1556 341 0
-1557 -1556 -341 0
1557 -1556 341 0
1557 1556 -341 0
-1558 1557 342 0
-1558 -1557 -342 0
1558 -1557 342 0
1558 1557 -342 0
-1559 1558 343 0
-1559 -1558 -343 0
1559 -1558 343 0
1559 1558 -343 0
-98 -1559 0
-1560 332 334 0
-1560 -332 -334 0
1560 -332 334 0
1560 332 -334 0
-1561 1560 335 0
-1561 -1560 -335 0
1561 -1560 335 0
1561 1560 -335 0
-1562 1561 336 0
-1562 -1561 -336 0
1562 -1561 336 0
1562 1561 -336 0
-1563 1562 337 0
-1563 -1562 -337 0
1563 -1562 337 0
1563 1562 -337 0
-1564 1563 338 0
-1564 -1563 -338 0
1564 -1563 338 0
1564 1563 -338 0
-1565 1564 339 0
-1565 -1564 -339 0
1565 -1564 339 0
1565 1564 -339 0
-1566 1565 340 0
-1566 -1565 -340 0
1566 -1565 340 0
1566 1565 -340 0
-1567 1566 341 0
-1567 -1566 -341 0
1567 -1566 341 0
1567 1566 -341 0
-1568 1567 342 0
-1568 -1567 -342 0
1568 -1567 342 0
1568 1567 -342 0
-1569 1568 343 0
-1569 -1568 -343 0
1569 -1568 343 0
1569 1568 -343 0
-99 -1569 0
-100 -344 0
-1570 334 344 0
-1570 -334 -344 0
1570 -334 344 0
1570 334 -344 0
-101 -1570 0
-1571 338 344 0
-1571 -338 -344 0
1571 -338 344 0
1571 338 -344 0
-102 -1571 0
-1572 334 338 0
-1572 -334 -338 0
1572 -334 338 0
1572 334 -338 0
-1573 1572 344 0
-1573 -1572 -344 0
1573 -1572 344 0
1573 1572 -344 0
-103 -1573 0
-104 -345 0
-1574 334 345 0
-1574 -334 -345 0
1574 -334 345 0
1574 334 -345 0
-105 -1574 0
-1575 338 345 0
-1575 -338 -345 0
1575 -338 345 0
1575 338 -345 0
-106 -1575 0
-1576 334 338 0
-1576 -334 -338 0
1576 -334 338 0
1576 334 -338 0
-1577 1576 345 0
-1577 -1576 -345 0
1577 -1576 345 0
1577 1576 -345 0
-107 -1577 0
-1578 344 345 0
-1578 -344 -345 0
1578 -344 345 0
1578 344 -345 0
-108 -1578 0
-1579 334 344 0
-1579 -334 -344 0
1579 -334 344 0
1579 334 -344 0
-1580 1579 345 0
-1580 -1579 -345 0
1580 -1579 345 0
1580 1579 -345 0
-109 -1580 0
-1581 338 344 0
-1581 -338 -344 0
1581 -338 344 0
1581 338 -344 0
-1582 1581 345 0
-1582 -1581 -345 0
1582 -1581 345 0
1582 1581 -345 0
-110 -1582 0
-1583 334 338 0
-1583 -334 -338 0
1583 -334 338 0
1583 334 -338 0
-1584 1583 344 0
-1584 -1583 -344 0
1584 -1583 344 0
1584 1583 -344 0
-1585 1584 345 0
-1585 -1584 -345 0
1585 -1584 345 0
1585 1584 -345 0
-111 -1585 0
-1586 335 344 0
-1586 -335 -344 0
1586 -335 344 0
1586 335 -344 0
-112 -1586 0
-1587 334 335 0
-1587 -334 -335 0
1587 -334 335 0
1587 334 -335 0
-1588 1587 344 0
-1588 -1587 -344 0
1588 -1587 344 0
1588 1587 -344 0
-113 -1588 0
-1589 332 333 0
-1589 -332 -333 0
1589 -332 333 0
1589 332 -333 0
-1590 1589 335 0
-1590 -1589 -335 0
1590 -1589 335 0
1590 1589 -335 0
-1591 1590 338 0
-1591 -1590 -338 0
1591 -1590 338 0
1591 1590 -338 0
-1592 1591 341 0
-1592 -1591 -341 0
1592 -1591 341 0
1592 1591 -341 0
-1593 1592 344 0
-1593 -1592 -344 0
1593 -1592 344 0
1593 1592 -344 0
-114 -1593 0
-1594 332 333 0
-1594 -332 -333 0
1594 -332 333 0
1594 332 -333 0
-1595 1594 334 0
-1595 -1594 -334 0
1595 -1594 334 0
1595 1594 -334 0
-1596 1595 335 0
-1596 -1595 -335 0
1596 -1595 335 0
1596 1595 -335 0
-1597 1596 338 0
-1597 -1596 -338 0
1597 -1596 338 0
1597 1596 -338 0
-1598 1597 341 0
-1598 -1597 -341 0
1598 -1597 341 0
1598 1597 -341 0
-1599 1598 344 0
-1599 -1598 -344 0
1599 -1598 344 0
1599 1598 -344 0
-115 -1599 0
-1600 336 345 0
-1600 -336 -345 0
1600 -336 345 0
1600 336 -345 0
-116 -1600 0
-1601 334 336 0
-1601 -334 -336 0
1601 -334 336 0
1601 334 -336 0
-1602 1601 345 0
-1602 -1601 -345 0
1602 -1601 345 0
1602 1601 -345 0
-117 -1602 0
-1603 332 333 0
-1603 -332 -333 0
1603 -332 333 0
1603 332 -333 0
-1604 1603 336 0
-1604 -1603 -336 0
1604 -1603 336 0
1604 1603 -336 0
-1605 1604 338 0
-1605 -1604 -338 0
1605 -1604 338 0
1605 1604 -338 0
-1606 1605 341 0
-1606 -1605 -341 0
1606 -1605 341 0
1606 1605 -341 0
-1607 1606 345 0
-1607 -1606 -345 0
1607 -1606 345 0
1607 1606 -345 0
-118 -1607 0
-1608 332 333 0
-1608 -332 -333 0
1608 -332 333 0
1608 332 -333 0
-1609 1608 334 0
-1609 -1608 -334 0
1609 -1608 334 0
1609 1608 -334 0
-1610 1609 336 0
-1610 -1609 -336 0
1610 -1609 336 0
1610 1609 -336 0
-1611 1610 338 0
-1611 -1610 -338 0
1611 -1610 338 0
1611 1610 -338 0
-1612 1611 341 0
-1612 -1611 -341 0
1612 -1611 341 0
1612 1611 -341 0
-1613 1612 345 0
-1613 -1612 -345 0
1613 -1612 345 0
1613 1612 -345 0
-119 -1613 0
-1614 335 336 0
-1614 -335 -336 0
1614 -335 336 0
1614 335 -336 0
-1615 1614 344 0
-1615 -1614 -344 0
1615 -1614 344 0
1615 1614 -344 0
-1616 1615 345 0
-1616 -1615 -345 0
1616 -1615 345 0
1616 1615 -345 0
-120 -1616 0
-1617 334 335 0
-1617 -334 -335 0
1617 -334 335 0
1617 334 -335 0
-1618 1617 336 0
-1618 -1617 -336 0
1618 -1617 336 0
1618 1617 -336 0
-1619 1618 344 0
-1619 -1618 -344 0
1619 -1618 344 0
1619 1618 -344 0
-1620 1619 345 0
-1620 -1619 -345 0
1620 -1619 345 0
1620 1619 -345 0
-121 -1620 0
-1621 332 333 0
-1621 -332 -333 0
1621 -332 333 0
1621 332 -333 0
-1622 1621 335 0
-1622 -1621 -335 0
1622 -1621 335 0
1622 1621 -335 0
-1623 1622 336 0
-1623 -1622 -336 0
1623 -1622 336 0
1623 1622 -336 0
-1624 1623 338 0
-1624 -1623 -338 0
1624 -1623 338 0
1624 1623 -338 0
-1625 1624 341 0
-1625 -1624 -341 0
1625 -1624 341 0
1625 1624 -341 0
-1626 1625 344 0
-1626 -1625 -344 0
1626 -1625 344 0
1626 1625 -344 0
-1627 1626 345 0
-1627 -1626 -345 0
1627 -1626 345 0
1627 1626 -345 0
-122 -1627 0
-1628 332 333 0
-1628 -332 -333 0
1628 -332 333 0
1628 332 -333 0
-1629 1628 334 0
-1629 -1628 -334 0
1629 -1628 334 0
1629 1628 -334 0
-1630 1629 335 0
-1630 -1629 -335 0
1630 -1629 335 0
1630 1629 -335 0
-1631 1630 336 0
-1631 -1630 -336 0
1631 -1630 336 0
1631 1630 -336 0
-1632 1631 338 0
-1632 -1631 -338 0
1632 -1631 338 0
1632 1631 -338 0
-1633 1632 341 0
-1633 -1632 -341 0
1633 -1632 341 0
1633 1632 -341 0
-1634 1633 344 0
-1634 -1633 -344 0
1634 -1633 344 0
1634 1633 -344 0
-1635 1634 345 0
-1635 -1634 -345 0
1635 -1634 345 0
1635 1634 -345 0
-123 -1635 0
-1636 339 344 0
-1636 -339 -344 0
1636 -339 344 0
1636 339 -344 0
-124 -1636 0
-1637 338 339 0
-1637 -338 -339 0
1637 -338 339 0
1637 338 -339 0
-1638 1637 344 0
-1638 -1637 -344 0
1638 -1637 344 0
1638 1637 -344 0
-125 -1638 0
-1639 332 334 0
-1639 -332 -334 0
1639 -332 334 0
1639 332 -334 0
-1640 1639 337 0
-1640 -1639 -337 0
1640 -1639 337 0
1640 1639 -337 0
-1641 1640 339 0
-1641 -1640 -339 0
1641 -1640 339 0
1641 1640 -339 0
-1642 1641 341 0
-1642 -1641 -341 0
1642 -1641 341 0
1642 1641 -341 0
-1643 1642 344 0
-1643 -1642 -344 0
1643 -1642 344 0
1643 1642 -344 0
-126 -1643 0
-1644 332 334 0
-1644 -332 -334 0
1644 -332 334 0
1644 332 -334 0
-1645 1644 337 0
-1645 -1644 -337 0
1645 -1644 337 0
1645 1644 -337 0
-1646 1645 338 0
-1646 -1645 -338 0
1646 -1645 338 0
1646 1645 -338 0
-1647 1646 339 0
-1647 -1646 -339 0
1647 -1646 339 0
1647 1646 -339 0
-1648 1647 341 0
-1648 -1647 -341 0
1648 -1647 341 0
1648 1647 -341 0
-1649 1648 344 0
-1649 -1648 -344 0
1649 -1648 344 0
1649 1648 -344 0
-127 -1649 0
-1650 340 345 0
-1650 -340 -345 0
1650 -340 345 0
1650 340 -345 0
-128 -1650 0
-1651 338 340 0
-1651 -338 -340 0
1651 -338 340 0
1651 338 -340 0
-1652 1651 345 0
-1652 -1651 -345 0
1652 -1651 345 0
1652 1651 -345 0
-129 -1652 0
-1653 332 334 0
-1653 -332 -334 0
1653 -332 334 0
1653 332 -334 0
-1654 1653 337 0
-1654 -1653 -337 0
1654 -1653 337 0
1654 1653 -337 0
-1655 1654 340 0
-1655 -1654 -340 0
1655 -1654 340 0
1655 1654 -340 0
-1656 1655 341 0
-1656 -1655 -341 0
1656 -1655 341 0
1656 1655 -341 0
-1657 1656 345 0
-1657 -1656 -345 0
1657 -1656 345 0
1657 1656 -345 0
-130 -1657 0
-1658 332 334 0
-1658 -332 -334 0
1658 -332 334 0
1658 332 -334 0
-1659 1658 337 0
-1659 -1658 -337 0
1659 -1658 337 0
1659 1658 -337 0
-1660 1659 338 0
-1660 -1659 -338 0
1660 -1659 338 0
1660 1659 -338 0
-1661 1660 340 0
-1661 -1660 -340 0
1661 -1660 340 0
1661 1660 -340 0
-1662 1661 341 0
-1662 -1661 -341 0
1662 -1661 341 0
1662 1661 -341 0
-1663 1662 345 0
-1663 -1662 -345 0
1663 -1662 345 0
1663 1662 -345 0
-131 -1663 0
-1664 339 340 0
-1664 -339 -340 0
1664 -339 340 0
1664 339 -340 0
-1665 1664 344 0
-1665 -1664 -344 0
1665 -1664 344 0
1665 1664 -344 0
-1666 1665 345 0
-1666 -1665 -345 0
1666 -1665 345 0
1666 1665 -345 0
-132 -1666 0
-1667 338 339 0
-1667 -338 -339 0
1667 -338 339 0
1667 338 -339 0
-1668 1667 340 0
-1668 -1667 -340 0
1668 -1667 340 0
1668 1667 -340 0
-1669 1668 344 0
-1669 -1668 -344 0
1669 -1668 344 0
1669 1668 -344 0
-1670 1669 345 0
-1670 -1669 -345 0
1670 -1669 345 0
1670 1669 -345 0
-133 -1670 0
-1671 332 334 0
-1671 -332 -334 0
1671 -332 334 0
1671 332 -334 0
-1672 1671 337 0
-1672 -1671 -337 0
1672 -1671 337 0
1672 1671 -337 0
-1673 1672 339 0
-1673 -1672 -339 0
1673 -1672 339 0
1673 1672 -339 0
-1674 1673 340 0
-1674 -1673 -340 0
1674 -1673 340 0
1674 1673 -340 0
-1675 1674 341 0
-1675 -1674 -341 0
1675 -1674 341 0
1675 1674 -341 0
-1676 1675 344 0
-1676 -1675 -344 0
1676 -1675 344 0
1676 1675 -344 0
-1677 1676 345 0
-1677 -1676 -345 0
1677 -1676 345 0
1677 1676 -345 0
-134 -1677 0
-1678 332 334 0
-1678 -332 -334 0
1678 -332 334 0
1678 332 -334 0
-1679 1678 337 0
-1679 -1678 -337 0
1679 -1678 337 0
1679 1678 -337 0
-1680 1679 338 0
-1680 -1679 -338 0
1680 -1679 338 0
1680 1679 -338 0
-1681 1680 339 0
-1681 -1680 -339 0
1681 -1680 339 0
1681 1680 -339 0
-1682 1681 340 0
-1682 -1681 -340 0
1682 -1681 340 0
1682 1681 -340 0
-1683 1682 341 0
-1683 -1682 -341 0
1683 -1682 341 0
1683 1682 -341 0
-1684 1683 344 0
-1684 -1683 -344 0
1684 -1683 344 0
1684 1683 -344 0
-1685 1684 345 0
-1685 -1684 -345 0
1685 -1684 345 0
1685 1684 -345 0
-135 -1685 0
-1686 335 339 0
-1686 -335 -339 0
1686 -335 339 0
1686 335 -339 0
-1687 1686 344 0
-1687 -1686 -344 0
1687 -1686 344 0
1687 1686 -344 0
-136 -1687 0
-1688 334 335 0
-1688 -334 -335 0
1688 -334 335 0
1688 334 -335 0
-1689 1688 338 0
-1689 -1688 -338 0
1689 -1688 338 0
1689 1688 -338 0
-1690 1689 339 0
-1690 -1689 -339 0
1690 -1689 339 0
1690 1689 -339 0
-1691 1690 344 0
-1691 -1690 -344 0
1691 -1690 344 0
1691 1690 -344 0
-137 -1691 0
-1692 332 333 0
-1692 -332 -333 0
1692 -332 333 0
1692 332 -333 0
-1693 1692 334 0
-1693 -1692 -334 0
1693 -1692 334 0
1693 1692 -334 0
-1694 1693 335 0
-1694 -1693 -335 0
1694 -1693 335 0
1694 1693 -335 0
-1695 1694 337 0
-1695 -1694 -337 0
1695 -1694 337 0
1695 1694 -337 0
-1696 1695 339 0
-1696 -1695 -339 0
1696 -1695 339 0
1696 1695 -339 0
-1697 1696 341 0
-1697 -1696 -341 0
1697 -1696 341 0
1697 1696 -341 0
-1698 1697 344 0
-1698 -1697 -344 0
1698 -1697 344 0
1698 1697 -344 0
-138 -1698 0
-1699 332 333 0
-1699 -332 -333 0
1699 -332 333 0
1699 332 -333 0
-1700 1699 335 0
-1700 -1699 -335 0
1700 -1699 335 0
1700 1699 -335 0
-1701 1700 337 0
-1701 -1700 -337 0
1701 -1700 337 0
1701 1700 -337 0
-1702 1701 338 0
-1702 -1701 -338 0
1702 -1701 338 0
1702 1701 -338 0
-1703 1702 339 0
-1703 -1702 -339 0
1703 -1702 339 0
1703 1702 -339 0
-1704 1703 341 0
-1704 -1703 -341 0
1704 -1703 341 0
1704 1703 -341 0
-1705 1704 344 0
-1705 -1704 -344 0
1705 -1704 344 0
1705 1704 -344 0
-139 -1705 0
-1706 336 340 0
-1706 -336 -340 0
1706 -336 340 0
1706 336 -340 0
-1707 1706 345 0
-1707 -1706 -345 0
1707 -1706 345 0
1707 1706 -345 0
-140 -1707 0
-1708 334 336 0
-1708 -334 -336 0
1708 -334 336 0
1708 334 -336 0
-1709 1708 338 0
-1709 -1708 -338 0
1709 -1708 338 0
1709 1708 -338 0
-1710 1709 340 0
-1710 -1709 -340 0
1710 -1709 340 0
1710 1709 -340 0
-1711 1710 345 0
-1711 -1710 -345 0
1711 -1710 345 0
1711 1710 -345 0
-141 -1711 0
-1712 332 333 0
-1712 -332 -333 0
1712 -332 333 0
1712 332 -333 0
-1713 1712 334 0
-1713 -1712 -334 0
1713 -1712 334 0
1713 1712 -334 0
-1714 1713 336 0
-1714 -1713 -336 0
1714 -1713 336 0
1714 1713 -336 0
-1715 1714 337 0
-1715 -1714 -337 0
1715 -1714 337 0
1715 1714 -337 0
-1716 1715 340 0
-1716 -1715 -340 0
1716 -1715 340 0
1716 1715 -340 0
-1717 1716 341 0
-1717 -1716 -341 0
1717 -1716 341 0
1717 1716 -341 0
-1718 1717 345 0
-1718 -1717 -345 0
1718 -1717 345 0
1718 1717 -345 0
-142 -1718 0
-1719 332 333 0
-1719 -332 -333 0
1719 -332 333 0
1719 332 -333 0
-1720 1719 336 0
-1720 -1719 -336 0
1720 -1719 336 0
1720 1719 -336 0
-1721 1720 337 0
-1721 -1720 -337 0
1721 -1720 337 0
1721 1720 -337 0
-1722 1721 338 0
-1722 -1721 -338 0
1722 -1721 338 0
1722 1721 -338 0
-1723 1722 340 0
-1723 -1722 -340 0
1723 -1722 340 0
1723 1722 -340 0
-1724 1723 341 0
-1724 -1723 -341 0
1724 -1723 341 0
1724 1723 -341 0
-1725 1724 345 0
-1725 -1724 -345 0
1725 -1724 345 0
1725 1724 -345 0
-143 -1725 0
-1726 335 336 0
-1726 -335 -336 0
1726 -335 336 0
1726 335 -336 0
-1727 1726 339 0
-1727 -1726 -339 0
1727 -1726 339 0
1727 1726 -339 0
-1728 1727 340 0
-1728 -1727 -340 0
1728 -1727 340 0
1728 1727 -340 0
-1729 1728 344 0
-1729 -1728 -344 0
1729 -1728 344 0
1729 1728 -344 0
-1730 1729 345 0
-1730 -1729 -345 0
1730 -1729 345 0
1730 1729 -345 0
-144 -1730 0
-1731 334 335 0
-1731 -334 -335 0
1731 -334 335 0
1731 334 -335 0
-1732 1731 336 0
-1732 -1731 -336 0
1732 -1731 336 0
1732 1731 -336 0
-1733 1732 338 0
-1733 -1732 -338 0
1733 -1732 338 0
1733 1732 -338 0
-1734 1733 339 0
-1734 -1733 -339 0
1734 -1733 339 0
1734 1733 -339 0
-1735 1734 340 0
-1735 -1734 -340 0
1735 -1734 340 0
1735 1734 -340 0
-1736 1735 344 0
-1736 -1735 -344 0
1736 -1735 344 0
1736 1735 -344 0
-1737 1736 345 0
-1737 -1736 -345 0
1737 -1736 345 0
1737 1736 -345 0
-145 -1737 0
-1738 332 333 0
-1738 -332 -333 0
1738 -332 333 0
1738 332 -333 0
-1739 1738 334 0
-1739 -1738 -334 0
1739 -1738 334 0
1739 1738 -334 0
-1740 1739 335 0
-1740 -1739 -335 0
1740 -1739 335 0
1740 1739 -335 0
-1741 1740 336 0
-1741 -1740 -336 0
1741 -1740 336 0
1741 1740 -336 0
-1742 1741 337 0
-1742 -1741 -337 0
1742 -1741 337 0
1742 1741 -337 0
-1743 1742 339 0
-1743 -1742 -339 0
1743 -1742 339 0
1743 1742 -339 0
-1744 1743 340 0
-1744 -1743 -340 0
1744 -1743 340 0
1744 1743 -340 0
-1745 1744 341 0
-1745 -1744 -341 0
1745 -1744 341 0
1745 1744 -341 0
-1746 1745 344 0
-1746 -1745 -344 0
1746 -1745 344 0
1746 1745 -344 0
-1747 1746 345 0
-1747 -1746 -345 0
1747 -1746 345 0
1747 1746 -345 0
-146 -1747 0
-1748 332 333 0
-1748 -332 -333 0
1748 -332 333 0
1748 332 -333 0
-1749 1748 335 0
-1749 -1748 -335 0
1749 -1748 335 0
1749 1748 -335 0
-1750 1749 336 0
-1750 -1749 -336 0
1750 -1749 336 0
1750 1749 -336 0
-1751 1750 337 0
-1751 -1750 -337 0
1751 -1750 337 0
1751 1750 -337 0
-1752 1751 338 0
-1752 -1751 -338 0
1752 -1751 338 0
1752 1751 -338 0
-1753 1752 339 0
-1753 -1752 -339 0
1753 -1752 339 0
1753 1752 -339 0
-1754 1753 340 0
-1754 -1753 -340 0
1754 -1753 340 0
1754 1753 -340 0
-1755 1754 341 0
-1755 -1754 -341 0
1755 -1754 341 0
1755 1754 -341 0
-1756 1755 344 0
-1756 -1755 -344 0
1756 -1755 344 0
1756 1755 -344 0
-1757 1756 345 0
-1757 -1756 -345 0
1757 -1756 345 0
1757 1756 -345 0
-147 -1757 0
-1758 342 344 0
-1758 -342 -344 0
1758 -342 344 0
1758 342 -344 0
-148 -1758 0
-1759 333 334 0
-1759 -333 -334 0
1759 -333 334 0
1759 333 -334 0
-1760 1759 342 0
-1760 -1759 -342 0
1760 -1759 342 0
1760 1759 -342 0
-1761 1760 344 0
-1761 -1760 -344 0
1761 -1760 344 0
1761 1760 -344 0
-149 -1761 0
-1762 337 338 0
-1762 -337 -338 0
1762 -337 338 0
1762 337 -338 0
-1763 1762 342 0
-1763 -1762 -342 0
1763 -1762 342 0
1763 1762 -342 0
-1764 1763 344 0
-1764 -1763 -344 0
1764 -1763 344 0
1764 1763 -344 0
-150 -1764 0
-1765 333 334 0
-1765 -333 -334 0
1765 -333 334 0
1765 333 -334 0
-1766 1765 337 0
-1766 -1765 -337 0
1766 -1765 337 0
1766 1765 -337 0
-1767 1766 338 0
-1767 -1766 -338 0
1767 -1766 338 0
1767 1766 -338 0
-1768 1767 342 0
-1768 -1767 -342 0
1768 -1767 342 0
1768 1767 -342 0
-1769 1768 344 0
-1769 -1768 -344 0
1769 -1768 344 0
1769 1768 -344 0
-151 -1769 0
-1770 343 345 0
-1770 -343 -345 0
1770 -343 345 0
1770 343 -345 0
-152 -1770 0
-1771 333 334 0
-1771 -333 -334 0
1771 -333 334 0
1771 333 -334 0
-1772 1771 343 0
-1772 -1771 -343 0
1772 -1771 343 0
1772 1771 -343 0
-1773 1772 345 0
-1773 -1772 -345 0
1773 -1772 345 0
1773 1772 -345 0
-153 -1773 0
-1774 337 338 0
-1774 -337 -338 0
1774 -337 338 0
1774 337 -338 0
-1775 1774 343 0
-1775 -1774 -343 0
1775 -1774 343 0
1775 1774 -343 0
-1776 1775 345 0
-1776 -1775 -345 0
1776 -1775 345 0
1776 1775 -345 0
-154 -1776 0
-1777 333 334 0
-1777 -333 -334 0
1777 -333 334 0
1777 333 -334 0
-1778 1777 337 0
-1778 -1777 -337 0
1778 -1777 337 0
1778 1777 -337 0
-1779 1778 338 0
-1779 -1778 -338 0
1779 -1778 338 0
1779 1778 -338 0
-1780 1779 343 0
-1780 -1779 -343 0
1780 -1779 343 0
1780 1779 -343 0
-1781 1780 345 0
-1781 -1780 -345 0
1781 -1780 345 0
1781 1780 -345 0
-155 -1781 0
-1782 342 343 0
-1782 -342 -343 0
1782 -342 343 0
1782 342 -343 0
-1783 1782 344 0
-1783 -1782 -344 0
1783 -1782 344 0
1783 1782 -344 0
-1784 1783 345 0
-1784 -1783 -345 0
1784 -1783 345 0
1784 1783 -345 0
-156 -1784 0
-1785 333 334 0
-1785 -333 -334 0
1785 -333 334 0
1785 333 -334 0
-1786 1785 342 0
-1786 -1785 -342 0
1786 -1785 342 0
1786 1785 -342 0
-1787 1786 343 0
-1787 -1786 -343 0
1787 -1786 343 0
1787 1786 -343 0
-1788 1787 344 0
-1788 -1787 -344 0
1788 -1787 344 0
1788 1787 -344 0
-1789 1788 345 0
-1789 -1788 -345 0
1789 -1788 345 0
1789 1788 -345 0
-157 -1789 0
-1790 337 338 0
-1790 -337 -338 0
1790 -337 338 0
1790 337 -338 0
-1791 1790 342 0
-1791 -1790 -342 0
1791 -1790 342 0
1791 1790 -342 0
-1792 1791 343 0
-1792 -1791 -343 0
1792 -1791 343 0
1792 1791 -343 0
-1793 1792 344 0
-1793 -1792 -344 0
1793 -1792 344 0
1793 1792 -344 0
-1794 1793 345 0
-1794 -1793 -345 0
1794 -1793 345 0
1794 1793 -345 0
-158 -1794 0
-1795 333 334 0
-1795 -333 -334 0
1795 -333 334 0
1795 333 -334 0
-1796 1795 337 0
-1796 -1795 -337 0
1796 -1795 337 0
1796 1795 -337 0
-1797 1796 338 0
-1797 -1796 -338 0
1797 -1796 338 0
1797 1796 -338 0
-1798 1797 342 0
-1798 -1797 -342 0
1798 -1797 342 0
1798 1797 -342 0
-1799 1798 343 0
-1799 -1798 -343 0
1799 -1798 343 0
1799 1798 -343 0
-1800 1799 344 0
-1800 -1799 -344 0
1800 -1799 344 0
1800 1799 -344 0
-1801 1800 345 0
-1801 -1800 -345 0
1801 -1800 345 0
1801 1800 -345 0
-159 -1801 0
-1802 335 342 0
-1802 -335 -342 0
1802 -335 342 0
1802 335 -342 0
-1803 1802 344 0
-1803 -1802 -344 0
1803 -1802 344 0
1803 1802 -344 0
-160 -1803 0
-1804 333 334 0
-1804 -333 -334 0
1804 -333 334 0
1804 333 -334 0
-1805 1804 335 0
-1805 -1804 -335 0
1805 -1804 335 0
1805 1804 -335 0
-1806 1805 342 0
-1806 -1805 -342 0
1806 -1805 342 0
1806 1805 -342 0
-1807 1806 344 0
-1807 -1806 -344 0
1807 -1806 344 0
1807 1806 -344 0
-161 -1807 0
-1808 332 333 0
-1808 -332 -333 0
1808 -332 333 0
1808 332 -333 0
-1809 1808 335 0
-1809 -1808 -335 0
1809 -1808 335 0
1809 1808 -335 0
-1810 1809 337 0
-1810 -1809 -337 0
1810 -1809 337 0
1810 1809 -337 0
-1811 1810 338 0
-1811 -1810 -338 0
1811 -1810 338 0
1811 1810 -338 0
-1812 1811 341 0
-1812 -1811 -341 0
1812 -1811 341 0
1812 1811 -341 0
-1813 1812 342 0
-1813 -1812 -342 0
1813 -1812 342 0
1813 1812 -342 0
-1814 1813 344 0
-1814 -1813 -344 0
1814 -1813 344 0
1814 1813 -344 0
-162 -1814 0
-1815 332 334 0
-1815 -332 -334 0
1815 -332 334 0
1815 332 -334 0
-1816 1815 335 0
-1816 -1815 -335 0
1816 -1815 335 0
1816 1815 -335 0
-1817 1816 337 0
-1817 -1816 -337 0
1817 -1816 337 0
1817 1816 -337 0
-1818 1817 338 0
-1818 -1817 -338 0
1818 -1817 338 0
1818 1817 -338 0
-1819 1818 341 0
-1819 -1818 -341 0
1819 -1818 341 0
1819 1818 -341 0
-1820 1819 342 0
-1820 -1819 -342 0
1820 -1819 342 0
1820 1819 -342 0
-1821 1820 344 0
-1821 -1820 -344 0
1821 -1820 344 0
1821 1820 -344 0
-163 -1821 0
-1822 336 343 0
-1822 -336 -343 0
1822 -336 343 0
1822 336 -343 0
-1823 1822 345 0
-1823 -1822 -345 0
1823 -1822 345 0
1823 1822 -345 0
-164 -1823 0
-1824 333 334 0
-1824 -333 -334 0
1824 -333 334 0
1824 333 -334 0
-1825 1824 336 0
-1825 -1824 -336 0
1825 -1824 336 0
1825 1824 -336 0
-1826 1825 343 0
-1826 -1825 -343 0
1826 -1825 343 0
1826 1825 -343 0
-1827 1826 345 0
-1827 -1826 -345 0
1827 -1826 345 0
1827 1826 -345 0
-165 -1827 0
-1828 332 333 0
-1828 -332 -333 0
1828 -332 333 0
1828 332 -333 0
-1829 1828 336 0
-1829 -1828 -336 0
1829 -1828 336 0
1829 1828 -336 0
-1830 1829 337 0
-1830 -1829 -337 0
1830 -1829 337 0
1830 1829 -337 0
-1831 1830 338 0
-1831 -1830 -338 0
1831 -1830 338 0
1831 1830 -338 0
-1832 1831 341 0
-1832 -1831 -341 0
1832 -1831 341 0
1832 1831 -341 0
-1833 1832 343 0
-1833 -1832 -343 0
1833 -1832 343 0
1833 1832 -343 0
-1834 1833 345 0
-1834 -1833 -345 0
1834 -1833 345 0
1834 1833 -345 0
-166 -1834 0
-1835 332 334 0
-1835 -332 -334 0
1835 -332 334 0
1835 332 -334 0
-1836 1835 336 0
-1836 -1835 -336 0
1836 -1835 336 0
1836 1835 -336 0
-1837 1836 337 0
-1837 -1836 -337 0
1837 -1836 337 0
1837 1836 -337 0
-1838 1837 338 0
-1838 -1837 -338 0
1838 -1837 338 0
1838 1837 -338 0
-1839 1838 341 0
-1839 -1838 -341 0
1839 -1838 341 0
1839 1838 -341 0
-1840 1839 343 0
-1840 -1839 -343 0
1840 -1839 343 0
1840 1839 -343 0
-1841 1840 345 0
-1841 -1840 -345 0
1841 -1840 345 0
1841 1840 -345 0
-167 -1841 0
-1842 335 336 0
-1842 -335 -336 0
1842 -335 336 0
1842 335 -336 0
-1843 1842 342 0
-1843 -1842 -342 0
1843 -1842 342 0
1843 1842 -342 0
-1844 1843 343 0
-1844 -1843 -343 0
1844 -1843 343 0
1844 1843 -343 0
-1845 1844 344 0
-1845 -1844 -344 0
1845 -1844 344 0
1845 1844 -344 0
-1846 1845 345 0
-1846 -1845 -345 0
1846 -1845 345 0
1846 1845 -345 0
-168 -1846 0
-1847 333 334 0
-1847 -333 -334 0
1847 -333 334 0
1847 333 -334 0
-1848 1847 335 0
-1848 -1847 -335 0
1848 -1847 335 0
1848 1847 -335 0
-1849 1848 336 0
-1849 -1848 -336 0
1849 -1848 336 0
1849 1848 -336 0
-1850 1849 342 0
-1850 -1849 -342 0
1850 -1849 342 0
1850 1849 -342 0
-1851 1850 343 0
-1851 -1850 -343 0
1851 -1850 343 0
1851 1850 -343 0
-1852 1851 344 0
-1852 -1851 -344 0
1852 -1851 344 0
1852 1851 -344 0
-1853 1852 345 0
-1853 -1852 -345 0
1853 -1852 345 0
1853 1852 -345 0
-169 -1853 0
-1854 332 333 0
-1854 -332 -333 0
1854 -332 333 0
1854 332 -333 0
-1855 1854 335 0
-1855 -1854 -335 0
1855 -1854 335 0
1855 1854 -335 0
-1856 1855 336 0
-1856 -1855 -336 0
1856 -1855 336 0
1856 1855 -336 0
-1857 1856 337 0
-1857 -1856 -337 0
1857 -1856 337 0
1857 1856 -337 0
-1858 1857 338 0
-1858 -1857 -338 0
1858 -1857 338 0
1858 1857 -338 0
-1859 1858 341 0
-1859 -1858 -341 0
1859 -1858 341 0
1859 1858 -341 0
-1860 1859 342 0
-1860 -1859 -342 0
1860 -1859 342 0
1860 1859 -342 0
-1861 1860 343 0
-1861 -1860 -343 0
1861 -1860 343 0
1861 1860 -343 0
-1862 1861 344 0
-1862 -1861 -344 0
1862 -1861 344 0
1862 1861 -344 0
-1863 1862 345 0
-1863 -1862 -345 0
1863 -1862 345 0
1863 1862 -345 0
-170 -1863 0
-1864 332 334 0
-1864 -332 -334 0
1864 -332 334 0
1864 332 -334 0
-1865 1864 335 0
-1865 -1864 -335 0
1865 -1864 335 0
1865 1864 -335 0
-1866 1865 336 0
-1866 -1865 -336 0
1866 -1865 336 0
1866 1865 -336 0
-1867 1866 337 0
-1867 -1866 -337 0
1867 -1866 337 0
1867 1866 -337 0
-1868 1867 338 0
-1868 -1867 -338 0
1868 -1867 338 0
1868 1867 -338 0
-1869 1868 341 0
-1869 -1868 -341 0
1869 -1868 341 0
1869 1868 -341 0
-1870 1869 342 0
-1870 -1869 -342 0
1870 -1869 342 0
1870 1869 -342 0
-1871 1870 343 0
-1871 -1870 -343 0
1871 -1870 343 0
1871 1870 -343 0
-1872 1871 344 0
-1872 -1871 -344 0
1872 -1871 344 0
1872 1871 -344 0
-1873 1872 345 0
-1873 -1872 -345 0
1873 -1872 345 0
1873 1872 -345 0
-171 -1873 0
-1874 339 342 0
-1874 -339 -342 0
1874 -339 342 0
1874 339 -342 0
-1875 1874 344 0
-1875 -1874 -344 0
1875 -1874 344 0
1875 1874 -344 0
-172 -1875 0
-1876 337 338 0
-1876 -337 -338 0
1876 -337 338 0
1876 337 -338 0
-1877 1876 339 0
-1877 -1876 -339 0
1877 -1876 339 0
1877 1876 -339 0
-1878 1877 342 0
-1878 -1877 -342 0
1878 -1877 342 0
1878 1877 -342 0
-1879 1878 344 0
-1879 -1878 -344 0
1879 -1878 344 0
1879 1878 -344 0
-173 -1879 0
-1880 332 333 0
-1880 -332 -333 0
1880 -332 333 0
1880 332 -333 0
-1881 1880 334 0
-1881 -1880 -334 0
1881 -1880 334 0
1881 1880 -334 0
-1882 1881 337 0
-1882 -1881 -337 0
1882 -1881 337 0
1882 1881 -337 0
-1883 1882 339 0
-1883 -1882 -339 0
1883 -1882 339 0
1883 1882 -339 0
-1884 1883 341 0
-1884 -1883 -341 0
1884 -1883 341 0
1884 1883 -341 0
-1885 1884 342 0
-1885 -1884 -342 0
1885 -1884 342 0
1885 1884 -342 0
-1886 1885 344 0
-1886 -1885 -344 0
1886 -1885 344 0
1886 1885 -344 0
-174 -1886 0
-1887 332 333 0
-1887 -332 -333 0
1887 -332 333 0
1887 332 -333 0
-1888 1887 334 0
-1888 -1887 -334 0
1888 -1887 334 0
1888 1887 -334 0
-1889 1888 338 0
-1889 -1888 -338 0
1889 -1888 338 0
1889 1888 -338 0
-1890 1889 339 0
-1890 -1889 -339 0
1890 -1889 339 0
1890 1889 -339 0
-1891 1890 341 0
-1891 -1890 -341 0
1891 -1890 341 0
1891 1890 -341 0
-1892 1891 342 0
-1892 -1891 -342 0
1892 -1891 342 0
1892 1891 -342 0
-1893 1892 344 0
-1893 -1892 -344 0
1893 -1892 344 0
1893 1892 -344 0
-175 -1893 0
-1894 340 343 0
-1894 -340 -343 0
1894 -340 343 0
1894 340 -343 0
-1895 1894 345 0
-1895 -1894 -345 0
1895 -1894 345 0
1895 1894 -345 0
-176 -1895 0
-1896 337 338 0
-1896 -337 -338 0
1896 -337 338 0
1896 337 -338 0
-1897 1896 340 0
-1897 -1896 -340 0
1897 -1896 340 0
1897 1896 -340 0
-1898 1897 343 0
-1898 -1897 -343 0
1898 -1897 343 0
1898 1897 -343 0
-1899 1898 345 0
-1899 -1898 -345 0
1899 -1898 345 0
1899 1898 -345 0
-177 -1899 0
-1900 332 333 0
-1900 -332 -333 0
1900 -332 333 0
1900 332 -333 0
-1901 1900 334 0
-1901 -1900 -334 0
1901 -1900 334 0
1901 1900 -334 0
-1902 1901 337 0
-1902 -1901 -337 0
1902 -1901 337 0
1902 1901 -337 0
-1903 1902 340 0
-1903 -1902 -340 0
1903 -1902 340 0
1903 1902 -340 0
-1904 1903 341 0
-1904 -1903 -341 0
1904 -1903 341 0
1904 1903 -341 0
-1905 1904 343 0
-1905 -1904 -343 0
1905 -1904 343 0
1905 1904 -343 0
-1906 1905 345 0
-1906 -1905 -345 0
1906 -1905 345 0
1906 1905 -345 0
-178 -1906 0
-1907 332 333 0
-1907 -332 -333 0
1907 -332 333 0
1907 332 -333 0
-1908 1907 334 0
-1908 -1907 -334 0
1908 -1907 334 0
1908 1907 -334 0
-1909 1908 338 0
-1909 -1908 -338 0
1909 -1908 338 0
1909 1908 -338 0
-1910 1909 340 0
-1910 -1909 -340 0
1910 -1909 340 0
1910 1909 -340 0
-1911 1910 341 0
-1911 -1910 -341 0
1911 -1910 341 0
1911 1910 -341 0
-1912 1911 343 0
-1912 -1911 -343 0
1912 -1911 343 0
1912 1911 -343 0
-1913 1912 345 0
-1913 -1912 -345 0
1913 -1912 345 0
1913 1912 -345 0
-179 -1913 0
-1914 339 340 0
-1914 -339 -340 0
1914 -339 340 0
1914 339 -340 0
-1915 1914 342 0
-1915 -1914 -342 0
1915 -1914 342 0
1915 1914 -342 0
-1916 1915 343 0
-1916 -1915 -343 0
1916 -1915 343 0
1916 1915 -343 0
-1917 1916 344 0
-1917 -1916 -344 0
1917 -1916 344 0
1917 1916 -344 0
-1918 1917 345 0
-1918 -1917 -345 0
1918 -1917 345 0
1918 1917 -345 0
-180 -1918 0
-1919 337 338 0
-1919 -337 -338 0
1919 -337 338 0
1919 337 -338 0
-1920 1919 339 0
-1920 -1919 -339 0
1920 -1919 339 0
1920 1919 -339 0
-1921 1920 340 0
-1921 -1920 -340 0
1921 -1920 340 0
1921 1920 -340 0
-1922 1921 342 0
-1922 -1921 -342 0
1922 -1921 342 0
1922 1921 -342 0
-1923 1922 343 0
-1923 -1922 -343 0
1923 -1922 343 0
1923 1922 -343 0
-1924 1923 344 0
-1924 -1923 -344 0
1924 -1923 344 0
1924 1923 -344 0
-1925 1924 345 0
-1925 -1924 -345 0
1925 -1924 345 0
1925 1924 -345 0
-181 -1925 0
-1926 332 333 0
-1926 -332 -333 0
1926 -332 333 0
1926 332 -333 0
-1927 1926 334 0
-1927 -1926 -334 0
1927 -1926 334 0
1927 1926 -334 0
-1928 1927 337 0
-1928 -1927 -337 0
1928 -1927 337 0
1928 1927 -337 0
-1929 1928 339 0
-1929 -1928 -339 0
1929 -1928 339 0
1929 1928 -339 0
-1930 1929 340 0
-1930 -1929 -340 0
1930 -1929 340 0
1930 1929 -340 0
-1931 1930 341 0
-1931 -1930 -341 0
1931 -1930 341 0
1931 1930 -341 0
-1932 1931 342 0
-1932 -1931 -342 0
1932 -1931 342 0
1932 1931 -342 0
-1933 1932 343 0
-1933 -1932 -343 0
1933 -1932 343 0
1933 1932 -343 0
-1934 1933 344 0
-1934 -1933 -344 0
1934 -1933 344 0
1934 1933 -344 0
-1935 1934 345 0
-1935 -1934 -345 0
1935 -1934 345 0
1935 1934 -345 0
-182 -1935 0
-1936 332 333 0
-1936 -332 -333 0
1936 -332 333 0
1936 332 -333 0
-1937 1936 334 0
-1937 -1936 -334 0
1937 -1936 334 0
1937 1936 -334 0
-1938 1937 338 0
-1938 -1937 -338 0
1938 -1937 338 0
1938 1937 -338 0
-1939 1938 339 0
-1939 -1938 -339 0
1939 -1938 339 0
1939 1938 -339 0
-1940 1939 340 0
-1940 -1939 -340 0
1940 -1939 340 0
1940 1939 -340 0
-1941 1940 341 0
-1941 -1940 -341 0
1941 -1940 341 0
1941 1940 -341 0
-1942 1941 342 0
-1942 -1941 -342 0
1942 -1941 342 0
1942 1941 -342 0
-1943 1942 343 0
-1943 -1942 -343 0
1943 -1942 343 0
1943 1942 -343 0
-1944 1943 344 0
-1944 -1943 -344 0
1944 -1943 344 0
1944 1943 -344 0
-1945 1944 345 0
-1945 -1944 -345 0
1945 -1944 345 0
1945 1944 -345 0
-183 -1945 0
-1946 335 339 0
-1946 -335 -339 0
1946 -335 339 0
1946 335 -339 0
-1947 1946 342 0
-1947 -1946 -342 0
1947 -1946 342 0
1947 1946 -342 0
-1948 1947 344 0
-1948 -1947 -344 0
1948 -1947 344 0
1948 1947 -344 0
-184 -1948 0
-1949 333 334 0
-1949 -333 -334 0
1949 -333 334 0
1949 333 -334 0
-1950 1949 335 0
-1950 -1949 -335 0
1950 -1949 335 0
1950 1949 -335 0
-1951 1950 337 0
-1951 -1950 -337 0
1951 -1950 337 0
1951 1950 -337 0
-1952 1951 338 0
-1952 -1951 -338 0
1952 -1951 338 0
1952 1951 -338 0
-1953 1952 339 0
-1953 -1952 -339 0
1953 -1952 339 0
1953 1952 -339 0
-1954 1953 342 0
-1954 -1953 -342 0
1954 -1953 342 0
1954 1953 -342 0
-1955 1954 344 0
-1955 -1954 -344 0
1955 -1954 344 0
1955 1954 -344 0
-185 -1955 0
-1956 332 334 0
-1956 -332 -334 0
1956 -332 334 0
1956 332 -334 0
-1957 1956 335 0
-1957 -1956 -335 0
1957 -1956 335 0
1957 1956 -335 0
-1958 1957 337 0
-1958 -1957 -337 0
1958 -1957 337 0
1958 1957 -337 0
-1959 1958 339 0
-1959 -1958 -339 0
1959 -1958 339 0
1959 1958 -339 0
-1960 1959 341 0
-1960 -1959 -341 0
1960 -1959 341 0
1960 1959 -341 0
-1961 1960 342 0
-1961 -1960 -342 0
1961 -1960 342 0
1961 1960 -342 0
-1962 1961 344 0
-1962 -1961 -344 0
1962 -1961 344 0
1962 1961 -344 0
-186 -1962 0
-1963 332 333 0
-1963 -332 -333 0
1963 -332 333 0
1963 332 -333 0
-1964 1963 335 0
-1964 -1963 -335 0
1964 -1963 335 0
1964 1963 -335 0
-1965 1964 338 0
-1965 -1964 -338 0
1965 -1964 338 0
1965 1964 -338 0
-1966 1965 339 0
-1966 -1965 -339 0
1966 -1965 339 0
1966 1965 -339 0
-1967 1966 341 0
-1967 -1966 -341 0
1967 -1966 341 0
1967 1966 -341 0
-1968 1967 342 0
-1968 -1967 -342 0
1968 -1967 342 0
1968 1967 -342 0
-1969 1968 344 0
-1969 -1968 -344 0
1969 -1968 344 0
1969 1968 -344 0
-187 -1969 0
-1970 336 340 0
-1970 -336 -340 0
1970 -336 340 0
1970 336 -340 0
-1971 1970 343 0
-1971 -1970 -343 0
1971 -1970 343 0
1971 1970 -343 0
-1972 1971 345 0
-1972 -1971 -345 0
1972 -1971 345 0
1972 1971 -345 0
-188 -1972 0
-1973 333 334 0
-1973 -333 -334 0
1973 -333 334 0
1973 333 -334 0
-1974 1973 336 0
-1974 -1973 -336 0
1974 -1973 336 0
1974 1973 -336 0
-1975 1974 337 0
-1975 -1974 -337 0
1975 -1974 337 0
1975 1974 -337 0
-1976 1975 338 0
-1976 -1975 -338 0
1976 -1975 338 0
1976 1975 -338 0
-1977 1976 340 0
-1977 -1976 -340 0
1977 -1976 340 0
1977 1976 -340 0
-1978 1977 343 0
-1978 -1977 -343 0
1978 -1977 343 0
1978 1977 -343 0
-1979 1978 345 0
-1979 -1978 -345 0
1979 -1978 345 0
1979 1978 -345 0
-189 -1979 0
-1980 332 334 0
-1980 -332 -334 0
1980 -332 334 0
1980 332 -334 0
-1981 1980 336 0
-1981 -1980 -336 0
1981 -1980 336 0
1981 1980 -336 0
-1982 1981 337 0
-1982 -1981 -337 0
1982 -1981 337 0
1982 1981 -337 0
-1983 1982 340 0
-1983 -1982 -340 0
1983 -1982 340 0
1983 1982 -340 0
-1984 1983 341 0
-1984 -1983 -341 0
1984 -1983 341 0
1984 1983 -341 0
-1985 1984 343 0
-1985 -1984 -343 0
1985 -1984 343 0
1985 1984 -343 0
-1986 1985 345 0
-1986 -1985 -345 0
1986 -1985 345 0
1986 1985 -345 0
-190 -1986 0
-1987 332 333 0
-1987 -332 -333 0
1987 -332 333 0
1987 332 -333 0
-1988 1987 336 0
-1988 -1987 -336 0
1988 -1987 336 0
1988 1987 -336 0
-1989 1988 338 0
-1989 -1988 -338 0
1989 -1988 338 0
1989 1988 -338 0
-1990 1989 340 0
-1990 -1989 -340 0
1990 -1989 340 0
1990 1989 -340 0
-1991 1990 341 0
-1991 -1990 -341 0
1991 -1990 341 0
1991 1990 -341 0
-1992 1991 343 0
-1992 -1991 -343 0
1992 -1991 343 0
1992 1991 -343 0
-1993 1992 345 0
-1993 -1992 -345 0
1993 -1992 345 0
1993 1992 -345 0
-191 -1993 0
-1994 335 336 0
-1994 -335 -336 0
1994 -335 336 0
1994 335 -336 0
-1995 1994 339 0
-1995 -1994 -339 0
1995 -1994 339 0
1995 1994 -339 0
-1996 1995 340 0
-1996 -1995 -340 0
1996 -1995 340 0
1996 1995 -340 0
-1997 1996 342 0
-1997 -1996 -342 0
1997 -1996 342 0
1997 1996 -342 0
-1998 1997 343 0
-1998 -1997 -343 0
1998 -1997 343 0
1998 1997 -343 0
-1999 1998 344 0
-1999 -1998 -344 0
1999 -1998 344 0
1999 1998 -344 0
-2000 1999 345 0
-2000 -1999 -345 0
2000 -1999 345 0
2000 1999 -345 0
-192 -2000 0
-2001 333 334 0
-2001 -333 -334 0
2001 -333 334 0
2001 333 -334 0
-2002 2001 335 0
-2002 -2001 -335 0
2002 -2001 335 0
2002 2001 -335 0
-2003 2002 336 0
-2003 -2002 -336 0
2003 -2002 336 0
2003 2002 -336 0
-2004 2003 337 0
-2004 -2003 -337 0
2004 -2003 337 0
2004 2003 -337 0
-2005 2004 338 0
-2005 -2004 -338 0
2005 -2004 338 0
2005 2004 -338 0
-2006 2005 339 0
-2006 -2005 -339 0
2006 -2005 339 0
2006 2005 -339 0
-2007 2006 340 0
-2007 -2006 -340 0
2007 -2006 340 0
2007 2006 -340 0
-2008 2007 342 0
-2008 -2007 -342 0
2008 -2007 342 0
2008 2007 -342 0
-2009 2008 343 0
-2009 -2008 -343 0
2009 -2008 343 0
2009 2008 -343 0
-2010 2009 344 0
-2010 -2009 -344 0
2010 -2009 344 0
2010 2009 -344 0
-2011 2010 345 0
-2011 -2010 -345 0
2011 -2010 345 0
2011 2010 -345 0
-193 -2011 0
-2012 332 334 0
-2012 -332 -334 0
2012 -332 334 0
2012 332 -334 0
-2013 2012 335 0
-2013 -2012 -335 0
2013 -2012 335 0
2013 2012 -335 0
-2014 2013 336 0
-2014 -2013 -336 0
2014 -2013 336 0
2014 2013 -336 0
-2015 2014 337 0
-2015 -2014 -337 0
2015 -2014 337 0
2015 2014 -337 0
-2016 2015 339 0
-2016 -2015 -339 0
2016 -2015 339 0
2016 2015 -339 0
-2017 2016 340 0
-2017 -2016 -340 0
2017 -2016 340 0
2017 2016 -340 0
-2018 2017 341 0
-2018 -2017 -341 0
2018 -2017 341 0
2018 2017 -341 0
-2019 2018 342 0
-2019 -2018 -342 0
2019 -2018 342 0
2019 2018 -342 0
-2020 2019 343 0
-2020 -2019 -343 0
2020 -2019 343 0
2020 2019 -343 0
-2021 2020 344 0
-2021 -2020 -344 0
2021 -2020 344 0
2021 2020 -344 0
-2022 2021 345 0
-2022 -2021 -345 0
2022 -2021 345 0
2022 2021 -345 0
-194 -2022 0
-2023 332 333 0
-2023 -332 -333 0
2023 -332 333 0
2023 332 -333 0
-2024 2023 335 0
-2024 -2023 -335 0
2024 -2023 335 0
2024 2023 -335 0
-2025 2024 336 0
-2025 -2024 -336 0
2025 -2024 336 0
2025 2024 -336 0
-2026 2025 338 0
-2026 -2025 -338 0
2026 -2025 338 0
2026 2025 -338 0
-2027 2026 339 0
-2027 -2026 -339 0
2027 -2026 339 0
2027 2026 -339 0
-2028 2027 340 0
-2028 -2027 -340 0
2028 -2027 340 0
2028 2027 -340 0
-2029 2028 341 0
-2029 -2028 -341 0
2029 -2028 341 0
2029 2028 -341 0
-2030 2029 342 0
-2030 -2029 -342 0
2030 -2029 342 0
2030 2029 -342 0
-2031 2030 343 0
-2031 -2030 -343 0
2031 -2030 343 0
2031 2030 -343 0
-2032 2031 344 0
-2032 -2031 -344 0
2032 -2031 344 0
2032 2031 -344 0
-2033 2032 345 0
-2033 -2032 -345 0
2033 -2032 345 0
2033 2032 -345 0
-195 -2033 0
-196 -346 0
-2034 335 346 0
-2034 -335 -346 0
2034 -335 346 0
2034 335 -346 0
-197 -2034 0
-2035 339 346 0
-2035 -339 -346 0
2035 -339 346 0
2035 339 -346 0
-198 -2035 0
-2036 335 339 0
-2036 -335 -339 0
2036 -335 339 0
2036 335 -339 0
-2037 2036 346 0
-2037 -2036 -346 0
2037 -2036 346 0
2037 2036 -346 0
-199 -2037 0
-2038 342 346 0
-2038 -342 -346 0
2038 -342 346 0
2038 342 -346 0
-200 -2038 0
-2039 335 342 0
-2039 -335 -342 0
2039 -335 342 0
2039 335 -342 0
-2040 2039 346 0
-2040 -2039 -346 0
2040 -2039 346 0
2040 2039 -346 0
-201 -2040 0
-2041 339 342 0
-2041 -339 -342 0
2041 -339 342 0
2041 339 -342 0
-2042 2041 346 0
-2042 -2041 -346 0
2042 -2041 346 0
2042 2041 -346 0
-202 -2042 0
-2043 335 339 0
-2043 -335 -339 0
2043 -335 339 0
2043 335 -339 0
-2044 2043 342 0
-2044 -2043 -342 0
2044 -2043 342 0
2044 2043 -342 0
-2045 2044 346 0
-2045 -2044 -346 0
2045 -2044 346 0
2045 2044 -346 0
-203 -2045 0
-2046 344 346 0
-2046 -344 -346 0
2046 -344 346 0
2046 344 -346 0
-204 -2046 0
-2047 335 344 0
-2047 -335 -344 0
2047 -335 344 0
2047 335 -344 0
-2048 2047 346 0
-2048 -2047 -346 0
2048 -2047 346 0
2048 2047 -346 0
-205 -2048 0
-2049 339 344 0
-2049 -339 -344 0
2049 -339 344 0
2049 339 -344 0
-2050 2049 346 0
-2050 -2049 -346 0
2050 -2049 346 0
2050 2049 -346 0
-206 -2050 0
-2051 335 339 0
-2051 -335 -339 0
2051 -335 339 0
2051 335 -339 0
-2052 2051 344 0
-2052 -2051 -344 0
2052 -2051 344 0
2052 2051 -344 0
-2053 2052 346 0
-2053 -2052 -346 0
2053 -2052 346 0
2053 2052 -346 0
-207 -2053 0
-2054 342 344 0
-2054 -342 -344 0
2054 -342 344 0
2054 342 -344 0
-2055 2054 346 0
-2055 -2054 -346 0
2055 -2054 346 0
2055 2054 -346 0
-208 -2055 0
-2056 335 342 0
-2056 -335 -342 0
2056 -335 342 0
2056 335 -342 0
-2057 2056 344 0
-2057 -2056 -344 0
2057 -2056 344 0
2057 2056 -344 0
-2058 2057 346 0
-2058 -2057 -346 0
2058 -2057 346 0
2058 2057 -346 0
-209 -2058 0
-2059 339 342 0
-2059 -339 -342 0
2059 -339 342 0
2059 339 -342 0
-2060 2059 344 0
-2060 -2059 -344 0
2060 -2059 344 0
2060 2059 -344 0
-2061 2060 346 0
-2061 -2060 -346 0
2061 -2060 346 0
2061 2060 -346 0
-210 -2061 0
-2062 335 339 0
-2062 -335 -339 0
2062 -335 339 0
2062 335 -339 0
-2063 2062 342 0
-2063 -2062 -342 0
2063 -2062 342 0
2063 2062 -342 0
-2064 2063 344 0
-2064 -2063 -344 0
2064 -2063 344 0
2064 2063 -344 0
-2065 2064 346 0
-2065 -2064 -346 0
2065 -2064 346 0
2065 2064 -346 0
-211 -2065 0
-2066 336 346 0
-2066 -336 -346 0
2066 -336 346 0
2066 336 -346 0
-212 -2066 0
-2067 335 336 0
-2067 -335 -336 0
2067 -335 336 0
2067 335 -336 0
-2068 2067 346 0
-2068 -2067 -346 0
2068 -2067 346 0
2068 2067 -346 0
-213 -2068 0
-2069 333 336 0
-2069 -333 -336 0
2069 -333 336 0
2069 333 -336 0
-2070 2069 342 0
-2070 -2069 -342 0
2070 -2069 342 0
2070 2069 -342 0
-2071 2070 346 0
-2071 -2070 -346 0
2071 -2070 346 0
2071 2070 -346 0
-214 -2071 0
-2072 333 335 0
-2072 -333 -335 0
2072 -333 335 0
2072 333 -335 0
-2073 2072 336 0
-2073 -2072 -336 0
2073 -2072 336 0
2073 2072 -336 0
-2074 2073 342 0
-2074 -2073 -342 0
2074 -2073 342 0
2074 2073 -342 0
-2075 2074 346 0
-2075 -2074 -346 0
2075 -2074 346 0
2075 2074 -346 0
-215 -2075 0
-2076 334 336 0
-2076 -334 -336 0
2076 -334 336 0
2076 334 -336 0
-2077 2076 344 0
-2077 -2076 -344 0
2077 -2076 344 0
2077 2076 -344 0
-2078 2077 346 0
-2078 -2077 -346 0
2078 -2077 346 0
2078 2077 -346 0
-216 -2078 0
-2079 334 335 0
-2079 -334 -335 0
2079 -334 335 0
2079 334 -335 0
-2080 2079 336 0
-2080 -2079 -336 0
2080 -2079 336 0
2080 2079 -336 0
-2081 2080 344 0
-2081 -2080 -344 0
2081 -2080 344 0
2081 2080 -344 0
-2082 2081 346 0
-2082 -2081 -346 0
2082 -2081 346 0
2082 2081 -346 0
-217 -2082 0
-2083 333 334 0
-2083 -333 -334 0
2083 -333 334 0
2083 333 -334 0
-2084 2083 336 0
-2084 -2083 -336 0
2084 -2083 336 0
2084 2083 -336 0
-2085 2084 342 0
-2085 -2084 -342 0
2085 -2084 342 0
2085 2084 -342 0
-2086 2085 344 0
-2086 -2085 -344 0
2086 -2085 344 0
2086 2085 -344 0
-2087 2086 346 0
-2087 -2086 -346 0
2087 -2086 346 0
2087 2086 -346 0
-218 -2087 0
-2088 333 334 0
-2088 -333 -334 0
2088 -333 334 0
2088 333 -334 0
-2089 2088 335 0
-2089 -2088 -335 0
2089 -2088 335 0
2089 2088 -335 0
-2090 2089 336 0
-2090 -2089 -336 0
2090 -2089 336 0
2090 2089 -336 0
-2091 2090 342 0
-2091 -2090 -342 0
2091 -2090 342 0
2091 2090 -342 0
-2092 2091 344 0
-2092 -2091 -344 0
2092 -2091 344 0
2092 2091 -344 0
-2093 2092 346 0
-2093 -2092 -346 0
2093 -2092 346 0
2093 2092 -346 0
-219 -2093 0
-2094 340 346 0
-2094 -340 -346 0
2094 -340 346 0
2094 340 -346 0
-220 -2094 0
-2095 339 340 0
-2095 -339 -340 0
2095 -339 340 0
2095 339 -340 0
-2096 2095 346 0
-2096 -2095 -346 0
2096 -2095 346 0
2096 2095 -346 0
-221 -2096 0
-2097 337 340 0
-2097 -337 -340 0
2097 -337 340 0
2097 337 -340 0
-2098 2097 342 0
-2098 -2097 -342 0
2098 -2097 342 0
2098 2097 -342 0
-2099 2098 346 0
-2099 -2098 -346 0
2099 -2098 346 0
2099 2098 -346 0
-222 -2099 0
-2100 337 339 0
-2100 -337 -339 0
2100 -337 339 0
2100 337 -339 0
-2101 2100 340 0
-2101 -2100 -340 0
2101 -2100 340 0
2101 2100 -340 0
-2102 2101 342 0
-2102 -2101 -342 0
2102 -2101 342 0
2102 2101 -342 0
-2103 2102 346 0
-2103 -2102 -346 0
2103 -2102 346 0
2103 2102 -346 0
-223 -2103 0
-2104 338 340 0
-2104 -338 -340 0
2104 -338 340 0
2104 338 -340 0
-2105 2104 344 0
-2105 -2104 -344 0
2105 -2104 344 0
2105 2104 -344 0
-2106 2105 346 0
-2106 -2105 -346 0
2106 -2105 346 0
2106 2105 -346 0
-224 -2106 0
-2107 338 339 0
-2107 -338 -339 0
2107 -338 339 0
2107 338 -339 0
-2108 2107 340 0
-2108 -2107 -340 0
2108 -2107 340 0
2108 2107 -340 0
-2109 2108 344 0
-2109 -2108 -344 0
2109 -2108 344 0
2109 2108 -344 0
-2110 2109 346 0
-2110 -2109 -346 0
2110 -2109 346 0
2110 2109 -346 0
-225 -2110 0
-2111 337 338 0
-2111 -337 -338 0
2111 -337 338 0
2111 337 -338 0
-2112 2111 340 0
-2112 -2111 -340 0
2112 -2111 340 0
2112 2111 -340 0
-2113 2112 342 0
-2113 -2112 -342 0
2113 -2112 342 0
2113 2112 -342 0
-2114 2113 344 0
-2114 -2113 -344 0
2114 -2113 344 0
2114 2113 -344 0
-2115 2114 346 0
-2115 -2114 -346 0
2115 -2114 346 0
2115 2114 -346 0
-226 -2115 0
-2116 337 338 0
-2116 -337 -338 0
2116 -337 338 0
2116 337 -338 0
-2117 2116 339 0
-2117 -2116 -339 0
2117 -2116 339 0
2117 2116 -339 0
-2118 2117 340 0
-2118 -2117 -340 0
2118 -2117 340 0
2118 2117 -340 0
-2119 2118 342 0
-2119 -2118 -342 0
2119 -2118 342 0
2119 2118 -342 0
-2120 2119 344 0
-2120 -2119 -344 0
2120 -2119 344 0
2120 2119 -344 0
-2121 2120 346 0
-2121 -2120 -346 0
2121 -2120 346 0
2121 2120 -346 0
-227 -2121 0
-2122 336 340 0
-2122 -336 -340 0
2122 -336 340 0
2122 336 -340 0
-2123 2122 346 0
-2123 -2122 -346 0
2123 -2122 346 0
2123 2122 -346 0
-228 -2123 0
-2124 335 336 0
-2124 -335 -336 0
2124 -335 336 0
2124 335 -336 0
-2125 2124 339 0
-2125 -2124 -339 0
2125 -2124 339 0
2125 2124 -339 0
-2126 2125 340 0
-2126 -2125 -340 0
2126 -2125 340 0
2126 2125 -340 0
-2127 2126 346 0
-2127 -2126 -346 0
2127 -2126 346 0
2127 2126 -346 0
-229 -2127 0
-2128 333 336 0
-2128 -333 -336 0
2128 -333 336 0
2128 333 -336 0
-2129 2128 337 0
-2129 -2128 -337 0
2129 -2128 337 0
2129 2128 -337 0
-2130 2129 340 0
-2130 -2129 -340 0
2130 -2129 340 0
2130 2129 -340 0
-2131 2130 342 0
-2131 -2130 -342 0
2131 -2130 342 0
2131 2130 -342 0
-2132 2131 346 0
-2132 -2131 -346 0
2132 -2131 346 0
2132 2131 -346 0
-230 -2132 0
-2133 333 335 0
-2133 -333 -335 0
2133 -333 335 0
2133 333 -335 0
-2134 2133 336 0
-2134 -2133 -336 0
2134 -2133 336 0
2134 2133 -336 0
-2135 2134 337 0
-2135 -2134 -337 0
2135 -2134 337 0
2135 2134 -337 0
-2136 2135 339 0
-2136 -2135 -339 0
2136 -2135 339 0
2136 2135 -339 0
-2137 2136 340 0
-2137 -2136 -340 0
2137 -2136 340 0
2137 2136 -340 0
-2138 2137 342 0
-2138 -2137 -342 0
2138 -2137 342 0
2138 2137 -342 0
-2139 2138 346 0
-2139 -2138 -346 0
2139 -2138 346 0
2139 2138 -346 0
-231 -2139 0
-2140 334 336 0
-2140 -334 -336 0
2140 -334 336 0
2140 334 -336 0
-2141 2140 338 0
-2141 -2140 -338 0
2141 -2140 338 0
2141 2140 -338 0
-2142 2141 340 0
-2142 -2141 -340 0
2142 -2141 340 0
2142 2141 -340 0
-2143 2142 344 0
-2143 -2142 -344 0
2143 -2142 344 0
2143 2142 -344 0
-2144 2143 346 0
-2144 -2143 -346 0
2144 -2143 346 0
2144 2143 -346 0
-232 -2144 0
-2145 334 335 0
-2145 -334 -335 0
2145 -334 335 0
2145 334 -335 0
-2146 2145 336 0
-2146 -2145 -336 0
2146 -2145 336 0
2146 2145 -336 0
-2147 2146 338 0
-2147 -2146 -338 0
2147 -2146 338 0
2147 2146 -338 0
-2148 2147 339 0
-2148 -2147 -339 0
2148 -2147 339 0
2148 2147 -339 0
-2149 2148 340 0
-2149 -2148 -340 0
2149 -2148 340 0
2149 2148 -340 0
-2150 2149 344 0
-2150 -2149 -344 0
2150 -2149 344 0
2150 2149 -344 0
-2151 2150 346 0
-2151 -2150 -346 0
2151 -2150 346 0
2151 2150 -346 0
-233 -2151 0
-2152 333 334 0
-2152 -333 -334 0
2152 -333 334 0
2152 333 -334 0
-2153 2152 336 0
-2153 -2152 -336 0
2153 -2152 336 0
2153 2152 -336 0
-2154 2153 337 0
-2154 -2153 -337 0
2154 -2153 337 0
2154 2153 -337 0
-2155 2154 338 0
-2155 -2154 -338 0
2155 -2154 338 0
2155 2154 -338 0
-2156 2155 340 0
-2156 -2155 -340 0
2156 -2155 340 0
2156 2155 -340 0
-2157 2156 342 0
-2157 -2156 -342 0
2157 -2156 342 0
2157 2156 -342 0
-2158 2157 344 0
-2158 -2157 -344 0
2158 -2157 344 0
2158 2157 -344 0
-2159 2158 346 0
-2159 -2158 -346 0
2159 -2158 346 0
2159 2158 -346 0
-234 -2159 0
-2160 333 334 0
-2160 -333 -334 0
2160 -333 334 0
2160 333 -334 0
-2161 2160 335 0
-2161 -2160 -335 0
2161 -2160 335 0
2161 2160 -335 0
-2162 2161 336 0
-2162 -2161 -336 0
2162 -2161 336 0
2162 2161 -336 0
-2163 2162 337 0
-2163 -2162 -337 0
2163 -2162 337 0
2163 2162 -337 0
-2164 2163 338 0
-2164 -2163 -338 0
2164 -2163 338 0
2164 2163 -338 0
-2165 2164 339 0
-2165 -2164 -339 0
2165 -2164 339 0
2165 2164 -339 0
-2166 2165 340 0
-2166 -2165 -340 0
2166 -2165 340 0
2166 2165 -340 0
-2167 2166 342 0
-2167 -2166 -342 0
2167 -2166 342 0
2167 2166 -342 0
-2168 2167 344 0
-2168 -2167 -344 0
2168 -2167 344 0
2168 2167 -344 0
-2169 2168 346 0
-2169 -2168 -346 0
2169 -2168 346 0
2169 2168 -346 0
-235 -2169 0
-2170 343 346 0
-2170 -343 -346 0
2170 -343 346 0
2170 343 -346 0
-236 -2170 0
-2171 333 335 0
-2171 -333 -335 0
2171 -333 335 0
2171 333 -335 0
-2172 2171 343 0
-2172 -2171 -343 0
2172 -2171 343 0
2172 2171 -343 0
-2173 2172 346 0
-2173 -2172 -346 0
2173 -2172 346 0
2173 2172 -346 0
-237 -2173 0
-2174 337 339 0
-2174 -337 -339 0
2174 -337 339 0
2174 337 -339 0
-2175 2174 343 0
-2175 -2174 -343 0
2175 -2174 343 0
2175 2174 -343 0
-2176 2175 346 0
-2176 -2175 -346 0
2176 -2175 346 0
2176 2175 -346 0
-238 -2176 0
-2177 333 335 0
-2177 -333 -335 0
2177 -333 335 0
2177 333 -335 0
-2178 2177 337 0
-2178 -2177 -337 0
2178 -2177 337 0
2178 2177 -337 0
-2179 2178 339 0
-2179 -2178 -339 0
2179 -2178 339 0
2179 2178 -339 0
-2180 2179 343 0
-2180 -2179 -343 0
2180 -2179 343 0
2180 2179 -343 0
-2181 2180 346 0
-2181 -2180 -346 0
2181 -2180 346 0
2181 2180 -346 0
-239 -2181 0
-2182 342 343 0
-2182 -342 -343 0
2182 -342 343 0
2182 342 -343 0
-2183 2182 346 0
-2183 -2182 -346 0
2183 -2182 346 0
2183 2182 -346 0
-240 -2183 0
-2184 333 335 0
-2184 -333 -335 0
2184 -333 335 0
2184 333 -335 0
-2185 2184 342 0
-2185 -2184 -342 0
2185 -2184 342 0
2185 2184 -342 0
-2186 2185 343 0
-2186 -2185 -343 0
2186 -2185 343 0
2186 2185 -343 0
-2187 2186 346 0
-2187 -2186 -346 0
2187 -2186 346 0
2187 2186 -346 0
-241 -2187 0
-2188 337 339 0
-2188 -337 -339 0
2188 -337 339 0
2188 337 -339 0
-2189 2188 342 0
-2189 -2188 -342 0
2189 -2188 342 0
2189 2188 -342 0
-2190 2189 343 0
-2190 -2189 -343 0
2190 -2189 343 0
2190 2189 -343 0
-2191 2190 346 0
-2191 -2190 -346 0
2191 -2190 346 0
2191 2190 -346 0
-242 -2191 0
-2192 333 335 0
-2192 -333 -335 0
2192 -333 335 0
2192 333 -335 0
-2193 2192 337 0
-2193 -2192 -337 0
2193 -2192 337 0
2193 2192 -337 0
-2194 2193 339 0
-2194 -2193 -339 0
2194 -2193 339 0
2194 2193 -339 0
-2195 2194 342 0
-2195 -2194 -342 0
2195 -2194 342 0
2195 2194 -342 0
-2196 2195 343 0
-2196 -2195 -343 0
2196 -2195 343 0
2196 2195 -343 0
-2197 2196 346 0
-2197 -2196 -346 0
2197 -2196 346 0
2197 2196 -346 0
-243 -2197 0
-2198 336 343 0
-2198 -336 -343 0
2198 -336 343 0
2198 336 -343 0
-2199 2198 346 0
-2199 -2198 -346 0
2199 -2198 346 0
2199 2198 -346 0
-244 -2199 0
-2200 333 335 0
-2200 -333 -335 0
2200 -333 335 0
2200 333 -335 0
-2201 2200 336 0
-2201 -2200 -336 0
2201 -2200 336 0
2201 2200 -336 0
-2202 2201 343 0
-2202 -2201 -343 0
2202 -2201 343 0
2202 2201 -343 0
-2203 2202 346 0
-2203 -2202 -346 0
2203 -2202 346 0
2203 2202 -346 0
-245 -2203 0
-2204 333 336 0
-2204 -333 -336 0
2204 -333 336 0
2204 333 -336 0
-2205 2204 342 0
-2205 -2204 -342 0
2205 -2204 342 0
2205 2204 -342 0
-2206 2205 343 0
-2206 -2205 -343 0
2206 -2205 343 0
2206 2205 -343 0
-2207 2206 346 0
-2207 -2206 -346 0
2207 -2206 346 0
2207 2206 -346 0
-246 -2207 0
-2208 335 336 0
-2208 -335 -336 0
2208 -335 336 0
2208 335 -336 0
-2209 2208 342 0
-2209 -2208 -342 0
2209 -2208 342 0
2209 2208 -342 0
-2210 2209 343 0
-2210 -2209 -343 0
2210 -2209 343 0
2210 2209 -343 0
-2211 2210 346 0
-2211 -2210 -346 0
2211 -2210 346 0
2211 2210 -346 0
-247 -2211 0
-2212 332 334 0
-2212 -332 -334 0
2212 -332 334 0
2212 332 -334 0
-2213 2212 336 0
-2213 -2212 -336 0
2213 -2212 336 0
2213 2212 -336 0
-2214 2213 337 0
-2214 -2213 -337 0
2214 -2213 337 0
2214 2213 -337 0
-2215 2214 339 0
-2215 -2214 -339 0
2215 -2214 339 0
2215 2214 -339 0
-2216 2215 341 0
-2216 -2215 -341 0
2216 -2215 341 0
2216 2215 -341 0
-2217 2216 343 0
-2217 -2216 -343 0
2217 -2216 343 0
2217 2216 -343 0
-2218 2217 344 0
-2218 -2217 -344 0
2218 -2217 344 0
2218 2217 -344 0
-2219 2218 346 0
-2219 -2218 -346 0
2219 -2218 346 0
2219 2218 -346 0
-248 -2219 0
-2220 332 333 0
-2220 -332 -333 0
2220 -332 333 0
2220 332 -333 0
-2221 2220 334 0
-2221 -2220 -334 0
2221 -2220 334 0
2221 2220 -334 0
-2222 2221 335 0
-2222 -2221 -335 0
2222 -2221 335 0
2222 2221 -335 0
-2223 2222 336 0
-2223 -2222 -336 0
2223 -2222 336 0
2223 2222 -336 0
-2224 2223 337 0
-2224 -2223 -337 0
2224 -2223 337 0
2224 2223 -337 0
-2225 2224 339 0
-2225 -2224 -339 0
2225 -2224 339 0
2225 2224 -339 0
-2226 2225 341 0
-2226 -2225 -341 0
2226 -2225 341 0
2226 2225 -341 0
-2227 2226 343 0
-2227 -2226 -343 0
2227 -2226 343 0
2227 2226 -343 0
-2228 2227 344 0
-2228 -2227 -344 0
2228 -2227 344 0
2228 2227 -344 0
-2229 2228 346 0
-2229 -2228 -346 0
2229 -2228 346 0
2229 2228 -346 0
-249 -2229 0
-2230 332 333 0
-2230 -332 -333 0
2230 -332 333 0
2230 332 -333 0
-2231 2230 334 0
-2231 -2230 -334 0
2231 -2230 334 0
2231 2230 -334 0
-2232 2231 336 0
-2232 -2231 -336 0
2232 -2231 336 0
2232 2231 -336 0
-2233 2232 337 0
-2233 -2232 -337 0
2233 -2232 337 0
2233 2232 -337 0
-2234 2233 339 0
-2234 -2233 -339 0
2234 -2233 339 0
2234 2233 -339 0
-2235 2234 341 0
-2235 -2234 -341 0
2235 -2234 341 0
2235 2234 -341 0
-2236 2235 342 0
-2236 -2235 -342 0
2236 -2235 342 0
2236 2235 -342 0
-2237 2236 343 0
-2237 -2236 -343 0
2237 -2236 343 0
2237 2236 -343 0
-2238 2237 344 0
-2238 -2237 -344 0
2238 -2237 344 0
2238 2237 -344 0
-2239 2238 346 0
-2239 -2238 -346 0
2239 -2238 346 0
2239 2238 -346 0
-250 -2239 0
-2240 332 334 0
-2240 -332 -334 0
2240 -332 334 0
2240 332 -334 0
-2241 2240 335 0
-2241 -2240 -335 0
2241 -2240 335 0
2241 2240 -335 0
-2242 2241 336 0
-2242 -2241 -336 0
2242 -2241 336 0
2242 2241 -336 0
-2243 2242 337 0
-2243 -2242 -337 0
2243 -2242 337 0
2243 2242 -337 0
-2244 2243 339 0
-2244 -2243 -339 0
2244 -2243 339 0
2244 2243 -339 0
-2245 2244 341 0
-2245 -2244 -341 0
2245 -2244 341 0
2245 2244 -341 0
-2246 2245 342 0
-2246 -2245 -342 0
2246 -2245 342 0
2246 2245 -342 0
-2247 2246 343 0
-2247 -2246 -343 0
2247 -2246 343 0
2247 2246 -343 0
-2248 2247 344 0
-2248 -2247 -344 0
2248 -2247 344 0
2248 2247 -344 0
-2249 2248 346 0
-2249 -2248 -346 0
2249 -2248 346 0
2249 2248 -346 0
-251 -2249 0
-2250 340 343 0
-2250 -340 -343 0
2250 -340 343 0
2250 340 -343 0
-2251 2250 346 0
-2251 -2250 -346 0
2251 -2250 346 0
2251 2250 -346 0
-252 -2251 0
-2252 337 339 0
-2252 -337 -339 0
2252 -337 339 0
2252 337 -339 0
-2253 2252 340 0
-2253 -2252 -340 0
2253 -2252 340 0
2253 2252 -340 0
-2254 2253 343 0
-2254 -2253 -343 0
2254 -2253 343 0
2254 2253 -343 0
-2255 2254 346 0
-2255 -2254 -346 0
2255 -2254 346 0
2255 2254 -346 0
-253 -2255 0
-2256 337 340 0
-2256 -337 -340 0
2256 -337 340 0
2256 337 -340 0
-2257 2256 342 0
-2257 -2256 -342 0
2257 -2256 342 0
2257 2256 -342 0
-2258 2257 343 0
-2258 -2257 -343 0
2258 -2257 343 0
2258 2257 -343 0
-2259 2258 346 0
-2259 -2258 -346 0
2259 -2258 346 0
2259 2258 -346 0
-254 -2259 0
-2260 339 340 0
-2260 -339 -340 0
2260 -339 340 0
2260 339 -340 0
-2261 2260 342 0
-2261 -2260 -342 0
2261 -2260 342 0
2261 2260 -342 0
-2262 2261 343 0
-2262 -2261 -343 0
2262 -2261 343 0
2262 2261 -343 0
-2263 2262 346 0
-2263 -2262 -346 0
2263 -2262 346 0
2263 2262 -346 0
-255 -2263 0
-2264 332 333 0
-2264 -332 -333 0
2264 -332 333 0
2264 332 -333 0
-2265 2264 335 0
-2265 -2264 -335 0
2265 -2264 335 0
2265 2264 -335 0
-2266 2265 338 0
-2266 -2265 -338 0
2266 -2265 338 0
2266 2265 -338 0
-2267 2266 340 0
-2267 -2266 -340 0
2267 -2266 340 0
2267 2266 -340 0
-2268 2267 341 0
-2268 -2267 -341 0
2268 -2267 341 0
2268 2267 -341 0
-2269 2268 343 0
-2269 -2268 -343 0
2269 -2268 343 0
2269 2268 -343 0
-2270 2269 344 0
-2270 -2269 -344 0
2270 -2269 344 0
2270 2269 -344 0
-2271 2270 346 0
-2271 -2270 -346 0
2271 -2270 346 0
2271 2270 -346 0
-256 -2271 0
-2272 332 333 0
-2272 -332 -333 0
2272 -332 333 0
2272 332 -333 0
-2273 2272 335 0
-2273 -2272 -335 0
2273 -2272 335 0
2273 2272 -335 0
-2274 2273 337 0
-2274 -2273 -337 0
2274 -2273 337 0
2274 2273 -337 0
-2275 2274 338 0
-2275 -2274 -338 0
2275 -2274 338 0
2275 2274 -338 0
-2276 2275 339 0
-2276 -2275 -339 0
2276 -2275 339 0
2276 2275 -339 0
-2277 2276 340 0
-2277 -2276 -340 0
2277 -2276 340 0
2277 2276 -340 0
-2278 2277 341 0
-2278 -2277 -341 0
2278 -2277 341 0
2278 2277 -341 0
-2279 2278 343 0
-2279 -2278 -343 0
2279 -2278 343 0
2279 2278 -343 0
-2280 2279 344 0
-2280 -2279 -344 0
2280 -2279 344 0
2280 2279 -344 0
-2281 2280 346 0
-2281 -2280 -346 0
2281 -2280 346 0
2281 2280 -346 0
-257 -2281 0
-2282 332 333 0
-2282 -332 -333 0
2282 -332 333 0
2282 332 -333 0
-2283 2282 335 0
-2283 -2282 -335 0
2283 -2282 335 0
2283 2282 -335 0
-2284 2283 337 0
-2284 -2283 -337 0
2284 -2283 337 0
2284 2283 -337 0
-2285 2284 338 0
-2285 -2284 -338 0
2285 -2284 338 0
2285 2284 -338 0
-2286 2285 340 0
-2286 -2285 -340 0
2286 -2285 340 0
2286 2285 -340 0
-2287 2286 341 0
-2287 -2286 -341 0
2287 -2286 341 0
2287 2286 -341 0
-2288 2287 342 0
-2288 -2287 -342 0
2288 -2287 342 0
2288 2287 -342 0
-2289 2288 343 0
-2289 -2288 -343 0
2289 -2288 343 0
2289 2288 -343 0
-2290 2289 344 0
-2290 -2289 -344 0
2290 -2289 344 0
2290 2289 -344 0
-2291 2290 346 0
-2291 -2290 -346 0
2291 -2290 346 0
2291 2290 -346 0
-258 -2291 0
-2292 332 333 0
-2292 -332 -333 0
2292 -332 333 0
2292 332 -333 0
-2293 2292 335 0
-2293 -2292 -335 0
2293 -2292 335 0
2293 2292 -335 0
-2294 2293 338 0
-2294 -2293 -338 0
2294 -2293 338 0
2294 2293 -338 0
-2295 2294 339 0
-2295 -2294 -339 0
2295 -2294 339 0
2295 2294 -339 0
-2296 2295 340 0
-2296 -2295 -340 0
2296 -2295 340 0
2296 2295 -340 0
-2297 2296 341 0
-2297 -2296 -341 0
2297 -2296 341 0
2297 2296 -341 0
-2298 2297 342 0
-2298 -2297 -342 0
2298 -2297 342 0
2298 2297 -342 0
-2299 2298 343 0
-2299 -2298 -343 0
2299 -2298 343 0
2299 2298 -343 0
-2300 2299 344 0
-2300 -2299 -344 0
2300 -2299 344 0
2300 2299 -344 0
-2301 2300 346 0
-2301 -2300 -346 0
2301 -2300 346 0
2301 2300 -346 0
-259 -2301 0
-2302 336 340 0
-2302 -336 -340 0
2302 -336 340 0
2302 336 -340 0
-2303 2302 343 0
-2303 -2302 -343 0
2303 -2302 343 0
2303 2302 -343 0
-2304 2303 346 0
-2304 -2303 -346 0
2304 -2303 346 0
2304 2303 -346 0
-260 -2304 0
-2305 333 335 0
-2305 -333 -335 0
2305 -333 335 0
2305 333 -335 0
-2306 2305 336 0
-2306 -2305 -336 0
2306 -2305 336 0
2306 2305 -336 0
-2307 2306 337 0
-2307 -2306 -337 0
2307 -2306 337 0
2307 2306 -337 0
-2308 2307 339 0
-2308 -2307 -339 0
2308 -2307 339 0
2308 2307 -339 0
-2309 2308 340 0
-2309 -2308 -340 0
2309 -2308 340 0
2309 2308 -340 0
-2310 2309 343 0
-2310 -2309 -343 0
2310 -2309 343 0
2310 2309 -343 0
-2311 2310 346 0
-2311 -2310 -346 0
2311 -2310 346 0
2311 2310 -346 0
-261 -2311 0
-2312 333 336 0
-2312 -333 -336 0
2312 -333 336 0
2312 333 -336 0
-2313 2312 337 0
-2313 -2312 -337 0
2313 -2312 337 0
2313 2312 -337 0
-2314 2313 340 0
-2314 -2313 -340 0
2314 -2313 340 0
2314 2313 -340 0
-2315 2314 342 0
-2315 -2314 -342 0
2315 -2314 342 0
2315 2314 -342 0
-2316 2315 343 0
-2316 -2315 -343 0
2316 -2315 343 0
2316 2315 -343 0
-2317 2316 346 0
-2317 -2316 -346 0
2317 -2316 346 0
2317 2316 -346 0
-262 -2317 0
-2318 335 336 0
-2318 -335 -336 0
2318 -335 336 0
2318 335 -336 0
-2319 2318 339 0
-2319 -2318 -339 0
2319 -2318 339 0
2319 2318 -339 0
-2320 2319 340 0
-2320 -2319 -340 0
2320 -2319 340 0
2320 2319 -340 0
-2321 2320 342 0
-2321 -2320 -342 0
2321 -2320 342 0
2321 2320 -342 0
-2322 2321 343 0
-2322 -2321 -343 0
2322 -2321 343 0
2322 2321 -343 0
-2323 2322 346 0
-2323 -2322 -346 0
2323 -2322 346 0
2323 2322 -346 0
-263 -2323 0
-2324 332 333 0
-2324 -332 -333 0
2324 -332 333 0
2324 332 -333 0
-2325 2324 334 0
-2325 -2324 -334 0
2325 -2324 334 0
2325 2324 -334 0
-2326 2325 335 0
-2326 -2325 -335 0
2326 -2325 335 0
2326 2325 -335 0
-2327 2326 336 0
-2327 -2326 -336 0
2327 -2326 336 0
2327 2326 -336 0
-2328 2327 338 0
-2328 -2327 -338 0
2328 -2327 338 0
2328 2327 -338 0
-2329 2328 340 0
-2329 -2328 -340 0
2329 -2328 340 0
2329 2328 -340 0
-2330 2329 341 0
-2330 -2329 -341 0
2330 -2329 341 0
2330 2329 -341 0
-2331 2330 343 0
-2331 -2330 -343 0
2331 -2330 343 0
2331 2330 -343 0
-2332 2331 344 0
-2332 -2331 -344 0
2332 -2331 344 0
2332 2331 -344 0
-2333 2332 346 0
-2333 -2332 -346 0
2333 -2332 346 0
2333 2332 -346 0
-264 -2333 0
-2334 332 334 0
-2334 -332 -334 0
2334 -332 334 0
2334 332 -334 0
-2335 2334 336 0
-2335 -2334 -336 0
2335 -2334 336 0
2335 2334 -336 0
-2336 2335 337 0
-2336 -2335 -337 0
2336 -2335 337 0
2336 2335 -337 0
-2337 2336 338 0
-2337 -2336 -338 0
2337 -2336 338 0
2337 2336 -338 0
-2338 2337 339 0
-2338 -2337 -339 0
2338 -2337 339 0
2338 2337 -339 0
-2339 2338 340 0
-2339 -2338 -340 0
2339 -2338 340 0
2339 2338 -340 0
-2340 2339 341 0
-2340 -2339 -341 0
2340 -2339 341 0
2340 2339 -341 0
-2341 2340 343 0
-2341 -2340 -343 0
2341 -2340 343 0
2341 2340 -343 0
-2342 2341 344 0
-2342 -2341 -344 0
2342 -2341 344 0
2342 2341 -344 0
-2343 2342 346 0
-2343 -2342 -346 0
2343 -2342 346 0
2343 2342 -346 0
-265 -2343 0
-2344 332 334 0
-2344 -332 -334 0
2344 -332 334 0
2344 332 -334 0
-2345 2344 335 0
-2345 -2344 -335 0
2345 -2344 335 0
2345 2344 -335 0
-2346 2345 336 0
-2346 -2345 -336 0
2346 -2345 336 0
2346 2345 -336 0
-2347 2346 337 0
-2347 -2346 -337 0
2347 -2346 337 0
2347 2346 -337 0
-2348 2347 338 0
-2348 -2347 -338 0
2348 -2347 338 0
2348 2347 -338 0
-2349 2348 340 0
-2349 -2348 -340 0
2349 -2348 340 0
2349 2348 -340 0
-2350 2349 341 0
-2350 -2349 -341 0
2350 -2349 341 0
2350 2349 -341 0
-2351 2350 342 0
-2351 -2350 -342 0
2351 -2350 342 0
2351 2350 -342 0
-2352 2351 343 0
-2352 -2351 -343 0
2352 -2351 343 0
2352 2351 -343 0
-2353 2352 344 0
-2353 -2352 -344 0
2353 -2352 344 0
2353 2352 -344 0
-2354 2353 346 0
-2354 -2353 -346 0
2354 -2353 346 0
2354 2353 -346 0
-266 -2354 0
-2355 332 333 0
-2355 -332 -333 0
2355 -332 333 0
2355 332 -333 0
-2356 2355 334 0
-2356 -2355 -334 0
2356 -2355 334 0
2356 2355 -334 0
-2357 2356 336 0
-2357 -2356 -336 0
2357 -2356 336 0
2357 2356 -336 0
-2358 2357 338 0
-2358 -2357 -338 0
2358 -2357 338 0
2358 2357 -338 0
-2359 2358 339 0
-2359 -2358 -339 0
2359 -2358 339 0
2359 2358 -339 0
-2360 2359 340 0
-2360 -2359 -340 0
2360 -2359 340 0
2360 2359 -340 0
-2361 2360 341 0
-2361 -2360 -341 0
2361 -2360 341 0
2361 2360 -341 0
-2362 2361 342 0
-2362 -2361 -342 0
2362 -2361 342 0
2362 2361 -342 0
-2363 2362 343 0
-2363 -2362 -343 0
2363 -2362 343 0
2363 2362 -343 0
-2364 2363 344 0
-2364 -2363 -344 0
2364 -2363 344 0
2364 2363 -344 0
-2365 2364 346 0
-2365 -2364 -346 0
2365 -2364 346 0
2365 2364 -346 0
-267 -2365 0
-2366 345 346 0
-2366 -345 -346 0
2366 -345 346 0
2366 345 -346 0
-268 -2366 0
-2367 334 335 0
-2367 -334 -335 0
2367 -334 335 0
2367 334 -335 0
-2368 2367 345 0
-2368 -2367 -345 0
2368 -2367 345 0
2368 2367 -345 0
-2369 2368 346 0
-2369 -2368 -346 0
2369 -2368 346 0
2369 2368 -346 0
-269 -2369 0
-2370 338 339 0
-2370 -338 -339 0
2370 -338 339 0
2370 338 -339 0
-2371 2370 345 0
-2371 -2370 -345 0
2371 -2370 345 0
2371 2370 -345 0
-2372 2371 346 0
-2372 -2371 -346 0
2372 -2371 346 0
2372 2371 -346 0
-270 -2372 0
-2373 334 335 0
-2373 -334 -335 0
2373 -334 335 0
2373 334 -335 0
-2374 2373 338 0
-2374 -2373 -338 0
2374 -2373 338 0
2374 2373 -338 0
-2375 2374 339 0
-2375 -2374 -339 0
2375 -2374 339 0
2375 2374 -339 0
-2376 2375 345 0
-2376 -2375 -345 0
2376 -2375 345 0
2376 2375 -345 0
-2377 2376 346 0
-2377 -2376 -346 0
2377 -2376 346 0
2377 2376 -346 0
-271 -2377 0
-2378 344 345 0
-2378 -344 -345 0
2378 -344 345 0
2378 344 -345 0
-2379 2378 346 0
-2379 -2378 -346 0
2379 -2378 346 0
2379 2378 -346 0
-272 -2379 0
-2380 334 335 0
-2380 -334 -335 0
2380 -334 335 0
2380 334 -335 0
-2381 2380 344 0
-2381 -2380 -344 0
2381 -2380 344 0
2381 2380 -344 0
-2382 2381 345 0
-2382 -2381 -345 0
2382 -2381 345 0
2382 2381 -345 0
-2383 2382 346 0
-2383 -2382 -346 0
2383 -2382 346 0
2383 2382 -346 0
-273 -2383 0
-2384 338 339 0
-2384 -338 -339 0
2384 -338 339 0
2384 338 -339 0
-2385 2384 344 0
-2385 -2384 -344 0
2385 -2384 344 0
2385 2384 -344 0
-2386 2385 345 0
-2386 -2385 -345 0
2386 -2385 345 0
2386 2385 -345 0
-2387 2386 346 0
-2387 -2386 -346 0
2387 -2386 346 0
2387 2386 -346 0
-274 -2387 0
-2388 334 335 0
-2388 -334 -335 0
2388 -334 335 0
2388 334 -335 0
-2389 2388 338 0
-2389 -2388 -338 0
2389 -2388 338 0
2389 2388 -338 0
-2390 2389 339 0
-2390 -2389 -339 0
2390 -2389 339 0
2390 2389 -339 0
-2391 2390 344 0
-2391 -2390 -344 0
2391 -2390 344 0
2391 2390 -344 0
-2392 2391 345 0
-2392 -2391 -345 0
2392 -2391 345 0
2392 2391 -345 0
-2393 2392 346 0
-2393 -2392 -346 0
2393 -2392 346 0
2393 2392 -346 0
-275 -2393 0
-2394 336 345 0
-2394 -336 -345 0
2394 -336 345 0
2394 336 -345 0
-2395 2394 346 0
-2395 -2394 -346 0
2395 -2394 346 0
2395 2394 -346 0
-276 -2395 0
-2396 334 335 0
-2396 -334 -335 0
2396 -334 335 0
2396 334 -335 0
-2397 2396 336 0
-2397 -2396 -336 0
2397 -2396 336 0
2397 2396 -336 0
-2398 2397 345 0
-2398 -2397 -345 0
2398 -2397 345 0
2398 2397 -345 0
-2399 2398 346 0
-2399 -2398 -346 0
2399 -2398 346 0
2399 2398 -346 0
-277 -2399 0
-2400 332 333 0
-2400 -332 -333 0
2400 -332 333 0
2400 332 -333 0
-2401 2400 336 0
-2401 -2400 -336 0
2401 -2400 336 0
2401 2400 -336 0
-2402 2401 338 0
-2402 -2401 -338 0
2402 -2401 338 0
2402 2401 -338 0
-2403 2402 339 0
-2403 -2402 -339 0
2403 -2402 339 0
2403 2402 -339 0
-2404 2403 341 0
-2404 -2403 -341 0
2404 -2403 341 0
2404 2403 -341 0
-2405 2404 342 0
-2405 -2404 -342 0
2405 -2404 342 0
2405 2404 -342 0
-2406 2405 345 0
-2406 -2405 -345 0
2406 -2405 345 0
2406 2405 -345 0
-2407 2406 346 0
-2407 -2406 -346 0
2407 -2406 346 0
2407 2406 -346 0
-278 -2407 0
-2408 332 333 0
-2408 -332 -333 0
2408 -332 333 0
2408 332 -333 0
-2409 2408 334 0
-2409 -2408 -334 0
2409 -2408 334 0
2409 2408 -334 0
-2410 2409 335 0
-2410 -2409 -335 0
2410 -2409 335 0
2410 2409 -335 0
-2411 2410 336 0
-2411 -2410 -336 0
2411 -2410 336 0
2411 2410 -336 0
-2412 2411 338 0
-2412 -2411 -338 0
2412 -2411 338 0
2412 2411 -338 0
-2413 2412 339 0
-2413 -2412 -339 0
2413 -2412 339 0
2413 2412 -339 0
-2414 2413 341 0
-2414 -2413 -341 0
2414 -2413 341 0
2414 2413 -341 0
-2415 2414 342 0
-2415 -2414 -342 0
2415 -2414 342 0
2415 2414 -342 0
-2416 2415 345 0
-2416 -2415 -345 0
2416 -2415 345 0
2416 2415 -345 0
-2417 2416 346 0
-2417 -2416 -346 0
2417 -2416 346 0
2417 2416 -346 0
-279 -2417 0
-2418 334 336 0
-2418 -334 -336 0
2418 -334 336 0
2418 334 -336 0
-2419 2418 344 0
-2419 -2418 -344 0
2419 -2418 344 0
2419 2418 -344 0
-2420 2419 345 0
-2420 -2419 -345 0
2420 -2419 345 0
2420 2419 -345 0
-2421 2420 346 0
-2421 -2420 -346 0
2421 -2420 346 0
2421 2420 -346 0
-280 -2421 0
-2422 335 336 0
-2422 -335 -336 0
2422 -335 336 0
2422 335 -336 0
-2423 2422 344 0
-2423 -2422 -344 0
2423 -2422 344 0
2423 2422 -344 0
-2424 2423 345 0
-2424 -2423 -345 0
2424 -2423 345 0
2424 2423 -345 0
-2425 2424 346 0
-2425 -2424 -346 0
2425 -2424 346 0
2425 2424 -346 0
-281 -2425 0
-2426 332 333 0
-2426 -332 -333 0
2426 -332 333 0
2426 332 -333 0
-2427 2426 334 0
-2427 -2426 -334 0
2427 -2426 334 0
2427 2426 -334 0
-2428 2427 336 0
-2428 -2427 -336 0
2428 -2427 336 0
2428 2427 -336 0
-2429 2428 338 0
-2429 -2428 -338 0
2429 -2428 338 0
2429 2428 -338 0
-2430 2429 339 0
-2430 -2429 -339 0
2430 -2429 339 0
2430 2429 -339 0
-2431 2430 341 0
-2431 -2430 -341 0
2431 -2430 341 0
2431 2430 -341 0
-2432 2431 342 0
-2432 -2431 -342 0
2432 -2431 342 0
2432 2431 -342 0
-2433 2432 344 0
-2433 -2432 -344 0
2433 -2432 344 0
2433 2432 -344 0
-2434 2433 345 0
-2434 -2433 -345 0
2434 -2433 345 0
2434 2433 -345 0
-2435 2434 346 0
-2435 -2434 -346 0
2435 -2434 346 0
2435 2434 -346 0
-282 -2435 0
-2436 332 333 0
-2436 -332 -333 0
2436 -332 333 0
2436 332 -333 0
-2437 2436 335 0
-2437 -2436 -335 0
2437 -2436 335 0
2437 2436 -335 0
-2438 2437 336 0
-2438 -2437 -336 0
2438 -2437 336 0
2438 2437 -336 0
-2439 2438 338 0
-2439 -2438 -338 0
2439 -2438 338 0
2439 2438 -338 0
-2440 2439 339 0
-2440 -2439 -339 0
2440 -2439 339 0
2440 2439 -339 0
-2441 2440 341 0
-2441 -2440 -341 0
2441 -2440 341 0
2441 2440 -341 0
-2442 2441 342 0
-2442 -2441 -342 0
2442 -2441 342 0
2442 2441 -342 0
-2443 2442 344 0
-2443 -2442 -344 0
2443 -2442 344 0
2443 2442 -344 0
-2444 2443 345 0
-2444 -2443 -345 0
2444 -2443 345 0
2444 2443 -345 0
-2445 2444 346 0
-2445 -2444 -346 0
2445 -2444 346 0
2445 2444 -346 0
-283 -2445 0
-2446 340 345 0
-2446 -340 -345 0
2446 -340 345 0
2446 340 -345 0
-2447 2446 346 0
-2447 -2446 -346 0
2447 -2446 346 0
2447 2446 -346 0
-284 -2447 0
-2448 338 339 0
-2448 -338 -339 0
2448 -338 339 0
2448 338 -339 0
-2449 2448 340 0
-2449 -2448 -340 0
2449 -2448 340 0
2449 2448 -340 0
-2450 2449 345 0
-2450 -2449 -345 0
2450 -2449 345 0
2450 2449 -345 0
-2451 2450 346 0
-2451 -2450 -346 0
2451 -2450 346 0
2451 2450 -346 0
-285 -2451 0
-2452 332 334 0
-2452 -332 -334 0
2452 -332 334 0
2452 332 -334 0
-2453 2452 335 0
-2453 -2452 -335 0
2453 -2452 335 0
2453 2452 -335 0
-2454 2453 337 0
-2454 -2453 -337 0
2454 -2453 337 0
2454 2453 -337 0
-2455 2454 340 0
-2455 -2454 -340 0
2455 -2454 340 0
2455 2454 -340 0
-2456 2455 341 0
-2456 -2455 -341 0
2456 -2455 341 0
2456 2455 -341 0
-2457 2456 342 0
-2457 -2456 -342 0
2457 -2456 342 0
2457 2456 -342 0
-2458 2457 345 0
-2458 -2457 -345 0
2458 -2457 345 0
2458 2457 -345 0
-2459 2458 346 0
-2459 -2458 -346 0
2459 -2458 346 0
2459 2458 -346 0
-286 -2459 0
-2460 332 334 0
-2460 -332 -334 0
2460 -332 334 0
2460 332 -334 0
-2461 2460 335 0
-2461 -2460 -335 0
2461 -2460 335 0
2461 2460 -335 0
-2462 2461 337 0
-2462 -2461 -337 0
2462 -2461 337 0
2462 2461 -337 0
-2463 2462 338 0
-2463 -2462 -338 0
2463 -2462 338 0
2463 2462 -338 0
-2464 2463 339 0
-2464 -2463 -339 0
2464 -2463 339 0
2464 2463 -339 0
-2465 2464 340 0
-2465 -2464 -340 0
2465 -2464 340 0
2465 2464 -340 0
-2466 2465 341 0
-2466 -2465 -341 0
2466 -2465 341 0
2466 2465 -341 0
-2467 2466 342 0
-2467 -2466 -342 0
2467 -2466 342 0
2467 2466 -342 0
-2468 2467 345 0
-2468 -2467 -345 0
2468 -2467 345 0
2468 2467 -345 0
-2469 2468 346 0
-2469 -2468 -346 0
2469 -2468 346 0
2469 2468 -346 0
-287 -2469 0
-2470 338 340 0
-2470 -338 -340 0
2470 -338 340 0
2470 338 -340 0
-2471 2470 344 0
-2471 -2470 -344 0
2471 -2470 344 0
2471 2470 -344 0
-2472 2471 345 0
-2472 -2471 -345 0
2472 -2471 345 0
2472 2471 -345 0
-2473 2472 346 0
-2473 -2472 -346 0
2473 -2472 346 0
2473 2472 -346 0
-288 -2473 0
-2474 339 340 0
-2474 -339 -340 0
2474 -339 340 0
2474 339 -340 0
-2475 2474 344 0
-2475 -2474 -344 0
2475 -2474 344 0
2475 2474 -344 0
-2476 2475 345 0
-2476 -2475 -345 0
2476 -2475 345 0
2476 2475 -345 0
-2477 2476 346 0
-2477 -2476 -346 0
2477 -2476 346 0
2477 2476 -346 0
-289 -2477 0
-2478 332 334 0
-2478 -332 -334 0
2478 -332 334 0
2478 332 -334 0
-2479 2478 335 0
-2479 -2478 -335 0
2479 -2478 335 0
2479 2478 -335 0
-2480 2479 337 0
-2480 -2479 -337 0
2480 -2479 337 0
2480 2479 -337 0
-2481 2480 338 0
-2481 -2480 -338 0
2481 -2480 338 0
2481 2480 -338 0
-2482 2481 340 0
-2482 -2481 -340 0
2482 -2481 340 0
2482 2481 -340 0
-2483 2482 341 0
-2483 -2482 -341 0
2483 -2482 341 0
2483 2482 -341 0
-2484 2483 342 0
-2484 -2483 -342 0
2484 -2483 342 0
2484 2483 -342 0
-2485 2484 344 0
-2485 -2484 -344 0
2485 -2484 344 0
2485 2484 -344 0
-2486 2485 345 0
-2486 -2485 -345 0
2486 -2485 345 0
2486 2485 -345 0
-2487 2486 346 0
-2487 -2486 -346 0
2487 -2486 346 0
2487 2486 -346 0
-290 -2487 0
-2488 332 334 0
-2488 -332 -334 0
2488 -332 334 0
2488 332 -334 0
-2489 2488 335 0
-2489 -2488 -335 0
2489 -2488 335 0
2489 2488 -335 0
-2490 2489 337 0
-2490 -2489 -337 0
2490 -2489 337 0
2490 2489 -337 0
-2491 2490 339 0
-2491 -2490 -339 0
2491 -2490 339 0
2491 2490 -339 0
-2492 2491 340 0
-2492 -2491 -340 0
2492 -2491 340 0
2492 2491 -340 0
-2493 2492 341 0
-2493 -2492 -341 0
2493 -2492 341 0
2493 2492 -341 0
-2494 2493 342 0
-2494 -2493 -342 0
2494 -2493 342 0
2494 2493 -342 0
-2495 2494 344 0
-2495 -2494 -344 0
2495 -2494 344 0
2495 2494 -344 0
-2496 2495 345 0
-2496 -2495 -345 0
2496 -2495 345 0
2496 2495 -345 0
-2497 2496 346 0
-2497 -2496 -346 0
2497 -2496 346 0
2497 2496 -346 0
-291 -2497 0
-2498 336 340 0
-2498 -336 -340 0
2498 -336 340 0
2498 336 -340 0
-2499 2498 345 0
-2499 -2498 -345 0
2499 -2498 345 0
2499 2498 -345 0
-2500 2499 346 0
-2500 -2499 -346 0
2500 -2499 346 0
2500 2499 -346 0
-292 -2500 0
-2501 334 335 0
-2501 -334 -335 0
2501 -334 335 0
2501 334 -335 0
-2502 2501 336 0
-2502 -2501 -336 0
2502 -2501 336 0
2502 2501 -336 0
-2503 2502 338 0
-2503 -2502 -338 0
2503 -2502 338 0
2503 2502 -338 0
-2504 2503 339 0
-2504 -2503 -339 0
2504 -2503 339 0
2504 2503 -339 0
-2505 2504 340 0
-2505 -2504 -340 0
2505 -2504 340 0
2505 2504 -340 0
-2506 2505 345 0
-2506 -2505 -345 0
2506 -2505 345 0
2506 2505 -345 0
-2507 2506 346 0
-2507 -2506 -346 0
2507 -2506 346 0
2507 2506 -346 0
-293 -2507 0
-2508 332 333 0
-2508 -332 -333 0
2508 -332 333 0
2508 332 -333 0
-2509 2508 334 0
-2509 -2508 -334 0
2509 -2508 334 0
2509 2508 -334 0
-2510 2509 335 0
-2510 -2509 -335 0
2510 -2509 335 0
2510 2509 -335 0
-2511 2510 336 0
-2511 -2510 -336 0
2511 -2510 336 0
2511 2510 -336 0
-2512 2511 337 0
-2512 -2511 -337 0
2512 -2511 337 0
2512 2511 -337 0
-2513 2512 340 0
-2513 -2512 -340 0
2513 -2512 340 0
2513 2512 -340 0
-2514 2513 341 0
-2514 -2513 -341 0
2514 -2513 341 0
2514 2513 -341 0
-2515 2514 342 0
-2515 -2514 -342 0
2515 -2514 342 0
2515 2514 -342 0
-2516 2515 345 0
-2516 -2515 -345 0
2516 -2515 345 0
2516 2515 -345 0
-2517 2516 346 0
-2517 -2516 -346 0
2517 -2516 346 0
2517 2516 -346 0
-294 -2517 0
-2518 332 333 0
-2518 -332 -333 0
2518 -332 333 0
2518 332 -333 0
-2519 2518 336 0
-2519 -2518 -336 0
2519 -2518 336 0
2519 2518 -336 0
-2520 2519 337 0
-2520 -2519 -337 0
2520 -2519 337 0
2520 2519 -337 0
-2521 2520 338 0
-2521 -2520 -338 0
2521 -2520 338 0
2521 2520 -338 0
-2522 2521 339 0
-2522 -2521 -339 0
2522 -2521 339 0
2522 2521 -339 0
-2523 2522 340 0
-2523 -2522 -340 0
2523 -2522 340 0
2523 2522 -340 0
-2524 2523 341 0
-2524 -2523 -341 0
2524 -2523 341 0
2524 2523 -341 0
-2525 2524 342 0
-2525 -2524 -342 0
2525 -2524 342 0
2525 2524 -342 0
-2526 2525 345 0
-2526 -2525 -345 0
2526 -2525 345 0
2526 2525 -345 0
-2527 2526 346 0
-2527 -2526 -346 0
2527 -2526 346 0
2527 2526 -346 0
-295 -2527 0
-2528 334 336 0
-2528 -334 -336 0
2528 -334 336 0
2528 334 -336 0
-2529 2528 338 0
-2529 -2528 -338 0
2529 -2528 338 0
2529 2528 -338 0
-2530 2529 340 0
-2530 -2529 -340 0
2530 -2529 340 0
2530 2529 -340 0
-2531 2530 344 0
-2531 -2530 -344 0
2531 -2530 344 0
2531 2530 -344 0
-2532 2531 345 0
-2532 -2531 -345 0
2532 -2531 345 0
2532 2531 -345 0
-2533 2532 346 0
-2533 -2532 -346 0
2533 -2532 346 0
2533 2532 -346 0
-296 -2533 0
-2534 335 336 0
-2534 -335 -336 0
2534 -335 336 0
2534 335 -336 0
-2535 2534 339 0
-2535 -2534 -339 0
2535 -2534 339 0
2535 2534 -339 0
-2536 2535 340 0
-2536 -2535 -340 0
2536 -2535 340 0
2536 2535 -340 0
-2537 2536 344 0
-2537 -2536 -344 0
2537 -2536 344 0
2537 2536 -344 0
-2538 2537 345 0
-2538 -2537 -345 0
2538 -2537 345 0
2538 2537 -345 0
-2539 2538 346 0
-2539 -2538 -346 0
2539 -2538 346 0
2539 2538 -346 0
-297 -2539 0
-2540 332 333 0
-2540 -332 -333 0
2540 -332 333 0
2540 332 -333 0
-2541 2540 335 0
-2541 -2540 -335 0
2541 -2540 335 0
2541 2540 -335 0
-2542 2541 336 0
-2542 -2541 -336 0
2542 -2541 336 0
2542 2541 -336 0
-2543 2542 337 0
-2543 -2542 -337 0
2543 -2542 337 0
2543 2542 -337 0
-2544 2543 338 0
-2544 -2543 -338 0
2544 -2543 338 0
2544 2543 -338 0
-2545 2544 340 0
-2545 -2544 -340 0
2545 -2544 340 0
2545 2544 -340 0
-2546 2545 341 0
-2546 -2545 -341 0
2546 -2545 341 0
2546 2545 -341 0
-2547 2546 342 0
-2547 -2546 -342 0
2547 -2546 342 0
2547 2546 -342 0
-2548 2547 344 0
-2548 -2547 -344 0
2548 -2547 344 0
2548 2547 -344 0
-2549 2548 345 0
-2549 -2548 -345 0
2549 -2548 345 0
2549 2548 -345 0
-2550 2549 346 0
-2550 -2549 -346 0
2550 -2549 346 0
2550 2549 -346 0
-298 -2550 0
-2551 332 333 0
-2551 -332 -333 0
2551 -332 333 0
2551 332 -333 0
-2552 2551 334 0
-2552 -2551 -334 0
2552 -2551 334 0
2552 2551 -334 0
-2553 2552 336 0
-2553 -2552 -336 0
2553 -2552 336 0
2553 2552 -336 0
-2554 2553 337 0
-2554 -2553 -337 0
2554 -2553 337 0
2554 2553 -337 0
-2555 2554 339 0
-2555 -2554 -339 0
2555 -2554 339 0
2555 2554 -339 0
-2556 2555 340 0
-2556 -2555 -340 0
2556 -2555 340 0
2556 2555 -340 0
-2557 2556 341 0
-2557 -2556 -341 0
2557 -2556 341 0
2557 2556 -341 0
-2558 2557 342 0
-2558 -2557 -342 0
2558 -2557 342 0
2558 2557 -342 0
-2559 2558 344 0
-2559 -2558 -344 0
2559 -2558 344 0
2559 2558 -344 0
-2560 2559 345 0
-2560 -2559 -345 0
2560 -2559 345 0
2560 2559 -345 0
-2561 2560 346 0
-2561 -2560 -346 0
2561 -2560 346 0
2561 2560 -346 0
-299 -2561 0
-2562 343 345 0
-2562 -343 -345 0
2562 -343 345 0
2562 343 -345 0
-2563 2562 346 0
-2563 -2562 -346 0
2563 -2562 346 0
2563 2562 -346 0
-300 -2563 0
-2564 333 334 0
-2564 -333 -334 0
2564 -333 334 0
2564 333 -334 0
-2565 2564 335 0
-2565 -2564 -335 0
2565 -2564 335 0
2565 2564 -335 0
-2566 2565 343 0
-2566 -2565 -343 0
2566 -2565 343 0
2566 2565 -343 0
-2567 2566 345 0
-2567 -2566 -345 0
2567 -2566 345 0
2567 2566 -345 0
-2568 2567 346 0
-2568 -2567 -346 0
2568 -2567 346 0
2568 2567 -346 0
-301 -2568 0
-2569 337 338 0
-2569 -337 -338 0
2569 -337 338 0
2569 337 -338 0
-2570 2569 339 0
-2570 -2569 -339 0
2570 -2569 339 0
2570 2569 -339 0
-2571 2570 343 0
-2571 -2570 -343 0
2571 -2570 343 0
2571 2570 -343 0
-2572 2571 345 0
-2572 -2571 -345 0
2572 -2571 345 0
2572 2571 -345 0
-2573 2572 346 0
-2573 -2572 -346 0
2573 -2572 346 0
2573 2572 -346 0
-302 -2573 0
-2574 333 334 0
-2574 -333 -334 0
2574 -333 334 0
2574 333 -334 0
-2575 2574 335 0
-2575 -2574 -335 0
2575 -2574 335 0
2575 2574 -335 0
-2576 2575 337 0
-2576 -2575 -337 0
2576 -2575 337 0
2576 2575 -337 0
-2577 2576 338 0
-2577 -2576 -338 0
2577 -2576 338 0
2577 2576 -338 0
-2578 2577 339 0
-2578 -2577 -339 0
2578 -2577 339 0
2578 2577 -339 0
-2579 2578 343 0
-2579 -2578 -343 0
2579 -2578 343 0
2579 2578 -343 0
-2580 2579 345 0
-2580 -2579 -345 0
2580 -2579 345 0
2580 2579 -345 0
-2581 2580 346 0
-2581 -2580 -346 0
2581 -2580 346 0
2581 2580 -346 0
-303 -2581 0
-2582 342 343 0
-2582 -342 -343 0
2582 -342 343 0
2582 342 -343 0
-2583 2582 344 0
-2583 -2582 -344 0
2583 -2582 344 0
2583 2582 -344 0
-2584 2583 345 0
-2584 -2583 -345 0
2584 -2583 345 0
2584 2583 -345 0
-2585 2584 346 0
-2585 -2584 -346 0
2585 -2584 346 0
2585 2584 -346 0
-304 -2585 0
-2586 333 334 0
-2586 -333 -334 0
2586 -333 334 0
2586 333 -334 0
-2587 2586 335 0
-2587 -2586 -335 0
2587 -2586 335 0
2587 2586 -335 0
-2588 2587 342 0
-2588 -2587 -342 0
2588 -2587 342 0
2588 2587 -342 0
-2589 2588 343 0
-2589 -2588 -343 0
2589 -2588 343 0
2589 2588 -343 0
-2590 2589 344 0
-2590 -2589 -344 0
2590 -2589 344 0
2590 2589 -344 0
-2591 2590 345 0
-2591 -2590 -345 0
2591 -2590 345 0
2591 2590 -345 0
-2592 2591 346 0
-2592 -2591 -346 0
2592 -2591 346 0
2592 2591 -346 0
-305 -2592 0
-2593 337 338 0
-2593 -337 -338 0
2593 -337 338 0
2593 337 -338 0
-2594 2593 339 0
-2594 -2593 -339 0
2594 -2593 339 0
2594 2593 -339 0
-2595 2594 342 0
-2595 -2594 -342 0
2595 -2594 342 0
2595 2594 -342 0
-2596 2595 343 0
-2596 -2595 -343 0
2596 -2595 343 0
2596 2595 -343 0
-2597 2596 344 0
-2597 -2596 -344 0
2597 -2596 344 0
2597 2596 -344 0
-2598 2597 345 0
-2598 -2597 -345 0
2598 -2597 345 0
2598 2597 -345 0
-2599 2598 346 0
-2599 -2598 -346 0
2599 -2598 346 0
2599 2598 -346 0
-306 -2599 0
-2600 333 334 0
-2600 -333 -334 0
2600 -333 334 0
2600 333 -334 0
-2601 2600 335 0
-2601 -2600 -335 0
2601 -2600 335 0
2601 2600 -335 0
-2602 2601 337 0
-2602 -2601 -337 0
2602 -2601 337 0
2602 2601 -337 0
-2603 2602 338 0
-2603 -2602 -338 0
2603 -2602 338 0
2603 2602 -338 0
-2604 2603 339 0
-2604 -2603 -339 0
2604 -2603 339 0
2604 2603 -339 0
-2605 2604 342 0
-2605 -2604 -342 0
2605 -2604 342 0
2605 2604 -342 0
-2606 2605 343 0
-2606 -2605 -343 0
2606 -2605 343 0
2606 2605 -343 0
-2607 2606 344 0
-2607 -2606 -344 0
2607 -2606 344 0
2607 2606 -344 0
-2608 2607 345 0
-2608 -2607 -345 0
2608 -2607 345 0
2608 2607 -345 0
-2609 2608 346 0
-2609 -2608 -346 0
2609 -2608 346 0
2609 2608 -346 0
-307 -2609 0
-2610 336 343 0
-2610 -336 -343 0
2610 -336 343 0
2610 336 -343 0
-2611 2610 345 0
-2611 -2610 -345 0
2611 -2610 345 0
2611 2610 -345 0
-2612 2611 346 0
-2612 -2611 -346 0
2612 -2611 346 0
2612 2611 -346 0
-308 -2612 0
-2613 333 334 0
-2613 -333 -334 0
2613 -333 334 0
2613 333 -334 0
-2614 2613 335 0
-2614 -2613 -335 0
2614 -2613 335 0
2614 2613 -335 0
-2615 2614 336 0
-2615 -2614 -336 0
2615 -2614 336 0
2615 2614 -336 0
-2616 2615 343 0
-2616 -2615 -343 0
2616 -2615 343 0
2616 2615 -343 0
-2617 2616 345 0
-2617 -2616 -345 0
2617 -2616 345 0
2617 2616 -345 0
-2618 2617 346 0
-2618 -2617 -346 0
2618 -2617 346 0
2618 2617 -346 0
-309 -2618 0
-2619 332 333 0
-2619 -332 -333 0
2619 -332 333 0
2619 332 -333 0
-2620 2619 336 0
-2620 -2619 -336 0
2620 -2619 336 0
2620 2619 -336 0
-2621 2620 337 0
-2621 -2620 -337 0
2621 -2620 337 0
2621 2620 -337 0
-2622 2621 338 0
-2622 -2621 -338 0
2622 -2621 338 0
2622 2621 -338 0
-2623 2622 339 0
-2623 -2622 -339 0
2623 -2622 339 0
2623 2622 -339 0
-2624 2623 341 0
-2624 -2623 -341 0
2624 -2623 341 0
2624 2623 -341 0
-2625 2624 342 0
-2625 -2624 -342 0
2625 -2624 342 0
2625 2624 -342 0
-2626 2625 343 0
-2626 -2625 -343 0
2626 -2625 343 0
2626 2625 -343 0
-2627 2626 345 0
-2627 -2626 -345 0
2627 -2626 345 0
2627 2626 -345 0
-2628 2627 346 0
-2628 -2627 -346 0
2628 -2627 346 0
2628 2627 -346 0
-310 -2628 0
-2629 332 334 0
-2629 -332 -334 0
2629 -332 334 0
2629 332 -334 0
-2630 2629 335 0
-2630 -2629 -335 0
2630 -2629 335 0
2630 2629 -335 0
-2631 2630 336 0
-2631 -2630 -336 0
2631 -2630 336 0
2631 2630 -336 0
-2632 2631 337 0
-2632 -2631 -337 0
2632 -2631 337 0
2632 2631 -337 0
-2633 2632 338 0
-2633 -2632 -338 0
2633 -2632 338 0
2633 2632 -338 0
-2634 2633 339 0
-2634 -2633 -339 0
2634 -2633 339 0
2634 2633 -339 0
-2635 2634 341 0
-2635 -2634 -341 0
2635 -2634 341 0
2635 2634 -341 0
-2636 2635 342 0
-2636 -2635 -342 0
2636 -2635 342 0
2636 2635 -342 0
-2637 2636 343 0
-2637 -2636 -343 0
2637 -2636 343 0
2637 2636 -343 0
-2638 2637 345 0
-2638 -2637 -345 0
2638 -2637 345 0
2638 2637 -345 0
-2639 2638 346 0
-2639 -2638 -346 0
2639 -2638 346 0
2639 2638 -346 0
-311 -2639 0
-2640 332 334 0
-2640 -332 -334 0
2640 -332 334 0
2640 332 -334 0
-2641 2640 336 0
-2641 -2640 -336 0
2641 -2640 336 0
2641 2640 -336 0
-2642 2641 337 0
-2642 -2641 -337 0
2642 -2641 337 0
2642 2641 -337 0
-2643 2642 338 0
-2643 -2642 -338 0
2643 -2642 338 0
2643 2642 -338 0
-2644 2643 339 0
-2644 -2643 -339 0
2644 -2643 339 0
2644 2643 -339 0
-2645 2644 341 0
-2645 -2644 -341 0
2645 -2644 341 0
2645 2644 -341 0
-2646 2645 343 0
-2646 -2645 -343 0
2646 -2645 343 0
2646 2645 -343 0
-2647 2646 344 0
-2647 -2646 -344 0
2647 -2646 344 0
2647 2646 -344 0
-2648 2647 345 0
-2648 -2647 -345 0
2648 -2647 345 0
2648 2647 -345 0
-2649 2648 346 0
-2649 -2648 -346 0
2649 -2648 346 0
2649 2648 -346 0
-312 -2649 0
-2650 332 333 0
-2650 -332 -333 0
2650 -332 333 0
2650 332 -333 0
-2651 2650 335 0
-2651 -2650 -335 0
2651 -2650 335 0
2651 2650 -335 0
-2652 2651 336 0
-2652 -2651 -336 0
2652 -2651 336 0
2652 2651 -336 0
-2653 2652 337 0
-2653 -2652 -337 0
2653 -2652 337 0
2653 2652 -337 0
-2654 2653 338 0
-2654 -2653 -338 0
2654 -2653 338 0
2654 2653 -338 0
-2655 2654 339 0
-2655 -2654 -339 0
2655 -2654 339 0
2655 2654 -339 0
-2656 2655 341 0
-2656 -2655 -341 0
2656 -2655 341 0
2656 2655 -341 0
-2657 2656 343 0
-2657 -2656 -343 0
2657 -2656 343 0
2657 2656 -343 0
-2658 2657 344 0
-2658 -2657 -344 0
2658 -2657 344 0
2658 2657 -344 0
-2659 2658 345 0
-2659 -2658 -345 0
2659 -2658 345 0
2659 2658 -345 0
-2660 2659 346 0
-2660 -2659 -346 0
2660 -2659 346 0
2660 2659 -346 0
-313 -2660 0
-2661 333 334 0
-2661 -333 -334 0
2661 -333 334 0
2661 333 -334 0
-2662 2661 336 0
-2662 -2661 -336 0
2662 -2661 336 0
2662 2661 -336 0
-2663 2662 342 0
-2663 -2662 -342 0
2663 -2662 342 0
2663 2662 -342 0
-2664 2663 343 0
-2664 -2663 -343 0
2664 -2663 343 0
2664 2663 -343 0
-2665 2664 344 0
-2665 -2664 -344 0
2665 -2664 344 0
2665 2664 -344 0
-2666 2665 345 0
-2666 -2665 -345 0
2666 -2665 345 0
2666 2665 -345 0
-2667 2666 346 0
-2667 -2666 -346 0
2667 -2666 346 0
2667 2666 -346 0
-314 -2667 0
-2668 335 336 0
-2668 -335 -336 0
2668 -335 336 0
2668 335 -336 0
-2669 2668 342 0
-2669 -2668 -342 0
2669 -2668 342 0
2669 2668 -342 0
-2670 2669 343 0
-2670 -2669 -343 0
2670 -2669 343 0
2670 2669 -343 0
-2671 2670 344 0
-2671 -2670 -344 0
2671 -2670 344 0
2671 2670 -344 0
-2672 2671 345 0
-2672 -2671 -345 0
2672 -2671 345 0
2672 2671 -345 0
-2673 2672 346 0
-2673 -2672 -346 0
2673 -2672 346 0
2673 2672 -346 0
-315 -2673 0
-2674 340 343 0
-2674 -340 -343 0
2674 -340 343 0
2674 340 -343 0
-2675 2674 345 0
-2675 -2674 -345 0
2675 -2674 345 0
2675 2674 -345 0
-2676 2675 346 0
-2676 -2675 -346 0
2676 -2675 346 0
2676 2675 -346 0
-316 -2676 0
-2677 337 338 0
-2677 -337 -338 0
2677 -337 338 0
2677 337 -338 0
-2678 2677 339 0
-2678 -2677 -339 0
2678 -2677 339 0
2678 2677 -339 0
-2679 2678 340 0
-2679 -2678 -340 0
2679 -2678 340 0
2679 2678 -340 0
-2680 2679 343 0
-2680 -2679 -343 0
2680 -2679 343 0
2680 2679 -343 0
-2681 2680 345 0
-2681 -2680 -345 0
2681 -2680 345 0
2681 2680 -345 0
-2682 2681 346 0
-2682 -2681 -346 0
2682 -2681 346 0
2682 2681 -346 0
-317 -2682 0
-2683 332 333 0
-2683 -332 -333 0
2683 -332 333 0
2683 332 -333 0
-2684 2683 334 0
-2684 -2683 -334 0
2684 -2683 334 0
2684 2683 -334 0
-2685 2684 335 0
-2685 -2684 -335 0
2685 -2684 335 0
2685 2684 -335 0
-2686 2685 337 0
-2686 -2685 -337 0
2686 -2685 337 0
2686 2685 -337 0
-2687 2686 340 0
-2687 -2686 -340 0
2687 -2686 340 0
2687 2686 -340 0
-2688 2687 341 0
-2688 -2687 -341 0
2688 -2687 341 0
2688 2687 -341 0
-2689 2688 342 0
-2689 -2688 -342 0
2689 -2688 342 0
2689 2688 -342 0
-2690 2689 343 0
-2690 -2689 -343 0
2690 -2689 343 0
2690 2689 -343 0
-2691 2690 345 0
-2691 -2690 -345 0
2691 -2690 345 0
2691 2690 -345 0
-2692 2691 346 0
-2692 -2691 -346 0
2692 -2691 346 0
2692 2691 -346 0
-318 -2692 0
-2693 332 333 0
-2693 -332 -333 0
2693 -332 333 0
2693 332 -333 0
-2694 2693 334 0
-2694 -2693 -334 0
2694 -2693 334 0
2694 2693 -334 0
-2695 2694 335 0
-2695 -2694 -335 0
2695 -2694 335 0
2695 2694 -335 0
-2696 2695 338 0
-2696 -2695 -338 0
2696 -2695 338 0
2696 2695 -338 0
-2697 2696 339 0
-2697 -2696 -339 0
2697 -2696 339 0
2697 2696 -339 0
-2698 2697 340 0
-2698 -2697 -340 0
2698 -2697 340 0
2698 2697 -340 0
-2699 2698 341 0
-2699 -2698 -341 0
2699 -2698 341 0
2699 2698 -341 0
-2700 2699 342 0
-2700 -2699 -342 0
2700 -2699 342 0
2700 2699 -342 0
-2701 2700 343 0
-2701 -2700 -343 0
2701 -2700 343 0
2701 2700 -343 0
-2702 2701 345 0
-2702 -2701 -345 0
2702 -2701 345 0
2702 2701 -345 0
-2703 2702 346 0
-2703 -2702 -346 0
2703 -2702 346 0
2703 2702 -346 0
-319 -2703 0
-2704 332 333 0
-2704 -332 -333 0
2704 -332 333 0
2704 332 -333 0
-2705 2704 334 0
-2705 -2704 -334 0
2705 -2704 334 0
2705 2704 -334 0
-2706 2705 335 0
-2706 -2705 -335 0
2706 -2705 335 0
2706 2705 -335 0
-2707 2706 338 0
-2707 -2706 -338 0
2707 -2706 338 0
2707 2706 -338 0
-2708 2707 340 0
-2708 -2707 -340 0
2708 -2707 340 0
2708 2707 -340 0
-2709 2708 341 0
-2709 -2708 -341 0
2709 -2708 341 0
2709 2708 -341 0
-2710 2709 343 0
-2710 -2709 -343 0
2710 -2709 343 0
2710 2709 -343 0
-2711 2710 344 0
-2711 -2710 -344 0
2711 -2710 344 0
2711 2710 -344 0
-2712 2711 345 0
-2712 -2711 -345 0
2712 -2711 345 0
2712 2711 -345 0
-2713 2712 346 0
-2713 -2712 -346 0
2713 -2712 346 0
2713 2712 -346 0
-320 -2713 0
-2714 332 333 0
-2714 -332 -333 0
2714 -332 333 0
2714 332 -333 0
-2715 2714 334 0
-2715 -2714 -334 0
2715 -2714 334 0
2715 2714 -334 0
-2716 2715 335 0
-2716 -2715 -335 0
2716 -2715 335 0
2716 2715 -335 0
-2717 2716 337 0
-2717 -2716 -337 0
2717 -2716 337 0
2717 2716 -337 0
-2718 2717 339 0
-2718 -2717 -339 0
2718 -2717 339 0
2718 2717 -339 0
-2719 2718 340 0
-2719 -2718 -340 0
2719 -2718 340 0
2719 2718 -340 0
-2720 2719 341 0
-2720 -2719 -341 0
2720 -2719 341 0
2720 2719 -341 0
-2721 2720 343 0
-2721 -2720 -343 0
2721 -2720 343 0
2721 2720 -343 0
-2722 2721 344 0
-2722 -2721 -344 0
2722 -2721 344 0
2722 2721 -344 0
-2723 2722 345 0
-2723 -2722 -345 0
2723 -2722 345 0
2723 2722 -345 0
-2724 2723 346 0
-2724 -2723 -346 0
2724 -2723 346 0
2724 2723 -346 0
-321 -2724 0
-2725 337 338 0
-2725 -337 -338 0
2725 -337 338 0
2725 337 -338 0
-2726 2725 340 0
-2726 -2725 -340 0
2726 -2725 340 0
2726 2725 -340 0
-2727 2726 342 0
-2727 -2726 -342 0
2727 -2726 342 0
2727 2726 -342 0
-2728 2727 343 0
-2728 -2727 -343 0
2728 -2727 343 0
2728 2727 -343 0
-2729 2728 344 0
-2729 -2728 -344 0
2729 -2728 344 0
2729 2728 -344 0
-2730 2729 345 0
-2730 -2729 -345 0
2730 -2729 345 0
2730 2729 -345 0
-2731 2730 346 0
-2731 -2730 -346 0
2731 -2730 346 0
2731 2730 -346 0
-322 -2731 0
-2732 339 340 0
-2732 -339 -340 0
2732 -339 340 0
2732 339 -340 0
-2733 2732 342 0
-2733 -2732 -342 0
2733 -2732 342 0
2733 2732 -342 0
-2734 2733 343 0
-2734 -2733 -343 0
2734 -2733 343 0
2734 2733 -343 0
-2735 2734 344 0
-2735 -2734 -344 0
2735 -2734 344 0
2735 2734 -344 0
-2736 2735 345 0
-2736 -2735 -345 0
2736 -2735 345 0
2736 2735 -345 0
-2737 2736 346 0
-2737 -2736 -346 0
2737 -2736 346 0
2737 2736 -346 0
-323 -2737 0
-2738 336 340 0
-2738 -336 -340 0
2738 -336 340 0
2738 336 -340 0
-2739 2738 343 0
-2739 -2738 -343 0
2739 -2738 343 0
2739 2738 -343 0
-2740 2739 345 0
-2740 -2739 -345 0
2740 -2739 345 0
2740 2739 -345 0
-2741 2740 346 0
-2741 -2740 -346 0
2741 -2740 346 0
2741 2740 -346 0
-324 -2741 0
-2742 333 334 0
-2742 -333 -334 0
2742 -333 334 0
2742 333 -334 0
-2743 2742 335 0
-2743 -2742 -335 0
2743 -2742 335 0
2743 2742 -335 0
-2744 2743 336 0
-2744 -2743 -336 0
2744 -2743 336 0
2744 2743 -336 0
-2745 2744 337 0
-2745 -2744 -337 0
2745 -2744 337 0
2745 2744 -337 0
-2746 2745 338 0
-2746 -2745 -338 0
2746 -2745 338 0
2746 2745 -338 0
-2747 2746 339 0
-2747 -2746 -339 0
2747 -2746 339 0
2747 2746 -339 0
-2748 2747 340 0
-2748 -2747 -340 0
2748 -2747 340 0
2748 2747 -340 0
-2749 2748 343 0
-2749 -2748 -343 0
2749 -2748 343 0
2749 2748 -343 0
-2750 2749 345 0
-2750 -2749 -345 0
2750 -2749 345 0
2750 2749 -345 0
-2751 2750 346 0
-2751 -2750 -346 0
2751 -2750 346 0
2751 2750 -346 0
-325 -2751 0
-2752 332 334 0
-2752 -332 -334 0
2752 -332 334 0
2752 332 -334 0
-2753 2752 335 0
-2753 -2752 -335 0
2753 -2752 335 0
2753 2752 -335 0
-2754 2753 336 0
-2754 -2753 -336 0
2754 -2753 336 0
2754 2753 -336 0
-2755 2754 337 0
-2755 -2754 -337 0
2755 -2754 337 0
2755 2754 -337 0
-2756 2755 340 0
-2756 -2755 -340 0
2756 -2755 340 0
2756 2755 -340 0
-2757 2756 341 0
-2757 -2756 -341 0
2757 -2756 341 0
2757 2756 -341 0
-2758 2757 342 0
-2758 -2757 -342 0
2758 -2757 342 0
2758 2757 -342 0
-2759 2758 343 0
-2759 -2758 -343 0
2759 -2758 343 0
2759 2758 -343 0
-2760 2759 345 0
-2760 -2759 -345 0
2760 -2759 345 0
2760 2759 -345 0
-2761 2760 346 0
-2761 -2760 -346 0
2761 -2760 346 0
2761 2760 -346 0
-326 -2761 0
-2762 332 333 0
-2762 -332 -333 0
2762 -332 333 0
2762 332 -333 0
-2763 2762 336 0
-2763 -2762 -336 0
2763 -2762 336 0
2763 2762 -336 0
-2764 2763 338 0
-2764 -2763 -338 0
2764 -2763 338 0
2764 2763 -338 0
-2765 2764 339 0
-2765 -2764 -339 0
2765 -2764 339 0
2765 2764 -339 0
-2766 2765 340 0
-2766 -2765 -340 0
2766 -2765 340 0
2766 2765 -340 0
-2767 2766 341 0
-2767 -2766 -341 0
2767 -2766 341 0
2767 2766 -341 0
-2768 2767 342 0
-2768 -2767 -342 0
2768 -2767 342 0
2768 2767 -342 0
-2769 2768 343 0
-2769 -2768 -343 0
2769 -2768 343 0
2769 2768 -343 0
-2770 2769 345 0
-2770 -2769 -345 0
2770 -2769 345 0
2770 2769 -345 0
-2771 2770 346 0
-2771 -2770 -346 0
2771 -2770 346 0
2771 2770 -346 0
-327 -2771 0
-2772 332 333 0
-2772 -332 -333 0
2772 -332 333 0
2772 332 -333 0
-2773 2772 335 0
-2773 -2772 -335 0
2773 -2772 335 0
2773 2772 -335 0
-2774 2773 336 0
-2774 -2773 -336 0
2774 -2773 336 0
2774 2773 -336 0
-2775 2774 338 0
-2775 -2774 -338 0
2775 -2774 338 0
2775 2774 -338 0
-2776 2775 340 0
-2776 -2775 -340 0
2776 -2775 340 0
2776 2775 -340 0
-2777 2776 341 0
-2777 -2776 -341 0
2777 -2776 341 0
2777 2776 -341 0
-2778 2777 343 0
-2778 -2777 -343 0
2778 -2777 343 0
2778 2777 -343 0
-2779 2778 344 0
-2779 -2778 -344 0
2779 -2778 344 0
2779 2778 -344 0
-2780 2779 345 0
-2780 -2779 -345 0
2780 -2779 345 0
2780 2779 -345 0
-2781 2780 346 0
-2781 -2780 -346 0
2781 -2780 346 0
2781 2780 -346 0
-328 -2781 0
-2782 332 334 0
-2782 -332 -334 0
2782 -332 334 0
2782 332 -334 0
-2783 2782 336 0
-2783 -2782 -336 0
2783 -2782 336 0
2783 2782 -336 0
-2784 2783 337 0
-2784 -2783 -337 0
2784 -2783 337 0
2784 2783 -337 0
-2785 2784 339 0
-2785 -2784 -339 0
2785 -2784 339 0
2785 2784 -339 0
-2786 2785 340 0
-2786 -2785 -340 0
2786 -2785 340 0
2786 2785 -340 0
-2787 2786 341 0
-2787 -2786 -341 0
2787 -2786 341 0
2787 2786 -341 0
-2788 2787 343 0
-2788 -2787 -343 0
2788 -2787 343 0
2788 2787 -343 0
-2789 2788 344 0
-2789 -2788 -344 0
2789 -2788 344 0
2789 2788 -344 0
-2790 2789 345 0
-2790 -2789 -345 0
2790 -2789 345 0
2790 2789 -345 0
-2791 2790 346 0
-2791 -2790 -346 0
2791 -2790 346 0
2791 2790 -346 0
-329 -2791 0
-2792 333 334 0
-2792 -333 -334 0
2792 -333 334 0
2792 333 -334 0
-2793 2792 336 0
-2793 -2792 -336 0
2793 -2792 336 0
2793 2792 -336 0
-2794 2793 337 0
-2794 -2793 -337 0
2794 -2793 337 0
2794 2793 -337 0
-2795 2794 338 0
-2795 -2794 -338 0
2795 -2794 338 0
2795 2794 -338 0
-2796 2795 340 0
-2796 -2795 -340 0
2796 -2795 340 0
2796 2795 -340 0
-2797 2796 342 0
-2797 -2796 -342 0
2797 -2796 342 0
2797 2796 -342 0
-2798 2797 343 0
-2798 -2797 -343 0
2798 -2797 343 0
2798 2797 -343 0
-2799 2798 344 0
-2799 -2798 -344 0
2799 -2798 344 0
2799 2798 -344 0
-2800 2799 345 0
-2800 -2799 -345 0
2800 -2799 345 0
2800 2799 -345 0
-2801 2800 346 0
-2801 -2800 -346 0
2801 -2800 346 0
2801 2800 -346 0
-330 -2801 0
-2802 335 336 0
-2802 -335 -336 0
2802 -335 336 0
2802 335 -336 0
-2803 2802 339 0
-2803 -2802 -339 0
2803 -2802 339 0
2803 2802 -339 0
-2804 2803 340 0
-2804 -2803 -340 0
2804 -2803 340 0
2804 2803 -340 0
-2805 2804 342 0
-2805 -2804 -342 0
2805 -2804 342 0
2805 2804 -342 0
-2806 2805 343 0
-2806 -2805 -343 0
2806 -2805 343 0
2806 2805 -343 0
-2807 2806 344 0
-2807 -2806 -344 0
2807 -2806 344 0
2807 2806 -344 0
-2808 2807 345 0
-2808 -2807 -345 0
2808 -2807 345 0
2808 2807 -345 0
-2809 2808 346 0
-2809 -2808 -346 0
2809 -2808 346 0
2809 2808 -346 0
-331 -2809 0
332 333 334 335 336 337 338 339 340 341 342 343 344 345 346 0
-332 333 334 335 336 337 338 339 340 -341 342 343 344 345 346 0
