p cnf 8091 31272
1 2 3 4 5 6 7 8 9 10 11 12 13 14 15 0
-1 376 0
-2 377 0
-376 377 0
-2 -376 0
-3 378 0
-377 378 0
-3 -377 0
-4 379 0
-378 379 0
-4 -378 0
-5 380 0
-379 380 0
-5 -379 0
-6 381 0
-380 381 0
-6 -380 0
-7 382 0
-381 382 0
-7 -381 0
-8 383 0
-382 383 0
-8 -382 0
-9 384 0
-383 384 0
-9 -383 0
-10 385 0
-384 385 0
-10 -384 0
-11 386 0
-385 386 0
-11 -385 0
-12 387 0
-386 387 0
-12 -386 0
-13 388 0
-387 388 0
-13 -387 0
-14 389 0
-388 389 0
-14 -388 0
-15 -389 0
16 17 18 19 20 21 22 23 24 25 26 27 28 29 30 0
-16 390 0
-17 391 0
-390 391 0
-17 -390 0
-18 392 0
-391 392 0
-18 -391 0
-19 393 0
-392 393 0
-19 -392 0
-20 394 0
-393 394 0
-20 -393 0
-21 395 0
-394 395 0
-21 -394 0
-22 396 0
-395 396 0
-22 -395 0
-23 397 0
-396 397 0
-23 -396 0
-24 398 0
-397 398 0
-24 -397 0
-25 399 0
-398 399 0
-25 -398 0
-26 400 0
-399 400 0
-26 -399 0
-27 401 0
-400 401 0
-27 -400 0
-28 402 0
-401 402 0
-28 -401 0
-29 403 0
-402 403 0
-29 -402 0
-30 -403 0
31 32 33 34 35 36 37 38 39 40 41 42 43 44 45 0
-31 404 0
-32 405 0
-404 405 0
-32 -404 0
-33 406 0
-405 406 0
-33 -405 0
-34 407 0
-406 407 0
-34 -406 0
-35 408 0
-407 408 0
-35 -407 0
-36 409 0
-408 409 0
-36 -408 0
-37 410 0
-409 410 0
-37 -409 0
-38 411 0
-410 411 0
-38 -410 0
-39 412 0
-411 412 0
-39 -411 0
-40 413 0
-412 413 0
-40 -412 0
-41 414 0
-413 414 0
-41 -413 0
-42 415 0
-414 415 0
-42 -414 0
-43 416 0
-415 416 0
-43 -415 0
-44 417 0
-416 417 0
-44 -416 0
-45 -417 0
1 16 31 46 47 48 49 50 51 52 53 54 55 56 57 0
-1 418 0
-16 419 0
-418 419 0
-16 -418 0
-31 420 0
-419 420 0
-31 -419 0
-46 421 0
-420 421 0
-46 -420 0
-47 422 0
-421 422 0
-47 -421 0
-48 423 0
-422 423 0
-48 -422 0
-49 424 0
-423 424 0
-49 -423 0
-50 425 0
-424 425 0
-50 -424 0
-51 426 0
-425 426 0
-51 -425 0
-52 427 0
-426 427 0
-52 -426 0
-53 428 0
-427 428 0
-53 -427 0
-54 429 0
-428 429 0
-54 -428 0
-55 430 0
-429 430 0
-55 -429 0
-56 431 0
-430 431 0
-56 -430 0
-57 -431 0
1 58 59 60 61 62 63 64 65 66 67 68 69 70 71 0
-1 432 0
-58 433 0
-432 433 0
-58 -432 0
-59 434 0
-433 434 0
-59 -433 0
-60 435 0
-434 435 0
-60 -434 0
-61 436 0
-435 436 0
-61 -435 0
-62 437 0
-436 437 0
-62 -436 0
-63 438 0
-437 438 0
-63 -437 0
-64 439 0
-438 439 0
-64 -438 0
-65 440 0
-439 440 0
-65 -439 0
-66 441 0
-440 441 0
-66 -440 0
-67 442 0
-441 442 0
-67 -441 0
-68 443 0
-442 443 0
-68 -442 0
-69 444 0
-443 444 0
-69 -443 0
-70 445 0
-444 445 0
-70 -444 0
-71 -445 0
16 72 73 74 75 76 77 78 79 80 81 82 83 84 85 0
-16 446 0
-72 447 0
-446 447 0
-72 -446 0
-73 448 0
-447 448 0
-73 -447 0
-74 449 0
-448 449 0
-74 -448 0
-75 450 0
-449 450 0
-75 -449 0
-76 451 0
-450 451 0
-76 -450 0
-77 452 0
-451 452 0
-77 -451 0
-78 453 0
-452 453 0
-78 -452 0
-79 454 0
-453 454 0
-79 -453 0
-80 455 0
-454 455 0
-80 -454 0
-81 456 0
-455 456 0
-81 -455 0
-82 457 0
-456 457 0
-82 -456 0
-83 458 0
-457 458 0
-83 -457 0
-84 459 0
-458 459 0
-84 -458 0
-85 -459 0
31 86 87 88 89 90 91 92 93 94 95 96 97 98 99 0
-31 460 0
-86 461 0
-460 461 0
-86 -460 0
-87 462 0
-461 462 0
-87 -461 0
-88 463 0
-462 463 0
-88 -462 0
-89 464 0
-463 464 0
-89 -463 0
-90 465 0
-464 465 0
-90 -464 0
-91 466 0
-465 466 0
-91 -465 0
-92 467 0
-466 467 0
-92 -466 0
-93 468 0
-467 468 0
-93 -467 0
-94 469 0
-468 469 0
-94 -468 0
-95 470 0
-469 470 0
-95 -469 0
-96 471 0
-470 471 0
-96 -470 0
-97 472 0
-471 472 0
-97 -471 0
-98 473 0
-472 473 0
-98 -472 0
-99 -473 0
2 17 32 100 101 102 103 104 105 106 107 108 109 110 111 0
-2 474 0
-17 475 0
-474 475 0
-17 -474 0
-32 476 0
-475 476 0
-32 -475 0
-100 477 0
-476 477 0
-100 -476 0
-101 478 0
-477 478 0
-101 -477 0
-102 479 0
-478 479 0
-102 -478 0
-103 480 0
-479 480 0
-103 -479 0
-104 481 0
-480 481 0
-104 -480 0
-105 482 0
-481 482 0
-105 -481 0
-106 483 0
-482 483 0
-106 -482 0
-107 484 0
-483 484 0
-107 -483 0
-108 485 0
-484 485 0
-108 -484 0
-109 486 0
-485 486 0
-109 -485 0
-110 487 0
-486 487 0
-110 -486 0
-111 -487 0
2 72 86 112 113 114 115 116 117 118 119 120 121 122 123 0
-2 488 0
-72 489 0
-488 489 0
-72 -488 0
-86 490 0
-489 490 0
-86 -489 0
-112 491 0
-490 491 0
-112 -490 0
-113 492 0
-491 492 0
-113 -491 0
-114 493 0
-492 493 0
-114 -492 0
-115 494 0
-493 494 0
-115 -493 0
-116 495 0
-494 495 0
-116 -494 0
-117 496 0
-495 496 0
-117 -495 0
-118 497 0
-496 497 0
-118 -496 0
-119 498 0
-497 498 0
-119 -497 0
-120 499 0
-498 499 0
-120 -498 0
-121 500 0
-499 500 0
-121 -499 0
-122 501 0
-500 501 0
-122 -500 0
-123 -501 0
17 58 87 124 125 126 127 128 129 130 131 132 133 134 135 0
-17 502 0
-58 503 0
-502 503 0
-58 -502 0
-87 504 0
-503 504 0
-87 -503 0
-124 505 0
-504 505 0
-124 -504 0
-125 506 0
-505 506 0
-125 -505 0
-126 507 0
-506 507 0
-126 -506 0
-127 508 0
-507 508 0
-127 -507 0
-128 509 0
-508 509 0
-128 -508 0
-129 510 0
-509 510 0
-129 -509 0
-130 511 0
-510 511 0
-130 -510 0
-131 512 0
-511 512 0
-131 -511 0
-132 513 0
-512 513 0
-132 -512 0
-133 514 0
-513 514 0
-133 -513 0
-134 515 0
-514 515 0
-134 -514 0
-135 -515 0
32 59 73 136 137 138 139 140 141 142 143 144 145 146 147 0
-32 516 0
-59 517 0
-516 517 0
-59 -516 0
-73 518 0
-517 518 0
-73 -517 0
-136 519 0
-518 519 0
-136 -518 0
-137 520 0
-519 520 0
-137 -519 0
-138 521 0
-520 521 0
-138 -520 0
-139 522 0
-521 522 0
-139 -521 0
-140 523 0
-522 523 0
-140 -522 0
-141 524 0
-523 524 0
-141 -523 0
-142 525 0
-524 525 0
-142 -524 0
-143 526 0
-525 526 0
-143 -525 0
-144 527 0
-526 527 0
-144 -526 0
-145 528 0
-527 528 0
-145 -527 0
-146 529 0
-528 529 0
-146 -528 0
-147 -529 0
3 18 33 148 149 150 151 152 153 154 155 156 157 158 159 0
-3 530 0
-18 531 0
-530 531 0
-18 -530 0
-33 532 0
-531 532 0
-33 -531 0
-148 533 0
-532 533 0
-148 -532 0
-149 534 0
-533 534 0
-149 -533 0
-150 535 0
-534 535 0
-150 -534 0
-151 536 0
-535 536 0
-151 -535 0
-152 537 0
-536 537 0
-152 -536 0
-153 538 0
-537 538 0
-153 -537 0
-154 539 0
-538 539 0
-154 -538 0
-155 540 0
-539 540 0
-155 -539 0
-156 541 0
-540 541 0
-156 -540 0
-157 542 0
-541 542 0
-157 -541 0
-158 543 0
-542 543 0
-158 -542 0
-159 -543 0
3 73 87 160 161 162 163 164 165 166 167 168 169 170 171 0
-3 544 0
-73 545 0
-544 545 0
-73 -544 0
-87 546 0
-545 546 0
-87 -545 0
-160 547 0
-546 547 0
-160 -546 0
-161 548 0
-547 548 0
-161 -547 0
-162 549 0
-548 549 0
-162 -548 0
-163 550 0
-549 550 0
-163 -549 0
-164 551 0
-550 551 0
-164 -550 0
-165 552 0
-551 552 0
-165 -551 0
-166 553 0
-552 553 0
-166 -552 0
-167 554 0
-553 554 0
-167 -553 0
-168 555 0
-554 555 0
-168 -554 0
-169 556 0
-555 556 0
-169 -555 0
-170 557 0
-556 557 0
-170 -556 0
-171 -557 0
18 59 86 172 173 174 175 176 177 178 179 180 181 182 183 0
-18 558 0
-59 559 0
-558 559 0
-59 -558 0
-86 560 0
-559 560 0
-86 -559 0
-172 561 0
-560 561 0
-172 -560 0
-173 562 0
-561 562 0
-173 -561 0
-174 563 0
-562 563 0
-174 -562 0
-175 564 0
-563 564 0
-175 -563 0
-176 565 0
-564 565 0
-176 -564 0
-177 566 0
-565 566 0
-177 -565 0
-178 567 0
-566 567 0
-178 -566 0
-179 568 0
-567 568 0
-179 -567 0
-180 569 0
-568 569 0
-180 -568 0
-181 570 0
-569 570 0
-181 -569 0
-182 571 0
-570 571 0
-182 -570 0
-183 -571 0
33 58 72 184 185 186 187 188 189 190 191 192 193 194 195 0
-33 572 0
-58 573 0
-572 573 0
-58 -572 0
-72 574 0
-573 574 0
-72 -573 0
-184 575 0
-574 575 0
-184 -574 0
-185 576 0
-575 576 0
-185 -575 0
-186 577 0
-576 577 0
-186 -576 0
-187 578 0
-577 578 0
-187 -577 0
-188 579 0
-578 579 0
-188 -578 0
-189 580 0
-579 580 0
-189 -579 0
-190 581 0
-580 581 0
-190 -580 0
-191 582 0
-581 582 0
-191 -581 0
-192 583 0
-582 583 0
-192 -582 0
-193 584 0
-583 584 0
-193 -583 0
-194 585 0
-584 585 0
-194 -584 0
-195 -585 0
4 19 34 46 60 74 88 100 112 124 136 148 160 172 184 0
-4 586 0
-19 587 0
-586 587 0
-19 -586 0
-34 588 0
-587 588 0
-34 -587 0
-46 589 0
-588 589 0
-46 -588 0
-60 590 0
-589 590 0
-60 -589 0
-74 591 0
-590 591 0
-74 -590 0
-88 592 0
-591 592 0
-88 -591 0
-100 593 0
-592 593 0
-100 -592 0
-112 594 0
-593 594 0
-112 -593 0
-124 595 0
-594 595 0
-124 -594 0
-136 596 0
-595 596 0
-136 -595 0
-148 597 0
-596 597 0
-148 -596 0
-160 598 0
-597 598 0
-160 -597 0
-172 599 0
-598 599 0
-172 -598 0
-184 -599 0
4 47 61 101 113 149 161 196 197 198 199 200 201 202 203 0
-4 600 0
-47 601 0
-600 601 0
-47 -600 0
-61 602 0
-601 602 0
-61 -601 0
-101 603 0
-602 603 0
-101 -602 0
-113 604 0
-603 604 0
-113 -603 0
-149 605 0
-604 605 0
-149 -604 0
-161 606 0
-605 606 0
-161 -605 0
-196 607 0
-606 607 0
-196 -606 0
-197 608 0
-607 608 0
-197 -607 0
-198 609 0
-608 609 0
-198 -608 0
-199 610 0
-609 610 0
-199 -609 0
-200 611 0
-610 611 0
-200 -610 0
-201 612 0
-611 612 0
-201 -611 0
-202 613 0
-612 613 0
-202 -612 0
-203 -613 0
19 48 75 102 125 150 173 204 205 206 207 208 209 210 211 0
-19 614 0
-48 615 0
-614 615 0
-48 -614 0
-75 616 0
-615 616 0
-75 -615 0
-102 617 0
-616 617 0
-102 -616 0
-125 618 0
-617 618 0
-125 -617 0
-150 619 0
-618 619 0
-150 -618 0
-173 620 0
-619 620 0
-173 -619 0
-204 621 0
-620 621 0
-204 -620 0
-205 622 0
-621 622 0
-205 -621 0
-206 623 0
-622 623 0
-206 -622 0
-207 624 0
-623 624 0
-207 -623 0
-208 625 0
-624 625 0
-208 -624 0
-209 626 0
-625 626 0
-209 -625 0
-210 627 0
-626 627 0
-210 -626 0
-211 -627 0
34 49 89 103 137 151 185 212 213 214 215 216 217 218 219 0
-34 628 0
-49 629 0
-628 629 0
-49 -628 0
-89 630 0
-629 630 0
-89 -629 0
-103 631 0
-630 631 0
-103 -630 0
-137 632 0
-631 632 0
-137 -631 0
-151 633 0
-632 633 0
-151 -632 0
-185 634 0
-633 634 0
-185 -633 0
-212 635 0
-634 635 0
-212 -634 0
-213 636 0
-635 636 0
-213 -635 0
-214 637 0
-636 637 0
-214 -636 0
-215 638 0
-637 638 0
-215 -637 0
-216 639 0
-638 639 0
-216 -638 0
-217 640 0
-639 640 0
-217 -639 0
-218 641 0
-640 641 0
-218 -640 0
-219 -641 0
5 20 35 46 61 75 89 220 221 222 223 224 225 226 227 0
-5 642 0
-20 643 0
-642 643 0
-20 -642 0
-35 644 0
-643 644 0
-35 -643 0
-46 645 0
-644 645 0
-46 -644 0
-61 646 0
-645 646 0
-61 -645 0
-75 647 0
-646 647 0
-75 -646 0
-89 648 0
-647 648 0
-89 -647 0
-220 649 0
-648 649 0
-220 -648 0
-221 650 0
-649 650 0
-221 -649 0
-222 651 0
-650 651 0
-222 -650 0
-223 652 0
-651 652 0
-223 -651 0
-224 653 0
-652 653 0
-224 -652 0
-225 654 0
-653 654 0
-225 -653 0
-226 655 0
-654 655 0
-226 -654 0
-227 -655 0
5 47 60 126 138 174 186 228 229 230 231 232 233 234 235 0
-5 656 0
-47 657 0
-656 657 0
-47 -656 0
-60 658 0
-657 658 0
-60 -657 0
-126 659 0
-658 659 0
-126 -658 0
-138 660 0
-659 660 0
-138 -659 0
-174 661 0
-660 661 0
-174 -660 0
-186 662 0
-661 662 0
-186 -661 0
-228 663 0
-662 663 0
-228 -662 0
-229 664 0
-663 664 0
-229 -663 0
-230 665 0
-664 665 0
-230 -664 0
-231 666 0
-665 666 0
-231 -665 0
-232 667 0
-666 667 0
-232 -666 0
-233 668 0
-667 668 0
-233 -667 0
-234 669 0
-668 669 0
-234 -668 0
-235 -669 0
20 48 74 114 139 162 187 236 237 238 239 240 241 242 243 0
-20 670 0
-48 671 0
-670 671 0
-48 -670 0
-74 672 0
-671 672 0
-74 -671 0
-114 673 0
-672 673 0
-114 -672 0
-139 674 0
-673 674 0
-139 -673 0
-162 675 0
-674 675 0
-162 -674 0
-187 676 0
-675 676 0
-187 -675 0
-236 677 0
-676 677 0
-236 -676 0
-237 678 0
-677 678 0
-237 -677 0
-238 679 0
-678 679 0
-238 -678 0
-239 680 0
-679 680 0
-239 -679 0
-240 681 0
-680 681 0
-240 -680 0
-241 682 0
-681 682 0
-241 -681 0
-242 683 0
-682 683 0
-242 -682 0
-243 -683 0
35 49 88 115 127 163 175 244 245 246 247 248 249 250 251 0
-35 684 0
-49 685 0
-684 685 0
-49 -684 0
-88 686 0
-685 686 0
-88 -685 0
-115 687 0
-686 687 0
-115 -686 0
-127 688 0
-687 688 0
-127 -687 0
-163 689 0
-688 689 0
-163 -688 0
-175 690 0
-689 690 0
-175 -689 0
-244 691 0
-690 691 0
-244 -690 0
-245 692 0
-691 692 0
-245 -691 0
-246 693 0
-692 693 0
-246 -692 0
-247 694 0
-693 694 0
-247 -693 0
-248 695 0
-694 695 0
-248 -694 0
-249 696 0
-695 696 0
-249 -695 0
-250 697 0
-696 697 0
-250 -696 0
-251 -697 0
6 21 36 100 113 125 137 252 253 254 255 256 257 258 259 0
-6 698 0
-21 699 0
-698 699 0
-21 -698 0
-36 700 0
-699 700 0
-36 -699 0
-100 701 0
-700 701 0
-100 -700 0
-113 702 0
-701 702 0
-113 -701 0
-125 703 0
-702 703 0
-125 -702 0
-137 704 0
-703 704 0
-137 -703 0
-252 705 0
-704 705 0
-252 -704 0
-253 706 0
-705 706 0
-253 -705 0
-254 707 0
-706 707 0
-254 -706 0
-255 708 0
-707 708 0
-255 -707 0
-256 709 0
-708 709 0
-256 -708 0
-257 710 0
-709 710 0
-257 -709 0
-258 711 0
-710 711 0
-258 -710 0
-259 -711 0
6 76 90 101 112 175 187 260 261 262 263 264 265 266 267 0
-6 712 0
-76 713 0
-712 713 0
-76 -712 0
-90 714 0
-713 714 0
-90 -713 0
-101 715 0
-714 715 0
-101 -714 0
-112 716 0
-715 716 0
-112 -715 0
-175 717 0
-716 717 0
-175 -716 0
-187 718 0
-717 718 0
-187 -717 0
-260 719 0
-718 719 0
-260 -718 0
-261 720 0
-719 720 0
-261 -719 0
-262 721 0
-720 721 0
-262 -720 0
-263 722 0
-721 722 0
-263 -721 0
-264 723 0
-722 723 0
-264 -722 0
-265 724 0
-723 724 0
-265 -723 0
-266 725 0
-724 725 0
-266 -724 0
-267 -725 0
21 62 91 102 124 163 186 268 269 270 271 272 273 274 275 0
-21 726 0
-62 727 0
-726 727 0
-62 -726 0
-91 728 0
-727 728 0
-91 -727 0
-102 729 0
-728 729 0
-102 -728 0
-124 730 0
-729 730 0
-124 -729 0
-163 731 0
-730 731 0
-163 -730 0
-186 732 0
-731 732 0
-186 -731 0
-268 733 0
-732 733 0
-268 -732 0
-269 734 0
-733 734 0
-269 -733 0
-270 735 0
-734 735 0
-270 -734 0
-271 736 0
-735 736 0
-271 -735 0
-272 737 0
-736 737 0
-272 -736 0
-273 738 0
-737 738 0
-273 -737 0
-274 739 0
-738 739 0
-274 -738 0
-275 -739 0
36 63 77 103 136 162 174 276 277 278 279 280 281 282 283 0
-36 740 0
-63 741 0
-740 741 0
-63 -740 0
-77 742 0
-741 742 0
-77 -741 0
-103 743 0
-742 743 0
-103 -742 0
-136 744 0
-743 744 0
-136 -743 0
-162 745 0
-744 745 0
-162 -744 0
-174 746 0
-745 746 0
-174 -745 0
-276 747 0
-746 747 0
-276 -746 0
-277 748 0
-747 748 0
-277 -747 0
-278 749 0
-748 749 0
-278 -748 0
-279 750 0
-749 750 0
-279 -749 0
-280 751 0
-750 751 0
-280 -750 0
-281 752 0
-751 752 0
-281 -751 0
-282 753 0
-752 753 0
-282 -752 0
-283 -753 0
7 22 37 148 161 173 185 284 285 286 287 288 289 290 291 0
-7 754 0
-22 755 0
-754 755 0
-22 -754 0
-37 756 0
-755 756 0
-37 -755 0
-148 757 0
-756 757 0
-148 -756 0
-161 758 0
-757 758 0
-161 -757 0
-173 759 0
-758 759 0
-173 -758 0
-185 760 0
-759 760 0
-185 -759 0
-284 761 0
-760 761 0
-284 -760 0
-285 762 0
-761 762 0
-285 -761 0
-286 763 0
-762 763 0
-286 -762 0
-287 764 0
-763 764 0
-287 -763 0
-288 765 0
-764 765 0
-288 -764 0
-289 766 0
-765 766 0
-289 -765 0
-290 767 0
-766 767 0
-290 -766 0
-291 -767 0
7 77 91 127 139 149 160 292 293 294 295 296 297 298 299 0
-7 768 0
-77 769 0
-768 769 0
-77 -768 0
-91 770 0
-769 770 0
-91 -769 0
-127 771 0
-770 771 0
-127 -770 0
-139 772 0
-771 772 0
-139 -771 0
-149 773 0
-772 773 0
-149 -772 0
-160 774 0
-773 774 0
-160 -773 0
-292 775 0
-774 775 0
-292 -774 0
-293 776 0
-775 776 0
-293 -775 0
-294 777 0
-776 777 0
-294 -776 0
-295 778 0
-777 778 0
-295 -777 0
-296 779 0
-778 779 0
-296 -778 0
-297 780 0
-779 780 0
-297 -779 0
-298 781 0
-780 781 0
-298 -780 0
-299 -781 0
22 63 90 115 138 150 172 300 301 302 303 304 305 306 307 0
-22 782 0
-63 783 0
-782 783 0
-63 -782 0
-90 784 0
-783 784 0
-90 -783 0
-115 785 0
-784 785 0
-115 -784 0
-138 786 0
-785 786 0
-138 -785 0
-150 787 0
-786 787 0
-150 -786 0
-172 788 0
-787 788 0
-172 -787 0
-300 789 0
-788 789 0
-300 -788 0
-301 790 0
-789 790 0
-301 -789 0
-302 791 0
-790 791 0
-302 -790 0
-303 792 0
-791 792 0
-303 -791 0
-304 793 0
-792 793 0
-304 -792 0
-305 794 0
-793 794 0
-305 -793 0
-306 795 0
-794 795 0
-306 -794 0
-307 -795 0
37 62 76 114 126 151 184 308 309 310 311 312 313 314 315 0
-37 796 0
-62 797 0
-796 797 0
-62 -796 0
-76 798 0
-797 798 0
-76 -797 0
-114 799 0
-798 799 0
-114 -798 0
-126 800 0
-799 800 0
-126 -799 0
-151 801 0
-800 801 0
-151 -800 0
-184 802 0
-801 802 0
-184 -801 0
-308 803 0
-802 803 0
-308 -802 0
-309 804 0
-803 804 0
-309 -803 0
-310 805 0
-804 805 0
-310 -804 0
-311 806 0
-805 806 0
-311 -805 0
-312 807 0
-806 807 0
-312 -806 0
-313 808 0
-807 808 0
-313 -807 0
-314 809 0
-808 809 0
-314 -808 0
-315 -809 0
8 23 38 50 64 78 92 104 116 128 140 152 164 176 188 0
-8 810 0
-23 811 0
-810 811 0
-23 -810 0
-38 812 0
-811 812 0
-38 -811 0
-50 813 0
-812 813 0
-50 -812 0
-64 814 0
-813 814 0
-64 -813 0
-78 815 0
-814 815 0
-78 -814 0
-92 816 0
-815 816 0
-92 -815 0
-104 817 0
-816 817 0
-104 -816 0
-116 818 0
-817 818 0
-116 -817 0
-128 819 0
-818 819 0
-128 -818 0
-140 820 0
-819 820 0
-140 -819 0
-152 821 0
-820 821 0
-152 -820 0
-164 822 0
-821 822 0
-164 -821 0
-176 823 0
-822 823 0
-176 -822 0
-188 -823 0
8 51 65 105 117 153 165 204 212 236 244 268 276 300 308 0
-8 824 0
-51 825 0
-824 825 0
-51 -824 0
-65 826 0
-825 826 0
-65 -825 0
-105 827 0
-826 827 0
-105 -826 0
-117 828 0
-827 828 0
-117 -827 0
-153 829 0
-828 829 0
-153 -828 0
-165 830 0
-829 830 0
-165 -829 0
-204 831 0
-830 831 0
-204 -830 0
-212 832 0
-831 832 0
-212 -831 0
-236 833 0
-832 833 0
-236 -832 0
-244 834 0
-833 834 0
-244 -833 0
-268 835 0
-834 835 0
-268 -834 0
-276 836 0
-835 836 0
-276 -835 0
-300 837 0
-836 837 0
-300 -836 0
-308 -837 0
23 52 79 106 129 154 177 196 213 228 245 260 277 292 309 0
-23 838 0
-52 839 0
-838 839 0
-52 -838 0
-79 840 0
-839 840 0
-79 -839 0
-106 841 0
-840 841 0
-106 -840 0
-129 842 0
-841 842 0
-129 -841 0
-154 843 0
-842 843 0
-154 -842 0
-177 844 0
-843 844 0
-177 -843 0
-196 845 0
-844 845 0
-196 -844 0
-213 846 0
-845 846 0
-213 -845 0
-228 847 0
-846 847 0
-228 -846 0
-245 848 0
-847 848 0
-245 -847 0
-260 849 0
-848 849 0
-260 -848 0
-277 850 0
-849 850 0
-277 -849 0
-292 851 0
-850 851 0
-292 -850 0
-309 -851 0
38 53 93 107 141 155 189 197 205 229 237 261 269 293 301 0
-38 852 0
-53 853 0
-852 853 0
-53 -852 0
-93 854 0
-853 854 0
-93 -853 0
-107 855 0
-854 855 0
-107 -854 0
-141 856 0
-855 856 0
-141 -855 0
-155 857 0
-856 857 0
-155 -856 0
-189 858 0
-857 858 0
-189 -857 0
-197 859 0
-858 859 0
-197 -858 0
-205 860 0
-859 860 0
-205 -859 0
-229 861 0
-860 861 0
-229 -860 0
-237 862 0
-861 862 0
-237 -861 0
-261 863 0
-862 863 0
-261 -862 0
-269 864 0
-863 864 0
-269 -863 0
-293 865 0
-864 865 0
-293 -864 0
-301 -865 0
9 24 39 50 65 79 93 252 262 270 278 284 294 302 310 0
-9 866 0
-24 867 0
-866 867 0
-24 -866 0
-39 868 0
-867 868 0
-39 -867 0
-50 869 0
-868 869 0
-50 -868 0
-65 870 0
-869 870 0
-65 -869 0
-79 871 0
-870 871 0
-79 -870 0
-93 872 0
-871 872 0
-93 -871 0
-252 873 0
-872 873 0
-252 -872 0
-262 874 0
-873 874 0
-262 -873 0
-270 875 0
-874 875 0
-270 -874 0
-278 876 0
-875 876 0
-278 -875 0
-284 877 0
-876 877 0
-284 -876 0
-294 878 0
-877 878 0
-294 -877 0
-302 879 0
-878 879 0
-302 -878 0
-310 -879 0
9 51 64 130 142 178 190 206 214 238 246 253 263 285 295 0
-9 880 0
-51 881 0
-880 881 0
-51 -880 0
-64 882 0
-881 882 0
-64 -881 0
-130 883 0
-882 883 0
-130 -882 0
-142 884 0
-883 884 0
-142 -883 0
-178 885 0
-884 885 0
-178 -884 0
-190 886 0
-885 886 0
-190 -885 0
-206 887 0
-886 887 0
-206 -886 0
-214 888 0
-887 888 0
-214 -887 0
-238 889 0
-888 889 0
-238 -888 0
-246 890 0
-889 890 0
-246 -889 0
-253 891 0
-890 891 0
-253 -890 0
-263 892 0
-891 892 0
-263 -891 0
-285 893 0
-892 893 0
-285 -892 0
-295 -893 0
24 52 78 118 143 166 191 198 215 230 247 254 271 286 303 0
-24 894 0
-52 895 0
-894 895 0
-52 -894 0
-78 896 0
-895 896 0
-78 -895 0
-118 897 0
-896 897 0
-118 -896 0
-143 898 0
-897 898 0
-143 -897 0
-166 899 0
-898 899 0
-166 -898 0
-191 900 0
-899 900 0
-191 -899 0
-198 901 0
-900 901 0
-198 -900 0
-215 902 0
-901 902 0
-215 -901 0
-230 903 0
-902 903 0
-230 -902 0
-247 904 0
-903 904 0
-247 -903 0
-254 905 0
-904 905 0
-254 -904 0
-271 906 0
-905 906 0
-271 -905 0
-286 907 0
-906 907 0
-286 -906 0
-303 -907 0
39 53 92 119 131 167 179 199 207 231 239 255 279 287 311 0
-39 908 0
-53 909 0
-908 909 0
-53 -908 0
-92 910 0
-909 910 0
-92 -909 0
-119 911 0
-910 911 0
-119 -910 0
-131 912 0
-911 912 0
-131 -911 0
-167 913 0
-912 913 0
-167 -912 0
-179 914 0
-913 914 0
-179 -913 0
-199 915 0
-914 915 0
-199 -914 0
-207 916 0
-915 916 0
-207 -915 0
-231 917 0
-916 917 0
-231 -916 0
-239 918 0
-917 918 0
-239 -917 0
-255 919 0
-918 919 0
-255 -918 0
-279 920 0
-919 920 0
-279 -919 0
-287 921 0
-920 921 0
-287 -920 0
-311 -921 0
10 25 40 104 117 129 141 220 232 240 248 288 296 304 312 0
-10 922 0
-25 923 0
-922 923 0
-25 -922 0
-40 924 0
-923 924 0
-40 -923 0
-104 925 0
-924 925 0
-104 -924 0
-117 926 0
-925 926 0
-117 -925 0
-129 927 0
-926 927 0
-129 -926 0
-141 928 0
-927 928 0
-141 -927 0
-220 929 0
-928 929 0
-220 -928 0
-232 930 0
-929 930 0
-232 -929 0
-240 931 0
-930 931 0
-240 -930 0
-248 932 0
-931 932 0
-248 -931 0
-288 933 0
-932 933 0
-288 -932 0
-296 934 0
-933 934 0
-296 -933 0
-304 935 0
-934 935 0
-304 -934 0
-312 -935 0
10 80 94 105 116 179 191 208 216 221 233 272 280 289 297 0
-10 936 0
-80 937 0
-936 937 0
-80 -936 0
-94 938 0
-937 938 0
-94 -937 0
-105 939 0
-938 939 0
-105 -938 0
-116 940 0
-939 940 0
-116 -939 0
-179 941 0
-940 941 0
-179 -940 0
-191 942 0
-941 942 0
-191 -941 0
-208 943 0
-942 943 0
-208 -942 0
-216 944 0
-943 944 0
-216 -943 0
-221 945 0
-944 945 0
-221 -944 0
-233 946 0
-945 946 0
-233 -945 0
-272 947 0
-946 947 0
-272 -946 0
-280 948 0
-947 948 0
-280 -947 0
-289 949 0
-948 949 0
-289 -948 0
-297 -949 0
25 66 95 106 128 167 190 200 217 222 241 264 281 290 305 0
-25 950 0
-66 951 0
-950 951 0
-66 -950 0
-95 952 0
-951 952 0
-95 -951 0
-106 953 0
-952 953 0
-106 -952 0
-128 954 0
-953 954 0
-128 -953 0
-167 955 0
-954 955 0
-167 -954 0
-190 956 0
-955 956 0
-190 -955 0
-200 957 0
-956 957 0
-200 -956 0
-217 958 0
-957 958 0
-217 -957 0
-222 959 0
-958 959 0
-222 -958 0
-241 960 0
-959 960 0
-241 -959 0
-264 961 0
-960 961 0
-264 -960 0
-281 962 0
-961 962 0
-281 -961 0
-290 963 0
-962 963 0
-290 -962 0
-305 -963 0
40 67 81 107 140 166 178 201 209 223 249 265 273 291 313 0
-40 964 0
-67 965 0
-964 965 0
-67 -964 0
-81 966 0
-965 966 0
-81 -965 0
-107 967 0
-966 967 0
-107 -966 0
-140 968 0
-967 968 0
-140 -967 0
-166 969 0
-968 969 0
-166 -968 0
-178 970 0
-969 970 0
-178 -969 0
-201 971 0
-970 971 0
-201 -970 0
-209 972 0
-971 972 0
-209 -971 0
-223 973 0
-972 973 0
-223 -972 0
-249 974 0
-973 974 0
-249 -973 0
-265 975 0
-974 975 0
-265 -974 0
-273 976 0
-975 976 0
-273 -975 0
-291 977 0
-976 977 0
-291 -976 0
-313 -977 0
11 26 41 152 165 177 189 224 234 242 250 256 266 274 282 0
-11 978 0
-26 979 0
-978 979 0
-26 -978 0
-41 980 0
-979 980 0
-41 -979 0
-152 981 0
-980 981 0
-152 -980 0
-165 982 0
-981 982 0
-165 -981 0
-177 983 0
-982 983 0
-177 -982 0
-189 984 0
-983 984 0
-189 -983 0
-224 985 0
-984 985 0
-224 -984 0
-234 986 0
-985 986 0
-234 -985 0
-242 987 0
-986 987 0
-242 -986 0
-250 988 0
-987 988 0
-250 -987 0
-256 989 0
-988 989 0
-256 -988 0
-266 990 0
-989 990 0
-266 -989 0
-274 991 0
-990 991 0
-274 -990 0
-282 -991 0
11 81 95 131 143 153 164 210 218 225 235 257 267 306 314 0
-11 992 0
-81 993 0
-992 993 0
-81 -992 0
-95 994 0
-993 994 0
-95 -993 0
-131 995 0
-994 995 0
-131 -994 0
-143 996 0
-995 996 0
-143 -995 0
-153 997 0
-996 997 0
-153 -996 0
-164 998 0
-997 998 0
-164 -997 0
-210 999 0
-998 999 0
-210 -998 0
-218 1000 0
-999 1000 0
-218 -999 0
-225 1001 0
-1000 1001 0
-225 -1000 0
-235 1002 0
-1001 1002 0
-235 -1001 0
-257 1003 0
-1002 1003 0
-257 -1002 0
-267 1004 0
-1003 1004 0
-267 -1003 0
-306 1005 0
-1004 1005 0
-306 -1004 0
-314 -1005 0
26 67 94 119 142 154 176 202 219 226 243 258 275 298 315 0
-26 1006 0
-67 1007 0
-1006 1007 0
-67 -1006 0
-94 1008 0
-1007 1008 0
-94 -1007 0
-119 1009 0
-1008 1009 0
-119 -1008 0
-142 1010 0
-1009 1010 0
-142 -1009 0
-154 1011 0
-1010 1011 0
-154 -1010 0
-176 1012 0
-1011 1012 0
-176 -1011 0
-202 1013 0
-1012 1013 0
-202 -1012 0
-219 1014 0
-1013 1014 0
-219 -1013 0
-226 1015 0
-1014 1015 0
-226 -1014 0
-243 1016 0
-1015 1016 0
-243 -1015 0
-258 1017 0
-1016 1017 0
-258 -1016 0
-275 1018 0
-1017 1018 0
-275 -1017 0
-298 1019 0
-1018 1019 0
-298 -1018 0
-315 -1019 0
41 66 80 118 130 155 188 203 211 227 251 259 283 299 307 0
-41 1020 0
-66 1021 0
-1020 1021 0
-66 -1020 0
-80 1022 0
-1021 1022 0
-80 -1021 0
-118 1023 0
-1022 1023 0
-118 -1022 0
-130 1024 0
-1023 1024 0
-130 -1023 0
-155 1025 0
-1024 1025 0
-155 -1024 0
-188 1026 0
-1025 1026 0
-188 -1025 0
-203 1027 0
-1026 1027 0
-203 -1026 0
-211 1028 0
-1027 1028 0
-211 -1027 0
-227 1029 0
-1028 1029 0
-227 -1028 0
-251 1030 0
-1029 1030 0
-251 -1029 0
-259 1031 0
-1030 1031 0
-259 -1030 0
-283 1032 0
-1031 1032 0
-283 -1031 0
-299 1033 0
-1032 1033 0
-299 -1032 0
-307 -1033 0
12 27 42 54 68 82 96 108 120 132 144 156 168 180 192 0
-12 1034 0
-27 1035 0
-1034 1035 0
-27 -1034 0
-42 1036 0
-1035 1036 0
-42 -1035 0
-54 1037 0
-1036 1037 0
-54 -1036 0
-68 1038 0
-1037 1038 0
-68 -1037 0
-82 1039 0
-1038 1039 0
-82 -1038 0
-96 1040 0
-1039 1040 0
-96 -1039 0
-108 1041 0
-1040 1041 0
-108 -1040 0
-120 1042 0
-1041 1042 0
-120 -1041 0
-132 1043 0
-1042 1043 0
-132 -1042 0
-144 1044 0
-1043 1044 0
-144 -1043 0
-156 1045 0
-1044 1045 0
-156 -1044 0
-168 1046 0
-1045 1046 0
-168 -1045 0
-180 1047 0
-1046 1047 0
-180 -1046 0
-192 -1047 0
12 55 69 109 121 157 169 205 213 239 247 273 281 307 315 0
-12 1048 0
-55 1049 0
-1048 1049 0
-55 -1048 0
-69 1050 0
-1049 1050 0
-69 -1049 0
-109 1051 0
-1050 1051 0
-109 -1050 0
-121 1052 0
-1051 1052 0
-121 -1051 0
-157 1053 0
-1052 1053 0
-157 -1052 0
-169 1054 0
-1053 1054 0
-169 -1053 0
-205 1055 0
-1054 1055 0
-205 -1054 0
-213 1056 0
-1055 1056 0
-213 -1055 0
-239 1057 0
-1056 1057 0
-239 -1056 0
-247 1058 0
-1057 1058 0
-247 -1057 0
-273 1059 0
-1058 1059 0
-273 -1058 0
-281 1060 0
-1059 1060 0
-281 -1059 0
-307 1061 0
-1060 1061 0
-307 -1060 0
-315 -1061 0
27 56 83 110 133 158 181 197 212 231 246 265 280 299 314 0
-27 1062 0
-56 1063 0
-1062 1063 0
-56 -1062 0
-83 1064 0
-1063 1064 0
-83 -1063 0
-110 1065 0
-1064 1065 0
-110 -1064 0
-133 1066 0
-1065 1066 0
-133 -1065 0
-158 1067 0
-1066 1067 0
-158 -1066 0
-181 1068 0
-1067 1068 0
-181 -1067 0
-197 1069 0
-1068 1069 0
-197 -1068 0
-212 1070 0
-1069 1070 0
-212 -1069 0
-231 1071 0
-1070 1071 0
-231 -1070 0
-246 1072 0
-1071 1072 0
-246 -1071 0
-265 1073 0
-1072 1073 0
-265 -1072 0
-280 1074 0
-1073 1074 0
-280 -1073 0
-299 1075 0
-1074 1075 0
-299 -1074 0
-314 -1075 0
42 57 97 111 145 159 193 196 204 230 238 264 272 298 306 0
-42 1076 0
-57 1077 0
-1076 1077 0
-57 -1076 0
-97 1078 0
-1077 1078 0
-97 -1077 0
-111 1079 0
-1078 1079 0
-111 -1078 0
-145 1080 0
-1079 1080 0
-145 -1079 0
-159 1081 0
-1080 1081 0
-159 -1080 0
-193 1082 0
-1081 1082 0
-193 -1081 0
-196 1083 0
-1082 1083 0
-196 -1082 0
-204 1084 0
-1083 1084 0
-204 -1083 0
-230 1085 0
-1084 1085 0
-230 -1084 0
-238 1086 0
-1085 1086 0
-238 -1085 0
-264 1087 0
-1086 1087 0
-264 -1086 0
-272 1088 0
-1087 1088 0
-272 -1087 0
-298 1089 0
-1088 1089 0
-298 -1088 0
-306 -1089 0
13 28 43 54 69 83 97 256 267 275 283 288 297 305 313 0
-13 1090 0
-28 1091 0
-1090 1091 0
-28 -1090 0
-43 1092 0
-1091 1092 0
-43 -1091 0
-54 1093 0
-1092 1093 0
-54 -1092 0
-69 1094 0
-1093 1094 0
-69 -1093 0
-83 1095 0
-1094 1095 0
-83 -1094 0
-97 1096 0
-1095 1096 0
-97 -1095 0
-256 1097 0
-1096 1097 0
-256 -1096 0
-267 1098 0
-1097 1098 0
-267 -1097 0
-275 1099 0
-1098 1099 0
-275 -1098 0
-283 1100 0
-1099 1100 0
-283 -1099 0
-288 1101 0
-1100 1101 0
-288 -1100 0
-297 1102 0
-1101 1102 0
-297 -1101 0
-305 1103 0
-1102 1103 0
-305 -1102 0
-313 -1103 0
13 55 68 134 146 182 194 207 215 237 245 257 266 289 296 0
-13 1104 0
-55 1105 0
-1104 1105 0
-55 -1104 0
-68 1106 0
-1105 1106 0
-68 -1105 0
-134 1107 0
-1106 1107 0
-134 -1106 0
-146 1108 0
-1107 1108 0
-146 -1107 0
-182 1109 0
-1108 1109 0
-182 -1108 0
-194 1110 0
-1109 1110 0
-194 -1109 0
-207 1111 0
-1110 1111 0
-207 -1110 0
-215 1112 0
-1111 1112 0
-215 -1111 0
-237 1113 0
-1112 1113 0
-237 -1112 0
-245 1114 0
-1113 1114 0
-245 -1113 0
-257 1115 0
-1114 1115 0
-257 -1114 0
-266 1116 0
-1115 1116 0
-266 -1115 0
-289 1117 0
-1116 1117 0
-289 -1116 0
-296 -1117 0
28 56 82 122 147 170 195 199 214 229 244 258 274 290 304 0
-28 1118 0
-56 1119 0
-1118 1119 0
-56 -1118 0
-82 1120 0
-1119 1120 0
-82 -1119 0
-122 1121 0
-1120 1121 0
-122 -1120 0
-147 1122 0
-1121 1122 0
-147 -1121 0
-170 1123 0
-1122 1123 0
-170 -1122 0
-195 1124 0
-1123 1124 0
-195 -1123 0
-199 1125 0
-1124 1125 0
-199 -1124 0
-214 1126 0
-1125 1126 0
-214 -1125 0
-229 1127 0
-1126 1127 0
-229 -1126 0
-244 1128 0
-1127 1128 0
-244 -1127 0
-258 1129 0
-1128 1129 0
-258 -1128 0
-274 1130 0
-1129 1130 0
-274 -1129 0
-290 1131 0
-1130 1131 0
-290 -1130 0
-304 -1131 0
43 57 96 123 135 171 183 198 206 228 236 259 282 291 312 0
-43 1132 0
-57 1133 0
-1132 1133 0
-57 -1132 0
-96 1134 0
-1133 1134 0
-96 -1133 0
-123 1135 0
-1134 1135 0
-123 -1134 0
-135 1136 0
-1135 1136 0
-135 -1135 0
-171 1137 0
-1136 1137 0
-171 -1136 0
-183 1138 0
-1137 1138 0
-183 -1137 0
-198 1139 0
-1138 1139 0
-198 -1138 0
-206 1140 0
-1139 1140 0
-206 -1139 0
-228 1141 0
-1140 1141 0
-228 -1140 0
-236 1142 0
-1141 1142 0
-236 -1141 0
-259 1143 0
-1142 1143 0
-259 -1142 0
-282 1144 0
-1143 1144 0
-282 -1143 0
-291 1145 0
-1144 1145 0
-291 -1144 0
-312 -1145 0
14 29 44 108 121 133 145 224 235 243 251 284 295 303 311 0
-14 1146 0
-29 1147 0
-1146 1147 0
-29 -1146 0
-44 1148 0
-1147 1148 0
-44 -1147 0
-108 1149 0
-1148 1149 0
-108 -1148 0
-121 1150 0
-1149 1150 0
-121 -1149 0
-133 1151 0
-1150 1151 0
-133 -1150 0
-145 1152 0
-1151 1152 0
-145 -1151 0
-224 1153 0
-1152 1153 0
-224 -1152 0
-235 1154 0
-1153 1154 0
-235 -1153 0
-243 1155 0
-1154 1155 0
-243 -1154 0
-251 1156 0
-1155 1156 0
-251 -1155 0
-284 1157 0
-1156 1157 0
-284 -1156 0
-295 1158 0
-1157 1158 0
-295 -1157 0
-303 1159 0
-1158 1159 0
-303 -1158 0
-311 -1159 0
14 84 98 109 120 183 195 209 217 225 234 269 277 285 294 0
-14 1160 0
-84 1161 0
-1160 1161 0
-84 -1160 0
-98 1162 0
-1161 1162 0
-98 -1161 0
-109 1163 0
-1162 1163 0
-109 -1162 0
-120 1164 0
-1163 1164 0
-120 -1163 0
-183 1165 0
-1164 1165 0
-183 -1164 0
-195 1166 0
-1165 1166 0
-195 -1165 0
-209 1167 0
-1166 1167 0
-209 -1166 0
-217 1168 0
-1167 1168 0
-217 -1167 0
-225 1169 0
-1168 1169 0
-225 -1168 0
-234 1170 0
-1169 1170 0
-234 -1169 0
-269 1171 0
-1170 1171 0
-269 -1170 0
-277 1172 0
-1171 1172 0
-277 -1171 0
-285 1173 0
-1172 1173 0
-285 -1172 0
-294 -1173 0
29 70 99 110 132 171 194 201 216 226 242 261 276 286 302 0
-29 1174 0
-70 1175 0
-1174 1175 0
-70 -1174 0
-99 1176 0
-1175 1176 0
-99 -1175 0
-110 1177 0
-1176 1177 0
-110 -1176 0
-132 1178 0
-1177 1178 0
-132 -1177 0
-171 1179 0
-1178 1179 0
-171 -1178 0
-194 1180 0
-1179 1180 0
-194 -1179 0
-201 1181 0
-1180 1181 0
-201 -1180 0
-216 1182 0
-1181 1182 0
-216 -1181 0
-226 1183 0
-1182 1183 0
-226 -1182 0
-242 1184 0
-1183 1184 0
-242 -1183 0
-261 1185 0
-1184 1185 0
-261 -1184 0
-276 1186 0
-1185 1186 0
-276 -1185 0
-286 1187 0
-1186 1187 0
-286 -1186 0
-302 -1187 0
44 71 85 111 144 170 182 200 208 227 250 260 268 287 310 0
-44 1188 0
-71 1189 0
-1188 1189 0
-71 -1188 0
-85 1190 0
-1189 1190 0
-85 -1189 0
-111 1191 0
-1190 1191 0
-111 -1190 0
-144 1192 0
-1191 1192 0
-144 -1191 0
-170 1193 0
-1192 1193 0
-170 -1192 0
-182 1194 0
-1193 1194 0
-182 -1193 0
-200 1195 0
-1194 1195 0
-200 -1194 0
-208 1196 0
-1195 1196 0
-208 -1195 0
-227 1197 0
-1196 1197 0
-227 -1196 0
-250 1198 0
-1197 1198 0
-250 -1197 0
-260 1199 0
-1198 1199 0
-260 -1198 0
-268 1200 0
-1199 1200 0
-268 -1199 0
-287 1201 0
-1200 1201 0
-287 -1200 0
-310 -1201 0
15 30 45 156 169 181 193 220 233 241 249 252 263 271 279 0
-15 1202 0
-30 1203 0
-1202 1203 0
-30 -1202 0
-45 1204 0
-1203 1204 0
-45 -1203 0
-156 1205 0
-1204 1205 0
-156 -1204 0
-169 1206 0
-1205 1206 0
-169 -1205 0
-181 1207 0
-1206 1207 0
-181 -1206 0
-193 1208 0
-1207 1208 0
-193 -1207 0
-220 1209 0
-1208 1209 0
-220 -1208 0
-233 1210 0
-1209 1210 0
-233 -1209 0
-241 1211 0
-1210 1211 0
-241 -1210 0
-249 1212 0
-1211 1212 0
-249 -1211 0
-252 1213 0
-1212 1213 0
-252 -1212 0
-263 1214 0
-1213 1214 0
-263 -1213 0
-271 1215 0
-1214 1215 0
-271 -1214 0
-279 -1215 0
15 85 99 135 147 157 168 211 219 221 232 253 262 301 309 0
-15 1216 0
-85 1217 0
-1216 1217 0
-85 -1216 0
-99 1218 0
-1217 1218 0
-99 -1217 0
-135 1219 0
-1218 1219 0
-135 -1218 0
-147 1220 0
-1219 1220 0
-147 -1219 0
-157 1221 0
-1220 1221 0
-157 -1220 0
-168 1222 0
-1221 1222 0
-168 -1221 0
-211 1223 0
-1222 1223 0
-211 -1222 0
-219 1224 0
-1223 1224 0
-219 -1223 0
-221 1225 0
-1224 1225 0
-221 -1224 0
-232 1226 0
-1225 1226 0
-232 -1225 0
-253 1227 0
-1226 1227 0
-253 -1226 0
-262 1228 0
-1227 1228 0
-262 -1227 0
-301 1229 0
-1228 1229 0
-301 -1228 0
-309 -1229 0
30 71 98 123 146 158 180 203 218 222 240 254 270 293 308 0
-30 1230 0
-71 1231 0
-1230 1231 0
-71 -1230 0
-98 1232 0
-1231 1232 0
-98 -1231 0
-123 1233 0
-1232 1233 0
-123 -1232 0
-146 1234 0
-1233 1234 0
-146 -1233 0
-158 1235 0
-1234 1235 0
-158 -1234 0
-180 1236 0
-1235 1236 0
-180 -1235 0
-203 1237 0
-1236 1237 0
-203 -1236 0
-218 1238 0
-1237 1238 0
-218 -1237 0
-222 1239 0
-1238 1239 0
-222 -1238 0
-240 1240 0
-1239 1240 0
-240 -1239 0
-254 1241 0
-1240 1241 0
-254 -1240 0
-270 1242 0
-1241 1242 0
-270 -1241 0
-293 1243 0
-1242 1243 0
-293 -1242 0
-308 -1243 0
45 70 84 122 134 159 192 202 210 223 248 255 278 292 300 0
-45 1244 0
-70 1245 0
-1244 1245 0
-70 -1244 0
-84 1246 0
-1245 1246 0
-84 -1245 0
-122 1247 0
-1246 1247 0
-122 -1246 0
-134 1248 0
-1247 1248 0
-134 -1247 0
-159 1249 0
-1248 1249 0
-159 -1248 0
-192 1250 0
-1249 1250 0
-192 -1249 0
-202 1251 0
-1250 1251 0
-202 -1250 0
-210 1252 0
-1251 1252 0
-210 -1251 0
-223 1253 0
-1252 1253 0
-223 -1252 0
-248 1254 0
-1253 1254 0
-248 -1253 0
-255 1255 0
-1254 1255 0
-255 -1254 0
-278 1256 0
-1255 1256 0
-278 -1255 0
-292 1257 0
-1256 1257 0
-292 -1256 0
-300 -1257 0
-1 -317 0
-1 -332 0
-1 -347 0
-1 -362 0
-2 -318 0
-2 -333 0
-2 -348 0
-2 -363 0
-1258 317 318 0
-1258 -317 -318 0
1258 -317 318 0
1258 317 -318 0
-3 -1258 0
-1259 332 333 0
-1259 -332 -333 0
1259 -332 333 0
1259 332 -333 0
-3 -1259 0
-1260 347 348 0
-1260 -347 -348 0
1260 -347 348 0
1260 347 -348 0
-3 -1260 0
-1261 362 363 0
-1261 -362 -363 0
1261 -362 363 0
1261 362 -363 0
-3 -1261 0
-4 -319 0
-4 -334 0
-4 -349 0
-4 -364 0
-1262 317 319 0
-1262 -317 -319 0
1262 -317 319 0
1262 317 -319 0
-5 -1262 0
-1263 332 334 0
-1263 -332 -334 0
1263 -332 334 0
1263 332 -334 0
-5 -1263 0
-1264 347 349 0
-1264 -347 -349 0
1264 -347 349 0
1264 347 -349 0
-5 -1264 0
-1265 362 364 0
-1265 -362 -364 0
1265 -362 364 0
1265 362 -364 0
-5 -1265 0
-1266 318 319 0
-1266 -318 -319 0
1266 -318 319 0
1266 318 -319 0
-6 -1266 0
-1267 333 334 0
-1267 -333 -334 0
1267 -333 334 0
1267 333 -334 0
-6 -1267 0
-1268 348 349 0
-1268 -348 -349 0
1268 -348 349 0
1268 348 -349 0
-6 -1268 0
-1269 363 364 0
-1269 -363 -364 0
1269 -363 364 0
1269 363 -364 0
-6 -1269 0
-1270 317 318 0
-1270 -317 -318 0
1270 -317 318 0
1270 317 -318 0
-1271 1270 319 0
-1271 -1270 -319 0
1271 -1270 319 0
1271 1270 -319 0
-7 -1271 0
-1272 332 333 0
-1272 -332 -333 0
1272 -332 333 0
1272 332 -333 0
-1273 1272 334 0
-1273 -1272 -334 0
1273 -1272 334 0
1273 1272 -334 0
-7 -1273 0
-1274 347 348 0
-1274 -347 -348 0
1274 -347 348 0
1274 347 -348 0
-1275 1274 349 0
-1275 -1274 -349 0
1275 -1274 349 0
1275 1274 -349 0
-7 -1275 0
-1276 362 363 0
-1276 -362 -363 0
1276 -362 363 0
1276 362 -363 0
-1277 1276 364 0
-1277 -1276 -364 0
1277 -1276 364 0
1277 1276 -364 0
-7 -1277 0
-8 -320 0
-8 -335 0
-8 -350 0
-8 -365 0
-1278 317 320 0
-1278 -317 -320 0
1278 -317 320 0
1278 317 -320 0
-9 -1278 0
-1279 332 335 0
-1279 -332 -335 0
1279 -332 335 0
1279 332 -335 0
-9 -1279 0
-1280 347 350 0
-1280 -347 -350 0
1280 -347 350 0
1280 347 -350 0
-9 -1280 0
-1281 362 365 0
-1281 -362 -365 0
1281 -362 365 0
1281 362 -365 0
-9 -1281 0
-1282 318 320 0
-1282 -318 -320 0
1282 -318 320 0
1282 318 -320 0
-10 -1282 0
-1283 333 335 0
-1283 -333 -335 0
1283 -333 335 0
1283 333 -335 0
-10 -1283 0
-1284 348 350 0
-1284 -348 -350 0
1284 -348 350 0
1284 348 -350 0
-10 -1284 0
-1285 363 365 0
-1285 -363 -365 0
1285 -363 365 0
1285 363 -365 0
-10 -1285 0
-1286 317 318 0
-1286 -317 -318 0
1286 -317 318 0
1286 317 -318 0
-1287 1286 320 0
-1287 -1286 -320 0
1287 -1286 320 0
1287 1286 -320 0
-11 -1287 0
-1288 332 333 0
-1288 -332 -333 0
1288 -332 333 0
1288 332 -333 0
-1289 1288 335 0
-1289 -1288 -335 0
1289 -1288 335 0
1289 1288 -335 0
-11 -1289 0
-1290 347 348 0
-1290 -347 -348 0
1290 -347 348 0
1290 347 -348 0
-1291 1290 350 0
-1291 -1290 -350 0
1291 -1290 350 0
1291 1290 -350 0
-11 -1291 0
-1292 362 363 0
-1292 -362 -363 0
1292 -362 363 0
1292 362 -363 0
-1293 1292 365 0
-1293 -1292 -365 0
1293 -1292 365 0
1293 1292 -365 0
-11 -1293 0
-1294 319 320 0
-1294 -319 -320 0
1294 -319 320 0
1294 319 -320 0
-12 -1294 0
-1295 334 335 0
-1295 -334 -335 0
1295 -334 335 0
1295 334 -335 0
-12 -1295 0
-1296 349 350 0
-1296 -349 -350 0
1296 -349 350 0
1296 349 -350 0
-12 -1296 0
-1297 364 365 0
-1297 -364 -365 0
1297 -364 365 0
1297 364 -365 0
-12 -1297 0
-1298 317 319 0
-1298 -317 -319 0
1298 -317 319 0
1298 317 -319 0
-1299 1298 320 0
-1299 -1298 -320 0
1299 -1298 320 0
1299 1298 -320 0
-13 -1299 0
-1300 332 334 0
-1300 -332 -334 0
1300 -332 334 0
1300 332 -334 0
-1301 1300 335 0
-1301 -1300 -335 0
1301 -1300 335 0
1301 1300 -335 0
-13 -1301 0
-1302 347 349 0
-1302 -347 -349 0
1302 -347 349 0
1302 347 -349 0
-1303 1302 350 0
-1303 -1302 -350 0
1303 -1302 350 0
1303 1302 -350 0
-13 -1303 0
-1304 362 364 0
-1304 -362 -364 0
1304 -362 364 0
1304 362 -364 0
-1305 1304 365 0
-1305 -1304 -365 0
1305 -1304 365 0
1305 1304 -365 0
-13 -1305 0
-1306 318 319 0
-1306 -318 -319 0
1306 -318 319 0
1306 318 -319 0
-1307 1306 320 0
-1307 -1306 -320 0
1307 -1306 320 0
1307 1306 -320 0
-14 -1307 0
-1308 333 334 0
-1308 -333 -334 0
1308 -333 334 0
1308 333 -334 0
-1309 1308 335 0
-1309 -1308 -335 0
1309 -1308 335 0
1309 1308 -335 0
-14 -1309 0
-1310 348 349 0
-1310 -348 -349 0
1310 -348 349 0
1310 348 -349 0
-1311 1310 350 0
-1311 -1310 -350 0
1311 -1310 350 0
1311 1310 -350 0
-14 -1311 0
-1312 363 364 0
-1312 -363 -364 0
1312 -363 364 0
1312 363 -364 0
-1313 1312 365 0
-1313 -1312 -365 0
1313 -1312 365 0
1313 1312 -365 0
-14 -1313 0
-1314 317 318 0
-1314 -317 -318 0
1314 -317 318 0
1314 317 -318 0
-1315 1314 319 0
-1315 -1314 -319 0
1315 -1314 319 0
1315 1314 -319 0
-1316 1315 320 0
-1316 -1315 -320 0
1316 -1315 320 0
1316 1315 -320 0
-15 -1316 0
-1317 332 333 0
-1317 -332 -333 0
1317 -332 333 0
1317 332 -333 0
-1318 1317 334 0
-1318 -1317 -334 0
1318 -1317 334 0
1318 1317 -334 0
-1319 1318 335 0
-1319 -1318 -335 0
1319 -1318 335 0
1319 1318 -335 0
-15 -1319 0
-1320 347 348 0
-1320 -347 -348 0
1320 -347 348 0
1320 347 -348 0
-1321 1320 349 0
-1321 -1320 -349 0
1321 -1320 349 0
1321 1320 -349 0
-1322 1321 350 0
-1322 -1321 -350 0
1322 -1321 350 0
1322 1321 -350 0
-15 -1322 0
-1323 362 363 0
-1323 -362 -363 0
1323 -362 363 0
1323 362 -363 0
-1324 1323 364 0
-1324 -1323 -364 0
1324 -1323 364 0
1324 1323 -364 0
-1325 1324 365 0
-1325 -1324 -365 0
1325 -1324 365 0
1325 1324 -365 0
-15 -1325 0
-16 -321 0
-16 -336 0
-16 -351 0
-16 -366 0
-17 -322 0
-17 -337 0
-17 -352 0
-17 -367 0
-1326 321 322 0
-1326 -321 -322 0
1326 -321 322 0
1326 321 -322 0
-18 -1326 0
-1327 336 337 0
-1327 -336 -337 0
1327 -336 337 0
1327 336 -337 0
-18 -1327 0
-1328 351 352 0
-1328 -351 -352 0
1328 -351 352 0
1328 351 -352 0
-18 -1328 0
-1329 366 367 0
-1329 -366 -367 0
1329 -366 367 0
1329 366 -367 0
-18 -1329 0
-19 -323 0
-19 -338 0
-19 -353 0
-19 -368 0
-1330 321 323 0
-1330 -321 -323 0
1330 -321 323 0
1330 321 -323 0
-20 -1330 0
-1331 336 338 0
-1331 -336 -338 0
1331 -336 338 0
1331 336 -338 0
-20 -1331 0
-1332 351 353 0
-1332 -351 -353 0
1332 -351 353 0
1332 351 -353 0
-20 -1332 0
-1333 366 368 0
-1333 -366 -368 0
1333 -366 368 0
1333 366 -368 0
-20 -1333 0
-1334 322 323 0
-1334 -322 -323 0
1334 -322 323 0
1334 322 -323 0
-21 -1334 0
-1335 337 338 0
-1335 -337 -338 0
1335 -337 338 0
1335 337 -338 0
-21 -1335 0
-1336 352 353 0
-1336 -352 -353 0
1336 -352 353 0
1336 352 -353 0
-21 -1336 0
-1337 367 368 0
-1337 -367 -368 0
1337 -367 368 0
1337 367 -368 0
-21 -1337 0
-1338 321 322 0
-1338 -321 -322 0
1338 -321 322 0
1338 321 -322 0
-1339 1338 323 0
-1339 -1338 -323 0
1339 -1338 323 0
1339 1338 -323 0
-22 -1339 0
-1340 336 337 0
-1340 -336 -337 0
1340 -336 337 0
1340 336 -337 0
-1341 1340 338 0
-1341 -1340 -338 0
1341 -1340 338 0
1341 1340 -338 0
-22 -1341 0
-1342 351 352 0
-1342 -351 -352 0
1342 -351 352 0
1342 351 -352 0
-1343 1342 353 0
-1343 -1342 -353 0
1343 -1342 353 0
1343 1342 -353 0
-22 -1343 0
-1344 366 367 0
-1344 -366 -367 0
1344 -366 367 0
1344 366 -367 0
-1345 1344 368 0
-1345 -1344 -368 0
1345 -1344 368 0
1345 1344 -368 0
-22 -1345 0
-23 -324 0
-23 -339 0
-23 -354 0
-23 -369 0
-1346 321 324 0
-1346 -321 -324 0
1346 -321 324 0
1346 321 -324 0
-24 -1346 0
-1347 336 339 0
-1347 -336 -339 0
1347 -336 339 0
1347 336 -339 0
-24 -1347 0
-1348 351 354 0
-1348 -351 -354 0
1348 -351 354 0
1348 351 -354 0
-24 -1348 0
-1349 366 369 0
-1349 -366 -369 0
1349 -366 369 0
1349 366 -369 0
-24 -1349 0
-1350 322 324 0
-1350 -322 -324 0
1350 -322 324 0
1350 322 -324 0
-25 -1350 0
-1351 337 339 0
-1351 -337 -339 0
1351 -337 339 0
1351 337 -339 0
-25 -1351 0
-1352 352 354 0
-1352 -352 -354 0
1352 -352 354 0
1352 352 -354 0
-25 -1352 0
-1353 367 369 0
-1353 -367 -369 0
1353 -367 369 0
1353 367 -369 0
-25 -1353 0
-1354 321 322 0
-1354 -321 -322 0
1354 -321 322 0
1354 321 -322 0
-1355 1354 324 0
-1355 -1354 -324 0
1355 -1354 324 0
1355 1354 -324 0
-26 -1355 0
-1356 336 337 0
-1356 -336 -337 0
1356 -336 337 0
1356 336 -337 0
-1357 1356 339 0
-1357 -1356 -339 0
1357 -1356 339 0
1357 1356 -339 0
-26 -1357 0
-1358 351 352 0
-1358 -351 -352 0
1358 -351 352 0
1358 351 -352 0
-1359 1358 354 0
-1359 -1358 -354 0
1359 -1358 354 0
1359 1358 -354 0
-26 -1359 0
-1360 366 367 0
-1360 -366 -367 0
1360 -366 367 0
1360 366 -367 0
-1361 1360 369 0
-1361 -1360 -369 0
1361 -1360 369 0
1361 1360 -369 0
-26 -1361 0
-1362 323 324 0
-1362 -323 -324 0
1362 -323 324 0
1362 323 -324 0
-27 -1362 0
-1363 338 339 0
-1363 -338 -339 0
1363 -338 339 0
1363 338 -339 0
-27 -1363 0
-1364 353 354 0
-1364 -353 -354 0
1364 -353 354 0
1364 353 -354 0
-27 -1364 0
-1365 368 369 0
-1365 -368 -369 0
1365 -368 369 0
1365 368 -369 0
-27 -1365 0
-1366 321 323 0
-1366 -321 -323 0
1366 -321 323 0
1366 321 -323 0
-1367 1366 324 0
-1367 -1366 -324 0
1367 -1366 324 0
1367 1366 -324 0
-28 -1367 0
-1368 336 338 0
-1368 -336 -338 0
1368 -336 338 0
1368 336 -338 0
-1369 1368 339 0
-1369 -1368 -339 0
1369 -1368 339 0
1369 1368 -339 0
-28 -1369 0
-1370 351 353 0
-1370 -351 -353 0
1370 -351 353 0
1370 351 -353 0
-1371 1370 354 0
-1371 -1370 -354 0
1371 -1370 354 0
1371 1370 -354 0
-28 -1371 0
-1372 366 368 0
-1372 -366 -368 0
1372 -366 368 0
1372 366 -368 0
-1373 1372 369 0
-1373 -1372 -369 0
1373 -1372 369 0
1373 1372 -369 0
-28 -1373 0
-1374 322 323 0
-1374 -322 -323 0
1374 -322 323 0
1374 322 -323 0
-1375 1374 324 0
-1375 -1374 -324 0
1375 -1374 324 0
1375 1374 -324 0
-29 -1375 0
-1376 337 338 0
-1376 -337 -338 0
1376 -337 338 0
1376 337 -338 0
-1377 1376 339 0
-1377 -1376 -339 0
1377 -1376 339 0
1377 1376 -339 0
-29 -1377 0
-1378 352 353 0
-1378 -352 -353 0
1378 -352 353 0
1378 352 -353 0
-1379 1378 354 0
-1379 -1378 -354 0
1379 -1378 354 0
1379 1378 -354 0
-29 -1379 0
-1380 367 368 0
-1380 -367 -368 0
1380 -367 368 0
1380 367 -368 0
-1381 1380 369 0
-1381 -1380 -369 0
1381 -1380 369 0
1381 1380 -369 0
-29 -1381 0
-1382 321 322 0
-1382 -321 -322 0
1382 -321 322 0
1382 321 -322 0
-1383 1382 323 0
-1383 -1382 -323 0
1383 -1382 323 0
1383 1382 -323 0
-1384 1383 324 0
-1384 -1383 -324 0
1384 -1383 324 0
1384 1383 -324 0
-30 -1384 0
-1385 336 337 0
-1385 -336 -337 0
1385 -336 337 0
1385 336 -337 0
-1386 1385 338 0
-1386 -1385 -338 0
1386 -1385 338 0
1386 1385 -338 0
-1387 1386 339 0
-1387 -1386 -339 0
1387 -1386 339 0
1387 1386 -339 0
-30 -1387 0
-1388 351 352 0
-1388 -351 -352 0
1388 -351 352 0
1388 351 -352 0
-1389 1388 353 0
-1389 -1388 -353 0
1389 -1388 353 0
1389 1388 -353 0
-1390 1389 354 0
-1390 -1389 -354 0
1390 -1389 354 0
1390 1389 -354 0
-30 -1390 0
-1391 366 367 0
-1391 -366 -367 0
1391 -366 367 0
1391 366 -367 0
-1392 1391 368 0
-1392 -1391 -368 0
1392 -1391 368 0
1392 1391 -368 0
-1393 1392 369 0
-1393 -1392 -369 0
1393 -1392 369 0
1393 1392 -369 0
-30 -1393 0
-1394 317 321 0
-1394 -317 -321 0
1394 -317 321 0
1394 317 -321 0
-31 -1394 0
-1395 332 336 0
-1395 -332 -336 0
1395 -332 336 0
1395 332 -336 0
-31 -1395 0
-1396 347 351 0
-1396 -347 -351 0
1396 -347 351 0
1396 347 -351 0
-31 -1396 0
-1397 362 366 0
-1397 -362 -366 0
1397 -362 366 0
1397 362 -366 0
-31 -1397 0
-1398 318 322 0
-1398 -318 -322 0
1398 -318 322 0
1398 318 -322 0
-32 -1398 0
-1399 333 337 0
-1399 -333 -337 0
1399 -333 337 0
1399 333 -337 0
-32 -1399 0
-1400 348 352 0
-1400 -348 -352 0
1400 -348 352 0
1400 348 -352 0
-32 -1400 0
-1401 363 367 0
-1401 -363 -367 0
1401 -363 367 0
1401 363 -367 0
-32 -1401 0
-1402 317 318 0
-1402 -317 -318 0
1402 -317 318 0
1402 317 -318 0
-1403 1402 321 0
-1403 -1402 -321 0
1403 -1402 321 0
1403 1402 -321 0
-1404 1403 322 0
-1404 -1403 -322 0
1404 -1403 322 0
1404 1403 -322 0
-33 -1404 0
-1405 332 333 0
-1405 -332 -333 0
1405 -332 333 0
1405 332 -333 0
-1406 1405 336 0
-1406 -1405 -336 0
1406 -1405 336 0
1406 1405 -336 0
-1407 1406 337 0
-1407 -1406 -337 0
1407 -1406 337 0
1407 1406 -337 0
-33 -1407 0
-1408 347 348 0
-1408 -347 -348 0
1408 -347 348 0
1408 347 -348 0
-1409 1408 351 0
-1409 -1408 -351 0
1409 -1408 351 0
1409 1408 -351 0
-1410 1409 352 0
-1410 -1409 -352 0
1410 -1409 352 0
1410 1409 -352 0
-33 -1410 0
-1411 362 363 0
-1411 -362 -363 0
1411 -362 363 0
1411 362 -363 0
-1412 1411 366 0
-1412 -1411 -366 0
1412 -1411 366 0
1412 1411 -366 0
-1413 1412 367 0
-1413 -1412 -367 0
1413 -1412 367 0
1413 1412 -367 0
-33 -1413 0
-1414 319 323 0
-1414 -319 -323 0
1414 -319 323 0
1414 319 -323 0
-34 -1414 0
-1415 334 338 0
-1415 -334 -338 0
1415 -334 338 0
1415 334 -338 0
-34 -1415 0
-1416 349 353 0
-1416 -349 -353 0
1416 -349 353 0
1416 349 -353 0
-34 -1416 0
-1417 364 368 0
-1417 -364 -368 0
1417 -364 368 0
1417 364 -368 0
-34 -1417 0
-1418 317 319 0
-1418 -317 -319 0
1418 -317 319 0
1418 317 -319 0
-1419 1418 321 0
-1419 -1418 -321 0
1419 -1418 321 0
1419 1418 -321 0
-1420 1419 323 0
-1420 -1419 -323 0
1420 -1419 323 0
1420 1419 -323 0
-35 -1420 0
-1421 332 334 0
-1421 -332 -334 0
1421 -332 334 0
1421 332 -334 0
-1422 1421 336 0
-1422 -1421 -336 0
1422 -1421 336 0
1422 1421 -336 0
-1423 1422 338 0
-1423 -1422 -338 0
1423 -1422 338 0
1423 1422 -338 0
-35 -1423 0
-1424 347 349 0
-1424 -347 -349 0
1424 -347 349 0
1424 347 -349 0
-1425 1424 351 0
-1425 -1424 -351 0
1425 -1424 351 0
1425 1424 -351 0
-1426 1425 353 0
-1426 -1425 -353 0
1426 -1425 353 0
1426 1425 -353 0
-35 -1426 0
-1427 362 364 0
-1427 -362 -364 0
1427 -362 364 0
1427 362 -364 0
-1428 1427 366 0
-1428 -1427 -366 0
1428 -1427 366 0
1428 1427 -366 0
-1429 1428 368 0
-1429 -1428 -368 0
1429 -1428 368 0
1429 1428 -368 0
-35 -1429 0
-1430 318 319 0
-1430 -318 -319 0
1430 -318 319 0
1430 318 -319 0
-1431 1430 322 0
-1431 -1430 -322 0
1431 -1430 322 0
1431 1430 -322 0
-1432 1431 323 0
-1432 -1431 -323 0
1432 -1431 323 0
1432 1431 -323 0
-36 -1432 0
-1433 333 334 0
-1433 -333 -334 0
1433 -333 334 0
1433 333 -334 0
-1434 1433 337 0
-1434 -1433 -337 0
1434 -1433 337 0
1434 1433 -337 0
-1435 1434 338 0
-1435 -1434 -338 0
1435 -1434 338 0
1435 1434 -338 0
-36 -1435 0
-1436 348 349 0
-1436 -348 -349 0
1436 -348 349 0
1436 348 -349 0
-1437 1436 352 0
-1437 -1436 -352 0
1437 -1436 352 0
1437 1436 -352 0
-1438 1437 353 0
-1438 -1437 -353 0
1438 -1437 353 0
1438 1437 -353 0
-36 -1438 0
-1439 363 364 0
-1439 -363 -364 0
1439 -363 364 0
1439 363 -364 0
-1440 1439 367 0
-1440 -1439 -367 0
1440 -1439 367 0
1440 1439 -367 0
-1441 1440 368 0
-1441 -1440 -368 0
1441 -1440 368 0
1441 1440 -368 0
-36 -1441 0
-1442 317 318 0
-1442 -317 -318 0
1442 -317 318 0
1442 317 -318 0
-1443 1442 319 0
-1443 -1442 -319 0
1443 -1442 319 0
1443 1442 -319 0
-1444 1443 321 0
-1444 -1443 -321 0
1444 -1443 321 0
1444 1443 -321 0
-1445 1444 322 0
-1445 -1444 -322 0
1445 -1444 322 0
1445 1444 -322 0
-1446 1445 323 0
-1446 -1445 -323 0
1446 -1445 323 0
1446 1445 -323 0
-37 -1446 0
-1447 332 333 0
-1447 -332 -333 0
1447 -332 333 0
1447 332 -333 0
-1448 1447 334 0
-1448 -1447 -334 0
1448 -1447 334 0
1448 1447 -334 0
-1449 1448 336 0
-1449 -1448 -336 0
1449 -1448 336 0
1449 1448 -336 0
-1450 1449 337 0
-1450 -1449 -337 0
1450 -1449 337 0
1450 1449 -337 0
-1451 1450 338 0
-1451 -1450 -338 0
1451 -1450 338 0
1451 1450 -338 0
-37 -1451 0
-1452 347 348 0
-1452 -347 -348 0
1452 -347 348 0
1452 347 -348 0
-1453 1452 349 0
-1453 -1452 -349 0
1453 -1452 349 0
1453 1452 -349 0
-1454 1453 351 0
-1454 -1453 -351 0
1454 -1453 351 0
1454 1453 -351 0
-1455 1454 352 0
-1455 -1454 -352 0
1455 -1454 352 0
1455 1454 -352 0
-1456 1455 353 0
-1456 -1455 -353 0
1456 -1455 353 0
1456 1455 -353 0
-37 -1456 0
-1457 362 363 0
-1457 -362 -363 0
1457 -362 363 0
1457 362 -363 0
-1458 1457 364 0
-1458 -1457 -364 0
1458 -1457 364 0
1458 1457 -364 0
-1459 1458 366 0
-1459 -1458 -366 0
1459 -1458 366 0
1459 1458 -366 0
-1460 1459 367 0
-1460 -1459 -367 0
1460 -1459 367 0
1460 1459 -367 0
-1461 1460 368 0
-1461 -1460 -368 0
1461 -1460 368 0
1461 1460 -368 0
-37 -1461 0
-1462 320 324 0
-1462 -320 -324 0
1462 -320 324 0
1462 320 -324 0
-38 -1462 0
-1463 335 339 0
-1463 -335 -339 0
1463 -335 339 0
1463 335 -339 0
-38 -1463 0
-1464 350 354 0
-1464 -350 -354 0
1464 -350 354 0
1464 350 -354 0
-38 -1464 0
-1465 365 369 0
-1465 -365 -369 0
1465 -365 369 0
1465 365 -369 0
-38 -1465 0
-1466 317 320 0
-1466 -317 -320 0
1466 -317 320 0
1466 317 -320 0
-1467 1466 321 0
-1467 -1466 -321 0
1467 -1466 321 0
1467 1466 -321 0
-1468 1467 324 0
-1468 -1467 -324 0
1468 -1467 324 0
1468 1467 -324 0
-39 -1468 0
-1469 332 335 0
-1469 -332 -335 0
1469 -332 335 0
1469 332 -335 0
-1470 1469 336 0
-1470 -1469 -336 0
1470 -1469 336 0
1470 1469 -336 0
-1471 1470 339 0
-1471 -1470 -339 0
1471 -1470 339 0
1471 1470 -339 0
-39 -1471 0
-1472 347 350 0
-1472 -347 -350 0
1472 -347 350 0
1472 347 -350 0
-1473 1472 351 0
-1473 -1472 -351 0
1473 -1472 351 0
1473 1472 -351 0
-1474 1473 354 0
-1474 -1473 -354 0
1474 -1473 354 0
1474 1473 -354 0
-39 -1474 0
-1475 362 365 0
-1475 -362 -365 0
1475 -362 365 0
1475 362 -365 0
-1476 1475 366 0
-1476 -1475 -366 0
1476 -1475 366 0
1476 1475 -366 0
-1477 1476 369 0
-1477 -1476 -369 0
1477 -1476 369 0
1477 1476 -369 0
-39 -1477 0
-1478 318 320 0
-1478 -318 -320 0
1478 -318 320 0
1478 318 -320 0
-1479 1478 322 0
-1479 -1478 -322 0
1479 -1478 322 0
1479 1478 -322 0
-1480 1479 324 0
-1480 -1479 -324 0
1480 -1479 324 0
1480 1479 -324 0
-40 -1480 0
-1481 333 335 0
-1481 -333 -335 0
1481 -333 335 0
1481 333 -335 0
-1482 1481 337 0
-1482 -1481 -337 0
1482 -1481 337 0
1482 1481 -337 0
-1483 1482 339 0
-1483 -1482 -339 0
1483 -1482 339 0
1483 1482 -339 0
-40 -1483 0
-1484 348 350 0
-1484 -348 -350 0
1484 -348 350 0
1484 348 -350 0
-1485 1484 352 0
-1485 -1484 -352 0
1485 -1484 352 0
1485 1484 -352 0
-1486 1485 354 0
-1486 -1485 -354 0
1486 -1485 354 0
1486 1485 -354 0
-40 -1486 0
-1487 363 365 0
-1487 -363 -365 0
1487 -363 365 0
1487 363 -365 0
-1488 1487 367 0
-1488 -1487 -367 0
1488 -1487 367 0
1488 1487 -367 0
-1489 1488 369 0
-1489 -1488 -369 0
1489 -1488 369 0
1489 1488 -369 0
-40 -1489 0
-1490 317 318 0
-1490 -317 -318 0
1490 -317 318 0
1490 317 -318 0
-1491 1490 320 0
-1491 -1490 -320 0
1491 -1490 320 0
1491 1490 -320 0
-1492 1491 321 0
-1492 -1491 -321 0
1492 -1491 321 0
1492 1491 -321 0
-1493 1492 322 0
-1493 -1492 -322 0
1493 -1492 322 0
1493 1492 -322 0
-1494 1493 324 0
-1494 -1493 -324 0
1494 -1493 324 0
1494 1493 -324 0
-41 -1494 0
-1495 332 333 0
-1495 -332 -333 0
1495 -332 333 0
1495 332 -333 0
-1496 1495 335 0
-1496 -1495 -335 0
1496 -1495 335 0
1496 1495 -335 0
-1497 1496 336 0
-1497 -1496 -336 0
1497 -1496 336 0
1497 1496 -336 0
-1498 1497 337 0
-1498 -1497 -337 0
1498 -1497 337 0
1498 1497 -337 0
-1499 1498 339 0
-1499 -1498 -339 0
1499 -1498 339 0
1499 1498 -339 0
-41 -1499 0
-1500 347 348 0
-1500 -347 -348 0
1500 -347 348 0
1500 347 -348 0
-1501 1500 350 0
-1501 -1500 -350 0
1501 -1500 350 0
1501 1500 -350 0
-1502 1501 351 0
-1502 -1501 -351 0
1502 -1501 351 0
1502 1501 -351 0
-1503 1502 352 0
-1503 -1502 -352 0
1503 -1502 352 0
1503 1502 -352 0
-1504 1503 354 0
-1504 -1503 -354 0
1504 -1503 354 0
1504 1503 -354 0
-41 -1504 0
-1505 362 363 0
-1505 -362 -363 0
1505 -362 363 0
1505 362 -363 0
-1506 1505 365 0
-1506 -1505 -365 0
1506 -1505 365 0
1506 1505 -365 0
-1507 1506 366 0
-1507 -1506 -366 0
1507 -1506 366 0
1507 1506 -366 0
-1508 1507 367 0
-1508 -1507 -367 0
1508 -1507 367 0
1508 1507 -367 0
-1509 1508 369 0
-1509 -1508 -369 0
1509 -1508 369 0
1509 1508 -369 0
-41 -1509 0
-1510 319 320 0
-1510 -319 -320 0
1510 -319 320 0
1510 319 -320 0
-1511 1510 323 0
-1511 -1510 -323 0
1511 -1510 323 0
1511 1510 -323 0
-1512 1511 324 0
-1512 -1511 -324 0
1512 -1511 324 0
1512 1511 -324 0
-42 -1512 0
-1513 334 335 0
-1513 -334 -335 0
1513 -334 335 0
1513 334 -335 0
-1514 1513 338 0
-1514 -1513 -338 0
1514 -1513 338 0
1514 1513 -338 0
-1515 1514 339 0
-1515 -1514 -339 0
1515 -1514 339 0
1515 1514 -339 0
-42 -1515 0
-1516 349 350 0
-1516 -349 -350 0
1516 -349 350 0
1516 349 -350 0
-1517 1516 353 0
-1517 -1516 -353 0
1517 -1516 353 0
1517 1516 -353 0
-1518 1517 354 0
-1518 -1517 -354 0
1518 -1517 354 0
1518 1517 -354 0
-42 -1518 0
-1519 364 365 0
-1519 -364 -365 0
1519 -364 365 0
1519 364 -365 0
-1520 1519 368 0
-1520 -1519 -368 0
1520 -1519 368 0
1520 1519 -368 0
-1521 1520 369 0
-1521 -1520 -369 0
1521 -1520 369 0
1521 1520 -369 0
-42 -1521 0
-1522 317 319 0
-1522 -317 -319 0
1522 -317 319 0
1522 317 -319 0
-1523 1522 320 0
-1523 -1522 -320 0
1523 -1522 320 0
1523 1522 -320 0
-1524 1523 321 0
-1524 -1523 -321 0
1524 -1523 321 0
1524 1523 -321 0
-1525 1524 323 0
-1525 -1524 -323 0
1525 -1524 323 0
1525 1524 -323 0
-1526 1525 324 0
-1526 -1525 -324 0
1526 -1525 324 0
1526 1525 -324 0
-43 -1526 0
-1527 332 334 0
-1527 -332 -334 0
1527 -332 334 0
1527 332 -334 0
-1528 1527 335 0
-1528 -1527 -335 0
1528 -1527 335 0
1528 1527 -335 0
-1529 1528 336 0
-1529 -1528 -336 0
1529 -1528 336 0
1529 1528 -336 0
-1530 1529 338 0
-1530 -1529 -338 0
1530 -1529 338 0
1530 1529 -338 0
-1531 1530 339 0
-1531 -1530 -339 0
1531 -1530 339 0
1531 1530 -339 0
-43 -1531 0
-1532 347 349 0
-1532 -347 -349 0
1532 -347 349 0
1532 347 -349 0
-1533 1532 350 0
-1533 -1532 -350 0
1533 -1532 350 0
1533 1532 -350 0
-1534 1533 351 0
-1534 -1533 -351 0
1534 -1533 351 0
1534 1533 -351 0
-1535 1534 353 0
-1535 -1534 -353 0
1535 -1534 353 0
1535 1534 -353 0
-1536 1535 354 0
-1536 -1535 -354 0
1536 -1535 354 0
1536 1535 -354 0
-43 -1536 0
-1537 362 364 0
-1537 -362 -364 0
1537 -362 364 0
1537 362 -364 0
-1538 1537 365 0
-1538 -1537 -365 0
1538 -1537 365 0
1538 1537 -365 0
-1539 1538 366 0
-1539 -1538 -366 0
1539 -1538 366 0
1539 1538 -366 0
-1540 1539 368 0
-1540 -1539 -368 0
1540 -1539 368 0
1540 1539 -368 0
-1541 1540 369 0
-1541 -1540 -369 0
1541 -1540 369 0
1541 1540 -369 0
-43 -1541 0
-1542 318 319 0
-1542 -318 -319 0
1542 -318 319 0
1542 318 -319 0
-1543 1542 320 0
-1543 -1542 -320 0
1543 -1542 320 0
1543 1542 -320 0
-1544 1543 322 0
-1544 -1543 -322 0
1544 -1543 322 0
1544 1543 -322 0
-1545 1544 323 0
-1545 -1544 -323 0
1545 -1544 323 0
1545 1544 -323 0
-1546 1545 324 0
-1546 -1545 -324 0
1546 -1545 324 0
1546 1545 -324 0
-44 -1546 0
-1547 333 334 0
-1547 -333 -334 0
1547 -333 334 0
1547 333 -334 0
-1548 1547 335 0
-1548 -1547 -335 0
1548 -1547 335 0
1548 1547 -335 0
-1549 1548 337 0
-1549 -1548 -337 0
1549 -1548 337 0
1549 1548 -337 0
-1550 1549 338 0
-1550 -1549 -338 0
1550 -1549 338 0
1550 1549 -338 0
-1551 1550 339 0
-1551 -1550 -339 0
1551 -1550 339 0
1551 1550 -339 0
-44 -1551 0
-1552 348 349 0
-1552 -348 -349 0
1552 -348 349 0
1552 348 -349 0
-1553 1552 350 0
-1553 -1552 -350 0
1553 -1552 350 0
1553 1552 -350 0
-1554 1553 352 0
-1554 -1553 -352 0
1554 -1553 352 0
1554 1553 -352 0
-1555 1554 353 0
-1555 -1554 -353 0
1555 -1554 353 0
1555 1554 -353 0
-1556 1555 354 0
-1556 -1555 -354 0
1556 -1555 354 0
1556 1555 -354 0
-44 -1556 0
-1557 363 364 0
-1557 -363 -364 0
1557 -363 364 0
1557 363 -364 0
-1558 1557 365 0
-1558 -1557 -365 0
1558 -1557 365 0
1558 1557 -365 0
-1559 1558 367 0
-1559 -1558 -367 0
1559 -1558 367 0
1559 1558 -367 0
-1560 1559 368 0
-1560 -1559 -368 0
1560 -1559 368 0
1560 1559 -368 0
-1561 1560 369 0
-1561 -1560 -369 0
1561 -1560 369 0
1561 1560 -369 0
-44 -1561 0
-1562 317 318 0
-1562 -317 -318 0
1562 -317 318 0
1562 317 -318 0
-1563 1562 319 0
-1563 -1562 -319 0
1563 -1562 319 0
1563 1562 -319 0
-1564 1563 320 0
-1564 -1563 -320 0
1564 -1563 320 0
1564 1563 -320 0
-1565 1564 321 0
-1565 -1564 -321 0
1565 -1564 321 0
1565 1564 -321 0
-1566 1565 322 0
-1566 -1565 -322 0
1566 -1565 322 0
1566 1565 -322 0
-1567 1566 323 0
-1567 -1566 -323 0
1567 -1566 323 0
1567 1566 -323 0
-1568 1567 324 0
-1568 -1567 -324 0
1568 -1567 324 0
1568 1567 -324 0
-45 -1568 0
-1569 332 333 0
-1569 -332 -333 0
1569 -332 333 0
1569 332 -333 0
-1570 1569 334 0
-1570 -1569 -334 0
1570 -1569 334 0
1570 1569 -334 0
-1571 1570 335 0
-1571 -1570 -335 0
1571 -1570 335 0
1571 1570 -335 0
-1572 1571 336 0
-1572 -1571 -336 0
1572 -1571 336 0
1572 1571 -336 0
-1573 1572 337 0
-1573 -1572 -337 0
1573 -1572 337 0
1573 1572 -337 0
-1574 1573 338 0
-1574 -1573 -338 0
1574 -1573 338 0
1574 1573 -338 0
-1575 1574 339 0
-1575 -1574 -339 0
1575 -1574 339 0
1575 1574 -339 0
-45 -1575 0
-1576 347 348 0
-1576 -347 -348 0
1576 -347 348 0
1576 347 -348 0
-1577 1576 349 0
-1577 -1576 -349 0
1577 -1576 349 0
1577 1576 -349 0
-1578 1577 350 0
-1578 -1577 -350 0
1578 -1577 350 0
1578 1577 -350 0
-1579 1578 351 0
-1579 -1578 -351 0
1579 -1578 351 0
1579 1578 -351 0
-1580 1579 352 0
-1580 -1579 -352 0
1580 -1579 352 0
1580 1579 -352 0
-1581 1580 353 0
-1581 -1580 -353 0
1581 -1580 353 0
1581 1580 -353 0
-1582 1581 354 0
-1582 -1581 -354 0
1582 -1581 354 0
1582 1581 -354 0
-45 -1582 0
-1583 362 363 0
-1583 -362 -363 0
1583 -362 363 0
1583 362 -363 0
-1584 1583 364 0
-1584 -1583 -364 0
1584 -1583 364 0
1584 1583 -364 0
-1585 1584 365 0
-1585 -1584 -365 0
1585 -1584 365 0
1585 1584 -365 0
-1586 1585 366 0
-1586 -1585 -366 0
1586 -1585 366 0
1586 1585 -366 0
-1587 1586 367 0
-1587 -1586 -367 0
1587 -1586 367 0
1587 1586 -367 0
-1588 1587 368 0
-1588 -1587 -368 0
1588 -1587 368 0
1588 1587 -368 0
-1589 1588 369 0
-1589 -1588 -369 0
1589 -1588 369 0
1589 1588 -369 0
-45 -1589 0
-46 -326 0
-46 -341 0
-46 -356 0
-46 -371 0
-1590 317 326 0
-1590 -317 -326 0
1590 -317 326 0
1590 317 -326 0
-47 -1590 0
-1591 332 341 0
-1591 -332 -341 0
1591 -332 341 0
1591 332 -341 0
-47 -1591 0
-1592 347 356 0
-1592 -347 -356 0
1592 -347 356 0
1592 347 -356 0
-47 -1592 0
-1593 362 371 0
-1593 -362 -371 0
1593 -362 371 0
1593 362 -371 0
-47 -1593 0
-1594 321 326 0
-1594 -321 -326 0
1594 -321 326 0
1594 321 -326 0
-48 -1594 0
-1595 336 341 0
-1595 -336 -341 0
1595 -336 341 0
1595 336 -341 0
-48 -1595 0
-1596 351 356 0
-1596 -351 -356 0
1596 -351 356 0
1596 351 -356 0
-48 -1596 0
-1597 366 371 0
-1597 -366 -371 0
1597 -366 371 0
1597 366 -371 0
-48 -1597 0
-1598 317 321 0
-1598 -317 -321 0
1598 -317 321 0
1598 317 -321 0
-1599 1598 326 0
-1599 -1598 -326 0
1599 -1598 326 0
1599 1598 -326 0
-49 -1599 0
-1600 332 336 0
-1600 -332 -336 0
1600 -332 336 0
1600 332 -336 0
-1601 1600 341 0
-1601 -1600 -341 0
1601 -1600 341 0
1601 1600 -341 0
-49 -1601 0
-1602 347 351 0
-1602 -347 -351 0
1602 -347 351 0
1602 347 -351 0
-1603 1602 356 0
-1603 -1602 -356 0
1603 -1602 356 0
1603 1602 -356 0
-49 -1603 0
-1604 362 366 0
-1604 -362 -366 0
1604 -362 366 0
1604 362 -366 0
-1605 1604 371 0
-1605 -1604 -371 0
1605 -1604 371 0
1605 1604 -371 0
-49 -1605 0
-50 -327 0
-50 -342 0
-50 -357 0
-50 -372 0
-1606 317 327 0
-1606 -317 -327 0
1606 -317 327 0
1606 317 -327 0
-51 -1606 0
-1607 332 342 0
-1607 -332 -342 0
1607 -332 342 0
1607 332 -342 0
-51 -1607 0
-1608 347 357 0
-1608 -347 -357 0
1608 -347 357 0
1608 347 -357 0
-51 -1608 0
-1609 362 372 0
-1609 -362 -372 0
1609 -362 372 0
1609 362 -372 0
-51 -1609 0
-1610 321 327 0
-1610 -321 -327 0
1610 -321 327 0
1610 321 -327 0
-52 -1610 0
-1611 336 342 0
-1611 -336 -342 0
1611 -336 342 0
1611 336 -342 0
-52 -1611 0
-1612 351 357 0
-1612 -351 -357 0
1612 -351 357 0
1612 351 -357 0
-52 -1612 0
-1613 366 372 0
-1613 -366 -372 0
1613 -366 372 0
1613 366 -372 0
-52 -1613 0
-1614 317 321 0
-1614 -317 -321 0
1614 -317 321 0
1614 317 -321 0
-1615 1614 327 0
-1615 -1614 -327 0
1615 -1614 327 0
1615 1614 -327 0
-53 -1615 0
-1616 332 336 0
-1616 -332 -336 0
1616 -332 336 0
1616 332 -336 0
-1617 1616 342 0
-1617 -1616 -342 0
1617 -1616 342 0
1617 1616 -342 0
-53 -1617 0
-1618 347 351 0
-1618 -347 -351 0
1618 -347 351 0
1618 347 -351 0
-1619 1618 357 0
-1619 -1618 -357 0
1619 -1618 357 0
1619 1618 -357 0
-53 -1619 0
-1620 362 366 0
-1620 -362 -366 0
1620 -362 366 0
1620 362 -366 0
-1621 1620 372 0
-1621 -1620 -372 0
1621 -1620 372 0
1621 1620 -372 0
-53 -1621 0
-1622 326 327 0
-1622 -326 -327 0
1622 -326 327 0
1622 326 -327 0
-54 -1622 0
-1623 341 342 0
-1623 -341 -342 0
1623 -341 342 0
1623 341 -342 0
-54 -1623 0
-1624 356 357 0
-1624 -356 -357 0
1624 -356 357 0
1624 356 -357 0
-54 -1624 0
-1625 371 372 0
-1625 -371 -372 0
1625 -371 372 0
1625 371 -372 0
-54 -1625 0
-1626 317 326 0
-1626 -317 -326 0
1626 -317 326 0
1626 317 -326 0
-1627 1626 327 0
-1627 -1626 -327 0
1627 -1626 327 0
1627 1626 -327 0
-55 -1627 0
-1628 332 341 0
-1628 -332 -341 0
1628 -332 341 0
1628 332 -341 0
-1629 1628 342 0
-1629 -1628 -342 0
1629 -1628 342 0
1629 1628 -342 0
-55 -1629 0
-1630 347 356 0
-1630 -347 -356 0
1630 -347 356 0
1630 347 -356 0
-1631 1630 357 0
-1631 -1630 -357 0
1631 -1630 357 0
1631 1630 -357 0
-55 -1631 0
-1632 362 371 0
-1632 -362 -371 0
1632 -362 371 0
1632 362 -371 0
-1633 1632 372 0
-1633 -1632 -372 0
1633 -1632 372 0
1633 1632 -372 0
-55 -1633 0
-1634 321 326 0
-1634 -321 -326 0
1634 -321 326 0
1634 321 -326 0
-1635 1634 327 0
-1635 -1634 -327 0
1635 -1634 327 0
1635 1634 -327 0
-56 -1635 0
-1636 336 341 0
-1636 -336 -341 0
1636 -336 341 0
1636 336 -341 0
-1637 1636 342 0
-1637 -1636 -342 0
1637 -1636 342 0
1637 1636 -342 0
-56 -1637 0
-1638 351 356 0
-1638 -351 -356 0
1638 -351 356 0
1638 351 -356 0
-1639 1638 357 0
-1639 -1638 -357 0
1639 -1638 357 0
1639 1638 -357 0
-56 -1639 0
-1640 366 371 0
-1640 -366 -371 0
1640 -366 371 0
1640 366 -371 0
-1641 1640 372 0
-1641 -1640 -372 0
1641 -1640 372 0
1641 1640 -372 0
-56 -1641 0
-1642 317 321 0
-1642 -317 -321 0
1642 -317 321 0
1642 317 -321 0
-1643 1642 326 0
-1643 -1642 -326 0
1643 -1642 326 0
1643 1642 -326 0
-1644 1643 327 0
-1644 -1643 -327 0
1644 -1643 327 0
1644 1643 -327 0
-57 -1644 0
-1645 332 336 0
-1645 -332 -336 0
1645 -332 336 0
1645 332 -336 0
-1646 1645 341 0
-1646 -1645 -341 0
1646 -1645 341 0
1646 1645 -341 0
-1647 1646 342 0
-1647 -1646 -342 0
1647 -1646 342 0
1647 1646 -342 0
-57 -1647 0
-1648 347 351 0
-1648 -347 -351 0
1648 -347 351 0
1648 347 -351 0
-1649 1648 356 0
-1649 -1648 -356 0
1649 -1648 356 0
1649 1648 -356 0
-1650 1649 357 0
-1650 -1649 -357 0
1650 -1649 357 0
1650 1649 -357 0
-57 -1650 0
-1651 362 366 0
-1651 -362 -366 0
1651 -362 366 0
1651 362 -366 0
-1652 1651 371 0
-1652 -1651 -371 0
1652 -1651 371 0
1652 1651 -371 0
-1653 1652 372 0
-1653 -1652 -372 0
1653 -1652 372 0
1653 1652 -372 0
-57 -1653 0
-1654 316 318 0
-1654 -316 -318 0
1654 -316 318 0
1654 316 -318 0
-1655 1654 321 0
-1655 -1654 -321 0
1655 -1654 321 0
1655 1654 -321 0
-1656 1655 325 0
-1656 -1655 -325 0
1656 -1655 325 0
1656 1655 -325 0
-58 -1656 0
-1657 331 333 0
-1657 -331 -333 0
1657 -331 333 0
1657 331 -333 0
-1658 1657 336 0
-1658 -1657 -336 0
1658 -1657 336 0
1658 1657 -336 0
-1659 1658 340 0
-1659 -1658 -340 0
1659 -1658 340 0
1659 1658 -340 0
-58 -1659 0
-1660 346 348 0
-1660 -346 -348 0
1660 -346 348 0
1660 346 -348 0
-1661 1660 351 0
-1661 -1660 -351 0
1661 -1660 351 0
1661 1660 -351 0
-1662 1661 355 0
-1662 -1661 -355 0
1662 -1661 355 0
1662 1661 -355 0
-58 -1662 0
-1663 361 363 0
-1663 -361 -363 0
1663 -361 363 0
1663 361 -363 0
-1664 1663 366 0
-1664 -1663 -366 0
1664 -1663 366 0
1664 1663 -366 0
-1665 1664 370 0
-1665 -1664 -370 0
1665 -1664 370 0
1665 1664 -370 0
-58 -1665 0
-1666 316 317 0
-1666 -316 -317 0
1666 -316 317 0
1666 316 -317 0
-1667 1666 318 0
-1667 -1666 -318 0
1667 -1666 318 0
1667 1666 -318 0
-1668 1667 321 0
-1668 -1667 -321 0
1668 -1667 321 0
1668 1667 -321 0
-1669 1668 325 0
-1669 -1668 -325 0
1669 -1668 325 0
1669 1668 -325 0
-59 -1669 0
-1670 331 332 0
-1670 -331 -332 0
1670 -331 332 0
1670 331 -332 0
-1671 1670 333 0
-1671 -1670 -333 0
1671 -1670 333 0
1671 1670 -333 0
-1672 1671 336 0
-1672 -1671 -336 0
1672 -1671 336 0
1672 1671 -336 0
-1673 1672 340 0
-1673 -1672 -340 0
1673 -1672 340 0
1673 1672 -340 0
-59 -1673 0
-1674 346 347 0
-1674 -346 -347 0
1674 -346 347 0
1674 346 -347 0
-1675 1674 348 0
-1675 -1674 -348 0
1675 -1674 348 0
1675 1674 -348 0
-1676 1675 351 0
-1676 -1675 -351 0
1676 -1675 351 0
1676 1675 -351 0
-1677 1676 355 0
-1677 -1676 -355 0
1677 -1676 355 0
1677 1676 -355 0
-59 -1677 0
-1678 361 362 0
-1678 -361 -362 0
1678 -361 362 0
1678 361 -362 0
-1679 1678 363 0
-1679 -1678 -363 0
1679 -1678 363 0
1679 1678 -363 0
-1680 1679 366 0
-1680 -1679 -366 0
1680 -1679 366 0
1680 1679 -366 0
-1681 1680 370 0
-1681 -1680 -370 0
1681 -1680 370 0
1681 1680 -370 0
-59 -1681 0
-1682 319 326 0
-1682 -319 -326 0
1682 -319 326 0
1682 319 -326 0
-60 -1682 0
-1683 334 341 0
-1683 -334 -341 0
1683 -334 341 0
1683 334 -341 0
-60 -1683 0
-1684 349 356 0
-1684 -349 -356 0
1684 -349 356 0
1684 349 -356 0
-60 -1684 0
-1685 364 371 0
-1685 -364 -371 0
1685 -364 371 0
1685 364 -371 0
-60 -1685 0
-1686 317 319 0
-1686 -317 -319 0
1686 -317 319 0
1686 317 -319 0
-1687 1686 326 0
-1687 -1686 -326 0
1687 -1686 326 0
1687 1686 -326 0
-61 -1687 0
-1688 332 334 0
-1688 -332 -334 0
1688 -332 334 0
1688 332 -334 0
-1689 1688 341 0
-1689 -1688 -341 0
1689 -1688 341 0
1689 1688 -341 0
-61 -1689 0
-1690 347 349 0
-1690 -347 -349 0
1690 -347 349 0
1690 347 -349 0
-1691 1690 356 0
-1691 -1690 -356 0
1691 -1690 356 0
1691 1690 -356 0
-61 -1691 0
-1692 362 364 0
-1692 -362 -364 0
1692 -362 364 0
1692 362 -364 0
-1693 1692 371 0
-1693 -1692 -371 0
1693 -1692 371 0
1693 1692 -371 0
-61 -1693 0
-1694 316 318 0
-1694 -316 -318 0
1694 -316 318 0
1694 316 -318 0
-1695 1694 319 0
-1695 -1694 -319 0
1695 -1694 319 0
1695 1694 -319 0
-1696 1695 321 0
-1696 -1695 -321 0
1696 -1695 321 0
1696 1695 -321 0
-1697 1696 325 0
-1697 -1696 -325 0
1697 -1696 325 0
1697 1696 -325 0
-1698 1697 326 0
-1698 -1697 -326 0
1698 -1697 326 0
1698 1697 -326 0
-62 -1698 0
-1699 331 333 0
-1699 -331 -333 0
1699 -331 333 0
1699 331 -333 0
-1700 1699 334 0
-1700 -1699 -334 0
1700 -1699 334 0
1700 1699 -334 0
-1701 1700 336 0
-1701 -1700 -336 0
1701 -1700 336 0
1701 1700 -336 0
-1702 1701 340 0
-1702 -1701 -340 0
1702 -1701 340 0
1702 1701 -340 0
-1703 1702 341 0
-1703 -1702 -341 0
1703 -1702 341 0
1703 1702 -341 0
-62 -1703 0
-1704 346 348 0
-1704 -346 -348 0
1704 -346 348 0
1704 346 -348 0
-1705 1704 349 0
-1705 -1704 -349 0
1705 -1704 349 0
1705 1704 -349 0
-1706 1705 351 0
-1706 -1705 -351 0
1706 -1705 351 0
1706 1705 -351 0
-1707 1706 355 0
-1707 -1706 -355 0
1707 -1706 355 0
1707 1706 -355 0
-1708 1707 356 0
-1708 -1707 -356 0
1708 -1707 356 0
1708 1707 -356 0
-62 -1708 0
-1709 361 363 0
-1709 -361 -363 0
1709 -361 363 0
1709 361 -363 0
-1710 1709 364 0
-1710 -1709 -364 0
1710 -1709 364 0
1710 1709 -364 0
-1711 1710 366 0
-1711 -1710 -366 0
1711 -1710 366 0
1711 1710 -366 0
-1712 1711 370 0
-1712 -1711 -370 0
1712 -1711 370 0
1712 1711 -370 0
-1713 1712 371 0
-1713 -1712 -371 0
1713 -1712 371 0
1713 1712 -371 0
-62 -1713 0
-1714 316 317 0
-1714 -316 -317 0
1714 -316 317 0
1714 316 -317 0
-1715 1714 318 0
-1715 -1714 -318 0
1715 -1714 318 0
1715 1714 -318 0
-1716 1715 319 0
-1716 -1715 -319 0
1716 -1715 319 0
1716 1715 -319 0
-1717 1716 321 0
-1717 -1716 -321 0
1717 -1716 321 0
1717 1716 -321 0
-1718 1717 325 0
-1718 -1717 -325 0
1718 -1717 325 0
1718 1717 -325 0
-1719 1718 326 0
-1719 -1718 -326 0
1719 -1718 326 0
1719 1718 -326 0
-63 -1719 0
-1720 331 332 0
-1720 -331 -332 0
1720 -331 332 0
1720 331 -332 0
-1721 1720 333 0
-1721 -1720 -333 0
1721 -1720 333 0
1721 1720 -333 0
-1722 1721 334 0
-1722 -1721 -334 0
1722 -1721 334 0
1722 1721 -334 0
-1723 1722 336 0
-1723 -1722 -336 0
1723 -1722 336 0
1723 1722 -336 0
-1724 1723 340 0
-1724 -1723 -340 0
1724 -1723 340 0
1724 1723 -340 0
-1725 1724 341 0
-1725 -1724 -341 0
1725 -1724 341 0
1725 1724 -341 0
-63 -1725 0
-1726 346 347 0
-1726 -346 -347 0
1726 -346 347 0
1726 346 -347 0
-1727 1726 348 0
-1727 -1726 -348 0
1727 -1726 348 0
1727 1726 -348 0
-1728 1727 349 0
-1728 -1727 -349 0
1728 -1727 349 0
1728 1727 -349 0
-1729 1728 351 0
-1729 -1728 -351 0
1729 -1728 351 0
1729 1728 -351 0
-1730 1729 355 0
-1730 -1729 -355 0
1730 -1729 355 0
1730 1729 -355 0
-1731 1730 356 0
-1731 -1730 -356 0
1731 -1730 356 0
1731 1730 -356 0
-63 -1731 0
-1732 361 362 0
-1732 -361 -362 0
1732 -361 362 0
1732 361 -362 0
-1733 1732 363 0
-1733 -1732 -363 0
1733 -1732 363 0
1733 1732 -363 0
-1734 1733 364 0
-1734 -1733 -364 0
1734 -1733 364 0
1734 1733 -364 0
-1735 1734 366 0
-1735 -1734 -366 0
1735 -1734 366 0
1735 1734 -366 0
-1736 1735 370 0
-1736 -1735 -370 0
1736 -1735 370 0
1736 1735 -370 0
-1737 1736 371 0
-1737 -1736 -371 0
1737 -1736 371 0
1737 1736 -371 0
-63 -1737 0
-1738 320 327 0
-1738 -320 -327 0
1738 -320 327 0
1738 320 -327 0
-64 -1738 0
-1739 335 342 0
-1739 -335 -342 0
1739 -335 342 0
1739 335 -342 0
-64 -1739 0
-1740 350 357 0
-1740 -350 -357 0
1740 -350 357 0
1740 350 -357 0
-64 -1740 0
-1741 365 372 0
-1741 -365 -372 0
1741 -365 372 0
1741 365 -372 0
-64 -1741 0
-1742 317 320 0
-1742 -317 -320 0
1742 -317 320 0
1742 317 -320 0
-1743 1742 327 0
-1743 -1742 -327 0
1743 -1742 327 0
1743 1742 -327 0
-65 -1743 0
-1744 332 335 0
-1744 -332 -335 0
1744 -332 335 0
1744 332 -335 0
-1745 1744 342 0
-1745 -1744 -342 0
1745 -1744 342 0
1745 1744 -342 0
-65 -1745 0
-1746 347 350 0
-1746 -347 -350 0
1746 -347 350 0
1746 347 -350 0
-1747 1746 357 0
-1747 -1746 -357 0
1747 -1746 357 0
1747 1746 -357 0
-65 -1747 0
-1748 362 365 0
-1748 -362 -365 0
1748 -362 365 0
1748 362 -365 0
-1749 1748 372 0
-1749 -1748 -372 0
1749 -1748 372 0
1749 1748 -372 0
-65 -1749 0
-1750 316 318 0
-1750 -316 -318 0
1750 -316 318 0
1750 316 -318 0
-1751 1750 320 0
-1751 -1750 -320 0
1751 -1750 320 0
1751 1750 -320 0
-1752 1751 321 0
-1752 -1751 -321 0
1752 -1751 321 0
1752 1751 -321 0
-1753 1752 325 0
-1753 -1752 -325 0
1753 -1752 325 0
1753 1752 -325 0
-1754 1753 327 0
-1754 -1753 -327 0
1754 -1753 327 0
1754 1753 -327 0
-66 -1754 0
-1755 331 333 0
-1755 -331 -333 0
1755 -331 333 0
1755 331 -333 0
-1756 1755 335 0
-1756 -1755 -335 0
1756 -1755 335 0
1756 1755 -335 0
-1757 1756 336 0
-1757 -1756 -336 0
1757 -1756 336 0
1757 1756 -336 0
-1758 1757 340 0
-1758 -1757 -340 0
1758 -1757 340 0
1758 1757 -340 0
-1759 1758 342 0
-1759 -1758 -342 0
1759 -1758 342 0
1759 1758 -342 0
-66 -1759 0
-1760 346 348 0
-1760 -346 -348 0
1760 -346 348 0
1760 346 -348 0
-1761 1760 350 0
-1761 -1760 -350 0
1761 -1760 350 0
1761 1760 -350 0
-1762 1761 351 0
-1762 -1761 -351 0
1762 -1761 351 0
1762 1761 -351 0
-1763 1762 355 0
-1763 -1762 -355 0
1763 -1762 355 0
1763 1762 -355 0
-1764 1763 357 0
-1764 -1763 -357 0
1764 -1763 357 0
1764 1763 -357 0
-66 -1764 0
-1765 361 363 0
-1765 -361 -363 0
1765 -361 363 0
1765 361 -363 0
-1766 1765 365 0
-1766 -1765 -365 0
1766 -1765 365 0
1766 1765 -365 0
-1767 1766 366 0
-1767 -1766 -366 0
1767 -1766 366 0
1767 1766 -366 0
-1768 1767 370 0
-1768 -1767 -370 0
1768 -1767 370 0
1768 1767 -370 0
-1769 1768 372 0
-1769 -1768 -372 0
1769 -1768 372 0
1769 1768 -372 0
-66 -1769 0
-1770 316 317 0
-1770 -316 -317 0
1770 -316 317 0
1770 316 -317 0
-1771 1770 318 0
-1771 -1770 -318 0
1771 -1770 318 0
1771 1770 -318 0
-1772 1771 320 0
-1772 -1771 -320 0
1772 -1771 320 0
1772 1771 -320 0
-1773 1772 321 0
-1773 -1772 -321 0
1773 -1772 321 0
1773 1772 -321 0
-1774 1773 325 0
-1774 -1773 -325 0
1774 -1773 325 0
1774 1773 -325 0
-1775 1774 327 0
-1775 -1774 -327 0
1775 -1774 327 0
1775 1774 -327 0
-67 -1775 0
-1776 331 332 0
-1776 -331 -332 0
1776 -331 332 0
1776 331 -332 0
-1777 1776 333 0
-1777 -1776 -333 0
1777 -1776 333 0
1777 1776 -333 0
-1778 1777 335 0
-1778 -1777 -335 0
1778 -1777 335 0
1778 1777 -335 0
-1779 1778 336 0
-1779 -1778 -336 0
1779 -1778 336 0
1779 1778 -336 0
-1780 1779 340 0
-1780 -1779 -340 0
1780 -1779 340 0
1780 1779 -340 0
-1781 1780 342 0
-1781 -1780 -342 0
1781 -1780 342 0
1781 1780 -342 0
-67 -1781 0
-1782 346 347 0
-1782 -346 -347 0
1782 -346 347 0
1782 346 -347 0
-1783 1782 348 0
-1783 -1782 -348 0
1783 -1782 348 0
1783 1782 -348 0
-1784 1783 350 0
-1784 -1783 -350 0
1784 -1783 350 0
1784 1783 -350 0
-1785 1784 351 0
-1785 -1784 -351 0
1785 -1784 351 0
1785 1784 -351 0
-1786 1785 355 0
-1786 -1785 -355 0
1786 -1785 355 0
1786 1785 -355 0
-1787 1786 357 0
-1787 -1786 -357 0
1787 -1786 357 0
1787 1786 -357 0
-67 -1787 0
-1788 361 362 0
-1788 -361 -362 0
1788 -361 362 0
1788 361 -362 0
-1789 1788 363 0
-1789 -1788 -363 0
1789 -1788 363 0
1789 1788 -363 0
-1790 1789 365 0
-1790 -1789 -365 0
1790 -1789 365 0
1790 1789 -365 0
-1791 1790 366 0
-1791 -1790 -366 0
1791 -1790 366 0
1791 1790 -366 0
-1792 1791 370 0
-1792 -1791 -370 0
1792 -1791 370 0
1792 1791 -370 0
-1793 1792 372 0
-1793 -1792 -372 0
1793 -1792 372 0
1793 1792 -372 0
-67 -1793 0
-1794 319 320 0
-1794 -319 -320 0
1794 -319 320 0
1794 319 -320 0
-1795 1794 326 0
-1795 -1794 -326 0
1795 -1794 326 0
1795 1794 -326 0
-1796 1795 327 0
-1796 -1795 -327 0
1796 -1795 327 0
1796 1795 -327 0
-68 -1796 0
-1797 334 335 0
-1797 -334 -335 0
1797 -334 335 0
1797 334 -335 0
-1798 1797 341 0
-1798 -1797 -341 0
1798 -1797 341 0
1798 1797 -341 0
-1799 1798 342 0
-1799 -1798 -342 0
1799 -1798 342 0
1799 1798 -342 0
-68 -1799 0
-1800 349 350 0
-1800 -349 -350 0
1800 -349 350 0
1800 349 -350 0
-1801 1800 356 0
-1801 -1800 -356 0
1801 -1800 356 0
1801 1800 -356 0
-1802 1801 357 0
-1802 -1801 -357 0
1802 -1801 357 0
1802 1801 -357 0
-68 -1802 0
-1803 364 365 0
-1803 -364 -365 0
1803 -364 365 0
1803 364 -365 0
-1804 1803 371 0
-1804 -1803 -371 0
1804 -1803 371 0
1804 1803 -371 0
-1805 1804 372 0
-1805 -1804 -372 0
1805 -1804 372 0
1805 1804 -372 0
-68 -1805 0
-1806 317 319 0
-1806 -317 -319 0
1806 -317 319 0
1806 317 -319 0
-1807 1806 320 0
-1807 -1806 -320 0
1807 -1806 320 0
1807 1806 -320 0
-1808 1807 326 0
-1808 -1807 -326 0
1808 -1807 326 0
1808 1807 -326 0
-1809 1808 327 0
-1809 -1808 -327 0
1809 -1808 327 0
1809 1808 -327 0
-69 -1809 0
-1810 332 334 0
-1810 -332 -334 0
1810 -332 334 0
1810 332 -334 0
-1811 1810 335 0
-1811 -1810 -335 0
1811 -1810 335 0
1811 1810 -335 0
-1812 1811 341 0
-1812 -1811 -341 0
1812 -1811 341 0
1812 1811 -341 0
-1813 1812 342 0
-1813 -1812 -342 0
1813 -1812 342 0
1813 1812 -342 0
-69 -1813 0
-1814 347 349 0
-1814 -347 -349 0
1814 -347 349 0
1814 347 -349 0
-1815 1814 350 0
-1815 -1814 -350 0
1815 -1814 350 0
1815 1814 -350 0
-1816 1815 356 0
-1816 -1815 -356 0
1816 -1815 356 0
1816 1815 -356 0
-1817 1816 357 0
-1817 -1816 -357 0
1817 -1816 357 0
1817 1816 -357 0
-69 -1817 0
-1818 362 364 0
-1818 -362 -364 0
1818 -362 364 0
1818 362 -364 0
-1819 1818 365 0
-1819 -1818 -365 0
1819 -1818 365 0
1819 1818 -365 0
-1820 1819 371 0
-1820 -1819 -371 0
1820 -1819 371 0
1820 1819 -371 0
-1821 1820 372 0
-1821 -1820 -372 0
1821 -1820 372 0
1821 1820 -372 0
-69 -1821 0
-1822 316 318 0
-1822 -316 -318 0
1822 -316 318 0
1822 316 -318 0
-1823 1822 319 0
-1823 -1822 -319 0
1823 -1822 319 0
1823 1822 -319 0
-1824 1823 320 0
-1824 -1823 -320 0
1824 -1823 320 0
1824 1823 -320 0
-1825 1824 321 0
-1825 -1824 -321 0
1825 -1824 321 0
1825 1824 -321 0
-1826 1825 325 0
-1826 -1825 -325 0
1826 -1825 325 0
1826 1825 -325 0
-1827 1826 326 0
-1827 -1826 -326 0
1827 -1826 326 0
1827 1826 -326 0
-1828 1827 327 0
-1828 -1827 -327 0
1828 -1827 327 0
1828 1827 -327 0
-70 -1828 0
-1829 331 333 0
-1829 -331 -333 0
1829 -331 333 0
1829 331 -333 0
-1830 1829 334 0
-1830 -1829 -334 0
1830 -1829 334 0
1830 1829 -334 0
-1831 1830 335 0
-1831 -1830 -335 0
1831 -1830 335 0
1831 1830 -335 0
-1832 1831 336 0
-1832 -1831 -336 0
1832 -1831 336 0
1832 1831 -336 0
-1833 1832 340 0
-1833 -1832 -340 0
1833 -1832 340 0
1833 1832 -340 0
-1834 1833 341 0
-1834 -1833 -341 0
1834 -1833 341 0
1834 1833 -341 0
-1835 1834 342 0
-1835 -1834 -342 0
1835 -1834 342 0
1835 1834 -342 0
-70 -1835 0
-1836 346 348 0
-1836 -346 -348 0
1836 -346 348 0
1836 346 -348 0
-1837 1836 349 0
-1837 -1836 -349 0
1837 -1836 349 0
1837 1836 -349 0
-1838 1837 350 0
-1838 -1837 -350 0
1838 -1837 350 0
1838 1837 -350 0
-1839 1838 351 0
-1839 -1838 -351 0
1839 -1838 351 0
1839 1838 -351 0
-1840 1839 355 0
-1840 -1839 -355 0
1840 -1839 355 0
1840 1839 -355 0
-1841 1840 356 0
-1841 -1840 -356 0
1841 -1840 356 0
1841 1840 -356 0
-1842 1841 357 0
-1842 -1841 -357 0
1842 -1841 357 0
1842 1841 -357 0
-70 -1842 0
-1843 361 363 0
-1843 -361 -363 0
1843 -361 363 0
1843 361 -363 0
-1844 1843 364 0
-1844 -1843 -364 0
1844 -1843 364 0
1844 1843 -364 0
-1845 1844 365 0
-1845 -1844 -365 0
1845 -1844 365 0
1845 1844 -365 0
-1846 1845 366 0
-1846 -1845 -366 0
1846 -1845 366 0
1846 1845 -366 0
-1847 1846 370 0
-1847 -1846 -370 0
1847 -1846 370 0
1847 1846 -370 0
-1848 1847 371 0
-1848 -1847 -371 0
1848 -1847 371 0
1848 1847 -371 0
-1849 1848 372 0
-1849 -1848 -372 0
1849 -1848 372 0
1849 1848 -372 0
-70 -1849 0
-1850 316 317 0
-1850 -316 -317 0
1850 -316 317 0
1850 316 -317 0
-1851 1850 318 0
-1851 -1850 -318 0
1851 -1850 318 0
1851 1850 -318 0
-1852 1851 319 0
-1852 -1851 -319 0
1852 -1851 319 0
1852 1851 -319 0
-1853 1852 320 0
-1853 -1852 -320 0
1853 -1852 320 0
1853 1852 -320 0
-1854 1853 321 0
-1854 -1853 -321 0
1854 -1853 321 0
1854 1853 -321 0
-1855 1854 325 0
-1855 -1854 -325 0
1855 -1854 325 0
1855 1854 -325 0
-1856 1855 326 0
-1856 -1855 -326 0
1856 -1855 326 0
1856 1855 -326 0
-1857 1856 327 0
-1857 -1856 -327 0
1857 -1856 327 0
1857 1856 -327 0
-71 -1857 0
-1858 331 332 0
-1858 -331 -332 0
1858 -331 332 0
1858 331 -332 0
-1859 1858 333 0
-1859 -1858 -333 0
1859 -1858 333 0
1859 1858 -333 0
-1860 1859 334 0
-1860 -1859 -334 0
1860 -1859 334 0
1860 1859 -334 0
-1861 1860 335 0
-1861 -1860 -335 0
1861 -1860 335 0
1861 1860 -335 0
-1862 1861 336 0
-1862 -1861 -336 0
1862 -1861 336 0
1862 1861 -336 0
-1863 1862 340 0
-1863 -1862 -340 0
1863 -1862 340 0
1863 1862 -340 0
-1864 1863 341 0
-1864 -1863 -341 0
1864 -1863 341 0
1864 1863 -341 0
-1865 1864 342 0
-1865 -1864 -342 0
1865 -1864 342 0
1865 1864 -342 0
-71 -1865 0
-1866 346 347 0
-1866 -346 -347 0
1866 -346 347 0
1866 346 -347 0
-1867 1866 348 0
-1867 -1866 -348 0
1867 -1866 348 0
1867 1866 -348 0
-1868 1867 349 0
-1868 -1867 -349 0
1868 -1867 349 0
1868 1867 -349 0
-1869 1868 350 0
-1869 -1868 -350 0
1869 -1868 350 0
1869 1868 -350 0
-1870 1869 351 0
-1870 -1869 -351 0
1870 -1869 351 0
1870 1869 -351 0
-1871 1870 355 0
-1871 -1870 -355 0
1871 -1870 355 0
1871 1870 -355 0
-1872 1871 356 0
-1872 -1871 -356 0
1872 -1871 356 0
1872 1871 -356 0
-1873 1872 357 0
-1873 -1872 -357 0
1873 -1872 357 0
1873 1872 -357 0
-71 -1873 0
-1874 361 362 0
-1874 -361 -362 0
1874 -361 362 0
1874 361 -362 0
-1875 1874 363 0
-1875 -1874 -363 0
1875 -1874 363 0
1875 1874 -363 0
-1876 1875 364 0
-1876 -1875 -364 0
1876 -1875 364 0
1876 1875 -364 0
-1877 1876 365 0
-1877 -1876 -365 0
1877 -1876 365 0
1877 1876 -365 0
-1878 1877 366 0
-1878 -1877 -366 0
1878 -1877 366 0
1878 1877 -366 0
-1879 1878 370 0
-1879 -1878 -370 0
1879 -1878 370 0
1879 1878 -370 0
-1880 1879 371 0
-1880 -1879 -371 0
1880 -1879 371 0
1880 1879 -371 0
-1881 1880 372 0
-1881 -1880 -372 0
1881 -1880 372 0
1881 1880 -372 0
-71 -1881 0
-1882 316 317 0
-1882 -316 -317 0
1882 -316 317 0
1882 316 -317 0
-1883 1882 322 0
-1883 -1882 -322 0
1883 -1882 322 0
1883 1882 -322 0
-1884 1883 325 0
-1884 -1883 -325 0
1884 -1883 325 0
1884 1883 -325 0
-72 -1884 0
-1885 331 332 0
-1885 -331 -332 0
1885 -331 332 0
1885 331 -332 0
-1886 1885 337 0
-1886 -1885 -337 0
1886 -1885 337 0
1886 1885 -337 0
-1887 1886 340 0
-1887 -1886 -340 0
1887 -1886 340 0
1887 1886 -340 0
-72 -1887 0
-1888 346 347 0
-1888 -346 -347 0
1888 -346 347 0
1888 346 -347 0
-1889 1888 352 0
-1889 -1888 -352 0
1889 -1888 352 0
1889 1888 -352 0
-1890 1889 355 0
-1890 -1889 -355 0
1890 -1889 355 0
1890 1889 -355 0
-72 -1890 0
-1891 361 362 0
-1891 -361 -362 0
1891 -361 362 0
1891 361 -362 0
-1892 1891 367 0
-1892 -1891 -367 0
1892 -1891 367 0
1892 1891 -367 0
-1893 1892 370 0
-1893 -1892 -370 0
1893 -1892 370 0
1893 1892 -370 0
-72 -1893 0
-1894 316 317 0
-1894 -316 -317 0
1894 -316 317 0
1894 316 -317 0
-1895 1894 321 0
-1895 -1894 -321 0
1895 -1894 321 0
1895 1894 -321 0
-1896 1895 322 0
-1896 -1895 -322 0
1896 -1895 322 0
1896 1895 -322 0
-1897 1896 325 0
-1897 -1896 -325 0
1897 -1896 325 0
1897 1896 -325 0
-73 -1897 0
-1898 331 332 0
-1898 -331 -332 0
1898 -331 332 0
1898 331 -332 0
-1899 1898 336 0
-1899 -1898 -336 0
1899 -1898 336 0
1899 1898 -336 0
-1900 1899 337 0
-1900 -1899 -337 0
1900 -1899 337 0
1900 1899 -337 0
-1901 1900 340 0
-1901 -1900 -340 0
1901 -1900 340 0
1901 1900 -340 0
-73 -1901 0
-1902 346 347 0
-1902 -346 -347 0
1902 -346 347 0
1902 346 -347 0
-1903 1902 351 0
-1903 -1902 -351 0
1903 -1902 351 0
1903 1902 -351 0
-1904 1903 352 0
-1904 -1903 -352 0
1904 -1903 352 0
1904 1903 -352 0
-1905 1904 355 0
-1905 -1904 -355 0
1905 -1904 355 0
1905 1904 -355 0
-73 -1905 0
-1906 361 362 0
-1906 -361 -362 0
1906 -361 362 0
1906 361 -362 0
-1907 1906 366 0
-1907 -1906 -366 0
1907 -1906 366 0
1907 1906 -366 0
-1908 1907 367 0
-1908 -1907 -367 0
1908 -1907 367 0
1908 1907 -367 0
-1909 1908 370 0
-1909 -1908 -370 0
1909 -1908 370 0
1909 1908 -370 0
-73 -1909 0
-1910 323 326 0
-1910 -323 -326 0
1910 -323 326 0
1910 323 -326 0
-74 -1910 0
-1911 338 341 0
-1911 -338 -341 0
1911 -338 341 0
1911 338 -341 0
-74 -1911 0
-1912 353 356 0
-1912 -353 -356 0
1912 -353 356 0
1912 353 -356 0
-74 -1912 0
-1913 368 371 0
-1913 -368 -371 0
1913 -368 371 0
1913 368 -371 0
-74 -1913 0
-1914 321 323 0
-1914 -321 -323 0
1914 -321 323 0
1914 321 -323 0
-1915 1914 326 0
-1915 -1914 -326 0
1915 -1914 326 0
1915 1914 -326 0
-75 -1915 0
-1916 336 338 0
-1916 -336 -338 0
1916 -336 338 0
1916 336 -338 0
-1917 1916 341 0
-1917 -1916 -341 0
1917 -1916 341 0
1917 1916 -341 0
-75 -1917 0
-1918 351 353 0
-1918 -351 -353 0
1918 -351 353 0
1918 351 -353 0
-1919 1918 356 0
-1919 -1918 -356 0
1919 -1918 356 0
1919 1918 -356 0
-75 -1919 0
-1920 366 368 0
-1920 -366 -368 0
1920 -366 368 0
1920 366 -368 0
-1921 1920 371 0
-1921 -1920 -371 0
1921 -1920 371 0
1921 1920 -371 0
-75 -1921 0
-1922 316 317 0
-1922 -316 -317 0
1922 -316 317 0
1922 316 -317 0
-1923 1922 322 0
-1923 -1922 -322 0
1923 -1922 322 0
1923 1922 -322 0
-1924 1923 323 0
-1924 -1923 -323 0
1924 -1923 323 0
1924 1923 -323 0
-1925 1924 325 0
-1925 -1924 -325 0
1925 -1924 325 0
1925 1924 -325 0
-1926 1925 326 0
-1926 -1925 -326 0
1926 -1925 326 0
1926 1925 -326 0
-76 -1926 0
-1927 331 332 0
-1927 -331 -332 0
1927 -331 332 0
1927 331 -332 0
-1928 1927 337 0
-1928 -1927 -337 0
1928 -1927 337 0
1928 1927 -337 0
-1929 1928 338 0
-1929 -1928 -338 0
1929 -1928 338 0
1929 1928 -338 0
-1930 1929 340 0
-1930 -1929 -340 0
1930 -1929 340 0
1930 1929 -340 0
-1931 1930 341 0
-1931 -1930 -341 0
1931 -1930 341 0
1931 1930 -341 0
-76 -1931 0
-1932 346 347 0
-1932 -346 -347 0
1932 -346 347 0
1932 346 -347 0
-1933 1932 352 0
-1933 -1932 -352 0
1933 -1932 352 0
1933 1932 -352 0
-1934 1933 353 0
-1934 -1933 -353 0
1934 -1933 353 0
1934 1933 -353 0
-1935 1934 355 0
-1935 -1934 -355 0
1935 -1934 355 0
1935 1934 -355 0
-1936 1935 356 0
-1936 -1935 -356 0
1936 -1935 356 0
1936 1935 -356 0
-76 -1936 0
-1937 361 362 0
-1937 -361 -362 0
1937 -361 362 0
1937 361 -362 0
-1938 1937 367 0
-1938 -1937 -367 0
1938 -1937 367 0
1938 1937 -367 0
-1939 1938 368 0
-1939 -1938 -368 0
1939 -1938 368 0
1939 1938 -368 0
-1940 1939 370 0
-1940 -1939 -370 0
1940 -1939 370 0
1940 1939 -370 0
-1941 1940 371 0
-1941 -1940 -371 0
1941 -1940 371 0
1941 1940 -371 0
-76 -1941 0
-1942 316 317 0
-1942 -316 -317 0
1942 -316 317 0
1942 316 -317 0
-1943 1942 321 0
-1943 -1942 -321 0
1943 -1942 321 0
1943 1942 -321 0
-1944 1943 322 0
-1944 -1943 -322 0
1944 -1943 322 0
1944 1943 -322 0
-1945 1944 323 0
-1945 -1944 -323 0
1945 -1944 323 0
1945 1944 -323 0
-1946 1945 325 0
-1946 -1945 -325 0
1946 -1945 325 0
1946 1945 -325 0
-1947 1946 326 0
-1947 -1946 -326 0
1947 -1946 326 0
1947 1946 -326 0
-77 -1947 0
-1948 331 332 0
-1948 -331 -332 0
1948 -331 332 0
1948 331 -332 0
-1949 1948 336 0
-1949 -1948 -336 0
1949 -1948 336 0
1949 1948 -336 0
-1950 1949 337 0
-1950 -1949 -337 0
1950 -1949 337 0
1950 1949 -337 0
-1951 1950 338 0
-1951 -1950 -338 0
1951 -1950 338 0
1951 1950 -338 0
-1952 1951 340 0
-1952 -1951 -340 0
1952 -1951 340 0
1952 1951 -340 0
-1953 1952 341 0
-1953 -1952 -341 0
1953 -1952 341 0
1953 1952 -341 0
-77 -1953 0
-1954 346 347 0
-1954 -346 -347 0
1954 -346 347 0
1954 346 -347 0
-1955 1954 351 0
-1955 -1954 -351 0
1955 -1954 351 0
1955 1954 -351 0
-1956 1955 352 0
-1956 -1955 -352 0
1956 -1955 352 0
1956 1955 -352 0
-1957 1956 353 0
-1957 -1956 -353 0
1957 -1956 353 0
1957 1956 -353 0
-1958 1957 355 0
-1958 -1957 -355 0
1958 -1957 355 0
1958 1957 -355 0
-1959 1958 356 0
-1959 -1958 -356 0
1959 -1958 356 0
1959 1958 -356 0
-77 -1959 0
-1960 361 362 0
-1960 -361 -362 0
1960 -361 362 0
1960 361 -362 0
-1961 1960 366 0
-1961 -1960 -366 0
1961 -1960 366 0
1961 1960 -366 0
-1962 1961 367 0
-1962 -1961 -367 0
1962 -1961 367 0
1962 1961 -367 0
-1963 1962 368 0
-1963 -1962 -368 0
1963 -1962 368 0
1963 1962 -368 0
-1964 1963 370 0
-1964 -1963 -370 0
1964 -1963 370 0
1964 1963 -370 0
-1965 1964 371 0
-1965 -1964 -371 0
1965 -1964 371 0
1965 1964 -371 0
-77 -1965 0
-1966 324 327 0
-1966 -324 -327 0
1966 -324 327 0
1966 324 -327 0
-78 -1966 0
-1967 339 342 0
-1967 -339 -342 0
1967 -339 342 0
1967 339 -342 0
-78 -1967 0
-1968 354 357 0
-1968 -354 -357 0
1968 -354 357 0
1968 354 -357 0
-78 -1968 0
-1969 369 372 0
-1969 -369 -372 0
1969 -369 372 0
1969 369 -372 0
-78 -1969 0
-1970 321 324 0
-1970 -321 -324 0
1970 -321 324 0
1970 321 -324 0
-1971 1970 327 0
-1971 -1970 -327 0
1971 -1970 327 0
1971 1970 -327 0
-79 -1971 0
-1972 336 339 0
-1972 -336 -339 0
1972 -336 339 0
1972 336 -339 0
-1973 1972 342 0
-1973 -1972 -342 0
1973 -1972 342 0
1973 1972 -342 0
-79 -1973 0
-1974 351 354 0
-1974 -351 -354 0
1974 -351 354 0
1974 351 -354 0
-1975 1974 357 0
-1975 -1974 -357 0
1975 -1974 357 0
1975 1974 -357 0
-79 -1975 0
-1976 366 369 0
-1976 -366 -369 0
1976 -366 369 0
1976 366 -369 0
-1977 1976 372 0
-1977 -1976 -372 0
1977 -1976 372 0
1977 1976 -372 0
-79 -1977 0
-1978 316 317 0
-1978 -316 -317 0
1978 -316 317 0
1978 316 -317 0
-1979 1978 322 0
-1979 -1978 -322 0
1979 -1978 322 0
1979 1978 -322 0
-1980 1979 324 0
-1980 -1979 -324 0
1980 -1979 324 0
1980 1979 -324 0
-1981 1980 325 0
-1981 -1980 -325 0
1981 -1980 325 0
1981 1980 -325 0
-1982 1981 327 0
-1982 -1981 -327 0
1982 -1981 327 0
1982 1981 -327 0
-80 -1982 0
-1983 331 332 0
-1983 -331 -332 0
1983 -331 332 0
1983 331 -332 0
-1984 1983 337 0
-1984 -1983 -337 0
1984 -1983 337 0
1984 1983 -337 0
-1985 1984 339 0
-1985 -1984 -339 0
1985 -1984 339 0
1985 1984 -339 0
-1986 1985 340 0
-1986 -1985 -340 0
1986 -1985 340 0
1986 1985 -340 0
-1987 1986 342 0
-1987 -1986 -342 0
1987 -1986 342 0
1987 1986 -342 0
-80 -1987 0
-1988 346 347 0
-1988 -346 -347 0
1988 -346 347 0
1988 346 -347 0
-1989 1988 352 0
-1989 -1988 -352 0
1989 -1988 352 0
1989 1988 -352 0
-1990 1989 354 0
-1990 -1989 -354 0
1990 -1989 354 0
1990 1989 -354 0
-1991 1990 355 0
-1991 -1990 -355 0
1991 -1990 355 0
1991 1990 -355 0
-1992 1991 357 0
-1992 -1991 -357 0
1992 -1991 357 0
1992 1991 -357 0
-80 -1992 0
-1993 361 362 0
-1993 -361 -362 0
1993 -361 362 0
1993 361 -362 0
-1994 1993 367 0
-1994 -1993 -367 0
1994 -1993 367 0
1994 1993 -367 0
-1995 1994 369 0
-1995 -1994 -369 0
1995 -1994 369 0
1995 1994 -369 0
-1996 1995 370 0
-1996 -1995 -370 0
1996 -1995 370 0
1996 1995 -370 0
-1997 1996 372 0
-1997 -1996 -372 0
1997 -1996 372 0
1997 1996 -372 0
-80 -1997 0
-1998 316 317 0
-1998 -316 -317 0
1998 -316 317 0
1998 316 -317 0
-1999 1998 321 0
-1999 -1998 -321 0
1999 -1998 321 0
1999 1998 -321 0
-2000 1999 322 0
-2000 -1999 -322 0
2000 -1999 322 0
2000 1999 -322 0
-2001 2000 324 0
-2001 -2000 -324 0
2001 -2000 324 0
2001 2000 -324 0
-2002 2001 325 0
-2002 -2001 -325 0
2002 -2001 325 0
2002 2001 -325 0
-2003 2002 327 0
-2003 -2002 -327 0
2003 -2002 327 0
2003 2002 -327 0
-81 -2003 0
-2004 331 332 0
-2004 -331 -332 0
2004 -331 332 0
2004 331 -332 0
-2005 2004 336 0
-2005 -2004 -336 0
2005 -2004 336 0
2005 2004 -336 0
-2006 2005 337 0
-2006 -2005 -337 0
2006 -2005 337 0
2006 2005 -337 0
-2007 2006 339 0
-2007 -2006 -339 0
2007 -2006 339 0
2007 2006 -339 0
-2008 2007 340 0
-2008 -2007 -340 0
2008 -2007 340 0
2008 2007 -340 0
-2009 2008 342 0
-2009 -2008 -342 0
2009 -2008 342 0
2009 2008 -342 0
-81 -2009 0
-2010 346 347 0
-2010 -346 -347 0
2010 -346 347 0
2010 346 -347 0
-2011 2010 351 0
-2011 -2010 -351 0
2011 -2010 351 0
2011 2010 -351 0
-2012 2011 352 0
-2012 -2011 -352 0
2012 -2011 352 0
2012 2011 -352 0
-2013 2012 354 0
-2013 -2012 -354 0
2013 -2012 354 0
2013 2012 -354 0
-2014 2013 355 0
-2014 -2013 -355 0
2014 -2013 355 0
2014 2013 -355 0
-2015 2014 357 0
-2015 -2014 -357 0
2015 -2014 357 0
2015 2014 -357 0
-81 -2015 0
-2016 361 362 0
-2016 -361 -362 0
2016 -361 362 0
2016 361 -362 0
-2017 2016 366 0
-2017 -2016 -366 0
2017 -2016 366 0
2017 2016 -366 0
-2018 2017 367 0
-2018 -2017 -367 0
2018 -2017 367 0
2018 2017 -367 0
-2019 2018 369 0
-2019 -2018 -369 0
2019 -2018 369 0
2019 2018 -369 0
-2020 2019 370 0
-2020 -2019 -370 0
2020 -2019 370 0
2020 2019 -370 0
-2021 2020 372 0
-2021 -2020 -372 0
2021 -2020 372 0
2021 2020 -372 0
-81 -2021 0
-2022 323 324 0
-2022 -323 -324 0
2022 -323 324 0
2022 323 -324 0
-2023 2022 326 0
-2023 -2022 -326 0
2023 -2022 326 0
2023 2022 -326 0
-2024 2023 327 0
-2024 -2023 -327 0
2024 -2023 327 0
2024 2023 -327 0
-82 -2024 0
-2025 338 339 0
-2025 -338 -339 0
2025 -338 339 0
2025 338 -339 0
-2026 2025 341 0
-2026 -2025 -341 0
2026 -2025 341 0
2026 2025 -341 0
-2027 2026 342 0
-2027 -2026 -342 0
2027 -2026 342 0
2027 2026 -342 0
-82 -2027 0
-2028 353 354 0
-2028 -353 -354 0
2028 -353 354 0
2028 353 -354 0
-2029 2028 356 0
-2029 -2028 -356 0
2029 -2028 356 0
2029 2028 -356 0
-2030 2029 357 0
-2030 -2029 -357 0
2030 -2029 357 0
2030 2029 -357 0
-82 -2030 0
-2031 368 369 0
-2031 -368 -369 0
2031 -368 369 0
2031 368 -369 0
-2032 2031 371 0
-2032 -2031 -371 0
2032 -2031 371 0
2032 2031 -371 0
-2033 2032 372 0
-2033 -2032 -372 0
2033 -2032 372 0
2033 2032 -372 0
-82 -2033 0
-2034 321 323 0
-2034 -321 -323 0
2034 -321 323 0
2034 321 -323 0
-2035 2034 324 0
-2035 -2034 -324 0
2035 -2034 324 0
2035 2034 -324 0
-2036 2035 326 0
-2036 -2035 -326 0
2036 -2035 326 0
2036 2035 -326 0
-2037 2036 327 0
-2037 -2036 -327 0
2037 -2036 327 0
2037 2036 -327 0
-83 -2037 0
-2038 336 338 0
-2038 -336 -338 0
2038 -336 338 0
2038 336 -338 0
-2039 2038 339 0
-2039 -2038 -339 0
2039 -2038 339 0
2039 2038 -339 0
-2040 2039 341 0
-2040 -2039 -341 0
2040 -2039 341 0
2040 2039 -341 0
-2041 2040 342 0
-2041 -2040 -342 0
2041 -2040 342 0
2041 2040 -342 0
-83 -2041 0
-2042 351 353 0
-2042 -351 -353 0
2042 -351 353 0
2042 351 -353 0
-2043 2042 354 0
-2043 -2042 -354 0
2043 -2042 354 0
2043 2042 -354 0
-2044 2043 356 0
-2044 -2043 -356 0
2044 -2043 356 0
2044 2043 -356 0
-2045 2044 357 0
-2045 -2044 -357 0
2045 -2044 357 0
2045 2044 -357 0
-83 -2045 0
-2046 366 368 0
-2046 -366 -368 0
2046 -366 368 0
2046 366 -368 0
-2047 2046 369 0
-2047 -2046 -369 0
2047 -2046 369 0
2047 2046 -369 0
-2048 2047 371 0
-2048 -2047 -371 0
2048 -2047 371 0
2048 2047 -371 0
-2049 2048 372 0
-2049 -2048 -372 0
2049 -2048 372 0
2049 2048 -372 0
-83 -2049 0
-2050 316 317 0
-2050 -316 -317 0
2050 -316 317 0
2050 316 -317 0
-2051 2050 322 0
-2051 -2050 -322 0
2051 -2050 322 0
2051 2050 -322 0
-2052 2051 323 0
-2052 -2051 -323 0
2052 -2051 323 0
2052 2051 -323 0
-2053 2052 324 0
-2053 -2052 -324 0
2053 -2052 324 0
2053 2052 -324 0
-2054 2053 325 0
-2054 -2053 -325 0
2054 -2053 325 0
2054 2053 -325 0
-2055 2054 326 0
-2055 -2054 -326 0
2055 -2054 326 0
2055 2054 -326 0
-2056 2055 327 0
-2056 -2055 -327 0
2056 -2055 327 0
2056 2055 -327 0
-84 -2056 0
-2057 331 332 0
-2057 -331 -332 0
2057 -331 332 0
2057 331 -332 0
-2058 2057 337 0
-2058 -2057 -337 0
2058 -2057 337 0
2058 2057 -337 0
-2059 2058 338 0
-2059 -2058 -338 0
2059 -2058 338 0
2059 2058 -338 0
-2060 2059 339 0
-2060 -2059 -339 0
2060 -2059 339 0
2060 2059 -339 0
-2061 2060 340 0
-2061 -2060 -340 0
2061 -2060 340 0
2061 2060 -340 0
-2062 2061 341 0
-2062 -2061 -341 0
2062 -2061 341 0
2062 2061 -341 0
-2063 2062 342 0
-2063 -2062 -342 0
2063 -2062 342 0
2063 2062 -342 0
-84 -2063 0
-2064 346 347 0
-2064 -346 -347 0
2064 -346 347 0
2064 346 -347 0
-2065 2064 352 0
-2065 -2064 -352 0
2065 -2064 352 0
2065 2064 -352 0
-2066 2065 353 0
-2066 -2065 -353 0
2066 -2065 353 0
2066 2065 -353 0
-2067 2066 354 0
-2067 -2066 -354 0
2067 -2066 354 0
2067 2066 -354 0
-2068 2067 355 0
-2068 -2067 -355 0
2068 -2067 355 0
2068 2067 -355 0
-2069 2068 356 0
-2069 -2068 -356 0
2069 -2068 356 0
2069 2068 -356 0
-2070 2069 357 0
-2070 -2069 -357 0
2070 -2069 357 0
2070 2069 -357 0
-84 -2070 0
-2071 361 362 0
-2071 -361 -362 0
2071 -361 362 0
2071 361 -362 0
-2072 2071 367 0
-2072 -2071 -367 0
2072 -2071 367 0
2072 2071 -367 0
-2073 2072 368 0
-2073 -2072 -368 0
2073 -2072 368 0
2073 2072 -368 0
-2074 2073 369 0
-2074 -2073 -369 0
2074 -2073 369 0
2074 2073 -369 0
-2075 2074 370 0
-2075 -2074 -370 0
2075 -2074 370 0
2075 2074 -370 0
-2076 2075 371 0
-2076 -2075 -371 0
2076 -2075 371 0
2076 2075 -371 0
-2077 2076 372 0
-2077 -2076 -372 0
2077 -2076 372 0
2077 2076 -372 0
-84 -2077 0
-2078 316 317 0
-2078 -316 -317 0
2078 -316 317 0
2078 316 -317 0
-2079 2078 321 0
-2079 -2078 -321 0
2079 -2078 321 0
2079 2078 -321 0
-2080 2079 322 0
-2080 -2079 -322 0
2080 -2079 322 0
2080 2079 -322 0
-2081 2080 323 0
-2081 -2080 -323 0
2081 -2080 323 0
2081 2080 -323 0
-2082 2081 324 0
-2082 -2081 -324 0
2082 -2081 324 0
2082 2081 -324 0
-2083 2082 325 0
-2083 -2082 -325 0
2083 -2082 325 0
2083 2082 -325 0
-2084 2083 326 0
-2084 -2083 -326 0
2084 -2083 326 0
2084 2083 -326 0
-2085 2084 327 0
-2085 -2084 -327 0
2085 -2084 327 0
2085 2084 -327 0
-85 -2085 0
-2086 331 332 0
-2086 -331 -332 0
2086 -331 332 0
2086 331 -332 0
-2087 2086 336 0
-2087 -2086 -336 0
2087 -2086 336 0
2087 2086 -336 0
-2088 2087 337 0
-2088 -2087 -337 0
2088 -2087 337 0
2088 2087 -337 0
-2089 2088 338 0
-2089 -2088 -338 0
2089 -2088 338 0
2089 2088 -338 0
-2090 2089 339 0
-2090 -2089 -339 0
2090 -2089 339 0
2090 2089 -339 0
-2091 2090 340 0
-2091 -2090 -340 0
2091 -2090 340 0
2091 2090 -340 0
-2092 2091 341 0
-2092 -2091 -341 0
2092 -2091 341 0
2092 2091 -341 0
-2093 2092 342 0
-2093 -2092 -342 0
2093 -2092 342 0
2093 2092 -342 0
-85 -2093 0
-2094 346 347 0
-2094 -346 -347 0
2094 -346 347 0
2094 346 -347 0
-2095 2094 351 0
-2095 -2094 -351 0
2095 -2094 351 0
2095 2094 -351 0
-2096 2095 352 0
-2096 -2095 -352 0
2096 -2095 352 0
2096 2095 -352 0
-2097 2096 353 0
-2097 -2096 -353 0
2097 -2096 353 0
2097 2096 -353 0
-2098 2097 354 0
-2098 -2097 -354 0
2098 -2097 354 0
2098 2097 -354 0
-2099 2098 355 0
-2099 -2098 -355 0
2099 -2098 355 0
2099 2098 -355 0
-2100 2099 356 0
-2100 -2099 -356 0
2100 -2099 356 0
2100 2099 -356 0
-2101 2100 357 0
-2101 -2100 -357 0
2101 -2100 357 0
2101 2100 -357 0
-85 -2101 0
-2102 361 362 0
-2102 -361 -362 0
2102 -361 362 0
2102 361 -362 0
-2103 2102 366 0
-2103 -2102 -366 0
2103 -2102 366 0
2103 2102 -366 0
-2104 2103 367 0
-2104 -2103 -367 0
2104 -2103 367 0
2104 2103 -367 0
-2105 2104 368 0
-2105 -2104 -368 0
2105 -2104 368 0
2105 2104 -368 0
-2106 2105 369 0
-2106 -2105 -369 0
2106 -2105 369 0
2106 2105 -369 0
-2107 2106 370 0
-2107 -2106 -370 0
2107 -2106 370 0
2107 2106 -370 0
-2108 2107 371 0
-2108 -2107 -371 0
2108 -2107 371 0
2108 2107 -371 0
-2109 2108 372 0
-2109 -2108 -372 0
2109 -2108 372 0
2109 2108 -372 0
-85 -2109 0
-2110 316 317 0
-2110 -316 -317 0
2110 -316 317 0
2110 316 -317 0
-2111 2110 318 0
-2111 -2110 -318 0
2111 -2110 318 0
2111 2110 -318 0
-2112 2111 322 0
-2112 -2111 -322 0
2112 -2111 322 0
2112 2111 -322 0
-2113 2112 325 0
-2113 -2112 -325 0
2113 -2112 325 0
2113 2112 -325 0
-86 -2113 0
-2114 331 332 0
-2114 -331 -332 0
2114 -331 332 0
2114 331 -332 0
-2115 2114 333 0
-2115 -2114 -333 0
2115 -2114 333 0
2115 2114 -333 0
-2116 2115 337 0
-2116 -2115 -337 0
2116 -2115 337 0
2116 2115 -337 0
-2117 2116 340 0
-2117 -2116 -340 0
2117 -2116 340 0
2117 2116 -340 0
-86 -2117 0
-2118 346 347 0
-2118 -346 -347 0
2118 -346 347 0
2118 346 -347 0
-2119 2118 348 0
-2119 -2118 -348 0
2119 -2118 348 0
2119 2118 -348 0
-2120 2119 352 0
-2120 -2119 -352 0
2120 -2119 352 0
2120 2119 -352 0
-2121 2120 355 0
-2121 -2120 -355 0
2121 -2120 355 0
2121 2120 -355 0
-86 -2121 0
-2122 361 362 0
-2122 -361 -362 0
2122 -361 362 0
2122 361 -362 0
-2123 2122 363 0
-2123 -2122 -363 0
2123 -2122 363 0
2123 2122 -363 0
-2124 2123 367 0
-2124 -2123 -367 0
2124 -2123 367 0
2124 2123 -367 0
-2125 2124 370 0
-2125 -2124 -370 0
2125 -2124 370 0
2125 2124 -370 0
-86 -2125 0
-2126 316 318 0
-2126 -316 -318 0
2126 -316 318 0
2126 316 -318 0
-2127 2126 321 0
-2127 -2126 -321 0
2127 -2126 321 0
2127 2126 -321 0
-2128 2127 322 0
-2128 -2127 -322 0
2128 -2127 322 0
2128 2127 -322 0
-2129 2128 325 0
-2129 -2128 -325 0
2129 -2128 325 0
2129 2128 -325 0
-87 -2129 0
-2130 331 333 0
-2130 -331 -333 0
2130 -331 333 0
2130 331 -333 0
-2131 2130 336 0
-2131 -2130 -336 0
2131 -2130 336 0
2131 2130 -336 0
-2132 2131 337 0
-2132 -2131 -337 0
2132 -2131 337 0
2132 2131 -337 0
-2133 2132 340 0
-2133 -2132 -340 0
2133 -2132 340 0
2133 2132 -340 0
-87 -2133 0
-2134 346 348 0
-2134 -346 -348 0
2134 -346 348 0
2134 346 -348 0
-2135 2134 351 0
-2135 -2134 -351 0
2135 -2134 351 0
2135 2134 -351 0
-2136 2135 352 0
-2136 -2135 -352 0
2136 -2135 352 0
2136 2135 -352 0
-2137 2136 355 0
-2137 -2136 -355 0
2137 -2136 355 0
2137 2136 -355 0
-87 -2137 0
-2138 361 363 0
-2138 -361 -363 0
2138 -361 363 0
2138 361 -363 0
-2139 2138 366 0
-2139 -2138 -366 0
2139 -2138 366 0
2139 2138 -366 0
-2140 2139 367 0
-2140 -2139 -367 0
2140 -2139 367 0
2140 2139 -367 0
-2141 2140 370 0
-2141 -2140 -370 0
2141 -2140 370 0
2141 2140 -370 0
-87 -2141 0
-2142 319 323 0
-2142 -319 -323 0
2142 -319 323 0
2142 319 -323 0
-2143 2142 326 0
-2143 -2142 -326 0
2143 -2142 326 0
2143 2142 -326 0
-88 -2143 0
-2144 334 338 0
-2144 -334 -338 0
2144 -334 338 0
2144 334 -338 0
-2145 2144 341 0
-2145 -2144 -341 0
2145 -2144 341 0
2145 2144 -341 0
-88 -2145 0
-2146 349 353 0
-2146 -349 -353 0
2146 -349 353 0
2146 349 -353 0
-2147 2146 356 0
-2147 -2146 -356 0
2147 -2146 356 0
2147 2146 -356 0
-88 -2147 0
-2148 364 368 0
-2148 -364 -368 0
2148 -364 368 0
2148 364 -368 0
-2149 2148 371 0
-2149 -2148 -371 0
2149 -2148 371 0
2149 2148 -371 0
-88 -2149 0
-2150 317 319 0
-2150 -317 -319 0
2150 -317 319 0
2150 317 -319 0
-2151 2150 321 0
-2151 -2150 -321 0
2151 -2150 321 0
2151 2150 -321 0
-2152 2151 323 0
-2152 -2151 -323 0
2152 -2151 323 0
2152 2151 -323 0
-2153 2152 326 0
-2153 -2152 -326 0
2153 -2152 326 0
2153 2152 -326 0
-89 -2153 0
-2154 332 334 0
-2154 -332 -334 0
2154 -332 334 0
2154 332 -334 0
-2155 2154 336 0
-2155 -2154 -336 0
2155 -2154 336 0
2155 2154 -336 0
-2156 2155 338 0
-2156 -2155 -338 0
2156 -2155 338 0
2156 2155 -338 0
-2157 2156 341 0
-2157 -2156 -341 0
2157 -2156 341 0
2157 2156 -341 0
-89 -2157 0
-2158 347 349 0
-2158 -347 -349 0
2158 -347 349 0
2158 347 -349 0
-2159 2158 351 0
-2159 -2158 -351 0
2159 -2158 351 0
2159 2158 -351 0
-2160 2159 353 0
-2160 -2159 -353 0
2160 -2159 353 0
2160 2159 -353 0
-2161 2160 356 0
-2161 -2160 -356 0
2161 -2160 356 0
2161 2160 -356 0
-89 -2161 0
-2162 362 364 0
-2162 -362 -364 0
2162 -362 364 0
2162 362 -364 0
-2163 2162 366 0
-2163 -2162 -366 0
2163 -2162 366 0
2163 2162 -366 0
-2164 2163 368 0
-2164 -2163 -368 0
2164 -2163 368 0
2164 2163 -368 0
-2165 2164 371 0
-2165 -2164 -371 0
2165 -2164 371 0
2165 2164 -371 0
-89 -2165 0
-2166 316 317 0
-2166 -316 -317 0
2166 -316 317 0
2166 316 -317 0
-2167 2166 318 0
-2167 -2166 -318 0
2167 -2166 318 0
2167 2166 -318 0
-2168 2167 319 0
-2168 -2167 -319 0
2168 -2167 319 0
2168 2167 -319 0
-2169 2168 322 0
-2169 -2168 -322 0
2169 -2168 322 0
2169 2168 -322 0
-2170 2169 323 0
-2170 -2169 -323 0
2170 -2169 323 0
2170 2169 -323 0
-2171 2170 325 0
-2171 -2170 -325 0
2171 -2170 325 0
2171 2170 -325 0
-2172 2171 326 0
-2172 -2171 -326 0
2172 -2171 326 0
2172 2171 -326 0
-90 -2172 0
-2173 331 332 0
-2173 -331 -332 0
2173 -331 332 0
2173 331 -332 0
-2174 2173 333 0
-2174 -2173 -333 0
2174 -2173 333 0
2174 2173 -333 0
-2175 2174 334 0
-2175 -2174 -334 0
2175 -2174 334 0
2175 2174 -334 0
-2176 2175 337 0
-2176 -2175 -337 0
2176 -2175 337 0
2176 2175 -337 0
-2177 2176 338 0
-2177 -2176 -338 0
2177 -2176 338 0
2177 2176 -338 0
-2178 2177 340 0
-2178 -2177 -340 0
2178 -2177 340 0
2178 2177 -340 0
-2179 2178 341 0
-2179 -2178 -341 0
2179 -2178 341 0
2179 2178 -341 0
-90 -2179 0
-2180 346 347 0
-2180 -346 -347 0
2180 -346 347 0
2180 346 -347 0
-2181 2180 348 0
-2181 -2180 -348 0
2181 -2180 348 0
2181 2180 -348 0
-2182 2181 349 0
-2182 -2181 -349 0
2182 -2181 349 0
2182 2181 -349 0
-2183 2182 352 0
-2183 -2182 -352 0
2183 -2182 352 0
2183 2182 -352 0
-2184 2183 353 0
-2184 -2183 -353 0
2184 -2183 353 0
2184 2183 -353 0
-2185 2184 355 0
-2185 -2184 -355 0
2185 -2184 355 0
2185 2184 -355 0
-2186 2185 356 0
-2186 -2185 -356 0
2186 -2185 356 0
2186 2185 -356 0
-90 -2186 0
-2187 361 362 0
-2187 -361 -362 0
2187 -361 362 0
2187 361 -362 0
-2188 2187 363 0
-2188 -2187 -363 0
2188 -2187 363 0
2188 2187 -363 0
-2189 2188 364 0
-2189 -2188 -364 0
2189 -2188 364 0
2189 2188 -364 0
-2190 2189 367 0
-2190 -2189 -367 0
2190 -2189 367 0
2190 2189 -367 0
-2191 2190 368 0
-2191 -2190 -368 0
2191 -2190 368 0
2191 2190 -368 0
-2192 2191 370 0
-2192 -2191 -370 0
2192 -2191 370 0
2192 2191 -370 0
-2193 2192 371 0
-2193 -2192 -371 0
2193 -2192 371 0
2193 2192 -371 0
-90 -2193 0
-2194 316 318 0
-2194 -316 -318 0
2194 -316 318 0
2194 316 -318 0
-2195 2194 319 0
-2195 -2194 -319 0
2195 -2194 319 0
2195 2194 -319 0
-2196 2195 321 0
-2196 -2195 -321 0
2196 -2195 321 0
2196 2195 -321 0
-2197 2196 322 0
-2197 -2196 -322 0
2197 -2196 322 0
2197 2196 -322 0
-2198 2197 323 0
-2198 -2197 -323 0
2198 -2197 323 0
2198 2197 -323 0
-2199 2198 325 0
-2199 -2198 -325 0
2199 -2198 325 0
2199 2198 -325 0
-2200 2199 326 0
-2200 -2199 -326 0
2200 -2199 326 0
2200 2199 -326 0
-91 -2200 0
-2201 331 333 0
-2201 -331 -333 0
2201 -331 333 0
2201 331 -333 0
-2202 2201 334 0
-2202 -2201 -334 0
2202 -2201 334 0
2202 2201 -334 0
-2203 2202 336 0
-2203 -2202 -336 0
2203 -2202 336 0
2203 2202 -336 0
-2204 2203 337 0
-2204 -2203 -337 0
2204 -2203 337 0
2204 2203 -337 0
-2205 2204 338 0
-2205 -2204 -338 0
2205 -2204 338 0
2205 2204 -338 0
-2206 2205 340 0
-2206 -2205 -340 0
2206 -2205 340 0
2206 2205 -340 0
-2207 2206 341 0
-2207 -2206 -341 0
2207 -2206 341 0
2207 2206 -341 0
-91 -2207 0
-2208 346 348 0
-2208 -346 -348 0
2208 -346 348 0
2208 346 -348 0
-2209 2208 349 0
-2209 -2208 -349 0
2209 -2208 349 0
2209 2208 -349 0
-2210 2209 351 0
-2210 -2209 -351 0
2210 -2209 351 0
2210 2209 -351 0
-2211 2210 352 0
-2211 -2210 -352 0
2211 -2210 352 0
2211 2210 -352 0
-2212 2211 353 0
-2212 -2211 -353 0
2212 -2211 353 0
2212 2211 -353 0
-2213 2212 355 0
-2213 -2212 -355 0
2213 -2212 355 0
2213 2212 -355 0
-2214 2213 356 0
-2214 -2213 -356 0
2214 -2213 356 0
2214 2213 -356 0
-91 -2214 0
-2215 361 363 0
-2215 -361 -363 0
2215 -361 363 0
2215 361 -363 0
-2216 2215 364 0
-2216 -2215 -364 0
2216 -2215 364 0
2216 2215 -364 0
-2217 2216 366 0
-2217 -2216 -366 0
2217 -2216 366 0
2217 2216 -366 0
-2218 2217 367 0
-2218 -2217 -367 0
2218 -2217 367 0
2218 2217 -367 0
-2219 2218 368 0
-2219 -2218 -368 0
2219 -2218 368 0
2219 2218 -368 0
-2220 2219 370 0
-2220 -2219 -370 0
2220 -2219 370 0
2220 2219 -370 0
-2221 2220 371 0
-2221 -2220 -371 0
2221 -2220 371 0
2221 2220 -371 0
-91 -2221 0
-2222 320 324 0
-2222 -320 -324 0
2222 -320 324 0
2222 320 -324 0
-2223 2222 327 0
-2223 -2222 -327 0
2223 -2222 327 0
2223 2222 -327 0
-92 -2223 0
-2224 335 339 0
-2224 -335 -339 0
2224 -335 339 0
2224 335 -339 0
-2225 2224 342 0
-2225 -2224 -342 0
2225 -2224 342 0
2225 2224 -342 0
-92 -2225 0
-2226 350 354 0
-2226 -350 -354 0
2226 -350 354 0
2226 350 -354 0
-2227 2226 357 0
-2227 -2226 -357 0
2227 -2226 357 0
2227 2226 -357 0
-92 -2227 0
-2228 365 369 0
-2228 -365 -369 0
2228 -365 369 0
2228 365 -369 0
-2229 2228 372 0
-2229 -2228 -372 0
2229 -2228 372 0
2229 2228 -372 0
-92 -2229 0
-2230 317 320 0
-2230 -317 -320 0
2230 -317 320 0
2230 317 -320 0
-2231 2230 321 0
-2231 -2230 -321 0
2231 -2230 321 0
2231 2230 -321 0
-2232 2231 324 0
-2232 -2231 -324 0
2232 -2231 324 0
2232 2231 -324 0
-2233 2232 327 0
-2233 -2232 -327 0
2233 -2232 327 0
2233 2232 -327 0
-93 -2233 0
-2234 332 335 0
-2234 -332 -335 0
2234 -332 335 0
2234 332 -335 0
-2235 2234 336 0
-2235 -2234 -336 0
2235 -2234 336 0
2235 2234 -336 0
-2236 2235 339 0
-2236 -2235 -339 0
2236 -2235 339 0
2236 2235 -339 0
-2237 2236 342 0
-2237 -2236 -342 0
2237 -2236 342 0
2237 2236 -342 0
-93 -2237 0
-2238 347 350 0
-2238 -347 -350 0
2238 -347 350 0
2238 347 -350 0
-2239 2238 351 0
-2239 -2238 -351 0
2239 -2238 351 0
2239 2238 -351 0
-2240 2239 354 0
-2240 -2239 -354 0
2240 -2239 354 0
2240 2239 -354 0
-2241 2240 357 0
-2241 -2240 -357 0
2241 -2240 357 0
2241 2240 -357 0
-93 -2241 0
-2242 362 365 0
-2242 -362 -365 0
2242 -362 365 0
2242 362 -365 0
-2243 2242 366 0
-2243 -2242 -366 0
2243 -2242 366 0
2243 2242 -366 0
-2244 2243 369 0
-2244 -2243 -369 0
2244 -2243 369 0
2244 2243 -369 0
-2245 2244 372 0
-2245 -2244 -372 0
2245 -2244 372 0
2245 2244 -372 0
-93 -2245 0
-2246 316 317 0
-2246 -316 -317 0
2246 -316 317 0
2246 316 -317 0
-2247 2246 318 0
-2247 -2246 -318 0
2247 -2246 318 0
2247 2246 -318 0
-2248 2247 320 0
-2248 -2247 -320 0
2248 -2247 320 0
2248 2247 -320 0
-2249 2248 322 0
-2249 -2248 -322 0
2249 -2248 322 0
2249 2248 -322 0
-2250 2249 324 0
-2250 -2249 -324 0
2250 -2249 324 0
2250 2249 -324 0
-2251 2250 325 0
-2251 -2250 -325 0
2251 -2250 325 0
2251 2250 -325 0
-2252 2251 327 0
-2252 -2251 -327 0
2252 -2251 327 0
2252 2251 -327 0
-94 -2252 0
-2253 331 332 0
-2253 -331 -332 0
2253 -331 332 0
2253 331 -332 0
-2254 2253 333 0
-2254 -2253 -333 0
2254 -2253 333 0
2254 2253 -333 0
-2255 2254 335 0
-2255 -2254 -335 0
2255 -2254 335 0
2255 2254 -335 0
-2256 2255 337 0
-2256 -2255 -337 0
2256 -2255 337 0
2256 2255 -337 0
-2257 2256 339 0
-2257 -2256 -339 0
2257 -2256 339 0
2257 2256 -339 0
-2258 2257 340 0
-2258 -2257 -340 0
2258 -2257 340 0
2258 2257 -340 0
-2259 2258 342 0
-2259 -2258 -342 0
2259 -2258 342 0
2259 2258 -342 0
-94 -2259 0
-2260 346 347 0
-2260 -346 -347 0
2260 -346 347 0
2260 346 -347 0
-2261 2260 348 0
-2261 -2260 -348 0
2261 -2260 348 0
2261 2260 -348 0
-2262 2261 350 0
-2262 -2261 -350 0
2262 -2261 350 0
2262 2261 -350 0
-2263 2262 352 0
-2263 -2262 -352 0
2263 -2262 352 0
2263 2262 -352 0
-2264 2263 354 0
-2264 -2263 -354 0
2264 -2263 354 0
2264 2263 -354 0
-2265 2264 355 0
-2265 -2264 -355 0
2265 -2264 355 0
2265 2264 -355 0
-2266 2265 357 0
-2266 -2265 -357 0
2266 -2265 357 0
2266 2265 -357 0
-94 -2266 0
-2267 361 362 0
-2267 -361 -362 0
2267 -361 362 0
2267 361 -362 0
-2268 2267 363 0
-2268 -2267 -363 0
2268 -2267 363 0
2268 2267 -363 0
-2269 2268 365 0
-2269 -2268 -365 0
2269 -2268 365 0
2269 2268 -365 0
-2270 2269 367 0
-2270 -2269 -367 0
2270 -2269 367 0
2270 2269 -367 0
-2271 2270 369 0
-2271 -2270 -369 0
2271 -2270 369 0
2271 2270 -369 0
-2272 2271 370 0
-2272 -2271 -370 0
2272 -2271 370 0
2272 2271 -370 0
-2273 2272 372 0
-2273 -2272 -372 0
2273 -2272 372 0
2273 2272 -372 0
-94 -2273 0
-2274 316 318 0
-2274 -316 -318 0
2274 -316 318 0
2274 316 -318 0
-2275 2274 320 0
-2275 -2274 -320 0
2275 -2274 320 0
2275 2274 -320 0
-2276 2275 321 0
-2276 -2275 -321 0
2276 -2275 321 0
2276 2275 -321 0
-2277 2276 322 0
-2277 -2276 -322 0
2277 -2276 322 0
2277 2276 -322 0
-2278 2277 324 0
-2278 -2277 -324 0
2278 -2277 324 0
2278 2277 -324 0
-2279 2278 325 0
-2279 -2278 -325 0
2279 -2278 325 0
2279 2278 -325 0
-2280 2279 327 0
-2280 -2279 -327 0
2280 -2279 327 0
2280 2279 -327 0
-95 -2280 0
-2281 331 333 0
-2281 -331 -333 0
2281 -331 333 0
2281 331 -333 0
-2282 2281 335 0
-2282 -2281 -335 0
2282 -2281 335 0
2282 2281 -335 0
-2283 2282 336 0
-2283 -2282 -336 0
2283 -2282 336 0
2283 2282 -336 0
-2284 2283 337 0
-2284 -2283 -337 0
2284 -2283 337 0
2284 2283 -337 0
-2285 2284 339 0
-2285 -2284 -339 0
2285 -2284 339 0
2285 2284 -339 0
-2286 2285 340 0
-2286 -2285 -340 0
2286 -2285 340 0
2286 2285 -340 0
-2287 2286 342 0
-2287 -2286 -342 0
2287 -2286 342 0
2287 2286 -342 0
-95 -2287 0
-2288 346 348 0
-2288 -346 -348 0
2288 -346 348 0
2288 346 -348 0
-2289 2288 350 0
-2289 -2288 -350 0
2289 -2288 350 0
2289 2288 -350 0
-2290 2289 351 0
-2290 -2289 -351 0
2290 -2289 351 0
2290 2289 -351 0
-2291 2290 352 0
-2291 -2290 -352 0
2291 -2290 352 0
2291 2290 -352 0
-2292 2291 354 0
-2292 -2291 -354 0
2292 -2291 354 0
2292 2291 -354 0
-2293 2292 355 0
-2293 -2292 -355 0
2293 -2292 355 0
2293 2292 -355 0
-2294 2293 357 0
-2294 -2293 -357 0
2294 -2293 357 0
2294 2293 -357 0
-95 -2294 0
-2295 361 363 0
-2295 -361 -363 0
2295 -361 363 0
2295 361 -363 0
-2296 2295 365 0
-2296 -2295 -365 0
2296 -2295 365 0
2296 2295 -365 0
-2297 2296 366 0
-2297 -2296 -366 0
2297 -2296 366 0
2297 2296 -366 0
-2298 2297 367 0
-2298 -2297 -367 0
2298 -2297 367 0
2298 2297 -367 0
-2299 2298 369 0
-2299 -2298 -369 0
2299 -2298 369 0
2299 2298 -369 0
-2300 2299 370 0
-2300 -2299 -370 0
2300 -2299 370 0
2300 2299 -370 0
-2301 2300 372 0
-2301 -2300 -372 0
2301 -2300 372 0
2301 2300 -372 0
-95 -2301 0
-2302 319 320 0
-2302 -319 -320 0
2302 -319 320 0
2302 319 -320 0
-2303 2302 323 0
-2303 -2302 -323 0
2303 -2302 323 0
2303 2302 -323 0
-2304 2303 324 0
-2304 -2303 -324 0
2304 -2303 324 0
2304 2303 -324 0
-2305 2304 326 0
-2305 -2304 -326 0
2305 -2304 326 0
2305 2304 -326 0
-2306 2305 327 0
-2306 -2305 -327 0
2306 -2305 327 0
2306 2305 -327 0
-96 -2306 0
-2307 334 335 0
-2307 -334 -335 0
2307 -334 335 0
2307 334 -335 0
-2308 2307 338 0
-2308 -2307 -338 0
2308 -2307 338 0
2308 2307 -338 0
-2309 2308 339 0
-2309 -2308 -339 0
2309 -2308 339 0
2309 2308 -339 0
-2310 2309 341 0
-2310 -2309 -341 0
2310 -2309 341 0
2310 2309 -341 0
-2311 2310 342 0
-2311 -2310 -342 0
2311 -2310 342 0
2311 2310 -342 0
-96 -2311 0
-2312 349 350 0
-2312 -349 -350 0
2312 -349 350 0
2312 349 -350 0
-2313 2312 353 0
-2313 -2312 -353 0
2313 -2312 353 0
2313 2312 -353 0
-2314 2313 354 0
-2314 -2313 -354 0
2314 -2313 354 0
2314 2313 -354 0
-2315 2314 356 0
-2315 -2314 -356 0
2315 -2314 356 0
2315 2314 -356 0
-2316 2315 357 0
-2316 -2315 -357 0
2316 -2315 357 0
2316 2315 -357 0
-96 -2316 0
-2317 364 365 0
-2317 -364 -365 0
2317 -364 365 0
2317 364 -365 0
-2318 2317 368 0
-2318 -2317 -368 0
2318 -2317 368 0
2318 2317 -368 0
-2319 2318 369 0
-2319 -2318 -369 0
2319 -2318 369 0
2319 2318 -369 0
-2320 2319 371 0
-2320 -2319 -371 0
2320 -2319 371 0
2320 2319 -371 0
-2321 2320 372 0
-2321 -2320 -372 0
2321 -2320 372 0
2321 2320 -372 0
-96 -2321 0
-2322 317 319 0
-2322 -317 -319 0
2322 -317 319 0
2322 317 -319 0
-2323 2322 320 0
-2323 -2322 -320 0
2323 -2322 320 0
2323 2322 -320 0
-2324 2323 321 0
-2324 -2323 -321 0
2324 -2323 321 0
2324 2323 -321 0
-2325 2324 323 0
-2325 -2324 -323 0
2325 -2324 323 0
2325 2324 -323 0
-2326 2325 324 0
-2326 -2325 -324 0
2326 -2325 324 0
2326 2325 -324 0
-2327 2326 326 0
-2327 -2326 -326 0
2327 -2326 326 0
2327 2326 -326 0
-2328 2327 327 0
-2328 -2327 -327 0
2328 -2327 327 0
2328 2327 -327 0
-97 -2328 0
-2329 332 334 0
-2329 -332 -334 0
2329 -332 334 0
2329 332 -334 0
-2330 2329 335 0
-2330 -2329 -335 0
2330 -2329 335 0
2330 2329 -335 0
-2331 2330 336 0
-2331 -2330 -336 0
2331 -2330 336 0
2331 2330 -336 0
-2332 2331 338 0
-2332 -2331 -338 0
2332 -2331 338 0
2332 2331 -338 0
-2333 2332 339 0
-2333 -2332 -339 0
2333 -2332 339 0
2333 2332 -339 0
-2334 2333 341 0
-2334 -2333 -341 0
2334 -2333 341 0
2334 2333 -341 0
-2335 2334 342 0
-2335 -2334 -342 0
2335 -2334 342 0
2335 2334 -342 0
-97 -2335 0
-2336 347 349 0
-2336 -347 -349 0
2336 -347 349 0
2336 347 -349 0
-2337 2336 350 0
-2337 -2336 -350 0
2337 -2336 350 0
2337 2336 -350 0
-2338 2337 351 0
-2338 -2337 -351 0
2338 -2337 351 0
2338 2337 -351 0
-2339 2338 353 0
-2339 -2338 -353 0
2339 -2338 353 0
2339 2338 -353 0
-2340 2339 354 0
-2340 -2339 -354 0
2340 -2339 354 0
2340 2339 -354 0
-2341 2340 356 0
-2341 -2340 -356 0
2341 -2340 356 0
2341 2340 -356 0
-2342 2341 357 0
-2342 -2341 -357 0
2342 -2341 357 0
2342 2341 -357 0
-97 -2342 0
-2343 362 364 0
-2343 -362 -364 0
2343 -362 364 0
2343 362 -364 0
-2344 2343 365 0
-2344 -2343 -365 0
2344 -2343 365 0
2344 2343 -365 0
-2345 2344 366 0
-2345 -2344 -366 0
2345 -2344 366 0
2345 2344 -366 0
-2346 2345 368 0
-2346 -2345 -368 0
2346 -2345 368 0
2346 2345 -368 0
-2347 2346 369 0
-2347 -2346 -369 0
2347 -2346 369 0
2347 2346 -369 0
-2348 2347 371 0
-2348 -2347 -371 0
2348 -2347 371 0
2348 2347 -371 0
-2349 2348 372 0
-2349 -2348 -372 0
2349 -2348 372 0
2349 2348 -372 0
-97 -2349 0
-2350 316 317 0
-2350 -316 -317 0
2350 -316 317 0
2350 316 -317 0
-2351 2350 318 0
-2351 -2350 -318 0
2351 -2350 318 0
2351 2350 -318 0
-2352 2351 319 0
-2352 -2351 -319 0
2352 -2351 319 0
2352 2351 -319 0
-2353 2352 320 0
-2353 -2352 -320 0
2353 -2352 320 0
2353 2352 -320 0
-2354 2353 322 0
-2354 -2353 -322 0
2354 -2353 322 0
2354 2353 -322 0
-2355 2354 323 0
-2355 -2354 -323 0
2355 -2354 323 0
2355 2354 -323 0
-2356 2355 324 0
-2356 -2355 -324 0
2356 -2355 324 0
2356 2355 -324 0
-2357 2356 325 0
-2357 -2356 -325 0
2357 -2356 325 0
2357 2356 -325 0
-2358 2357 326 0
-2358 -2357 -326 0
2358 -2357 326 0
2358 2357 -326 0
-2359 2358 327 0
-2359 -2358 -327 0
2359 -2358 327 0
2359 2358 -327 0
-98 -2359 0
-2360 331 332 0
-2360 -331 -332 0
2360 -331 332 0
2360 331 -332 0
-2361 2360 333 0
-2361 -2360 -333 0
2361 -2360 333 0
2361 2360 -333 0
-2362 2361 334 0
-2362 -2361 -334 0
2362 -2361 334 0
2362 2361 -334 0
-2363 2362 335 0
-2363 -2362 -335 0
2363 -2362 335 0
2363 2362 -335 0
-2364 2363 337 0
-2364 -2363 -337 0
2364 -2363 337 0
2364 2363 -337 0
-2365 2364 338 0
-2365 -2364 -338 0
2365 -2364 338 0
2365 2364 -338 0
-2366 2365 339 0
-2366 -2365 -339 0
2366 -2365 339 0
2366 2365 -339 0
-2367 2366 340 0
-2367 -2366 -340 0
2367 -2366 340 0
2367 2366 -340 0
-2368 2367 341 0
-2368 -2367 -341 0
2368 -2367 341 0
2368 2367 -341 0
-2369 2368 342 0
-2369 -2368 -342 0
2369 -2368 342 0
2369 2368 -342 0
-98 -2369 0
-2370 346 347 0
-2370 -346 -347 0
2370 -346 347 0
2370 346 -347 0
-2371 2370 348 0
-2371 -2370 -348 0
2371 -2370 348 0
2371 2370 -348 0
-2372 2371 349 0
-2372 -2371 -349 0
2372 -2371 349 0
2372 2371 -349 0
-2373 2372 350 0
-2373 -2372 -350 0
2373 -2372 350 0
2373 2372 -350 0
-2374 2373 352 0
-2374 -2373 -352 0
2374 -2373 352 0
2374 2373 -352 0
-2375 2374 353 0
-2375 -2374 -353 0
2375 -2374 353 0
2375 2374 -353 0
-2376 2375 354 0
-2376 -2375 -354 0
2376 -2375 354 0
2376 2375 -354 0
-2377 2376 355 0
-2377 -2376 -355 0
2377 -2376 355 0
2377 2376 -355 0
-2378 2377 356 0
-2378 -2377 -356 0
2378 -2377 356 0
2378 2377 -356 0
-2379 2378 357 0
-2379 -2378 -357 0
2379 -2378 357 0
2379 2378 -357 0
-98 -2379 0
-2380 361 362 0
-2380 -361 -362 0
2380 -361 362 0
2380 361 -362 0
-2381 2380 363 0
-2381 -2380 -363 0
2381 -2380 363 0
2381 2380 -363 0
-2382 2381 364 0
-2382 -2381 -364 0
2382 -2381 364 0
2382 2381 -364 0
-2383 2382 365 0
-2383 -2382 -365 0
2383 -2382 365 0
2383 2382 -365 0
-2384 2383 367 0
-2384 -2383 -367 0
2384 -2383 367 0
2384 2383 -367 0
-2385 2384 368 0
-2385 -2384 -368 0
2385 -2384 368 0
2385 2384 -368 0
-2386 2385 369 0
-2386 -2385 -369 0
2386 -2385 369 0
2386 2385 -369 0
-2387 2386 370 0
-2387 -2386 -370 0
2387 -2386 370 0
2387 2386 -370 0
-2388 2387 371 0
-2388 -2387 -371 0
2388 -2387 371 0
2388 2387 -371 0
-2389 2388 372 0
-2389 -2388 -372 0
2389 -2388 372 0
2389 2388 -372 0
-98 -2389 0
-2390 316 318 0
-2390 -316 -318 0
2390 -316 318 0
2390 316 -318 0
-2391 2390 319 0
-2391 -2390 -319 0
2391 -2390 319 0
2391 2390 -319 0
-2392 2391 320 0
-2392 -2391 -320 0
2392 -2391 320 0
2392 2391 -320 0
-2393 2392 321 0
-2393 -2392 -321 0
2393 -2392 321 0
2393 2392 -321 0
-2394 2393 322 0
-2394 -2393 -322 0
2394 -2393 322 0
2394 2393 -322 0
-2395 2394 323 0
-2395 -2394 -323 0
2395 -2394 323 0
2395 2394 -323 0
-2396 2395 324 0
-2396 -2395 -324 0
2396 -2395 324 0
2396 2395 -324 0
-2397 2396 325 0
-2397 -2396 -325 0
2397 -2396 325 0
2397 2396 -325 0
-2398 2397 326 0
-2398 -2397 -326 0
2398 -2397 326 0
2398 2397 -326 0
-2399 2398 327 0
-2399 -2398 -327 0
2399 -2398 327 0
2399 2398 -327 0
-99 -2399 0
-2400 331 333 0
-2400 -331 -333 0
2400 -331 333 0
2400 331 -333 0
-2401 2400 334 0
-2401 -2400 -334 0
2401 -2400 334 0
2401 2400 -334 0
-2402 2401 335 0
-2402 -2401 -335 0
2402 -2401 335 0
2402 2401 -335 0
-2403 2402 336 0
-2403 -2402 -336 0
2403 -2402 336 0
2403 2402 -336 0
-2404 2403 337 0
-2404 -2403 -337 0
2404 -2403 337 0
2404 2403 -337 0
-2405 2404 338 0
-2405 -2404 -338 0
2405 -2404 338 0
2405 2404 -338 0
-2406 2405 339 0
-2406 -2405 -339 0
2406 -2405 339 0
2406 2405 -339 0
-2407 2406 340 0
-2407 -2406 -340 0
2407 -2406 340 0
2407 2406 -340 0
-2408 2407 341 0
-2408 -2407 -341 0
2408 -2407 341 0
2408 2407 -341 0
-2409 2408 342 0
-2409 -2408 -342 0
2409 -2408 342 0
2409 2408 -342 0
-99 -2409 0
-2410 346 348 0
-2410 -346 -348 0
2410 -346 348 0
2410 346 -348 0
-2411 2410 349 0
-2411 -2410 -349 0
2411 -2410 349 0
2411 2410 -349 0
-2412 2411 350 0
-2412 -2411 -350 0
2412 -2411 350 0
2412 2411 -350 0
-2413 2412 351 0
-2413 -2412 -351 0
2413 -2412 351 0
2413 2412 -351 0
-2414 2413 352 0
-2414 -2413 -352 0
2414 -2413 352 0
2414 2413 -352 0
-2415 2414 353 0
-2415 -2414 -353 0
2415 -2414 353 0
2415 2414 -353 0
-2416 2415 354 0
-2416 -2415 -354 0
2416 -2415 354 0
2416 2415 -354 0
-2417 2416 355 0
-2417 -2416 -355 0
2417 -2416 355 0
2417 2416 -355 0
-2418 2417 356 0
-2418 -2417 -356 0
2418 -2417 356 0
2418 2417 -356 0
-2419 2418 357 0
-2419 -2418 -357 0
2419 -2418 357 0
2419 2418 -357 0
-99 -2419 0
-2420 361 363 0
-2420 -361 -363 0
2420 -361 363 0
2420 361 -363 0
-2421 2420 364 0
-2421 -2420 -364 0
2421 -2420 364 0
2421 2420 -364 0
-2422 2421 365 0
-2422 -2421 -365 0
2422 -2421 365 0
2422 2421 -365 0
-2423 2422 366 0
-2423 -2422 -366 0
2423 -2422 366 0
2423 2422 -366 0
-2424 2423 367 0
-2424 -2423 -367 0
2424 -2423 367 0
2424 2423 -367 0
-2425 2424 368 0
-2425 -2424 -368 0
2425 -2424 368 0
2425 2424 -368 0
-2426 2425 369 0
-2426 -2425 -369 0
2426 -2425 369 0
2426 2425 -369 0
-2427 2426 370 0
-2427 -2426 -370 0
2427 -2426 370 0
2427 2426 -370 0
-2428 2427 371 0
-2428 -2427 -371 0
2428 -2427 371 0
2428 2427 -371 0
-2429 2428 372 0
-2429 -2428 -372 0
2429 -2428 372 0
2429 2428 -372 0
-99 -2429 0
-100 -328 0
-100 -343 0
-100 -358 0
-100 -373 0
-2430 318 328 0
-2430 -318 -328 0
2430 -318 328 0
2430 318 -328 0
-101 -2430 0
-2431 333 343 0
-2431 -333 -343 0
2431 -333 343 0
2431 333 -343 0
-101 -2431 0
-2432 348 358 0
-2432 -348 -358 0
2432 -348 358 0
2432 348 -358 0
-101 -2432 0
-2433 363 373 0
-2433 -363 -373 0
2433 -363 373 0
2433 363 -373 0
-101 -2433 0
-2434 322 328 0
-2434 -322 -328 0
2434 -322 328 0
2434 322 -328 0
-102 -2434 0
-2435 337 343 0
-2435 -337 -343 0
2435 -337 343 0
2435 337 -343 0
-102 -2435 0
-2436 352 358 0
-2436 -352 -358 0
2436 -352 358 0
2436 352 -358 0
-102 -2436 0
-2437 367 373 0
-2437 -367 -373 0
2437 -367 373 0
2437 367 -373 0
-102 -2437 0
-2438 318 322 0
-2438 -318 -322 0
2438 -318 322 0
2438 318 -322 0
-2439 2438 328 0
-2439 -2438 -328 0
2439 -2438 328 0
2439 2438 -328 0
-103 -2439 0
-2440 333 337 0
-2440 -333 -337 0
2440 -333 337 0
2440 333 -337 0
-2441 2440 343 0
-2441 -2440 -343 0
2441 -2440 343 0
2441 2440 -343 0
-103 -2441 0
-2442 348 352 0
-2442 -348 -352 0
2442 -348 352 0
2442 348 -352 0
-2443 2442 358 0
-2443 -2442 -358 0
2443 -2442 358 0
2443 2442 -358 0
-103 -2443 0
-2444 363 367 0
-2444 -363 -367 0
2444 -363 367 0
2444 363 -367 0
-2445 2444 373 0
-2445 -2444 -373 0
2445 -2444 373 0
2445 2444 -373 0
-103 -2445 0
-104 -329 0
-104 -344 0
-104 -359 0
-104 -374 0
-2446 318 329 0
-2446 -318 -329 0
2446 -318 329 0
2446 318 -329 0
-105 -2446 0
-2447 333 344 0
-2447 -333 -344 0
2447 -333 344 0
2447 333 -344 0
-105 -2447 0
-2448 348 359 0
-2448 -348 -359 0
2448 -348 359 0
2448 348 -359 0
-105 -2448 0
-2449 363 374 0
-2449 -363 -374 0
2449 -363 374 0
2449 363 -374 0
-105 -2449 0
-2450 322 329 0
-2450 -322 -329 0
2450 -322 329 0
2450 322 -329 0
-106 -2450 0
-2451 337 344 0
-2451 -337 -344 0
2451 -337 344 0
2451 337 -344 0
-106 -2451 0
-2452 352 359 0
-2452 -352 -359 0
2452 -352 359 0
2452 352 -359 0
-106 -2452 0
-2453 367 374 0
-2453 -367 -374 0
2453 -367 374 0
2453 367 -374 0
-106 -2453 0
-2454 318 322 0
-2454 -318 -322 0
2454 -318 322 0
2454 318 -322 0
-2455 2454 329 0
-2455 -2454 -329 0
2455 -2454 329 0
2455 2454 -329 0
-107 -2455 0
-2456 333 337 0
-2456 -333 -337 0
2456 -333 337 0
2456 333 -337 0
-2457 2456 344 0
-2457 -2456 -344 0
2457 -2456 344 0
2457 2456 -344 0
-107 -2457 0
-2458 348 352 0
-2458 -348 -352 0
2458 -348 352 0
2458 348 -352 0
-2459 2458 359 0
-2459 -2458 -359 0
2459 -2458 359 0
2459 2458 -359 0
-107 -2459 0
-2460 363 367 0
-2460 -363 -367 0
2460 -363 367 0
2460 363 -367 0
-2461 2460 374 0
-2461 -2460 -374 0
2461 -2460 374 0
2461 2460 -374 0
-107 -2461 0
-2462 328 329 0
-2462 -328 -329 0
2462 -328 329 0
2462 328 -329 0
-108 -2462 0
-2463 343 344 0
-2463 -343 -344 0
2463 -343 344 0
2463 343 -344 0
-108 -2463 0
-2464 358 359 0
-2464 -358 -359 0
2464 -358 359 0
2464 358 -359 0
-108 -2464 0
-2465 373 374 0
-2465 -373 -374 0
2465 -373 374 0
2465 373 -374 0
-108 -2465 0
-2466 318 328 0
-2466 -318 -328 0
2466 -318 328 0
2466 318 -328 0
-2467 2466 329 0
-2467 -2466 -329 0
2467 -2466 329 0
2467 2466 -329 0
-109 -2467 0
-2468 333 343 0
-2468 -333 -343 0
2468 -333 343 0
2468 333 -343 0
-2469 2468 344 0
-2469 -2468 -344 0
2469 -2468 344 0
2469 2468 -344 0
-109 -2469 0
-2470 348 358 0
-2470 -348 -358 0
2470 -348 358 0
2470 348 -358 0
-2471 2470 359 0
-2471 -2470 -359 0
2471 -2470 359 0
2471 2470 -359 0
-109 -2471 0
-2472 363 373 0
-2472 -363 -373 0
2472 -363 373 0
2472 363 -373 0
-2473 2472 374 0
-2473 -2472 -374 0
2473 -2472 374 0
2473 2472 -374 0
-109 -2473 0
-2474 322 328 0
-2474 -322 -328 0
2474 -322 328 0
2474 322 -328 0
-2475 2474 329 0
-2475 -2474 -329 0
2475 -2474 329 0
2475 2474 -329 0
-110 -2475 0
-2476 337 343 0
-2476 -337 -343 0
2476 -337 343 0
2476 337 -343 0
-2477 2476 344 0
-2477 -2476 -344 0
2477 -2476 344 0
2477 2476 -344 0
-110 -2477 0
-2478 352 358 0
-2478 -352 -358 0
2478 -352 358 0
2478 352 -358 0
-2479 2478 359 0
-2479 -2478 -359 0
2479 -2478 359 0
2479 2478 -359 0
-110 -2479 0
-2480 367 373 0
-2480 -367 -373 0
2480 -367 373 0
2480 367 -373 0
-2481 2480 374 0
-2481 -2480 -374 0
2481 -2480 374 0
2481 2480 -374 0
-110 -2481 0
-2482 318 322 0
-2482 -318 -322 0
2482 -318 322 0
2482 318 -322 0
-2483 2482 328 0
-2483 -2482 -328 0
2483 -2482 328 0
2483 2482 -328 0
-2484 2483 329 0
-2484 -2483 -329 0
2484 -2483 329 0
2484 2483 -329 0
-111 -2484 0
-2485 333 337 0
-2485 -333 -337 0
2485 -333 337 0
2485 333 -337 0
-2486 2485 343 0
-2486 -2485 -343 0
2486 -2485 343 0
2486 2485 -343 0
-2487 2486 344 0
-2487 -2486 -344 0
2487 -2486 344 0
2487 2486 -344 0
-111 -2487 0
-2488 348 352 0
-2488 -348 -352 0
2488 -348 352 0
2488 348 -352 0
-2489 2488 358 0
-2489 -2488 -358 0
2489 -2488 358 0
2489 2488 -358 0
-2490 2489 359 0
-2490 -2489 -359 0
2490 -2489 359 0
2490 2489 -359 0
-111 -2490 0
-2491 363 367 0
-2491 -363 -367 0
2491 -363 367 0
2491 363 -367 0
-2492 2491 373 0
-2492 -2491 -373 0
2492 -2491 373 0
2492 2491 -373 0
-2493 2492 374 0
-2493 -2492 -374 0
2493 -2492 374 0
2493 2492 -374 0
-111 -2493 0
-2494 319 328 0
-2494 -319 -328 0
2494 -319 328 0
2494 319 -328 0
-112 -2494 0
-2495 334 343 0
-2495 -334 -343 0
2495 -334 343 0
2495 334 -343 0
-112 -2495 0
-2496 349 358 0
-2496 -349 -358 0
2496 -349 358 0
2496 349 -358 0
-112 -2496 0
-2497 364 373 0
-2497 -364 -373 0
2497 -364 373 0
2497 364 -373 0
-112 -2497 0
-2498 318 319 0
-2498 -318 -319 0
2498 -318 319 0
2498 318 -319 0
-2499 2498 328 0
-2499 -2498 -328 0
2499 -2498 328 0
2499 2498 -328 0
-113 -2499 0
-2500 333 334 0
-2500 -333 -334 0
2500 -333 334 0
2500 333 -334 0
-2501 2500 343 0
-2501 -2500 -343 0
2501 -2500 343 0
2501 2500 -343 0
-113 -2501 0
-2502 348 349 0
-2502 -348 -349 0
2502 -348 349 0
2502 348 -349 0
-2503 2502 358 0
-2503 -2502 -358 0
2503 -2502 358 0
2503 2502 -358 0
-113 -2503 0
-2504 363 364 0
-2504 -363 -364 0
2504 -363 364 0
2504 363 -364 0
-2505 2504 373 0
-2505 -2504 -373 0
2505 -2504 373 0
2505 2504 -373 0
-113 -2505 0
-2506 316 317 0
-2506 -316 -317 0
2506 -316 317 0
2506 316 -317 0
-2507 2506 319 0
-2507 -2506 -319 0
2507 -2506 319 0
2507 2506 -319 0
-2508 2507 322 0
-2508 -2507 -322 0
2508 -2507 322 0
2508 2507 -322 0
-2509 2508 325 0
-2509 -2508 -325 0
2509 -2508 325 0
2509 2508 -325 0
-2510 2509 328 0
-2510 -2509 -328 0
2510 -2509 328 0
2510 2509 -328 0
-114 -2510 0
-2511 331 332 0
-2511 -331 -332 0
2511 -331 332 0
2511 331 -332 0
-2512 2511 334 0
-2512 -2511 -334 0
2512 -2511 334 0
2512 2511 -334 0
-2513 2512 337 0
-2513 -2512 -337 0
2513 -2512 337 0
2513 2512 -337 0
-2514 2513 340 0
-2514 -2513 -340 0
2514 -2513 340 0
2514 2513 -340 0
-2515 2514 343 0
-2515 -2514 -343 0
2515 -2514 343 0
2515 2514 -343 0
-114 -2515 0
-2516 346 347 0
-2516 -346 -347 0
2516 -346 347 0
2516 346 -347 0
-2517 2516 349 0
-2517 -2516 -349 0
2517 -2516 349 0
2517 2516 -349 0
-2518 2517 352 0
-2518 -2517 -352 0
2518 -2517 352 0
2518 2517 -352 0
-2519 2518 355 0
-2519 -2518 -355 0
2519 -2518 355 0
2519 2518 -355 0
-2520 2519 358 0
-2520 -2519 -358 0
2520 -2519 358 0
2520 2519 -358 0
-114 -2520 0
-2521 361 362 0
-2521 -361 -362 0
2521 -361 362 0
2521 361 -362 0
-2522 2521 364 0
-2522 -2521 -364 0
2522 -2521 364 0
2522 2521 -364 0
-2523 2522 367 0
-2523 -2522 -367 0
2523 -2522 367 0
2523 2522 -367 0
-2524 2523 370 0
-2524 -2523 -370 0
2524 -2523 370 0
2524 2523 -370 0
-2525 2524 373 0
-2525 -2524 -373 0
2525 -2524 373 0
2525 2524 -373 0
-114 -2525 0
-2526 316 317 0
-2526 -316 -317 0
2526 -316 317 0
2526 316 -317 0
-2527 2526 318 0
-2527 -2526 -318 0
2527 -2526 318 0
2527 2526 -318 0
-2528 2527 319 0
-2528 -2527 -319 0
2528 -2527 319 0
2528 2527 -319 0
-2529 2528 322 0
-2529 -2528 -322 0
2529 -2528 322 0
2529 2528 -322 0
-2530 2529 325 0
-2530 -2529 -325 0
2530 -2529 325 0
2530 2529 -325 0
-2531 2530 328 0
-2531 -2530 -328 0
2531 -2530 328 0
2531 2530 -328 0
-115 -2531 0
-2532 331 332 0
-2532 -331 -332 0
2532 -331 332 0
2532 331 -332 0
-2533 2532 333 0
-2533 -2532 -333 0
2533 -2532 333 0
2533 2532 -333 0
-2534 2533 334 0
-2534 -2533 -334 0
2534 -2533 334 0
2534 2533 -334 0
-2535 2534 337 0
-2535 -2534 -337 0
2535 -2534 337 0
2535 2534 -337 0
-2536 2535 340 0
-2536 -2535 -340 0
2536 -2535 340 0
2536 2535 -340 0
-2537 2536 343 0
-2537 -2536 -343 0
2537 -2536 343 0
2537 2536 -343 0
-115 -2537 0
-2538 346 347 0
-2538 -346 -347 0
2538 -346 347 0
2538 346 -347 0
-2539 2538 348 0
-2539 -2538 -348 0
2539 -2538 348 0
2539 2538 -348 0
-2540 2539 349 0
-2540 -2539 -349 0
2540 -2539 349 0
2540 2539 -349 0
-2541 2540 352 0
-2541 -2540 -352 0
2541 -2540 352 0
2541 2540 -352 0
-2542 2541 355 0
-2542 -2541 -355 0
2542 -2541 355 0
2542 2541 -355 0
-2543 2542 358 0
-2543 -2542 -358 0
2543 -2542 358 0
2543 2542 -358 0
-115 -2543 0
-2544 361 362 0
-2544 -361 -362 0
2544 -361 362 0
2544 361 -362 0
-2545 2544 363 0
-2545 -2544 -363 0
2545 -2544 363 0
2545 2544 -363 0
-2546 2545 364 0
-2546 -2545 -364 0
2546 -2545 364 0
2546 2545 -364 0
-2547 2546 367 0
-2547 -2546 -367 0
2547 -2546 367 0
2547 2546 -367 0
-2548 2547 370 0
-2548 -2547 -370 0
2548 -2547 370 0
2548 2547 -370 0
-2549 2548 373 0
-2549 -2548 -373 0
2549 -2548 373 0
2549 2548 -373 0
-115 -2549 0
-2550 320 329 0
-2550 -320 -329 0
2550 -320 329 0
2550 320 -329 0
-116 -2550 0
-2551 335 344 0
-2551 -335 -344 0
2551 -335 344 0
2551 335 -344 0
-116 -2551 0
-2552 350 359 0
-2552 -350 -359 0
2552 -350 359 0
2552 350 -359 0
-116 -2552 0
-2553 365 374 0
-2553 -365 -374 0
2553 -365 374 0
2553 365 -374 0
-116 -2553 0
-2554 318 320 0
-2554 -318 -320 0
2554 -318 320 0
2554 318 -320 0
-2555 2554 329 0
-2555 -2554 -329 0
2555 -2554 329 0
2555 2554 -329 0
-117 -2555 0
-2556 333 335 0
-2556 -333 -335 0
2556 -333 335 0
2556 333 -335 0
-2557 2556 344 0
-2557 -2556 -344 0
2557 -2556 344 0
2557 2556 -344 0
-117 -2557 0
-2558 348 350 0
-2558 -348 -350 0
2558 -348 350 0
2558 348 -350 0
-2559 2558 359 0
-2559 -2558 -359 0
2559 -2558 359 0
2559 2558 -359 0
-117 -2559 0
-2560 363 365 0
-2560 -363 -365 0
2560 -363 365 0
2560 363 -365 0
-2561 2560 374 0
-2561 -2560 -374 0
2561 -2560 374 0
2561 2560 -374 0
-117 -2561 0
-2562 316 317 0
-2562 -316 -317 0
2562 -316 317 0
2562 316 -317 0
-2563 2562 320 0
-2563 -2562 -320 0
2563 -2562 320 0
2563 2562 -320 0
-2564 2563 322 0
-2564 -2563 -322 0
2564 -2563 322 0
2564 2563 -322 0
-2565 2564 325 0
-2565 -2564 -325 0
2565 -2564 325 0
2565 2564 -325 0
-2566 2565 329 0
-2566 -2565 -329 0
2566 -2565 329 0
2566 2565 -329 0
-118 -2566 0
-2567 331 332 0
-2567 -331 -332 0
2567 -331 332 0
2567 331 -332 0
-2568 2567 335 0
-2568 -2567 -335 0
2568 -2567 335 0
2568 2567 -335 0
-2569 2568 337 0
-2569 -2568 -337 0
2569 -2568 337 0
2569 2568 -337 0
-2570 2569 340 0
-2570 -2569 -340 0
2570 -2569 340 0
2570 2569 -340 0
-2571 2570 344 0
-2571 -2570 -344 0
2571 -2570 344 0
2571 2570 -344 0
-118 -2571 0
-2572 346 347 0
-2572 -346 -347 0
2572 -346 347 0
2572 346 -347 0
-2573 2572 350 0
-2573 -2572 -350 0
2573 -2572 350 0
2573 2572 -350 0
-2574 2573 352 0
-2574 -2573 -352 0
2574 -2573 352 0
2574 2573 -352 0
-2575 2574 355 0
-2575 -2574 -355 0
2575 -2574 355 0
2575 2574 -355 0
-2576 2575 359 0
-2576 -2575 -359 0
2576 -2575 359 0
2576 2575 -359 0
-118 -2576 0
-2577 361 362 0
-2577 -361 -362 0
2577 -361 362 0
2577 361 -362 0
-2578 2577 365 0
-2578 -2577 -365 0
2578 -2577 365 0
2578 2577 -365 0
-2579 2578 367 0
-2579 -2578 -367 0
2579 -2578 367 0
2579 2578 -367 0
-2580 2579 370 0
-2580 -2579 -370 0
2580 -2579 370 0
2580 2579 -370 0
-2581 2580 374 0
-2581 -2580 -374 0
2581 -2580 374 0
2581 2580 -374 0
-118 -2581 0
-2582 316 317 0
-2582 -316 -317 0
2582 -316 317 0
2582 316 -317 0
-2583 2582 318 0
-2583 -2582 -318 0
2583 -2582 318 0
2583 2582 -318 0
-2584 2583 320 0
-2584 -2583 -320 0
2584 -2583 320 0
2584 2583 -320 0
-2585 2584 322 0
-2585 -2584 -322 0
2585 -2584 322 0
2585 2584 -322 0
-2586 2585 325 0
-2586 -2585 -325 0
2586 -2585 325 0
2586 2585 -325 0
-2587 2586 329 0
-2587 -2586 -329 0
2587 -2586 329 0
2587 2586 -329 0
-119 -2587 0
-2588 331 332 0
-2588 -331 -332 0
2588 -331 332 0
2588 331 -332 0
-2589 2588 333 0
-2589 -2588 -333 0
2589 -2588 333 0
2589 2588 -333 0
-2590 2589 335 0
-2590 -2589 -335 0
2590 -2589 335 0
2590 2589 -335 0
-2591 2590 337 0
-2591 -2590 -337 0
2591 -2590 337 0
2591 2590 -337 0
-2592 2591 340 0
-2592 -2591 -340 0
2592 -2591 340 0
2592 2591 -340 0
-2593 2592 344 0
-2593 -2592 -344 0
2593 -2592 344 0
2593 2592 -344 0
-119 -2593 0
-2594 346 347 0
-2594 -346 -347 0
2594 -346 347 0
2594 346 -347 0
-2595 2594 348 0
-2595 -2594 -348 0
2595 -2594 348 0
2595 2594 -348 0
-2596 2595 350 0
-2596 -2595 -350 0
2596 -2595 350 0
2596 2595 -350 0
-2597 2596 352 0
-2597 -2596 -352 0
2597 -2596 352 0
2597 2596 -352 0
-2598 2597 355 0
-2598 -2597 -355 0
2598 -2597 355 0
2598 2597 -355 0
-2599 2598 359 0
-2599 -2598 -359 0
2599 -2598 359 0
2599 2598 -359 0
-119 -2599 0
-2600 361 362 0
-2600 -361 -362 0
2600 -361 362 0
2600 361 -362 0
-2601 2600 363 0
-2601 -2600 -363 0
2601 -2600 363 0
2601 2600 -363 0
-2602 2601 365 0
-2602 -2601 -365 0
2602 -2601 365 0
2602 2601 -365 0
-2603 2602 367 0
-2603 -2602 -367 0
2603 -2602 367 0
2603 2602 -367 0
-2604 2603 370 0
-2604 -2603 -370 0
2604 -2603 370 0
2604 2603 -370 0
-2605 2604 374 0
-2605 -2604 -374 0
2605 -2604 374 0
2605 2604 -374 0
-119 -2605 0
-2606 319 320 0
-2606 -319 -320 0
2606 -319 320 0
2606 319 -320 0
-2607 2606 328 0
-2607 -2606 -328 0
2607 -2606 328 0
2607 2606 -328 0
-2608 2607 329 0
-2608 -2607 -329 0
2608 -2607 329 0
2608 2607 -329 0
-120 -2608 0
-2609 334 335 0
-2609 -334 -335 0
2609 -334 335 0
2609 334 -335 0
-2610 2609 343 0
-2610 -2609 -343 0
2610 -2609 343 0
2610 2609 -343 0
-2611 2610 344 0
-2611 -2610 -344 0
2611 -2610 344 0
2611 2610 -344 0
-120 -2611 0
-2612 349 350 0
-2612 -349 -350 0
2612 -349 350 0
2612 349 -350 0
-2613 2612 358 0
-2613 -2612 -358 0
2613 -2612 358 0
2613 2612 -358 0
-2614 2613 359 0
-2614 -2613 -359 0
2614 -2613 359 0
2614 2613 -359 0
-120 -2614 0
-2615 364 365 0
-2615 -364 -365 0
2615 -364 365 0
2615 364 -365 0
-2616 2615 373 0
-2616 -2615 -373 0
2616 -2615 373 0
2616 2615 -373 0
-2617 2616 374 0
-2617 -2616 -374 0
2617 -2616 374 0
2617 2616 -374 0
-120 -2617 0
-2618 318 319 0
-2618 -318 -319 0
2618 -318 319 0
2618 318 -319 0
-2619 2618 320 0
-2619 -2618 -320 0
2619 -2618 320 0
2619 2618 -320 0
-2620 2619 328 0
-2620 -2619 -328 0
2620 -2619 328 0
2620 2619 -328 0
-2621 2620 329 0
-2621 -2620 -329 0
2621 -2620 329 0
2621 2620 -329 0
-121 -2621 0
-2622 333 334 0
-2622 -333 -334 0
2622 -333 334 0
2622 333 -334 0
-2623 2622 335 0
-2623 -2622 -335 0
2623 -2622 335 0
2623 2622 -335 0
-2624 2623 343 0
-2624 -2623 -343 0
2624 -2623 343 0
2624 2623 -343 0
-2625 2624 344 0
-2625 -2624 -344 0
2625 -2624 344 0
2625 2624 -344 0
-121 -2625 0
-2626 348 349 0
-2626 -348 -349 0
2626 -348 349 0
2626 348 -349 0
-2627 2626 350 0
-2627 -2626 -350 0
2627 -2626 350 0
2627 2626 -350 0
-2628 2627 358 0
-2628 -2627 -358 0
2628 -2627 358 0
2628 2627 -358 0
-2629 2628 359 0
-2629 -2628 -359 0
2629 -2628 359 0
2629 2628 -359 0
-121 -2629 0
-2630 363 364 0
-2630 -363 -364 0
2630 -363 364 0
2630 363 -364 0
-2631 2630 365 0
-2631 -2630 -365 0
2631 -2630 365 0
2631 2630 -365 0
-2632 2631 373 0
-2632 -2631 -373 0
2632 -2631 373 0
2632 2631 -373 0
-2633 2632 374 0
-2633 -2632 -374 0
2633 -2632 374 0
2633 2632 -374 0
-121 -2633 0
-2634 316 317 0
-2634 -316 -317 0
2634 -316 317 0
2634 316 -317 0
-2635 2634 319 0
-2635 -2634 -319 0
2635 -2634 319 0
2635 2634 -319 0
-2636 2635 320 0
-2636 -2635 -320 0
2636 -2635 320 0
2636 2635 -320 0
-2637 2636 322 0
-2637 -2636 -322 0
2637 -2636 322 0
2637 2636 -322 0
-2638 2637 325 0
-2638 -2637 -325 0
2638 -2637 325 0
2638 2637 -325 0
-2639 2638 328 0
-2639 -2638 -328 0
2639 -2638 328 0
2639 2638 -328 0
-2640 2639 329 0
-2640 -2639 -329 0
2640 -2639 329 0
2640 2639 -329 0
-122 -2640 0
-2641 331 332 0
-2641 -331 -332 0
2641 -331 332 0
2641 331 -332 0
-2642 2641 334 0
-2642 -2641 -334 0
2642 -2641 334 0
2642 2641 -334 0
-2643 2642 335 0
-2643 -2642 -335 0
2643 -2642 335 0
2643 2642 -335 0
-2644 2643 337 0
-2644 -2643 -337 0
2644 -2643 337 0
2644 2643 -337 0
-2645 2644 340 0
-2645 -2644 -340 0
2645 -2644 340 0
2645 2644 -340 0
-2646 2645 343 0
-2646 -2645 -343 0
2646 -2645 343 0
2646 2645 -343 0
-2647 2646 344 0
-2647 -2646 -344 0
2647 -2646 344 0
2647 2646 -344 0
-122 -2647 0
-2648 346 347 0
-2648 -346 -347 0
2648 -346 347 0
2648 346 -347 0
-2649 2648 349 0
-2649 -2648 -349 0
2649 -2648 349 0
2649 2648 -349 0
-2650 2649 350 0
-2650 -2649 -350 0
2650 -2649 350 0
2650 2649 -350 0
-2651 2650 352 0
-2651 -2650 -352 0
2651 -2650 352 0
2651 2650 -352 0
-2652 2651 355 0
-2652 -2651 -355 0
2652 -2651 355 0
2652 2651 -355 0
-2653 2652 358 0
-2653 -2652 -358 0
2653 -2652 358 0
2653 2652 -358 0
-2654 2653 359 0
-2654 -2653 -359 0
2654 -2653 359 0
2654 2653 -359 0
-122 -2654 0
-2655 361 362 0
-2655 -361 -362 0
2655 -361 362 0
2655 361 -362 0
-2656 2655 364 0
-2656 -2655 -364 0
2656 -2655 364 0
2656 2655 -364 0
-2657 2656 365 0
-2657 -2656 -365 0
2657 -2656 365 0
2657 2656 -365 0
-2658 2657 367 0
-2658 -2657 -367 0
2658 -2657 367 0
2658 2657 -367 0
-2659 2658 370 0
-2659 -2658 -370 0
2659 -2658 370 0
2659 2658 -370 0
-2660 2659 373 0
-2660 -2659 -373 0
2660 -2659 373 0
2660 2659 -373 0
-2661 2660 374 0
-2661 -2660 -374 0
2661 -2660 374 0
2661 2660 -374 0
-122 -2661 0
-2662 316 317 0
-2662 -316 -317 0
2662 -316 317 0
2662 316 -317 0
-2663 2662 318 0
-2663 -2662 -318 0
2663 -2662 318 0
2663 2662 -318 0
-2664 2663 319 0
-2664 -2663 -319 0
2664 -2663 319 0
2664 2663 -319 0
-2665 2664 320 0
-2665 -2664 -320 0
2665 -2664 320 0
2665 2664 -320 0
-2666 2665 322 0
-2666 -2665 -322 0
2666 -2665 322 0
2666 2665 -322 0
-2667 2666 325 0
-2667 -2666 -325 0
2667 -2666 325 0
2667 2666 -325 0
-2668 2667 328 0
-2668 -2667 -328 0
2668 -2667 328 0
2668 2667 -328 0
-2669 2668 329 0
-2669 -2668 -329 0
2669 -2668 329 0
2669 2668 -329 0
-123 -2669 0
-2670 331 332 0
-2670 -331 -332 0
2670 -331 332 0
2670 331 -332 0
-2671 2670 333 0
-2671 -2670 -333 0
2671 -2670 333 0
2671 2670 -333 0
-2672 2671 334 0
-2672 -2671 -334 0
2672 -2671 334 0
2672 2671 -334 0
-2673 2672 335 0
-2673 -2672 -335 0
2673 -2672 335 0
2673 2672 -335 0
-2674 2673 337 0
-2674 -2673 -337 0
2674 -2673 337 0
2674 2673 -337 0
-2675 2674 340 0
-2675 -2674 -340 0
2675 -2674 340 0
2675 2674 -340 0
-2676 2675 343 0
-2676 -2675 -343 0
2676 -2675 343 0
2676 2675 -343 0
-2677 2676 344 0
-2677 -2676 -344 0
2677 -2676 344 0
2677 2676 -344 0
-123 -2677 0
-2678 346 347 0
-2678 -346 -347 0
2678 -346 347 0
2678 346 -347 0
-2679 2678 348 0
-2679 -2678 -348 0
2679 -2678 348 0
2679 2678 -348 0
-2680 2679 349 0
-2680 -2679 -349 0
2680 -2679 349 0
2680 2679 -349 0
-2681 2680 350 0
-2681 -2680 -350 0
2681 -2680 350 0
2681 2680 -350 0
-2682 2681 352 0
-2682 -2681 -352 0
2682 -2681 352 0
2682 2681 -352 0
-2683 2682 355 0
-2683 -2682 -355 0
2683 -2682 355 0
2683 2682 -355 0
-2684 2683 358 0
-2684 -2683 -358 0
2684 -2683 358 0
2684 2683 -358 0
-2685 2684 359 0
-2685 -2684 -359 0
2685 -2684 359 0
2685 2684 -359 0
-123 -2685 0
-2686 361 362 0
-2686 -361 -362 0
2686 -361 362 0
2686 361 -362 0
-2687 2686 363 0
-2687 -2686 -363 0
2687 -2686 363 0
2687 2686 -363 0
-2688 2687 364 0
-2688 -2687 -364 0
2688 -2687 364 0
2688 2687 -364 0
-2689 2688 365 0
-2689 -2688 -365 0
2689 -2688 365 0
2689 2688 -365 0
-2690 2689 367 0
-2690 -2689 -367 0
2690 -2689 367 0
2690 2689 -367 0
-2691 2690 370 0
-2691 -2690 -370 0
2691 -2690 370 0
2691 2690 -370 0
-2692 2691 373 0
-2692 -2691 -373 0
2692 -2691 373 0
2692 2691 -373 0
-2693 2692 374 0
-2693 -2692 -374 0
2693 -2692 374 0
2693 2692 -374 0
-123 -2693 0
-2694 323 328 0
-2694 -323 -328 0
2694 -323 328 0
2694 323 -328 0
-124 -2694 0
-2695 338 343 0
-2695 -338 -343 0
2695 -338 343 0
2695 338 -343 0
-124 -2695 0
-2696 353 358 0
-2696 -353 -358 0
2696 -353 358 0
2696 353 -358 0
-124 -2696 0
-2697 368 373 0
-2697 -368 -373 0
2697 -368 373 0
2697 368 -373 0
-124 -2697 0
-2698 322 323 0
-2698 -322 -323 0
2698 -322 323 0
2698 322 -323 0
-2699 2698 328 0
-2699 -2698 -328 0
2699 -2698 328 0
2699 2698 -328 0
-125 -2699 0
-2700 337 338 0
-2700 -337 -338 0
2700 -337 338 0
2700 337 -338 0
-2701 2700 343 0
-2701 -2700 -343 0
2701 -2700 343 0
2701 2700 -343 0
-125 -2701 0
-2702 352 353 0
-2702 -352 -353 0
2702 -352 353 0
2702 352 -353 0
-2703 2702 358 0
-2703 -2702 -358 0
2703 -2702 358 0
2703 2702 -358 0
-125 -2703 0
-2704 367 368 0
-2704 -367 -368 0
2704 -367 368 0
2704 367 -368 0
-2705 2704 373 0
-2705 -2704 -373 0
2705 -2704 373 0
2705 2704 -373 0
-125 -2705 0
-2706 316 318 0
-2706 -316 -318 0
2706 -316 318 0
2706 316 -318 0
-2707 2706 321 0
-2707 -2706 -321 0
2707 -2706 321 0
2707 2706 -321 0
-2708 2707 323 0
-2708 -2707 -323 0
2708 -2707 323 0
2708 2707 -323 0
-2709 2708 325 0
-2709 -2708 -325 0
2709 -2708 325 0
2709 2708 -325 0
-2710 2709 328 0
-2710 -2709 -328 0
2710 -2709 328 0
2710 2709 -328 0
-126 -2710 0
-2711 331 333 0
-2711 -331 -333 0
2711 -331 333 0
2711 331 -333 0
-2712 2711 336 0
-2712 -2711 -336 0
2712 -2711 336 0
2712 2711 -336 0
-2713 2712 338 0
-2713 -2712 -338 0
2713 -2712 338 0
2713 2712 -338 0
-2714 2713 340 0
-2714 -2713 -340 0
2714 -2713 340 0
2714 2713 -340 0
-2715 2714 343 0
-2715 -2714 -343 0
2715 -2714 343 0
2715 2714 -343 0
-126 -2715 0
-2716 346 348 0
-2716 -346 -348 0
2716 -346 348 0
2716 346 -348 0
-2717 2716 351 0
-2717 -2716 -351 0
2717 -2716 351 0
2717 2716 -351 0
-2718 2717 353 0
-2718 -2717 -353 0
2718 -2717 353 0
2718 2717 -353 0
-2719 2718 355 0
-2719 -2718 -355 0
2719 -2718 355 0
2719 2718 -355 0
-2720 2719 358 0
-2720 -2719 -358 0
2720 -2719 358 0
2720 2719 -358 0
-126 -2720 0
-2721 361 363 0
-2721 -361 -363 0
2721 -361 363 0
2721 361 -363 0
-2722 2721 366 0
-2722 -2721 -366 0
2722 -2721 366 0
2722 2721 -366 0
-2723 2722 368 0
-2723 -2722 -368 0
2723 -2722 368 0
2723 2722 -368 0
-2724 2723 370 0
-2724 -2723 -370 0
2724 -2723 370 0
2724 2723 -370 0
-2725 2724 373 0
-2725 -2724 -373 0
2725 -2724 373 0
2725 2724 -373 0
-126 -2725 0
-2726 316 318 0
-2726 -316 -318 0
2726 -316 318 0
2726 316 -318 0
-2727 2726 321 0
-2727 -2726 -321 0
2727 -2726 321 0
2727 2726 -321 0
-2728 2727 322 0
-2728 -2727 -322 0
2728 -2727 322 0
2728 2727 -322 0
-2729 2728 323 0
-2729 -2728 -323 0
2729 -2728 323 0
2729 2728 -323 0
-2730 2729 325 0
-2730 -2729 -325 0
2730 -2729 325 0
2730 2729 -325 0
-2731 2730 328 0
-2731 -2730 -328 0
2731 -2730 328 0
2731 2730 -328 0
-127 -2731 0
-2732 331 333 0
-2732 -331 -333 0
2732 -331 333 0
2732 331 -333 0
-2733 2732 336 0
-2733 -2732 -336 0
2733 -2732 336 0
2733 2732 -336 0
-2734 2733 337 0
-2734 -2733 -337 0
2734 -2733 337 0
2734 2733 -337 0
-2735 2734 338 0
-2735 -2734 -338 0
2735 -2734 338 0
2735 2734 -338 0
-2736 2735 340 0
-2736 -2735 -340 0
2736 -2735 340 0
2736 2735 -340 0
-2737 2736 343 0
-2737 -2736 -343 0
2737 -2736 343 0
2737 2736 -343 0
-127 -2737 0
-2738 346 348 0
-2738 -346 -348 0
2738 -346 348 0
2738 346 -348 0
-2739 2738 351 0
-2739 -2738 -351 0
2739 -2738 351 0
2739 2738 -351 0
-2740 2739 352 0
-2740 -2739 -352 0
2740 -2739 352 0
2740 2739 -352 0
-2741 2740 353 0
-2741 -2740 -353 0
2741 -2740 353 0
2741 2740 -353 0
-2742 2741 355 0
-2742 -2741 -355 0
2742 -2741 355 0
2742 2741 -355 0
-2743 2742 358 0
-2743 -2742 -358 0
2743 -2742 358 0
2743 2742 -358 0
-127 -2743 0
-2744 361 363 0
-2744 -361 -363 0
2744 -361 363 0
2744 361 -363 0
-2745 2744 366 0
-2745 -2744 -366 0
2745 -2744 366 0
2745 2744 -366 0
-2746 2745 367 0
-2746 -2745 -367 0
2746 -2745 367 0
2746 2745 -367 0
-2747 2746 368 0
-2747 -2746 -368 0
2747 -2746 368 0
2747 2746 -368 0
-2748 2747 370 0
-2748 -2747 -370 0
2748 -2747 370 0
2748 2747 -370 0
-2749 2748 373 0
-2749 -2748 -373 0
2749 -2748 373 0
2749 2748 -373 0
-127 -2749 0
-2750 324 329 0
-2750 -324 -329 0
2750 -324 329 0
2750 324 -329 0
-128 -2750 0
-2751 339 344 0
-2751 -339 -344 0
2751 -339 344 0
2751 339 -344 0
-128 -2751 0
-2752 354 359 0
-2752 -354 -359 0
2752 -354 359 0
2752 354 -359 0
-128 -2752 0
-2753 369 374 0
-2753 -369 -374 0
2753 -369 374 0
2753 369 -374 0
-128 -2753 0
-2754 322 324 0
-2754 -322 -324 0
2754 -322 324 0
2754 322 -324 0
-2755 2754 329 0
-2755 -2754 -329 0
2755 -2754 329 0
2755 2754 -329 0
-129 -2755 0
-2756 337 339 0
-2756 -337 -339 0
2756 -337 339 0
2756 337 -339 0
-2757 2756 344 0
-2757 -2756 -344 0
2757 -2756 344 0
2757 2756 -344 0
-129 -2757 0
-2758 352 354 0
-2758 -352 -354 0
2758 -352 354 0
2758 352 -354 0
-2759 2758 359 0
-2759 -2758 -359 0
2759 -2758 359 0
2759 2758 -359 0
-129 -2759 0
-2760 367 369 0
-2760 -367 -369 0
2760 -367 369 0
2760 367 -369 0
-2761 2760 374 0
-2761 -2760 -374 0
2761 -2760 374 0
2761 2760 -374 0
-129 -2761 0
-2762 316 318 0
-2762 -316 -318 0
2762 -316 318 0
2762 316 -318 0
-2763 2762 321 0
-2763 -2762 -321 0
2763 -2762 321 0
2763 2762 -321 0
-2764 2763 324 0
-2764 -2763 -324 0
2764 -2763 324 0
2764 2763 -324 0
-2765 2764 325 0
-2765 -2764 -325 0
2765 -2764 325 0
2765 2764 -325 0
-2766 2765 329 0
-2766 -2765 -329 0
2766 -2765 329 0
2766 2765 -329 0
-130 -2766 0
-2767 331 333 0
-2767 -331 -333 0
2767 -331 333 0
2767 331 -333 0
-2768 2767 336 0
-2768 -2767 -336 0
2768 -2767 336 0
2768 2767 -336 0
-2769 2768 339 0
-2769 -2768 -339 0
2769 -2768 339 0
2769 2768 -339 0
-2770 2769 340 0
-2770 -2769 -340 0
2770 -2769 340 0
2770 2769 -340 0
-2771 2770 344 0
-2771 -2770 -344 0
2771 -2770 344 0
2771 2770 -344 0
-130 -2771 0
-2772 346 348 0
-2772 -346 -348 0
2772 -346 348 0
2772 346 -348 0
-2773 2772 351 0
-2773 -2772 -351 0
2773 -2772 351 0
2773 2772 -351 0
-2774 2773 354 0
-2774 -2773 -354 0
2774 -2773 354 0
2774 2773 -354 0
-2775 2774 355 0
-2775 -2774 -355 0
2775 -2774 355 0
2775 2774 -355 0
-2776 2775 359 0
-2776 -2775 -359 0
2776 -2775 359 0
2776 2775 -359 0
-130 -2776 0
-2777 361 363 0
-2777 -361 -363 0
2777 -361 363 0
2777 361 -363 0
-2778 2777 366 0
-2778 -2777 -366 0
2778 -2777 366 0
2778 2777 -366 0
-2779 2778 369 0
-2779 -2778 -369 0
2779 -2778 369 0
2779 2778 -369 0
-2780 2779 370 0
-2780 -2779 -370 0
2780 -2779 370 0
2780 2779 -370 0
-2781 2780 374 0
-2781 -2780 -374 0
2781 -2780 374 0
2781 2780 -374 0
-130 -2781 0
-2782 316 318 0
-2782 -316 -318 0
2782 -316 318 0
2782 316 -318 0
-2783 2782 321 0
-2783 -2782 -321 0
2783 -2782 321 0
2783 2782 -321 0
-2784 2783 322 0
-2784 -2783 -322 0
2784 -2783 322 0
2784 2783 -322 0
-2785 2784 324 0
-2785 -2784 -324 0
2785 -2784 324 0
2785 2784 -324 0
-2786 2785 325 0
-2786 -2785 -325 0
2786 -2785 325 0
2786 2785 -325 0
-2787 2786 329 0
-2787 -2786 -329 0
2787 -2786 329 0
2787 2786 -329 0
-131 -2787 0
-2788 331 333 0
-2788 -331 -333 0
2788 -331 333 0
2788 331 -333 0
-2789 2788 336 0
-2789 -2788 -336 0
2789 -2788 336 0
2789 2788 -336 0
-2790 2789 337 0
-2790 -2789 -337 0
2790 -2789 337 0
2790 2789 -337 0
-2791 2790 339 0
-2791 -2790 -339 0
2791 -2790 339 0
2791 2790 -339 0
-2792 2791 340 0
-2792 -2791 -340 0
2792 -2791 340 0
2792 2791 -340 0
-2793 2792 344 0
-2793 -2792 -344 0
2793 -2792 344 0
2793 2792 -344 0
-131 -2793 0
-2794 346 348 0
-2794 -346 -348 0
2794 -346 348 0
2794 346 -348 0
-2795 2794 351 0
-2795 -2794 -351 0
2795 -2794 351 0
2795 2794 -351 0
-2796 2795 352 0
-2796 -2795 -352 0
2796 -2795 352 0
2796 2795 -352 0
-2797 2796 354 0
-2797 -2796 -354 0
2797 -2796 354 0
2797 2796 -354 0
-2798 2797 355 0
-2798 -2797 -355 0
2798 -2797 355 0
2798 2797 -355 0
-2799 2798 359 0
-2799 -2798 -359 0
2799 -2798 359 0
2799 2798 -359 0
-131 -2799 0
-2800 361 363 0
-2800 -361 -363 0
2800 -361 363 0
2800 361 -363 0
-2801 2800 366 0
-2801 -2800 -366 0
2801 -2800 366 0
2801 2800 -366 0
-2802 2801 367 0
-2802 -2801 -367 0
2802 -2801 367 0
2802 2801 -367 0
-2803 2802 369 0
-2803 -2802 -369 0
2803 -2802 369 0
2803 2802 -369 0
-2804 2803 370 0
-2804 -2803 -370 0
2804 -2803 370 0
2804 2803 -370 0
-2805 2804 374 0
-2805 -2804 -374 0
2805 -2804 374 0
2805 2804 -374 0
-131 -2805 0
-2806 323 324 0
-2806 -323 -324 0
2806 -323 324 0
2806 323 -324 0
-2807 2806 328 0
-2807 -2806 -328 0
2807 -2806 328 0
2807 2806 -328 0
-2808 2807 329 0
-2808 -2807 -329 0
2808 -2807 329 0
2808 2807 -329 0
-132 -2808 0
-2809 338 339 0
-2809 -338 -339 0
2809 -338 339 0
2809 338 -339 0
-2810 2809 343 0
-2810 -2809 -343 0
2810 -2809 343 0
2810 2809 -343 0
-2811 2810 344 0
-2811 -2810 -344 0
2811 -2810 344 0
2811 2810 -344 0
-132 -2811 0
-2812 353 354 0
-2812 -353 -354 0
2812 -353 354 0
2812 353 -354 0
-2813 2812 358 0
-2813 -2812 -358 0
2813 -2812 358 0
2813 2812 -358 0
-2814 2813 359 0
-2814 -2813 -359 0
2814 -2813 359 0
2814 2813 -359 0
-132 -2814 0
-2815 368 369 0
-2815 -368 -369 0
2815 -368 369 0
2815 368 -369 0
-2816 2815 373 0
-2816 -2815 -373 0
2816 -2815 373 0
2816 2815 -373 0
-2817 2816 374 0
-2817 -2816 -374 0
2817 -2816 374 0
2817 2816 -374 0
-132 -2817 0
-2818 322 323 0
-2818 -322 -323 0
2818 -322 323 0
2818 322 -323 0
-2819 2818 324 0
-2819 -2818 -324 0
2819 -2818 324 0
2819 2818 -324 0
-2820 2819 328 0
-2820 -2819 -328 0
2820 -2819 328 0
2820 2819 -328 0
-2821 2820 329 0
-2821 -2820 -329 0
2821 -2820 329 0
2821 2820 -329 0
-133 -2821 0
-2822 337 338 0
-2822 -337 -338 0
2822 -337 338 0
2822 337 -338 0
-2823 2822 339 0
-2823 -2822 -339 0
2823 -2822 339 0
2823 2822 -339 0
-2824 2823 343 0
-2824 -2823 -343 0
2824 -2823 343 0
2824 2823 -343 0
-2825 2824 344 0
-2825 -2824 -344 0
2825 -2824 344 0
2825 2824 -344 0
-133 -2825 0
-2826 352 353 0
-2826 -352 -353 0
2826 -352 353 0
2826 352 -353 0
-2827 2826 354 0
-2827 -2826 -354 0
2827 -2826 354 0
2827 2826 -354 0
-2828 2827 358 0
-2828 -2827 -358 0
2828 -2827 358 0
2828 2827 -358 0
-2829 2828 359 0
-2829 -2828 -359 0
2829 -2828 359 0
2829 2828 -359 0
-133 -2829 0
-2830 367 368 0
-2830 -367 -368 0
2830 -367 368 0
2830 367 -368 0
-2831 2830 369 0
-2831 -2830 -369 0
2831 -2830 369 0
2831 2830 -369 0
-2832 2831 373 0
-2832 -2831 -373 0
2832 -2831 373 0
2832 2831 -373 0
-2833 2832 374 0
-2833 -2832 -374 0
2833 -2832 374 0
2833 2832 -374 0
-133 -2833 0
-2834 316 318 0
-2834 -316 -318 0
2834 -316 318 0
2834 316 -318 0
-2835 2834 321 0
-2835 -2834 -321 0
2835 -2834 321 0
2835 2834 -321 0
-2836 2835 323 0
-2836 -2835 -323 0
2836 -2835 323 0
2836 2835 -323 0
-2837 2836 324 0
-2837 -2836 -324 0
2837 -2836 324 0
2837 2836 -324 0
-2838 2837 325 0
-2838 -2837 -325 0
2838 -2837 325 0
2838 2837 -325 0
-2839 2838 328 0
-2839 -2838 -328 0
2839 -2838 328 0
2839 2838 -328 0
-2840 2839 329 0
-2840 -2839 -329 0
2840 -2839 329 0
2840 2839 -329 0
-134 -2840 0
-2841 331 333 0
-2841 -331 -333 0
2841 -331 333 0
2841 331 -333 0
-2842 2841 336 0
-2842 -2841 -336 0
2842 -2841 336 0
2842 2841 -336 0
-2843 2842 338 0
-2843 -2842 -338 0
2843 -2842 338 0
2843 2842 -338 0
-2844 2843 339 0
-2844 -2843 -339 0
2844 -2843 339 0
2844 2843 -339 0
-2845 2844 340 0
-2845 -2844 -340 0
2845 -2844 340 0
2845 2844 -340 0
-2846 2845 343 0
-2846 -2845 -343 0
2846 -2845 343 0
2846 2845 -343 0
-2847 2846 344 0
-2847 -2846 -344 0
2847 -2846 344 0
2847 2846 -344 0
-134 -2847 0
-2848 346 348 0
-2848 -346 -348 0
2848 -346 348 0
2848 346 -348 0
-2849 2848 351 0
-2849 -2848 -351 0
2849 -2848 351 0
2849 2848 -351 0
-2850 2849 353 0
-2850 -2849 -353 0
2850 -2849 353 0
2850 2849 -353 0
-2851 2850 354 0
-2851 -2850 -354 0
2851 -2850 354 0
2851 2850 -354 0
-2852 2851 355 0
-2852 -2851 -355 0
2852 -2851 355 0
2852 2851 -355 0
-2853 2852 358 0
-2853 -2852 -358 0
2853 -2852 358 0
2853 2852 -358 0
-2854 2853 359 0
-2854 -2853 -359 0
2854 -2853 359 0
2854 2853 -359 0
-134 -2854 0
-2855 361 363 0
-2855 -361 -363 0
2855 -361 363 0
2855 361 -363 0
-2856 2855 366 0
-2856 -2855 -366 0
2856 -2855 366 0
2856 2855 -366 0
-2857 2856 368 0
-2857 -2856 -368 0
2857 -2856 368 0
2857 2856 -368 0
-2858 2857 369 0
-2858 -2857 -369 0
2858 -2857 369 0
2858 2857 -369 0
-2859 2858 370 0
-2859 -2858 -370 0
2859 -2858 370 0
2859 2858 -370 0
-2860 2859 373 0
-2860 -2859 -373 0
2860 -2859 373 0
2860 2859 -373 0
-2861 2860 374 0
-2861 -2860 -374 0
2861 -2860 374 0
2861 2860 -374 0
-134 -2861 0
-2862 316 318 0
-2862 -316 -318 0
2862 -316 318 0
2862 316 -318 0
-2863 2862 321 0
-2863 -2862 -321 0
2863 -2862 321 0
2863 2862 -321 0
-2864 2863 322 0
-2864 -2863 -322 0
2864 -2863 322 0
2864 2863 -322 0
-2865 2864 323 0
-2865 -2864 -323 0
2865 -2864 323 0
2865 2864 -323 0
-2866 2865 324 0
-2866 -2865 -324 0
2866 -2865 324 0
2866 2865 -324 0
-2867 2866 325 0
-2867 -2866 -325 0
2867 -2866 325 0
2867 2866 -325 0
-2868 2867 328 0
-2868 -2867 -328 0
2868 -2867 328 0
2868 2867 -328 0
-2869 2868 329 0
-2869 -2868 -329 0
2869 -2868 329 0
2869 2868 -329 0
-135 -2869 0
-2870 331 333 0
-2870 -331 -333 0
2870 -331 333 0
2870 331 -333 0
-2871 2870 336 0
-2871 -2870 -336 0
2871 -2870 336 0
2871 2870 -336 0
-2872 2871 337 0
-2872 -2871 -337 0
2872 -2871 337 0
2872 2871 -337 0
-2873 2872 338 0
-2873 -2872 -338 0
2873 -2872 338 0
2873 2872 -338 0
-2874 2873 339 0
-2874 -2873 -339 0
2874 -2873 339 0
2874 2873 -339 0
-2875 2874 340 0
-2875 -2874 -340 0
2875 -2874 340 0
2875 2874 -340 0
-2876 2875 343 0
-2876 -2875 -343 0
2876 -2875 343 0
2876 2875 -343 0
-2877 2876 344 0
-2877 -2876 -344 0
2877 -2876 344 0
2877 2876 -344 0
-135 -2877 0
-2878 346 348 0
-2878 -346 -348 0
2878 -346 348 0
2878 346 -348 0
-2879 2878 351 0
-2879 -2878 -351 0
2879 -2878 351 0
2879 2878 -351 0
-2880 2879 352 0
-2880 -2879 -352 0
2880 -2879 352 0
2880 2879 -352 0
-2881 2880 353 0
-2881 -2880 -353 0
2881 -2880 353 0
2881 2880 -353 0
-2882 2881 354 0
-2882 -2881 -354 0
2882 -2881 354 0
2882 2881 -354 0
-2883 2882 355 0
-2883 -2882 -355 0
2883 -2882 355 0
2883 2882 -355 0
-2884 2883 358 0
-2884 -2883 -358 0
2884 -2883 358 0
2884 2883 -358 0
-2885 2884 359 0
-2885 -2884 -359 0
2885 -2884 359 0
2885 2884 -359 0
-135 -2885 0
-2886 361 363 0
-2886 -361 -363 0
2886 -361 363 0
2886 361 -363 0
-2887 2886 366 0
-2887 -2886 -366 0
2887 -2886 366 0
2887 2886 -366 0
-2888 2887 367 0
-2888 -2887 -367 0
2888 -2887 367 0
2888 2887 -367 0
-2889 2888 368 0
-2889 -2888 -368 0
2889 -2888 368 0
2889 2888 -368 0
-2890 2889 369 0
-2890 -2889 -369 0
2890 -2889 369 0
2890 2889 -369 0
-2891 2890 370 0
-2891 -2890 -370 0
2891 -2890 370 0
2891 2890 -370 0
-2892 2891 373 0
-2892 -2891 -373 0
2892 -2891 373 0
2892 2891 -373 0
-2893 2892 374 0
-2893 -2892 -374 0
2893 -2892 374 0
2893 2892 -374 0
-135 -2893 0
-2894 319 323 0
-2894 -319 -323 0
2894 -319 323 0
2894 319 -323 0
-2895 2894 328 0
-2895 -2894 -328 0
2895 -2894 328 0
2895 2894 -328 0
-136 -2895 0
-2896 334 338 0
-2896 -334 -338 0
2896 -334 338 0
2896 334 -338 0
-2897 2896 343 0
-2897 -2896 -343 0
2897 -2896 343 0
2897 2896 -343 0
-136 -2897 0
-2898 349 353 0
-2898 -349 -353 0
2898 -349 353 0
2898 349 -353 0
-2899 2898 358 0
-2899 -2898 -358 0
2899 -2898 358 0
2899 2898 -358 0
-136 -2899 0
-2900 364 368 0
-2900 -364 -368 0
2900 -364 368 0
2900 364 -368 0
-2901 2900 373 0
-2901 -2900 -373 0
2901 -2900 373 0
2901 2900 -373 0
-136 -2901 0
-2902 318 319 0
-2902 -318 -319 0
2902 -318 319 0
2902 318 -319 0
-2903 2902 322 0
-2903 -2902 -322 0
2903 -2902 322 0
2903 2902 -322 0
-2904 2903 323 0
-2904 -2903 -323 0
2904 -2903 323 0
2904 2903 -323 0
-2905 2904 328 0
-2905 -2904 -328 0
2905 -2904 328 0
2905 2904 -328 0
-137 -2905 0
-2906 333 334 0
-2906 -333 -334 0
2906 -333 334 0
2906 333 -334 0
-2907 2906 337 0
-2907 -2906 -337 0
2907 -2906 337 0
2907 2906 -337 0
-2908 2907 338 0
-2908 -2907 -338 0
2908 -2907 338 0
2908 2907 -338 0
-2909 2908 343 0
-2909 -2908 -343 0
2909 -2908 343 0
2909 2908 -343 0
-137 -2909 0
-2910 348 349 0
-2910 -348 -349 0
2910 -348 349 0
2910 348 -349 0
-2911 2910 352 0
-2911 -2910 -352 0
2911 -2910 352 0
2911 2910 -352 0
-2912 2911 353 0
-2912 -2911 -353 0
2912 -2911 353 0
2912 2911 -353 0
-2913 2912 358 0
-2913 -2912 -358 0
2913 -2912 358 0
2913 2912 -358 0
-137 -2913 0
-2914 363 364 0
-2914 -363 -364 0
2914 -363 364 0
2914 363 -364 0
-2915 2914 367 0
-2915 -2914 -367 0
2915 -2914 367 0
2915 2914 -367 0
-2916 2915 368 0
-2916 -2915 -368 0
2916 -2915 368 0
2916 2915 -368 0
-2917 2916 373 0
-2917 -2916 -373 0
2917 -2916 373 0
2917 2916 -373 0
-137 -2917 0
-2918 316 317 0
-2918 -316 -317 0
2918 -316 317 0
2918 316 -317 0
-2919 2918 318 0
-2919 -2918 -318 0
2919 -2918 318 0
2919 2918 -318 0
-2920 2919 319 0
-2920 -2919 -319 0
2920 -2919 319 0
2920 2919 -319 0
-2921 2920 321 0
-2921 -2920 -321 0
2921 -2920 321 0
2921 2920 -321 0
-2922 2921 323 0
-2922 -2921 -323 0
2922 -2921 323 0
2922 2921 -323 0
-2923 2922 325 0
-2923 -2922 -325 0
2923 -2922 325 0
2923 2922 -325 0
-2924 2923 328 0
-2924 -2923 -328 0
2924 -2923 328 0
2924 2923 -328 0
-138 -2924 0
-2925 331 332 0
-2925 -331 -332 0
2925 -331 332 0
2925 331 -332 0
-2926 2925 333 0
-2926 -2925 -333 0
2926 -2925 333 0
2926 2925 -333 0
-2927 2926 334 0
-2927 -2926 -334 0
2927 -2926 334 0
2927 2926 -334 0
-2928 2927 336 0
-2928 -2927 -336 0
2928 -2927 336 0
2928 2927 -336 0
-2929 2928 338 0
-2929 -2928 -338 0
2929 -2928 338 0
2929 2928 -338 0
-2930 2929 340 0
-2930 -2929 -340 0
2930 -2929 340 0
2930 2929 -340 0
-2931 2930 343 0
-2931 -2930 -343 0
2931 -2930 343 0
2931 2930 -343 0
-138 -2931 0
-2932 346 347 0
-2932 -346 -347 0
2932 -346 347 0
2932 346 -347 0
-2933 2932 348 0
-2933 -2932 -348 0
2933 -2932 348 0
2933 2932 -348 0
-2934 2933 349 0
-2934 -2933 -349 0
2934 -2933 349 0
2934 2933 -349 0
-2935 2934 351 0
-2935 -2934 -351 0
2935 -2934 351 0
2935 2934 -351 0
-2936 2935 353 0
-2936 -2935 -353 0
2936 -2935 353 0
2936 2935 -353 0
-2937 2936 355 0
-2937 -2936 -355 0
2937 -2936 355 0
2937 2936 -355 0
-2938 2937 358 0
-2938 -2937 -358 0
2938 -2937 358 0
2938 2937 -358 0
-138 -2938 0
-2939 361 362 0
-2939 -361 -362 0
2939 -361 362 0
2939 361 -362 0
-2940 2939 363 0
-2940 -2939 -363 0
2940 -2939 363 0
2940 2939 -363 0
-2941 2940 364 0
-2941 -2940 -364 0
2941 -2940 364 0
2941 2940 -364 0
-2942 2941 366 0
-2942 -2941 -366 0
2942 -2941 366 0
2942 2941 -366 0
-2943 2942 368 0
-2943 -2942 -368 0
2943 -2942 368 0
2943 2942 -368 0
-2944 2943 370 0
-2944 -2943 -370 0
2944 -2943 370 0
2944 2943 -370 0
-2945 2944 373 0
-2945 -2944 -373 0
2945 -2944 373 0
2945 2944 -373 0
-138 -2945 0
-2946 316 317 0
-2946 -316 -317 0
2946 -316 317 0
2946 316 -317 0
-2947 2946 319 0
-2947 -2946 -319 0
2947 -2946 319 0
2947 2946 -319 0
-2948 2947 321 0
-2948 -2947 -321 0
2948 -2947 321 0
2948 2947 -321 0
-2949 2948 322 0
-2949 -2948 -322 0
2949 -2948 322 0
2949 2948 -322 0
-2950 2949 323 0
-2950 -2949 -323 0
2950 -2949 323 0
2950 2949 -323 0
-2951 2950 325 0
-2951 -2950 -325 0
2951 -2950 325 0
2951 2950 -325 0
-2952 2951 328 0
-2952 -2951 -328 0
2952 -2951 328 0
2952 2951 -328 0
-139 -2952 0
-2953 331 332 0
-2953 -331 -332 0
2953 -331 332 0
2953 331 -332 0
-2954 2953 334 0
-2954 -2953 -334 0
2954 -2953 334 0
2954 2953 -334 0
-2955 2954 336 0
-2955 -2954 -336 0
2955 -2954 336 0
2955 2954 -336 0
-2956 2955 337 0
-2956 -2955 -337 0
2956 -2955 337 0
2956 2955 -337 0
-2957 2956 338 0
-2957 -2956 -338 0
2957 -2956 338 0
2957 2956 -338 0
-2958 2957 340 0
-2958 -2957 -340 0
2958 -2957 340 0
2958 2957 -340 0
-2959 2958 343 0
-2959 -2958 -343 0
2959 -2958 343 0
2959 2958 -343 0
-139 -2959 0
-2960 346 347 0
-2960 -346 -347 0
2960 -346 347 0
2960 346 -347 0
-2961 2960 349 0
-2961 -2960 -349 0
2961 -2960 349 0
2961 2960 -349 0
-2962 2961 351 0
-2962 -2961 -351 0
2962 -2961 351 0
2962 2961 -351 0
-2963 2962 352 0
-2963 -2962 -352 0
2963 -2962 352 0
2963 2962 -352 0
-2964 2963 353 0
-2964 -2963 -353 0
2964 -2963 353 0
2964 2963 -353 0
-2965 2964 355 0
-2965 -2964 -355 0
2965 -2964 355 0
2965 2964 -355 0
-2966 2965 358 0
-2966 -2965 -358 0
2966 -2965 358 0
2966 2965 -358 0
-139 -2966 0
-2967 361 362 0
-2967 -361 -362 0
2967 -361 362 0
2967 361 -362 0
-2968 2967 364 0
-2968 -2967 -364 0
2968 -2967 364 0
2968 2967 -364 0
-2969 2968 366 0
-2969 -2968 -366 0
2969 -2968 366 0
2969 2968 -366 0
-2970 2969 367 0
-2970 -2969 -367 0
2970 -2969 367 0
2970 2969 -367 0
-2971 2970 368 0
-2971 -2970 -368 0
2971 -2970 368 0
2971 2970 -368 0
-2972 2971 370 0
-2972 -2971 -370 0
2972 -2971 370 0
2972 2971 -370 0
-2973 2972 373 0
-2973 -2972 -373 0
2973 -2972 373 0
2973 2972 -373 0
-139 -2973 0
-2974 320 324 0
-2974 -320 -324 0
2974 -320 324 0
2974 320 -324 0
-2975 2974 329 0
-2975 -2974 -329 0
2975 -2974 329 0
2975 2974 -329 0
-140 -2975 0
-2976 335 339 0
-2976 -335 -339 0
2976 -335 339 0
2976 335 -339 0
-2977 2976 344 0
-2977 -2976 -344 0
2977 -2976 344 0
2977 2976 -344 0
-140 -2977 0
-2978 350 354 0
-2978 -350 -354 0
2978 -350 354 0
2978 350 -354 0
-2979 2978 359 0
-2979 -2978 -359 0
2979 -2978 359 0
2979 2978 -359 0
-140 -2979 0
-2980 365 369 0
-2980 -365 -369 0
2980 -365 369 0
2980 365 -369 0
-2981 2980 374 0
-2981 -2980 -374 0
2981 -2980 374 0
2981 2980 -374 0
-140 -2981 0
-2982 318 320 0
-2982 -318 -320 0
2982 -318 320 0
2982 318 -320 0
-2983 2982 322 0
-2983 -2982 -322 0
2983 -2982 322 0
2983 2982 -322 0
-2984 2983 324 0
-2984 -2983 -324 0
2984 -2983 324 0
2984 2983 -324 0
-2985 2984 329 0
-2985 -2984 -329 0
2985 -2984 329 0
2985 2984 -329 0
-141 -2985 0
-2986 333 335 0
-2986 -333 -335 0
2986 -333 335 0
2986 333 -335 0
-2987 2986 337 0
-2987 -2986 -337 0
2987 -2986 337 0
2987 2986 -337 0
-2988 2987 339 0
-2988 -2987 -339 0
2988 -2987 339 0
2988 2987 -339 0
-2989 2988 344 0
-2989 -2988 -344 0
2989 -2988 344 0
2989 2988 -344 0
-141 -2989 0
-2990 348 350 0
-2990 -348 -350 0
2990 -348 350 0
2990 348 -350 0
-2991 2990 352 0
-2991 -2990 -352 0
2991 -2990 352 0
2991 2990 -352 0
-2992 2991 354 0
-2992 -2991 -354 0
2992 -2991 354 0
2992 2991 -354 0
-2993 2992 359 0
-2993 -2992 -359 0
2993 -2992 359 0
2993 2992 -359 0
-141 -2993 0
-2994 363 365 0
-2994 -363 -365 0
2994 -363 365 0
2994 363 -365 0
-2995 2994 367 0
-2995 -2994 -367 0
2995 -2994 367 0
2995 2994 -367 0
-2996 2995 369 0
-2996 -2995 -369 0
2996 -2995 369 0
2996 2995 -369 0
-2997 2996 374 0
-2997 -2996 -374 0
2997 -2996 374 0
2997 2996 -374 0
-141 -2997 0
-2998 316 317 0
-2998 -316 -317 0
2998 -316 317 0
2998 316 -317 0
-2999 2998 318 0
-2999 -2998 -318 0
2999 -2998 318 0
2999 2998 -318 0
-3000 2999 320 0
-3000 -2999 -320 0
3000 -2999 320 0
3000 2999 -320 0
-3001 3000 321 0
-3001 -3000 -321 0
3001 -3000 321 0
3001 3000 -321 0
-3002 3001 324 0
-3002 -3001 -324 0
3002 -3001 324 0
3002 3001 -324 0
-3003 3002 325 0
-3003 -3002 -325 0
3003 -3002 325 0
3003 3002 -325 0
-3004 3003 329 0
-3004 -3003 -329 0
3004 -3003 329 0
3004 3003 -329 0
-142 -3004 0
-3005 331 332 0
-3005 -331 -332 0
3005 -331 332 0
3005 331 -332 0
-3006 3005 333 0
-3006 -3005 -333 0
3006 -3005 333 0
3006 3005 -333 0
-3007 3006 335 0
-3007 -3006 -335 0
3007 -3006 335 0
3007 3006 -335 0
-3008 3007 336 0
-3008 -3007 -336 0
3008 -3007 336 0
3008 3007 -336 0
-3009 3008 339 0
-3009 -3008 -339 0
3009 -3008 339 0
3009 3008 -339 0
-3010 3009 340 0
-3010 -3009 -340 0
3010 -3009 340 0
3010 3009 -340 0
-3011 3010 344 0
-3011 -3010 -344 0
3011 -3010 344 0
3011 3010 -344 0
-142 -3011 0
-3012 346 347 0
-3012 -346 -347 0
3012 -346 347 0
3012 346 -347 0
-3013 3012 348 0
-3013 -3012 -348 0
3013 -3012 348 0
3013 3012 -348 0
-3014 3013 350 0
-3014 -3013 -350 0
3014 -3013 350 0
3014 3013 -350 0
-3015 3014 351 0
-3015 -3014 -351 0
3015 -3014 351 0
3015 3014 -351 0
-3016 3015 354 0
-3016 -3015 -354 0
3016 -3015 354 0
3016 3015 -354 0
-3017 3016 355 0
-3017 -3016 -355 0
3017 -3016 355 0
3017 3016 -355 0
-3018 3017 359 0
-3018 -3017 -359 0
3018 -3017 359 0
3018 3017 -359 0
-142 -3018 0
-3019 361 362 0
-3019 -361 -362 0
3019 -361 362 0
3019 361 -362 0
-3020 3019 363 0
-3020 -3019 -363 0
3020 -3019 363 0
3020 3019 -363 0
-3021 3020 365 0
-3021 -3020 -365 0
3021 -3020 365 0
3021 3020 -365 0
-3022 3021 366 0
-3022 -3021 -366 0
3022 -3021 366 0
3022 3021 -366 0
-3023 3022 369 0
-3023 -3022 -369 0
3023 -3022 369 0
3023 3022 -369 0
-3024 3023 370 0
-3024 -3023 -370 0
3024 -3023 370 0
3024 3023 -370 0
-3025 3024 374 0
-3025 -3024 -374 0
3025 -3024 374 0
3025 3024 -374 0
-142 -3025 0
-3026 316 317 0
-3026 -316 -317 0
3026 -316 317 0
3026 316 -317 0
-3027 3026 320 0
-3027 -3026 -320 0
3027 -3026 320 0
3027 3026 -320 0
-3028 3027 321 0
-3028 -3027 -321 0
3028 -3027 321 0
3028 3027 -321 0
-3029 3028 322 0
-3029 -3028 -322 0
3029 -3028 322 0
3029 3028 -322 0
-3030 3029 324 0
-3030 -3029 -324 0
3030 -3029 324 0
3030 3029 -324 0
-3031 3030 325 0
-3031 -3030 -325 0
3031 -3030 325 0
3031 3030 -325 0
-3032 3031 329 0
-3032 -3031 -329 0
3032 -3031 329 0
3032 3031 -329 0
-143 -3032 0
-3033 331 332 0
-3033 -331 -332 0
3033 -331 332 0
3033 331 -332 0
-3034 3033 335 0
-3034 -3033 -335 0
3034 -3033 335 0
3034 3033 -335 0
-3035 3034 336 0
-3035 -3034 -336 0
3035 -3034 336 0
3035 3034 -336 0
-3036 3035 337 0
-3036 -3035 -337 0
3036 -3035 337 0
3036 3035 -337 0
-3037 3036 339 0
-3037 -3036 -339 0
3037 -3036 339 0
3037 3036 -339 0
-3038 3037 340 0
-3038 -3037 -340 0
3038 -3037 340 0
3038 3037 -340 0
-3039 3038 344 0
-3039 -3038 -344 0
3039 -3038 344 0
3039 3038 -344 0
-143 -3039 0
-3040 346 347 0
-3040 -346 -347 0
3040 -346 347 0
3040 346 -347 0
-3041 3040 350 0
-3041 -3040 -350 0
3041 -3040 350 0
3041 3040 -350 0
-3042 3041 351 0
-3042 -3041 -351 0
3042 -3041 351 0
3042 3041 -351 0
-3043 3042 352 0
-3043 -3042 -352 0
3043 -3042 352 0
3043 3042 -352 0
-3044 3043 354 0
-3044 -3043 -354 0
3044 -3043 354 0
3044 3043 -354 0
-3045 3044 355 0
-3045 -3044 -355 0
3045 -3044 355 0
3045 3044 -355 0
-3046 3045 359 0
-3046 -3045 -359 0
3046 -3045 359 0
3046 3045 -359 0
-143 -3046 0
-3047 361 362 0
-3047 -361 -362 0
3047 -361 362 0
3047 361 -362 0
-3048 3047 365 0
-3048 -3047 -365 0
3048 -3047 365 0
3048 3047 -365 0
-3049 3048 366 0
-3049 -3048 -366 0
3049 -3048 366 0
3049 3048 -366 0
-3050 3049 367 0
-3050 -3049 -367 0
3050 -3049 367 0
3050 3049 -367 0
-3051 3050 369 0
-3051 -3050 -369 0
3051 -3050 369 0
3051 3050 -369 0
-3052 3051 370 0
-3052 -3051 -370 0
3052 -3051 370 0
3052 3051 -370 0
-3053 3052 374 0
-3053 -3052 -374 0
3053 -3052 374 0
3053 3052 -374 0
-143 -3053 0
-3054 319 320 0
-3054 -319 -320 0
3054 -319 320 0
3054 319 -320 0
-3055 3054 323 0
-3055 -3054 -323 0
3055 -3054 323 0
3055 3054 -323 0
-3056 3055 324 0
-3056 -3055 -324 0
3056 -3055 324 0
3056 3055 -324 0
-3057 3056 328 0
-3057 -3056 -328 0
3057 -3056 328 0
3057 3056 -328 0
-3058 3057 329 0
-3058 -3057 -329 0
3058 -3057 329 0
3058 3057 -329 0
-144 -3058 0
-3059 334 335 0
-3059 -334 -335 0
3059 -334 335 0
3059 334 -335 0
-3060 3059 338 0
-3060 -3059 -338 0
3060 -3059 338 0
3060 3059 -338 0
-3061 3060 339 0
-3061 -3060 -339 0
3061 -3060 339 0
3061 3060 -339 0
-3062 3061 343 0
-3062 -3061 -343 0
3062 -3061 343 0
3062 3061 -343 0
-3063 3062 344 0
-3063 -3062 -344 0
3063 -3062 344 0
3063 3062 -344 0
-144 -3063 0
-3064 349 350 0
-3064 -349 -350 0
3064 -349 350 0
3064 349 -350 0
-3065 3064 353 0
-3065 -3064 -353 0
3065 -3064 353 0
3065 3064 -353 0
-3066 3065 354 0
-3066 -3065 -354 0
3066 -3065 354 0
3066 3065 -354 0
-3067 3066 358 0
-3067 -3066 -358 0
3067 -3066 358 0
3067 3066 -358 0
-3068 3067 359 0
-3068 -3067 -359 0
3068 -3067 359 0
3068 3067 -359 0
-144 -3068 0
-3069 364 365 0
-3069 -364 -365 0
3069 -364 365 0
3069 364 -365 0
-3070 3069 368 0
-3070 -3069 -368 0
3070 -3069 368 0
3070 3069 -368 0
-3071 3070 369 0
-3071 -3070 -369 0
3071 -3070 369 0
3071 3070 -369 0
-3072 3071 373 0
-3072 -3071 -373 0
3072 -3071 373 0
3072 3071 -373 0
-3073 3072 374 0
-3073 -3072 -374 0
3073 -3072 374 0
3073 3072 -374 0
-144 -3073 0
-3074 318 319 0
-3074 -318 -319 0
3074 -318 319 0
3074 318 -319 0
-3075 3074 320 0
-3075 -3074 -320 0
3075 -3074 320 0
3075 3074 -320 0
-3076 3075 322 0
-3076 -3075 -322 0
3076 -3075 322 0
3076 3075 -322 0
-3077 3076 323 0
-3077 -3076 -323 0
3077 -3076 323 0
3077 3076 -323 0
-3078 3077 324 0
-3078 -3077 -324 0
3078 -3077 324 0
3078 3077 -324 0
-3079 3078 328 0
-3079 -3078 -328 0
3079 -3078 328 0
3079 3078 -328 0
-3080 3079 329 0
-3080 -3079 -329 0
3080 -3079 329 0
3080 3079 -329 0
-145 -3080 0
-3081 333 334 0
-3081 -333 -334 0
3081 -333 334 0
3081 333 -334 0
-3082 3081 335 0
-3082 -3081 -335 0
3082 -3081 335 0
3082 3081 -335 0
-3083 3082 337 0
-3083 -3082 -337 0
3083 -3082 337 0
3083 3082 -337 0
-3084 3083 338 0
-3084 -3083 -338 0
3084 -3083 338 0
3084 3083 -338 0
-3085 3084 339 0
-3085 -3084 -339 0
3085 -3084 339 0
3085 3084 -339 0
-3086 3085 343 0
-3086 -3085 -343 0
3086 -3085 343 0
3086 3085 -343 0
-3087 3086 344 0
-3087 -3086 -344 0
3087 -3086 344 0
3087 3086 -344 0
-145 -3087 0
-3088 348 349 0
-3088 -348 -349 0
3088 -348 349 0
3088 348 -349 0
-3089 3088 350 0
-3089 -3088 -350 0
3089 -3088 350 0
3089 3088 -350 0
-3090 3089 352 0
-3090 -3089 -352 0
3090 -3089 352 0
3090 3089 -352 0
-3091 3090 353 0
-3091 -3090 -353 0
3091 -3090 353 0
3091 3090 -353 0
-3092 3091 354 0
-3092 -3091 -354 0
3092 -3091 354 0
3092 3091 -354 0
-3093 3092 358 0
-3093 -3092 -358 0
3093 -3092 358 0
3093 3092 -358 0
-3094 3093 359 0
-3094 -3093 -359 0
3094 -3093 359 0
3094 3093 -359 0
-145 -3094 0
-3095 363 364 0
-3095 -363 -364 0
3095 -363 364 0
3095 363 -364 0
-3096 3095 365 0
-3096 -3095 -365 0
3096 -3095 365 0
3096 3095 -365 0
-3097 3096 367 0
-3097 -3096 -367 0
3097 -3096 367 0
3097 3096 -367 0
-3098 3097 368 0
-3098 -3097 -368 0
3098 -3097 368 0
3098 3097 -368 0
-3099 3098 369 0
-3099 -3098 -369 0
3099 -3098 369 0
3099 3098 -369 0
-3100 3099 373 0
-3100 -3099 -373 0
3100 -3099 373 0
3100 3099 -373 0
-3101 3100 374 0
-3101 -3100 -374 0
3101 -3100 374 0
3101 3100 -374 0
-145 -3101 0
-3102 316 317 0
-3102 -316 -317 0
3102 -316 317 0
3102 316 -317 0
-3103 3102 318 0
-3103 -3102 -318 0
3103 -3102 318 0
3103 3102 -318 0
-3104 3103 319 0
-3104 -3103 -319 0
3104 -3103 319 0
3104 3103 -319 0
-3105 3104 320 0
-3105 -3104 -320 0
3105 -3104 320 0
3105 3104 -320 0
-3106 3105 321 0
-3106 -3105 -321 0
3106 -3105 321 0
3106 3105 -321 0
-3107 3106 323 0
-3107 -3106 -323 0
3107 -3106 323 0
3107 3106 -323 0
-3108 3107 324 0
-3108 -3107 -324 0
3108 -3107 324 0
3108 3107 -324 0
-3109 3108 325 0
-3109 -3108 -325 0
3109 -3108 325 0
3109 3108 -325 0
-3110 3109 328 0
-3110 -3109 -328 0
3110 -3109 328 0
3110 3109 -328 0
-3111 3110 329 0
-3111 -3110 -329 0
3111 -3110 329 0
3111 3110 -329 0
-146 -3111 0
-3112 331 332 0
-3112 -331 -332 0
3112 -331 332 0
3112 331 -332 0
-3113 3112 333 0
-3113 -3112 -333 0
3113 -3112 333 0
3113 3112 -333 0
-3114 3113 334 0
-3114 -3113 -334 0
3114 -3113 334 0
3114 3113 -334 0
-3115 3114 335 0
-3115 -3114 -335 0
3115 -3114 335 0
3115 3114 -335 0
-3116 3115 336 0
-3116 -3115 -336 0
3116 -3115 336 0
3116 3115 -336 0
-3117 3116 338 0
-3117 -3116 -338 0
3117 -3116 338 0
3117 3116 -338 0
-3118 3117 339 0
-3118 -3117 -339 0
3118 -3117 339 0
3118 3117 -339 0
-3119 3118 340 0
-3119 -3118 -340 0
3119 -3118 340 0
3119 3118 -340 0
-3120 3119 343 0
-3120 -3119 -343 0
3120 -3119 343 0
3120 3119 -343 0
-3121 3120 344 0
-3121 -3120 -344 0
3121 -3120 344 0
3121 3120 -344 0
-146 -3121 0
-3122 346 347 0
-3122 -346 -347 0
3122 -346 347 0
3122 346 -347 0
-3123 3122 348 0
-3123 -3122 -348 0
3123 -3122 348 0
3123 3122 -348 0
-3124 3123 349 0
-3124 -3123 -349 0
3124 -3123 349 0
3124 3123 -349 0
-3125 3124 350 0
-3125 -3124 -350 0
3125 -3124 350 0
3125 3124 -350 0
-3126 3125 351 0
-3126 -3125 -351 0
3126 -3125 351 0
3126 3125 -351 0
-3127 3126 353 0
-3127 -3126 -353 0
3127 -3126 353 0
3127 3126 -353 0
-3128 3127 354 0
-3128 -3127 -354 0
3128 -3127 354 0
3128 3127 -354 0
-3129 3128 355 0
-3129 -3128 -355 0
3129 -3128 355 0
3129 3128 -355 0
-3130 3129 358 0
-3130 -3129 -358 0
3130 -3129 358 0
3130 3129 -358 0
-3131 3130 359 0
-3131 -3130 -359 0
3131 -3130 359 0
3131 3130 -359 0
-146 -3131 0
-3132 361 362 0
-3132 -361 -362 0
3132 -361 362 0
3132 361 -362 0
-3133 3132 363 0
-3133 -3132 -363 0
3133 -3132 363 0
3133 3132 -363 0
-3134 3133 364 0
-3134 -3133 -364 0
3134 -3133 364 0
3134 3133 -364 0
-3135 3134 365 0
-3135 -3134 -365 0
3135 -3134 365 0
3135 3134 -365 0
-3136 3135 366 0
-3136 -3135 -366 0
3136 -3135 366 0
3136 3135 -366 0
-3137 3136 368 0
-3137 -3136 -368 0
3137 -3136 368 0
3137 3136 -368 0
-3138 3137 369 0
-3138 -3137 -369 0
3138 -3137 369 0
3138 3137 -369 0
-3139 3138 370 0
-3139 -3138 -370 0
3139 -3138 370 0
3139 3138 -370 0
-3140 3139 373 0
-3140 -3139 -373 0
3140 -3139 373 0
3140 3139 -373 0
-3141 3140 374 0
-3141 -3140 -374 0
3141 -3140 374 0
3141 3140 -374 0
-146 -3141 0
-3142 316 317 0
-3142 -316 -317 0
3142 -316 317 0
3142 316 -317 0
-3143 3142 319 0
-3143 -3142 -319 0
3143 -3142 319 0
3143 3142 -319 0
-3144 3143 320 0
-3144 -3143 -320 0
3144 -3143 320 0
3144 3143 -320 0
-3145 3144 321 0
-3145 -3144 -321 0
3145 -3144 321 0
3145 3144 -321 0
-3146 3145 322 0
-3146 -3145 -322 0
3146 -3145 322 0
3146 3145 -322 0
-3147 3146 323 0
-3147 -3146 -323 0
3147 -3146 323 0
3147 3146 -323 0
-3148 3147 324 0
-3148 -3147 -324 0
3148 -3147 324 0
3148 3147 -324 0
-3149 3148 325 0
-3149 -3148 -325 0
3149 -3148 325 0
3149 3148 -325 0
-3150 3149 328 0
-3150 -3149 -328 0
3150 -3149 328 0
3150 3149 -328 0
-3151 3150 329 0
-3151 -3150 -329 0
3151 -3150 329 0
3151 3150 -329 0
-147 -3151 0
-3152 331 332 0
-3152 -331 -332 0
3152 -331 332 0
3152 331 -332 0
-3153 3152 334 0
-3153 -3152 -334 0
3153 -3152 334 0
3153 3152 -334 0
-3154 3153 335 0
-3154 -3153 -335 0
3154 -3153 335 0
3154 3153 -335 0
-3155 3154 336 0
-3155 -3154 -336 0
3155 -3154 336 0
3155 3154 -336 0
-3156 3155 337 0
-3156 -3155 -337 0
3156 -3155 337 0
3156 3155 -337 0
-3157 3156 338 0
-3157 -3156 -338 0
3157 -3156 338 0
3157 3156 -338 0
-3158 3157 339 0
-3158 -3157 -339 0
3158 -3157 339 0
3158 3157 -339 0
-3159 3158 340 0
-3159 -3158 -340 0
3159 -3158 340 0
3159 3158 -340 0
-3160 3159 343 0
-3160 -3159 -343 0
3160 -3159 343 0
3160 3159 -343 0
-3161 3160 344 0
-3161 -3160 -344 0
3161 -3160 344 0
3161 3160 -344 0
-147 -3161 0
-3162 346 347 0
-3162 -346 -347 0
3162 -346 347 0
3162 346 -347 0
-3163 3162 349 0
-3163 -3162 -349 0
3163 -3162 349 0
3163 3162 -349 0
-3164 3163 350 0
-3164 -3163 -350 0
3164 -3163 350 0
3164 3163 -350 0
-3165 3164 351 0
-3165 -3164 -351 0
3165 -3164 351 0
3165 3164 -351 0
-3166 3165 352 0
-3166 -3165 -352 0
3166 -3165 352 0
3166 3165 -352 0
-3167 3166 353 0
-3167 -3166 -353 0
3167 -3166 353 0
3167 3166 -353 0
-3168 3167 354 0
-3168 -3167 -354 0
3168 -3167 354 0
3168 3167 -354 0
-3169 3168 355 0
-3169 -3168 -355 0
3169 -3168 355 0
3169 3168 -355 0
-3170 3169 358 0
-3170 -3169 -358 0
3170 -3169 358 0
3170 3169 -358 0
-3171 3170 359 0
-3171 -3170 -359 0
3171 -3170 359 0
3171 3170 -359 0
-147 -3171 0
-3172 361 362 0
-3172 -361 -362 0
3172 -361 362 0
3172 361 -362 0
-3173 3172 364 0
-3173 -3172 -364 0
3173 -3172 364 0
3173 3172 -364 0
-3174 3173 365 0
-3174 -3173 -365 0
3174 -3173 365 0
3174 3173 -365 0
-3175 3174 366 0
-3175 -3174 -366 0
3175 -3174 366 0
3175 3174 -366 0
-3176 3175 367 0
-3176 -3175 -367 0
3176 -3175 367 0
3176 3175 -367 0
-3177 3176 368 0
-3177 -3176 -368 0
3177 -3176 368 0
3177 3176 -368 0
-3178 3177 369 0
-3178 -3177 -369 0
3178 -3177 369 0
3178 3177 -369 0
-3179 3178 370 0
-3179 -3178 -370 0
3179 -3178 370 0
3179 3178 -370 0
-3180 3179 373 0
-3180 -3179 -373 0
3180 -3179 373 0
3180 3179 -373 0
-3181 3180 374 0
-3181 -3180 -374 0
3181 -3180 374 0
3181 3180 -374 0
-147 -3181 0
-3182 326 328 0
-3182 -326 -328 0
3182 -326 328 0
3182 326 -328 0
-148 -3182 0
-3183 341 343 0
-3183 -341 -343 0
3183 -341 343 0
3183 341 -343 0
-148 -3183 0
-3184 356 358 0
-3184 -356 -358 0
3184 -356 358 0
3184 356 -358 0
-148 -3184 0
-3185 371 373 0
-3185 -371 -373 0
3185 -371 373 0
3185 371 -373 0
-148 -3185 0
-3186 317 318 0
-3186 -317 -318 0
3186 -317 318 0
3186 317 -318 0
-3187 3186 326 0
-3187 -3186 -326 0
3187 -3186 326 0
3187 3186 -326 0
-3188 3187 328 0
-3188 -3187 -328 0
3188 -3187 328 0
3188 3187 -328 0
-149 -3188 0
-3189 332 333 0
-3189 -332 -333 0
3189 -332 333 0
3189 332 -333 0
-3190 3189 341 0
-3190 -3189 -341 0
3190 -3189 341 0
3190 3189 -341 0
-3191 3190 343 0
-3191 -3190 -343 0
3191 -3190 343 0
3191 3190 -343 0
-149 -3191 0
-3192 347 348 0
-3192 -347 -348 0
3192 -347 348 0
3192 347 -348 0
-3193 3192 356 0
-3193 -3192 -356 0
3193 -3192 356 0
3193 3192 -356 0
-3194 3193 358 0
-3194 -3193 -358 0
3194 -3193 358 0
3194 3193 -358 0
-149 -3194 0
-3195 362 363 0
-3195 -362 -363 0
3195 -362 363 0
3195 362 -363 0
-3196 3195 371 0
-3196 -3195 -371 0
3196 -3195 371 0
3196 3195 -371 0
-3197 3196 373 0
-3197 -3196 -373 0
3197 -3196 373 0
3197 3196 -373 0
-149 -3197 0
-3198 321 322 0
-3198 -321 -322 0
3198 -321 322 0
3198 321 -322 0
-3199 3198 326 0
-3199 -3198 -326 0
3199 -3198 326 0
3199 3198 -326 0
-3200 3199 328 0
-3200 -3199 -328 0
3200 -3199 328 0
3200 3199 -328 0
-150 -3200 0
-3201 336 337 0
-3201 -336 -337 0
3201 -336 337 0
3201 336 -337 0
-3202 3201 341 0
-3202 -3201 -341 0
3202 -3201 341 0
3202 3201 -341 0
-3203 3202 343 0
-3203 -3202 -343 0
3203 -3202 343 0
3203 3202 -343 0
-150 -3203 0
-3204 351 352 0
-3204 -351 -352 0
3204 -351 352 0
3204 351 -352 0
-3205 3204 356 0
-3205 -3204 -356 0
3205 -3204 356 0
3205 3204 -356 0
-3206 3205 358 0
-3206 -3205 -358 0
3206 -3205 358 0
3206 3205 -358 0
-150 -3206 0
-3207 366 367 0
-3207 -366 -367 0
3207 -366 367 0
3207 366 -367 0
-3208 3207 371 0
-3208 -3207 -371 0
3208 -3207 371 0
3208 3207 -371 0
-3209 3208 373 0
-3209 -3208 -373 0
3209 -3208 373 0
3209 3208 -373 0
-150 -3209 0
-3210 317 318 0
-3210 -317 -318 0
3210 -317 318 0
3210 317 -318 0
-3211 3210 321 0
-3211 -3210 -321 0
3211 -3210 321 0
3211 3210 -321 0
-3212 3211 322 0
-3212 -3211 -322 0
3212 -3211 322 0
3212 3211 -322 0
-3213 3212 326 0
-3213 -3212 -326 0
3213 -3212 326 0
3213 3212 -326 0
-3214 3213 328 0
-3214 -3213 -328 0
3214 -3213 328 0
3214 3213 -328 0
-151 -3214 0
-3215 332 333 0
-3215 -332 -333 0
3215 -332 333 0
3215 332 -333 0
-3216 3215 336 0
-3216 -3215 -336 0
3216 -3215 336 0
3216 3215 -336 0
-3217 3216 337 0
-3217 -3216 -337 0
3217 -3216 337 0
3217 3216 -337 0
-3218 3217 341 0
-3218 -3217 -341 0
3218 -3217 341 0
3218 3217 -341 0
-3219 3218 343 0
-3219 -3218 -343 0
3219 -3218 343 0
3219 3218 -343 0
-151 -3219 0
-3220 347 348 0
-3220 -347 -348 0
3220 -347 348 0
3220 347 -348 0
-3221 3220 351 0
-3221 -3220 -351 0
3221 -3220 351 0
3221 3220 -351 0
-3222 3221 352 0
-3222 -3221 -352 0
3222 -3221 352 0
3222 3221 -352 0
-3223 3222 356 0
-3223 -3222 -356 0
3223 -3222 356 0
3223 3222 -356 0
-3224 3223 358 0
-3224 -3223 -358 0
3224 -3223 358 0
3224 3223 -358 0
-151 -3224 0
-3225 362 363 0
-3225 -362 -363 0
3225 -362 363 0
3225 362 -363 0
-3226 3225 366 0
-3226 -3225 -366 0
3226 -3225 366 0
3226 3225 -366 0
-3227 3226 367 0
-3227 -3226 -367 0
3227 -3226 367 0
3227 3226 -367 0
-3228 3227 371 0
-3228 -3227 -371 0
3228 -3227 371 0
3228 3227 -371 0
-3229 3228 373 0
-3229 -3228 -373 0
3229 -3228 373 0
3229 3228 -373 0
-151 -3229 0
-3230 327 329 0
-3230 -327 -329 0
3230 -327 329 0
3230 327 -329 0
-152 -3230 0
-3231 342 344 0
-3231 -342 -344 0
3231 -342 344 0
3231 342 -344 0
-152 -3231 0
-3232 357 359 0
-3232 -357 -359 0
3232 -357 359 0
3232 357 -359 0
-152 -3232 0
-3233 372 374 0
-3233 -372 -374 0
3233 -372 374 0
3233 372 -374 0
-152 -3233 0
-3234 317 318 0
-3234 -317 -318 0
3234 -317 318 0
3234 317 -318 0
-3235 3234 327 0
-3235 -3234 -327 0
3235 -3234 327 0
3235 3234 -327 0
-3236 3235 329 0
-3236 -3235 -329 0
3236 -3235 329 0
3236 3235 -329 0
-153 -3236 0
-3237 332 333 0
-3237 -332 -333 0
3237 -332 333 0
3237 332 -333 0
-3238 3237 342 0
-3238 -3237 -342 0
3238 -3237 342 0
3238 3237 -342 0
-3239 3238 344 0
-3239 -3238 -344 0
3239 -3238 344 0
3239 3238 -344 0
-153 -3239 0
-3240 347 348 0
-3240 -347 -348 0
3240 -347 348 0
3240 347 -348 0
-3241 3240 357 0
-3241 -3240 -357 0
3241 -3240 357 0
3241 3240 -357 0
-3242 3241 359 0
-3242 -3241 -359 0
3242 -3241 359 0
3242 3241 -359 0
-153 -3242 0
-3243 362 363 0
-3243 -362 -363 0
3243 -362 363 0
3243 362 -363 0
-3244 3243 372 0
-3244 -3243 -372 0
3244 -3243 372 0
3244 3243 -372 0
-3245 3244 374 0
-3245 -3244 -374 0
3245 -3244 374 0
3245 3244 -374 0
-153 -3245 0
-3246 321 322 0
-3246 -321 -322 0
3246 -321 322 0
3246 321 -322 0
-3247 3246 327 0
-3247 -3246 -327 0
3247 -3246 327 0
3247 3246 -327 0
-3248 3247 329 0
-3248 -3247 -329 0
3248 -3247 329 0
3248 3247 -329 0
-154 -3248 0
-3249 336 337 0
-3249 -336 -337 0
3249 -336 337 0
3249 336 -337 0
-3250 3249 342 0
-3250 -3249 -342 0
3250 -3249 342 0
3250 3249 -342 0
-3251 3250 344 0
-3251 -3250 -344 0
3251 -3250 344 0
3251 3250 -344 0
-154 -3251 0
-3252 351 352 0
-3252 -351 -352 0
3252 -351 352 0
3252 351 -352 0
-3253 3252 357 0
-3253 -3252 -357 0
3253 -3252 357 0
3253 3252 -357 0
-3254 3253 359 0
-3254 -3253 -359 0
3254 -3253 359 0
3254 3253 -359 0
-154 -3254 0
-3255 366 367 0
-3255 -366 -367 0
3255 -366 367 0
3255 366 -367 0
-3256 3255 372 0
-3256 -3255 -372 0
3256 -3255 372 0
3256 3255 -372 0
-3257 3256 374 0
-3257 -3256 -374 0
3257 -3256 374 0
3257 3256 -374 0
-154 -3257 0
-3258 317 318 0
-3258 -317 -318 0
3258 -317 318 0
3258 317 -318 0
-3259 3258 321 0
-3259 -3258 -321 0
3259 -3258 321 0
3259 3258 -321 0
-3260 3259 322 0
-3260 -3259 -322 0
3260 -3259 322 0
3260 3259 -322 0
-3261 3260 327 0
-3261 -3260 -327 0
3261 -3260 327 0
3261 3260 -327 0
-3262 3261 329 0
-3262 -3261 -329 0
3262 -3261 329 0
3262 3261 -329 0
-155 -3262 0
-3263 332 333 0
-3263 -332 -333 0
3263 -332 333 0
3263 332 -333 0
-3264 3263 336 0
-3264 -3263 -336 0
3264 -3263 336 0
3264 3263 -336 0
-3265 3264 337 0
-3265 -3264 -337 0
3265 -3264 337 0
3265 3264 -337 0
-3266 3265 342 0
-3266 -3265 -342 0
3266 -3265 342 0
3266 3265 -342 0
-3267 3266 344 0
-3267 -3266 -344 0
3267 -3266 344 0
3267 3266 -344 0
-155 -3267 0
-3268 347 348 0
-3268 -347 -348 0
3268 -347 348 0
3268 347 -348 0
-3269 3268 351 0
-3269 -3268 -351 0
3269 -3268 351 0
3269 3268 -351 0
-3270 3269 352 0
-3270 -3269 -352 0
3270 -3269 352 0
3270 3269 -352 0
-3271 3270 357 0
-3271 -3270 -357 0
3271 -3270 357 0
3271 3270 -357 0
-3272 3271 359 0
-3272 -3271 -359 0
3272 -3271 359 0
3272 3271 -359 0
-155 -3272 0
-3273 362 363 0
-3273 -362 -363 0
3273 -362 363 0
3273 362 -363 0
-3274 3273 366 0
-3274 -3273 -366 0
3274 -3273 366 0
3274 3273 -366 0
-3275 3274 367 0
-3275 -3274 -367 0
3275 -3274 367 0
3275 3274 -367 0
-3276 3275 372 0
-3276 -3275 -372 0
3276 -3275 372 0
3276 3275 -372 0
-3277 3276 374 0
-3277 -3276 -374 0
3277 -3276 374 0
3277 3276 -374 0
-155 -3277 0
-3278 326 327 0
-3278 -326 -327 0
3278 -326 327 0
3278 326 -327 0
-3279 3278 328 0
-3279 -3278 -328 0
3279 -3278 328 0
3279 3278 -328 0
-3280 3279 329 0
-3280 -3279 -329 0
3280 -3279 329 0
3280 3279 -329 0
-156 -3280 0
-3281 341 342 0
-3281 -341 -342 0
3281 -341 342 0
3281 341 -342 0
-3282 3281 343 0
-3282 -3281 -343 0
3282 -3281 343 0
3282 3281 -343 0
-3283 3282 344 0
-3283 -3282 -344 0
3283 -3282 344 0
3283 3282 -344 0
-156 -3283 0
-3284 356 357 0
-3284 -356 -357 0
3284 -356 357 0
3284 356 -357 0
-3285 3284 358 0
-3285 -3284 -358 0
3285 -3284 358 0
3285 3284 -358 0
-3286 3285 359 0
-3286 -3285 -359 0
3286 -3285 359 0
3286 3285 -359 0
-156 -3286 0
-3287 371 372 0
-3287 -371 -372 0
3287 -371 372 0
3287 371 -372 0
-3288 3287 373 0
-3288 -3287 -373 0
3288 -3287 373 0
3288 3287 -373 0
-3289 3288 374 0
-3289 -3288 -374 0
3289 -3288 374 0
3289 3288 -374 0
-156 -3289 0
-3290 317 318 0
-3290 -317 -318 0
3290 -317 318 0
3290 317 -318 0
-3291 3290 326 0
-3291 -3290 -326 0
3291 -3290 326 0
3291 3290 -326 0
-3292 3291 327 0
-3292 -3291 -327 0
3292 -3291 327 0
3292 3291 -327 0
-3293 3292 328 0
-3293 -3292 -328 0
3293 -3292 328 0
3293 3292 -328 0
-3294 3293 329 0
-3294 -3293 -329 0
3294 -3293 329 0
3294 3293 -329 0
-157 -3294 0
-3295 332 333 0
-3295 -332 -333 0
3295 -332 333 0
3295 332 -333 0
-3296 3295 341 0
-3296 -3295 -341 0
3296 -3295 341 0
3296 3295 -341 0
-3297 3296 342 0
-3297 -3296 -342 0
3297 -3296 342 0
3297 3296 -342 0
-3298 3297 343 0
-3298 -3297 -343 0
3298 -3297 343 0
3298 3297 -343 0
-3299 3298 344 0
-3299 -3298 -344 0
3299 -3298 344 0
3299 3298 -344 0
-157 -3299 0
-3300 347 348 0
-3300 -347 -348 0
3300 -347 348 0
3300 347 -348 0
-3301 3300 356 0
-3301 -3300 -356 0
3301 -3300 356 0
3301 3300 -356 0
-3302 3301 357 0
-3302 -3301 -357 0
3302 -3301 357 0
3302 3301 -357 0
-3303 3302 358 0
-3303 -3302 -358 0
3303 -3302 358 0
3303 3302 -358 0
-3304 3303 359 0
-3304 -3303 -359 0
3304 -3303 359 0
3304 3303 -359 0
-157 -3304 0
-3305 362 363 0
-3305 -362 -363 0
3305 -362 363 0
3305 362 -363 0
-3306 3305 371 0
-3306 -3305 -371 0
3306 -3305 371 0
3306 3305 -371 0
-3307 3306 372 0
-3307 -3306 -372 0
3307 -3306 372 0
3307 3306 -372 0
-3308 3307 373 0
-3308 -3307 -373 0
3308 -3307 373 0
3308 3307 -373 0
-3309 3308 374 0
-3309 -3308 -374 0
3309 -3308 374 0
3309 3308 -374 0
-157 -3309 0
-3310 321 322 0
-3310 -321 -322 0
3310 -321 322 0
3310 321 -322 0
-3311 3310 326 0
-3311 -3310 -326 0
3311 -3310 326 0
3311 3310 -326 0
-3312 3311 327 0
-3312 -3311 -327 0
3312 -3311 327 0
3312 3311 -327 0
-3313 3312 328 0
-3313 -3312 -328 0
3313 -3312 328 0
3313 3312 -328 0
-3314 3313 329 0
-3314 -3313 -329 0
3314 -3313 329 0
3314 3313 -329 0
-158 -3314 0
-3315 336 337 0
-3315 -336 -337 0
3315 -336 337 0
3315 336 -337 0
-3316 3315 341 0
-3316 -3315 -341 0
3316 -3315 341 0
3316 3315 -341 0
-3317 3316 342 0
-3317 -3316 -342 0
3317 -3316 342 0
3317 3316 -342 0
-3318 3317 343 0
-3318 -3317 -343 0
3318 -3317 343 0
3318 3317 -343 0
-3319 3318 344 0
-3319 -3318 -344 0
3319 -3318 344 0
3319 3318 -344 0
-158 -3319 0
-3320 351 352 0
-3320 -351 -352 0
3320 -351 352 0
3320 351 -352 0
-3321 3320 356 0
-3321 -3320 -356 0
3321 -3320 356 0
3321 3320 -356 0
-3322 3321 357 0
-3322 -3321 -357 0
3322 -3321 357 0
3322 3321 -357 0
-3323 3322 358 0
-3323 -3322 -358 0
3323 -3322 358 0
3323 3322 -358 0
-3324 3323 359 0
-3324 -3323 -359 0
3324 -3323 359 0
3324 3323 -359 0
-158 -3324 0
-3325 366 367 0
-3325 -366 -367 0
3325 -366 367 0
3325 366 -367 0
-3326 3325 371 0
-3326 -3325 -371 0
3326 -3325 371 0
3326 3325 -371 0
-3327 3326 372 0
-3327 -3326 -372 0
3327 -3326 372 0
3327 3326 -372 0
-3328 3327 373 0
-3328 -3327 -373 0
3328 -3327 373 0
3328 3327 -373 0
-3329 3328 374 0
-3329 -3328 -374 0
3329 -3328 374 0
3329 3328 -374 0
-158 -3329 0
-3330 317 318 0
-3330 -317 -318 0
3330 -317 318 0
3330 317 -318 0
-3331 3330 321 0
-3331 -3330 -321 0
3331 -3330 321 0
3331 3330 -321 0
-3332 3331 322 0
-3332 -3331 -322 0
3332 -3331 322 0
3332 3331 -322 0
-3333 3332 326 0
-3333 -3332 -326 0
3333 -3332 326 0
3333 3332 -326 0
-3334 3333 327 0
-3334 -3333 -327 0
3334 -3333 327 0
3334 3333 -327 0
-3335 3334 328 0
-3335 -3334 -328 0
3335 -3334 328 0
3335 3334 -328 0
-3336 3335 329 0
-3336 -3335 -329 0
3336 -3335 329 0
3336 3335 -329 0
-159 -3336 0
-3337 332 333 0
-3337 -332 -333 0
3337 -332 333 0
3337 332 -333 0
-3338 3337 336 0
-3338 -3337 -336 0
3338 -3337 336 0
3338 3337 -336 0
-3339 3338 337 0
-3339 -3338 -337 0
3339 -3338 337 0
3339 3338 -337 0
-3340 3339 341 0
-3340 -3339 -341 0
3340 -3339 341 0
3340 3339 -341 0
-3341 3340 342 0
-3341 -3340 -342 0
3341 -3340 342 0
3341 3340 -342 0
-3342 3341 343 0
-3342 -3341 -343 0
3342 -3341 343 0
3342 3341 -343 0
-3343 3342 344 0
-3343 -3342 -344 0
3343 -3342 344 0
3343 3342 -344 0
-159 -3343 0
-3344 347 348 0
-3344 -347 -348 0
3344 -347 348 0
3344 347 -348 0
-3345 3344 351 0
-3345 -3344 -351 0
3345 -3344 351 0
3345 3344 -351 0
-3346 3345 352 0
-3346 -3345 -352 0
3346 -3345 352 0
3346 3345 -352 0
-3347 3346 356 0
-3347 -3346 -356 0
3347 -3346 356 0
3347 3346 -356 0
-3348 3347 357 0
-3348 -3347 -357 0
3348 -3347 357 0
3348 3347 -357 0
-3349 3348 358 0
-3349 -3348 -358 0
3349 -3348 358 0
3349 3348 -358 0
-3350 3349 359 0
-3350 -3349 -359 0
3350 -3349 359 0
3350 3349 -359 0
-159 -3350 0
-3351 362 363 0
-3351 -362 -363 0
3351 -362 363 0
3351 362 -363 0
-3352 3351 366 0
-3352 -3351 -366 0
3352 -3351 366 0
3352 3351 -366 0
-3353 3352 367 0
-3353 -3352 -367 0
3353 -3352 367 0
3353 3352 -367 0
-3354 3353 371 0
-3354 -3353 -371 0
3354 -3353 371 0
3354 3353 -371 0
-3355 3354 372 0
-3355 -3354 -372 0
3355 -3354 372 0
3355 3354 -372 0
-3356 3355 373 0
-3356 -3355 -373 0
3356 -3355 373 0
3356 3355 -373 0
-3357 3356 374 0
-3357 -3356 -374 0
3357 -3356 374 0
3357 3356 -374 0
-159 -3357 0
-3358 319 326 0
-3358 -319 -326 0
3358 -319 326 0
3358 319 -326 0
-3359 3358 328 0
-3359 -3358 -328 0
3359 -3358 328 0
3359 3358 -328 0
-160 -3359 0
-3360 334 341 0
-3360 -334 -341 0
3360 -334 341 0
3360 334 -341 0
-3361 3360 343 0
-3361 -3360 -343 0
3361 -3360 343 0
3361 3360 -343 0
-160 -3361 0
-3362 349 356 0
-3362 -349 -356 0
3362 -349 356 0
3362 349 -356 0
-3363 3362 358 0
-3363 -3362 -358 0
3363 -3362 358 0
3363 3362 -358 0
-160 -3363 0
-3364 364 371 0
-3364 -364 -371 0
3364 -364 371 0
3364 364 -371 0
-3365 3364 373 0
-3365 -3364 -373 0
3365 -3364 373 0
3365 3364 -373 0
-160 -3365 0
-3366 317 318 0
-3366 -317 -318 0
3366 -317 318 0
3366 317 -318 0
-3367 3366 319 0
-3367 -3366 -319 0
3367 -3366 319 0
3367 3366 -319 0
-3368 3367 326 0
-3368 -3367 -326 0
3368 -3367 326 0
3368 3367 -326 0
-3369 3368 328 0
-3369 -3368 -328 0
3369 -3368 328 0
3369 3368 -328 0
-161 -3369 0
-3370 332 333 0
-3370 -332 -333 0
3370 -332 333 0
3370 332 -333 0
-3371 3370 334 0
-3371 -3370 -334 0
3371 -3370 334 0
3371 3370 -334 0
-3372 3371 341 0
-3372 -3371 -341 0
3372 -3371 341 0
3372 3371 -341 0
-3373 3372 343 0
-3373 -3372 -343 0
3373 -3372 343 0
3373 3372 -343 0
-161 -3373 0
-3374 347 348 0
-3374 -347 -348 0
3374 -347 348 0
3374 347 -348 0
-3375 3374 349 0
-3375 -3374 -349 0
3375 -3374 349 0
3375 3374 -349 0
-3376 3375 356 0
-3376 -3375 -356 0
3376 -3375 356 0
3376 3375 -356 0
-3377 3376 358 0
-3377 -3376 -358 0
3377 -3376 358 0
3377 3376 -358 0
-161 -3377 0
-3378 362 363 0
-3378 -362 -363 0
3378 -362 363 0
3378 362 -363 0
-3379 3378 364 0
-3379 -3378 -364 0
3379 -3378 364 0
3379 3378 -364 0
-3380 3379 371 0
-3380 -3379 -371 0
3380 -3379 371 0
3380 3379 -371 0
-3381 3380 373 0
-3381 -3380 -373 0
3381 -3380 373 0
3381 3380 -373 0
-161 -3381 0
-3382 316 317 0
-3382 -316 -317 0
3382 -316 317 0
3382 316 -317 0
-3383 3382 319 0
-3383 -3382 -319 0
3383 -3382 319 0
3383 3382 -319 0
-3384 3383 321 0
-3384 -3383 -321 0
3384 -3383 321 0
3384 3383 -321 0
-3385 3384 322 0
-3385 -3384 -322 0
3385 -3384 322 0
3385 3384 -322 0
-3386 3385 325 0
-3386 -3385 -325 0
3386 -3385 325 0
3386 3385 -325 0
-3387 3386 326 0
-3387 -3386 -326 0
3387 -3386 326 0
3387 3386 -326 0
-3388 3387 328 0
-3388 -3387 -328 0
3388 -3387 328 0
3388 3387 -328 0
-162 -3388 0
-3389 331 332 0
-3389 -331 -332 0
3389 -331 332 0
3389 331 -332 0
-3390 3389 334 0
-3390 -3389 -334 0
3390 -3389 334 0
3390 3389 -334 0
-3391 3390 336 0
-3391 -3390 -336 0
3391 -3390 336 0
3391 3390 -336 0
-3392 3391 337 0
-3392 -3391 -337 0
3392 -3391 337 0
3392 3391 -337 0
-3393 3392 340 0
-3393 -3392 -340 0
3393 -3392 340 0
3393 3392 -340 0
-3394 3393 341 0
-3394 -3393 -341 0
3394 -3393 341 0
3394 3393 -341 0
-3395 3394 343 0
-3395 -3394 -343 0
3395 -3394 343 0
3395 3394 -343 0
-162 -3395 0
-3396 346 347 0
-3396 -346 -347 0
3396 -346 347 0
3396 346 -347 0
-3397 3396 349 0
-3397 -3396 -349 0
3397 -3396 349 0
3397 3396 -349 0
-3398 3397 351 0
-3398 -3397 -351 0
3398 -3397 351 0
3398 3397 -351 0
-3399 3398 352 0
-3399 -3398 -352 0
3399 -3398 352 0
3399 3398 -352 0
-3400 3399 355 0
-3400 -3399 -355 0
3400 -3399 355 0
3400 3399 -355 0
-3401 3400 356 0
-3401 -3400 -356 0
3401 -3400 356 0
3401 3400 -356 0
-3402 3401 358 0
-3402 -3401 -358 0
3402 -3401 358 0
3402 3401 -358 0
-162 -3402 0
-3403 361 362 0
-3403 -361 -362 0
3403 -361 362 0
3403 361 -362 0
-3404 3403 364 0
-3404 -3403 -364 0
3404 -3403 364 0
3404 3403 -364 0
-3405 3404 366 0
-3405 -3404 -366 0
3405 -3404 366 0
3405 3404 -366 0
-3406 3405 367 0
-3406 -3405 -367 0
3406 -3405 367 0
3406 3405 -367 0
-3407 3406 370 0
-3407 -3406 -370 0
3407 -3406 370 0
3407 3406 -370 0
-3408 3407 371 0
-3408 -3407 -371 0
3408 -3407 371 0
3408 3407 -371 0
-3409 3408 373 0
-3409 -3408 -373 0
3409 -3408 373 0
3409 3408 -373 0
-162 -3409 0
-3410 316 318 0
-3410 -316 -318 0
3410 -316 318 0
3410 316 -318 0
-3411 3410 319 0
-3411 -3410 -319 0
3411 -3410 319 0
3411 3410 -319 0
-3412 3411 321 0
-3412 -3411 -321 0
3412 -3411 321 0
3412 3411 -321 0
-3413 3412 322 0
-3413 -3412 -322 0
3413 -3412 322 0
3413 3412 -322 0
-3414 3413 325 0
-3414 -3413 -325 0
3414 -3413 325 0
3414 3413 -325 0
-3415 3414 326 0
-3415 -3414 -326 0
3415 -3414 326 0
3415 3414 -326 0
-3416 3415 328 0
-3416 -3415 -328 0
3416 -3415 328 0
3416 3415 -328 0
-163 -3416 0
-3417 331 333 0
-3417 -331 -333 0
3417 -331 333 0
3417 331 -333 0
-3418 3417 334 0
-3418 -3417 -334 0
3418 -3417 334 0
3418 3417 -334 0
-3419 3418 336 0
-3419 -3418 -336 0
3419 -3418 336 0
3419 3418 -336 0
-3420 3419 337 0
-3420 -3419 -337 0
3420 -3419 337 0
3420 3419 -337 0
-3421 3420 340 0
-3421 -3420 -340 0
3421 -3420 340 0
3421 3420 -340 0
-3422 3421 341 0
-3422 -3421 -341 0
3422 -3421 341 0
3422 3421 -341 0
-3423 3422 343 0
-3423 -3422 -343 0
3423 -3422 343 0
3423 3422 -343 0
-163 -3423 0
-3424 346 348 0
-3424 -346 -348 0
3424 -346 348 0
3424 346 -348 0
-3425 3424 349 0
-3425 -3424 -349 0
3425 -3424 349 0
3425 3424 -349 0
-3426 3425 351 0
-3426 -3425 -351 0
3426 -3425 351 0
3426 3425 -351 0
-3427 3426 352 0
-3427 -3426 -352 0
3427 -3426 352 0
3427 3426 -352 0
-3428 3427 355 0
-3428 -3427 -355 0
3428 -3427 355 0
3428 3427 -355 0
-3429 3428 356 0
-3429 -3428 -356 0
3429 -3428 356 0
3429 3428 -356 0
-3430 3429 358 0
-3430 -3429 -358 0
3430 -3429 358 0
3430 3429 -358 0
-163 -3430 0
-3431 361 363 0
-3431 -361 -363 0
3431 -361 363 0
3431 361 -363 0
-3432 3431 364 0
-3432 -3431 -364 0
3432 -3431 364 0
3432 3431 -364 0
-3433 3432 366 0
-3433 -3432 -366 0
3433 -3432 366 0
3433 3432 -366 0
-3434 3433 367 0
-3434 -3433 -367 0
3434 -3433 367 0
3434 3433 -367 0
-3435 3434 370 0
-3435 -3434 -370 0
3435 -3434 370 0
3435 3434 -370 0
-3436 3435 371 0
-3436 -3435 -371 0
3436 -3435 371 0
3436 3435 -371 0
-3437 3436 373 0
-3437 -3436 -373 0
3437 -3436 373 0
3437 3436 -373 0
-163 -3437 0
-3438 320 327 0
-3438 -320 -327 0
3438 -320 327 0
3438 320 -327 0
-3439 3438 329 0
-3439 -3438 -329 0
3439 -3438 329 0
3439 3438 -329 0
-164 -3439 0
-3440 335 342 0
-3440 -335 -342 0
3440 -335 342 0
3440 335 -342 0
-3441 3440 344 0
-3441 -3440 -344 0
3441 -3440 344 0
3441 3440 -344 0
-164 -3441 0
-3442 350 357 0
-3442 -350 -357 0
3442 -350 357 0
3442 350 -357 0
-3443 3442 359 0
-3443 -3442 -359 0
3443 -3442 359 0
3443 3442 -359 0
-164 -3443 0
-3444 365 372 0
-3444 -365 -372 0
3444 -365 372 0
3444 365 -372 0
-3445 3444 374 0
-3445 -3444 -374 0
3445 -3444 374 0
3445 3444 -374 0
-164 -3445 0
-3446 317 318 0
-3446 -317 -318 0
3446 -317 318 0
3446 317 -318 0
-3447 3446 320 0
-3447 -3446 -320 0
3447 -3446 320 0
3447 3446 -320 0
-3448 3447 327 0
-3448 -3447 -327 0
3448 -3447 327 0
3448 3447 -327 0
-3449 3448 329 0
-3449 -3448 -329 0
3449 -3448 329 0
3449 3448 -329 0
-165 -3449 0
-3450 332 333 0
-3450 -332 -333 0
3450 -332 333 0
3450 332 -333 0
-3451 3450 335 0
-3451 -3450 -335 0
3451 -3450 335 0
3451 3450 -335 0
-3452 3451 342 0
-3452 -3451 -342 0
3452 -3451 342 0
3452 3451 -342 0
-3453 3452 344 0
-3453 -3452 -344 0
3453 -3452 344 0
3453 3452 -344 0
-165 -3453 0
-3454 347 348 0
-3454 -347 -348 0
3454 -347 348 0
3454 347 -348 0
-3455 3454 350 0
-3455 -3454 -350 0
3455 -3454 350 0
3455 3454 -350 0
-3456 3455 357 0
-3456 -3455 -357 0
3456 -3455 357 0
3456 3455 -357 0
-3457 3456 359 0
-3457 -3456 -359 0
3457 -3456 359 0
3457 3456 -359 0
-165 -3457 0
-3458 362 363 0
-3458 -362 -363 0
3458 -362 363 0
3458 362 -363 0
-3459 3458 365 0
-3459 -3458 -365 0
3459 -3458 365 0
3459 3458 -365 0
-3460 3459 372 0
-3460 -3459 -372 0
3460 -3459 372 0
3460 3459 -372 0
-3461 3460 374 0
-3461 -3460 -374 0
3461 -3460 374 0
3461 3460 -374 0
-165 -3461 0
-3462 316 317 0
-3462 -316 -317 0
3462 -316 317 0
3462 316 -317 0
-3463 3462 320 0
-3463 -3462 -320 0
3463 -3462 320 0
3463 3462 -320 0
-3464 3463 321 0
-3464 -3463 -321 0
3464 -3463 321 0
3464 3463 -321 0
-3465 3464 322 0
-3465 -3464 -322 0
3465 -3464 322 0
3465 3464 -322 0
-3466 3465 325 0
-3466 -3465 -325 0
3466 -3465 325 0
3466 3465 -325 0
-3467 3466 327 0
-3467 -3466 -327 0
3467 -3466 327 0
3467 3466 -327 0
-3468 3467 329 0
-3468 -3467 -329 0
3468 -3467 329 0
3468 3467 -329 0
-166 -3468 0
-3469 331 332 0
-3469 -331 -332 0
3469 -331 332 0
3469 331 -332 0
-3470 3469 335 0
-3470 -3469 -335 0
3470 -3469 335 0
3470 3469 -335 0
-3471 3470 336 0
-3471 -3470 -336 0
3471 -3470 336 0
3471 3470 -336 0
-3472 3471 337 0
-3472 -3471 -337 0
3472 -3471 337 0
3472 3471 -337 0
-3473 3472 340 0
-3473 -3472 -340 0
3473 -3472 340 0
3473 3472 -340 0
-3474 3473 342 0
-3474 -3473 -342 0
3474 -3473 342 0
3474 3473 -342 0
-3475 3474 344 0
-3475 -3474 -344 0
3475 -3474 344 0
3475 3474 -344 0
-166 -3475 0
-3476 346 347 0
-3476 -346 -347 0
3476 -346 347 0
3476 346 -347 0
-3477 3476 350 0
-3477 -3476 -350 0
3477 -3476 350 0
3477 3476 -350 0
-3478 3477 351 0
-3478 -3477 -351 0
3478 -3477 351 0
3478 3477 -351 0
-3479 3478 352 0
-3479 -3478 -352 0
3479 -3478 352 0
3479 3478 -352 0
-3480 3479 355 0
-3480 -3479 -355 0
3480 -3479 355 0
3480 3479 -355 0
-3481 3480 357 0
-3481 -3480 -357 0
3481 -3480 357 0
3481 3480 -357 0
-3482 3481 359 0
-3482 -3481 -359 0
3482 -3481 359 0
3482 3481 -359 0
-166 -3482 0
-3483 361 362 0
-3483 -361 -362 0
3483 -361 362 0
3483 361 -362 0
-3484 3483 365 0
-3484 -3483 -365 0
3484 -3483 365 0
3484 3483 -365 0
-3485 3484 366 0
-3485 -3484 -366 0
3485 -3484 366 0
3485 3484 -366 0
-3486 3485 367 0
-3486 -3485 -367 0
3486 -3485 367 0
3486 3485 -367 0
-3487 3486 370 0
-3487 -3486 -370 0
3487 -3486 370 0
3487 3486 -370 0
-3488 3487 372 0
-3488 -3487 -372 0
3488 -3487 372 0
3488 3487 -372 0
-3489 3488 374 0
-3489 -3488 -374 0
3489 -3488 374 0
3489 3488 -374 0
-166 -3489 0
-3490 316 318 0
-3490 -316 -318 0
3490 -316 318 0
3490 316 -318 0
-3491 3490 320 0
-3491 -3490 -320 0
3491 -3490 320 0
3491 3490 -320 0
-3492 3491 321 0
-3492 -3491 -321 0
3492 -3491 321 0
3492 3491 -321 0
-3493 3492 322 0
-3493 -3492 -322 0
3493 -3492 322 0
3493 3492 -322 0
-3494 3493 325 0
-3494 -3493 -325 0
3494 -3493 325 0
3494 3493 -325 0
-3495 3494 327 0
-3495 -3494 -327 0
3495 -3494 327 0
3495 3494 -327 0
-3496 3495 329 0
-3496 -3495 -329 0
3496 -3495 329 0
3496 3495 -329 0
-167 -3496 0
-3497 331 333 0
-3497 -331 -333 0
3497 -331 333 0
3497 331 -333 0
-3498 3497 335 0
-3498 -3497 -335 0
3498 -3497 335 0
3498 3497 -335 0
-3499 3498 336 0
-3499 -3498 -336 0
3499 -3498 336 0
3499 3498 -336 0
-3500 3499 337 0
-3500 -3499 -337 0
3500 -3499 337 0
3500 3499 -337 0
-3501 3500 340 0
-3501 -3500 -340 0
3501 -3500 340 0
3501 3500 -340 0
-3502 3501 342 0
-3502 -3501 -342 0
3502 -3501 342 0
3502 3501 -342 0
-3503 3502 344 0
-3503 -3502 -344 0
3503 -3502 344 0
3503 3502 -344 0
-167 -3503 0
-3504 346 348 0
-3504 -346 -348 0
3504 -346 348 0
3504 346 -348 0
-3505 3504 350 0
-3505 -3504 -350 0
3505 -3504 350 0
3505 3504 -350 0
-3506 3505 351 0
-3506 -3505 -351 0
3506 -3505 351 0
3506 3505 -351 0
-3507 3506 352 0
-3507 -3506 -352 0
3507 -3506 352 0
3507 3506 -352 0
-3508 3507 355 0
-3508 -3507 -355 0
3508 -3507 355 0
3508 3507 -355 0
-3509 3508 357 0
-3509 -3508 -357 0
3509 -3508 357 0
3509 3508 -357 0
-3510 3509 359 0
-3510 -3509 -359 0
3510 -3509 359 0
3510 3509 -359 0
-167 -3510 0
-3511 361 363 0
-3511 -361 -363 0
3511 -361 363 0
3511 361 -363 0
-3512 3511 365 0
-3512 -3511 -365 0
3512 -3511 365 0
3512 3511 -365 0
-3513 3512 366 0
-3513 -3512 -366 0
3513 -3512 366 0
3513 3512 -366 0
-3514 3513 367 0
-3514 -3513 -367 0
3514 -3513 367 0
3514 3513 -367 0
-3515 3514 370 0
-3515 -3514 -370 0
3515 -3514 370 0
3515 3514 -370 0
-3516 3515 372 0
-3516 -3515 -372 0
3516 -3515 372 0
3516 3515 -372 0
-3517 3516 374 0
-3517 -3516 -374 0
3517 -3516 374 0
3517 3516 -374 0
-167 -3517 0
-3518 319 320 0
-3518 -319 -320 0
3518 -319 320 0
3518 319 -320 0
-3519 3518 326 0
-3519 -3518 -326 0
3519 -3518 326 0
3519 3518 -326 0
-3520 3519 327 0
-3520 -3519 -327 0
3520 -3519 327 0
3520 3519 -327 0
-3521 3520 328 0
-3521 -3520 -328 0
3521 -3520 328 0
3521 3520 -328 0
-3522 3521 329 0
-3522 -3521 -329 0
3522 -3521 329 0
3522 3521 -329 0
-168 -3522 0
-3523 334 335 0
-3523 -334 -335 0
3523 -334 335 0
3523 334 -335 0
-3524 3523 341 0
-3524 -3523 -341 0
3524 -3523 341 0
3524 3523 -341 0
-3525 3524 342 0
-3525 -3524 -342 0
3525 -3524 342 0
3525 3524 -342 0
-3526 3525 343 0
-3526 -3525 -343 0
3526 -3525 343 0
3526 3525 -343 0
-3527 3526 344 0
-3527 -3526 -344 0
3527 -3526 344 0
3527 3526 -344 0
-168 -3527 0
-3528 349 350 0
-3528 -349 -350 0
3528 -349 350 0
3528 349 -350 0
-3529 3528 356 0
-3529 -3528 -356 0
3529 -3528 356 0
3529 3528 -356 0
-3530 3529 357 0
-3530 -3529 -357 0
3530 -3529 357 0
3530 3529 -357 0
-3531 3530 358 0
-3531 -3530 -358 0
3531 -3530 358 0
3531 3530 -358 0
-3532 3531 359 0
-3532 -3531 -359 0
3532 -3531 359 0
3532 3531 -359 0
-168 -3532 0
-3533 364 365 0
-3533 -364 -365 0
3533 -364 365 0
3533 364 -365 0
-3534 3533 371 0
-3534 -3533 -371 0
3534 -3533 371 0
3534 3533 -371 0
-3535 3534 372 0
-3535 -3534 -372 0
3535 -3534 372 0
3535 3534 -372 0
-3536 3535 373 0
-3536 -3535 -373 0
3536 -3535 373 0
3536 3535 -373 0
-3537 3536 374 0
-3537 -3536 -374 0
3537 -3536 374 0
3537 3536 -374 0
-168 -3537 0
-3538 317 318 0
-3538 -317 -318 0
3538 -317 318 0
3538 317 -318 0
-3539 3538 319 0
-3539 -3538 -319 0
3539 -3538 319 0
3539 3538 -319 0
-3540 3539 320 0
-3540 -3539 -320 0
3540 -3539 320 0
3540 3539 -320 0
-3541 3540 326 0
-3541 -3540 -326 0
3541 -3540 326 0
3541 3540 -326 0
-3542 3541 327 0
-3542 -3541 -327 0
3542 -3541 327 0
3542 3541 -327 0
-3543 3542 328 0
-3543 -3542 -328 0
3543 -3542 328 0
3543 3542 -328 0
-3544 3543 329 0
-3544 -3543 -329 0
3544 -3543 329 0
3544 3543 -329 0
-169 -3544 0
-3545 332 333 0
-3545 -332 -333 0
3545 -332 333 0
3545 332 -333 0
-3546 3545 334 0
-3546 -3545 -334 0
3546 -3545 334 0
3546 3545 -334 0
-3547 3546 335 0
-3547 -3546 -335 0
3547 -3546 335 0
3547 3546 -335 0
-3548 3547 341 0
-3548 -3547 -341 0
3548 -3547 341 0
3548 3547 -341 0
-3549 3548 342 0
-3549 -3548 -342 0
3549 -3548 342 0
3549 3548 -342 0
-3550 3549 343 0
-3550 -3549 -343 0
3550 -3549 343 0
3550 3549 -343 0
-3551 3550 344 0
-3551 -3550 -344 0
3551 -3550 344 0
3551 3550 -344 0
-169 -3551 0
-3552 347 348 0
-3552 -347 -348 0
3552 -347 348 0
3552 347 -348 0
-3553 3552 349 0
-3553 -3552 -349 0
3553 -3552 349 0
3553 3552 -349 0
-3554 3553 350 0
-3554 -3553 -350 0
3554 -3553 350 0
3554 3553 -350 0
-3555 3554 356 0
-3555 -3554 -356 0
3555 -3554 356 0
3555 3554 -356 0
-3556 3555 357 0
-3556 -3555 -357 0
3556 -3555 357 0
3556 3555 -357 0
-3557 3556 358 0
-3557 -3556 -358 0
3557 -3556 358 0
3557 3556 -358 0
-3558 3557 359 0
-3558 -3557 -359 0
3558 -3557 359 0
3558 3557 -359 0
-169 -3558 0
-3559 362 363 0
-3559 -362 -363 0
3559 -362 363 0
3559 362 -363 0
-3560 3559 364 0
-3560 -3559 -364 0
3560 -3559 364 0
3560 3559 -364 0
-3561 3560 365 0
-3561 -3560 -365 0
3561 -3560 365 0
3561 3560 -365 0
-3562 3561 371 0
-3562 -3561 -371 0
3562 -3561 371 0
3562 3561 -371 0
-3563 3562 372 0
-3563 -3562 -372 0
3563 -3562 372 0
3563 3562 -372 0
-3564 3563 373 0
-3564 -3563 -373 0
3564 -3563 373 0
3564 3563 -373 0
-3565 3564 374 0
-3565 -3564 -374 0
3565 -3564 374 0
3565 3564 -374 0
-169 -3565 0
-3566 316 317 0
-3566 -316 -317 0
3566 -316 317 0
3566 316 -317 0
-3567 3566 319 0
-3567 -3566 -319 0
3567 -3566 319 0
3567 3566 -319 0
-3568 3567 320 0
-3568 -3567 -320 0
3568 -3567 320 0
3568 3567 -320 0
-3569 3568 321 0
-3569 -3568 -321 0
3569 -3568 321 0
3569 3568 -321 0
-3570 3569 322 0
-3570 -3569 -322 0
3570 -3569 322 0
3570 3569 -322 0
-3571 3570 325 0
-3571 -3570 -325 0
3571 -3570 325 0
3571 3570 -325 0
-3572 3571 326 0
-3572 -3571 -326 0
3572 -3571 326 0
3572 3571 -326 0
-3573 3572 327 0
-3573 -3572 -327 0
3573 -3572 327 0
3573 3572 -327 0
-3574 3573 328 0
-3574 -3573 -328 0
3574 -3573 328 0
3574 3573 -328 0
-3575 3574 329 0
-3575 -3574 -329 0
3575 -3574 329 0
3575 3574 -329 0
-170 -3575 0
-3576 331 332 0
-3576 -331 -332 0
3576 -331 332 0
3576 331 -332 0
-3577 3576 334 0
-3577 -3576 -334 0
3577 -3576 334 0
3577 3576 -334 0
-3578 3577 335 0
-3578 -3577 -335 0
3578 -3577 335 0
3578 3577 -335 0
-3579 3578 336 0
-3579 -3578 -336 0
3579 -3578 336 0
3579 3578 -336 0
-3580 3579 337 0
-3580 -3579 -337 0
3580 -3579 337 0
3580 3579 -337 0
-3581 3580 340 0
-3581 -3580 -340 0
3581 -3580 340 0
3581 3580 -340 0
-3582 3581 341 0
-3582 -3581 -341 0
3582 -3581 341 0
3582 3581 -341 0
-3583 3582 342 0
-3583 -3582 -342 0
3583 -3582 342 0
3583 3582 -342 0
-3584 3583 343 0
-3584 -3583 -343 0
3584 -3583 343 0
3584 3583 -343 0
-3585 3584 344 0
-3585 -3584 -344 0
3585 -3584 344 0
3585 3584 -344 0
-170 -3585 0
-3586 346 347 0
-3586 -346 -347 0
3586 -346 347 0
3586 346 -347 0
-3587 3586 349 0
-3587 -3586 -349 0
3587 -3586 349 0
3587 3586 -349 0
-3588 3587 350 0
-3588 -3587 -350 0
3588 -3587 350 0
3588 3587 -350 0
-3589 3588 351 0
-3589 -3588 -351 0
3589 -3588 351 0
3589 3588 -351 0
-3590 3589 352 0
-3590 -3589 -352 0
3590 -3589 352 0
3590 3589 -352 0
-3591 3590 355 0
-3591 -3590 -355 0
3591 -3590 355 0
3591 3590 -355 0
-3592 3591 356 0
-3592 -3591 -356 0
3592 -3591 356 0
3592 3591 -356 0
-3593 3592 357 0
-3593 -3592 -357 0
3593 -3592 357 0
3593 3592 -357 0
-3594 3593 358 0
-3594 -3593 -358 0
3594 -3593 358 0
3594 3593 -358 0
-3595 3594 359 0
-3595 -3594 -359 0
3595 -3594 359 0
3595 3594 -359 0
-170 -3595 0
-3596 361 362 0
-3596 -361 -362 0
3596 -361 362 0
3596 361 -362 0
-3597 3596 364 0
-3597 -3596 -364 0
3597 -3596 364 0
3597 3596 -364 0
-3598 3597 365 0
-3598 -3597 -365 0
3598 -3597 365 0
3598 3597 -365 0
-3599 3598 366 0
-3599 -3598 -366 0
3599 -3598 366 0
3599 3598 -366 0
-3600 3599 367 0
-3600 -3599 -367 0
3600 -3599 367 0
3600 3599 -367 0
-3601 3600 370 0
-3601 -3600 -370 0
3601 -3600 370 0
3601 3600 -370 0
-3602 3601 371 0
-3602 -3601 -371 0
3602 -3601 371 0
3602 3601 -371 0
-3603 3602 372 0
-3603 -3602 -372 0
3603 -3602 372 0
3603 3602 -372 0
-3604 3603 373 0
-3604 -3603 -373 0
3604 -3603 373 0
3604 3603 -373 0
-3605 3604 374 0
-3605 -3604 -374 0
3605 -3604 374 0
3605 3604 -374 0
-170 -3605 0
-3606 316 318 0
-3606 -316 -318 0
3606 -316 318 0
3606 316 -318 0
-3607 3606 319 0
-3607 -3606 -319 0
3607 -3606 319 0
3607 3606 -319 0
-3608 3607 320 0
-3608 -3607 -320 0
3608 -3607 320 0
3608 3607 -320 0
-3609 3608 321 0
-3609 -3608 -321 0
3609 -3608 321 0
3609 3608 -321 0
-3610 3609 322 0
-3610 -3609 -322 0
3610 -3609 322 0
3610 3609 -322 0
-3611 3610 325 0
-3611 -3610 -325 0
3611 -3610 325 0
3611 3610 -325 0
-3612 3611 326 0
-3612 -3611 -326 0
3612 -3611 326 0
3612 3611 -326 0
-3613 3612 327 0
-3613 -3612 -327 0
3613 -3612 327 0
3613 3612 -327 0
-3614 3613 328 0
-3614 -3613 -328 0
3614 -3613 328 0
3614 3613 -328 0
-3615 3614 329 0
-3615 -3614 -329 0
3615 -3614 329 0
3615 3614 -329 0
-171 -3615 0
-3616 331 333 0
-3616 -331 -333 0
3616 -331 333 0
3616 331 -333 0
-3617 3616 334 0
-3617 -3616 -334 0
3617 -3616 334 0
3617 3616 -334 0
-3618 3617 335 0
-3618 -3617 -335 0
3618 -3617 335 0
3618 3617 -335 0
-3619 3618 336 0
-3619 -3618 -336 0
3619 -3618 336 0
3619 3618 -336 0
-3620 3619 337 0
-3620 -3619 -337 0
3620 -3619 337 0
3620 3619 -337 0
-3621 3620 340 0
-3621 -3620 -340 0
3621 -3620 340 0
3621 3620 -340 0
-3622 3621 341 0
-3622 -3621 -341 0
3622 -3621 341 0
3622 3621 -341 0
-3623 3622 342 0
-3623 -3622 -342 0
3623 -3622 342 0
3623 3622 -342 0
-3624 3623 343 0
-3624 -3623 -343 0
3624 -3623 343 0
3624 3623 -343 0
-3625 3624 344 0
-3625 -3624 -344 0
3625 -3624 344 0
3625 3624 -344 0
-171 -3625 0
-3626 346 348 0
-3626 -346 -348 0
3626 -346 348 0
3626 346 -348 0
-3627 3626 349 0
-3627 -3626 -349 0
3627 -3626 349 0
3627 3626 -349 0
-3628 3627 350 0
-3628 -3627 -350 0
3628 -3627 350 0
3628 3627 -350 0
-3629 3628 351 0
-3629 -3628 -351 0
3629 -3628 351 0
3629 3628 -351 0
-3630 3629 352 0
-3630 -3629 -352 0
3630 -3629 352 0
3630 3629 -352 0
-3631 3630 355 0
-3631 -3630 -355 0
3631 -3630 355 0
3631 3630 -355 0
-3632 3631 356 0
-3632 -3631 -356 0
3632 -3631 356 0
3632 3631 -356 0
-3633 3632 357 0
-3633 -3632 -357 0
3633 -3632 357 0
3633 3632 -357 0
-3634 3633 358 0
-3634 -3633 -358 0
3634 -3633 358 0
3634 3633 -358 0
-3635 3634 359 0
-3635 -3634 -359 0
3635 -3634 359 0
3635 3634 -359 0
-171 -3635 0
-3636 361 363 0
-3636 -361 -363 0
3636 -361 363 0
3636 361 -363 0
-3637 3636 364 0
-3637 -3636 -364 0
3637 -3636 364 0
3637 3636 -364 0
-3638 3637 365 0
-3638 -3637 -365 0
3638 -3637 365 0
3638 3637 -365 0
-3639 3638 366 0
-3639 -3638 -366 0
3639 -3638 366 0
3639 3638 -366 0
-3640 3639 367 0
-3640 -3639 -367 0
3640 -3639 367 0
3640 3639 -367 0
-3641 3640 370 0
-3641 -3640 -370 0
3641 -3640 370 0
3641 3640 -370 0
-3642 3641 371 0
-3642 -3641 -371 0
3642 -3641 371 0
3642 3641 -371 0
-3643 3642 372 0
-3643 -3642 -372 0
3643 -3642 372 0
3643 3642 -372 0
-3644 3643 373 0
-3644 -3643 -373 0
3644 -3643 373 0
3644 3643 -373 0
-3645 3644 374 0
-3645 -3644 -374 0
3645 -3644 374 0
3645 3644 -374 0
-171 -3645 0
-3646 323 326 0
-3646 -323 -326 0
3646 -323 326 0
3646 323 -326 0
-3647 3646 328 0
-3647 -3646 -328 0
3647 -3646 328 0
3647 3646 -328 0
-172 -3647 0
-3648 338 341 0
-3648 -338 -341 0
3648 -338 341 0
3648 338 -341 0
-3649 3648 343 0
-3649 -3648 -343 0
3649 -3648 343 0
3649 3648 -343 0
-172 -3649 0
-3650 353 356 0
-3650 -353 -356 0
3650 -353 356 0
3650 353 -356 0
-3651 3650 358 0
-3651 -3650 -358 0
3651 -3650 358 0
3651 3650 -358 0
-172 -3651 0
-3652 368 371 0
-3652 -368 -371 0
3652 -368 371 0
3652 368 -371 0
-3653 3652 373 0
-3653 -3652 -373 0
3653 -3652 373 0
3653 3652 -373 0
-172 -3653 0
-3654 321 322 0
-3654 -321 -322 0
3654 -321 322 0
3654 321 -322 0
-3655 3654 323 0
-3655 -3654 -323 0
3655 -3654 323 0
3655 3654 -323 0
-3656 3655 326 0
-3656 -3655 -326 0
3656 -3655 326 0
3656 3655 -326 0
-3657 3656 328 0
-3657 -3656 -328 0
3657 -3656 328 0
3657 3656 -328 0
-173 -3657 0
-3658 336 337 0
-3658 -336 -337 0
3658 -336 337 0
3658 336 -337 0
-3659 3658 338 0
-3659 -3658 -338 0
3659 -3658 338 0
3659 3658 -338 0
-3660 3659 341 0
-3660 -3659 -341 0
3660 -3659 341 0
3660 3659 -341 0
-3661 3660 343 0
-3661 -3660 -343 0
3661 -3660 343 0
3661 3660 -343 0
-173 -3661 0
-3662 351 352 0
-3662 -351 -352 0
3662 -351 352 0
3662 351 -352 0
-3663 3662 353 0
-3663 -3662 -353 0
3663 -3662 353 0
3663 3662 -353 0
-3664 3663 356 0
-3664 -3663 -356 0
3664 -3663 356 0
3664 3663 -356 0
-3665 3664 358 0
-3665 -3664 -358 0
3665 -3664 358 0
3665 3664 -358 0
-173 -3665 0
-3666 366 367 0
-3666 -366 -367 0
3666 -366 367 0
3666 366 -367 0
-3667 3666 368 0
-3667 -3666 -368 0
3667 -3666 368 0
3667 3666 -368 0
-3668 3667 371 0
-3668 -3667 -371 0
3668 -3667 371 0
3668 3667 -371 0
-3669 3668 373 0
-3669 -3668 -373 0
3669 -3668 373 0
3669 3668 -373 0
-173 -3669 0
-3670 316 317 0
-3670 -316 -317 0
3670 -316 317 0
3670 316 -317 0
-3671 3670 318 0
-3671 -3670 -318 0
3671 -3670 318 0
3671 3670 -318 0
-3672 3671 321 0
-3672 -3671 -321 0
3672 -3671 321 0
3672 3671 -321 0
-3673 3672 323 0
-3673 -3672 -323 0
3673 -3672 323 0
3673 3672 -323 0
-3674 3673 325 0
-3674 -3673 -325 0
3674 -3673 325 0
3674 3673 -325 0
-3675 3674 326 0
-3675 -3674 -326 0
3675 -3674 326 0
3675 3674 -326 0
-3676 3675 328 0
-3676 -3675 -328 0
3676 -3675 328 0
3676 3675 -328 0
-174 -3676 0
-3677 331 332 0
-3677 -331 -332 0
3677 -331 332 0
3677 331 -332 0
-3678 3677 333 0
-3678 -3677 -333 0
3678 -3677 333 0
3678 3677 -333 0
-3679 3678 336 0
-3679 -3678 -336 0
3679 -3678 336 0
3679 3678 -336 0
-3680 3679 338 0
-3680 -3679 -338 0
3680 -3679 338 0
3680 3679 -338 0
-3681 3680 340 0
-3681 -3680 -340 0
3681 -3680 340 0
3681 3680 -340 0
-3682 3681 341 0
-3682 -3681 -341 0
3682 -3681 341 0
3682 3681 -341 0
-3683 3682 343 0
-3683 -3682 -343 0
3683 -3682 343 0
3683 3682 -343 0
-174 -3683 0
-3684 346 347 0
-3684 -346 -347 0
3684 -346 347 0
3684 346 -347 0
-3685 3684 348 0
-3685 -3684 -348 0
3685 -3684 348 0
3685 3684 -348 0
-3686 3685 351 0
-3686 -3685 -351 0
3686 -3685 351 0
3686 3685 -351 0
-3687 3686 353 0
-3687 -3686 -353 0
3687 -3686 353 0
3687 3686 -353 0
-3688 3687 355 0
-3688 -3687 -355 0
3688 -3687 355 0
3688 3687 -355 0
-3689 3688 356 0
-3689 -3688 -356 0
3689 -3688 356 0
3689 3688 -356 0
-3690 3689 358 0
-3690 -3689 -358 0
3690 -3689 358 0
3690 3689 -358 0
-174 -3690 0
-3691 361 362 0
-3691 -361 -362 0
3691 -361 362 0
3691 361 -362 0
-3692 3691 363 0
-3692 -3691 -363 0
3692 -3691 363 0
3692 3691 -363 0
-3693 3692 366 0
-3693 -3692 -366 0
3693 -3692 366 0
3693 3692 -366 0
-3694 3693 368 0
-3694 -3693 -368 0
3694 -3693 368 0
3694 3693 -368 0
-3695 3694 370 0
-3695 -3694 -370 0
3695 -3694 370 0
3695 3694 -370 0
-3696 3695 371 0
-3696 -3695 -371 0
3696 -3695 371 0
3696 3695 -371 0
-3697 3696 373 0
-3697 -3696 -373 0
3697 -3696 373 0
3697 3696 -373 0
-174 -3697 0
-3698 316 317 0
-3698 -316 -317 0
3698 -316 317 0
3698 316 -317 0
-3699 3698 318 0
-3699 -3698 -318 0
3699 -3698 318 0
3699 3698 -318 0
-3700 3699 322 0
-3700 -3699 -322 0
3700 -3699 322 0
3700 3699 -322 0
-3701 3700 323 0
-3701 -3700 -323 0
3701 -3700 323 0
3701 3700 -323 0
-3702 3701 325 0
-3702 -3701 -325 0
3702 -3701 325 0
3702 3701 -325 0
-3703 3702 326 0
-3703 -3702 -326 0
3703 -3702 326 0
3703 3702 -326 0
-3704 3703 328 0
-3704 -3703 -328 0
3704 -3703 328 0
3704 3703 -328 0
-175 -3704 0
-3705 331 332 0
-3705 -331 -332 0
3705 -331 332 0
3705 331 -332 0
-3706 3705 333 0
-3706 -3705 -333 0
3706 -3705 333 0
3706 3705 -333 0
-3707 3706 337 0
-3707 -3706 -337 0
3707 -3706 337 0
3707 3706 -337 0
-3708 3707 338 0
-3708 -3707 -338 0
3708 -3707 338 0
3708 3707 -338 0
-3709 3708 340 0
-3709 -3708 -340 0
3709 -3708 340 0
3709 3708 -340 0
-3710 3709 341 0
-3710 -3709 -341 0
3710 -3709 341 0
3710 3709 -341 0
-3711 3710 343 0
-3711 -3710 -343 0
3711 -3710 343 0
3711 3710 -343 0
-175 -3711 0
-3712 346 347 0
-3712 -346 -347 0
3712 -346 347 0
3712 346 -347 0
-3713 3712 348 0
-3713 -3712 -348 0
3713 -3712 348 0
3713 3712 -348 0
-3714 3713 352 0
-3714 -3713 -352 0
3714 -3713 352 0
3714 3713 -352 0
-3715 3714 353 0
-3715 -3714 -353 0
3715 -3714 353 0
3715 3714 -353 0
-3716 3715 355 0
-3716 -3715 -355 0
3716 -3715 355 0
3716 3715 -355 0
-3717 3716 356 0
-3717 -3716 -356 0
3717 -3716 356 0
3717 3716 -356 0
-3718 3717 358 0
-3718 -3717 -358 0
3718 -3717 358 0
3718 3717 -358 0
-175 -3718 0
-3719 361 362 0
-3719 -361 -362 0
3719 -361 362 0
3719 361 -362 0
-3720 3719 363 0
-3720 -3719 -363 0
3720 -3719 363 0
3720 3719 -363 0
-3721 3720 367 0
-3721 -3720 -367 0
3721 -3720 367 0
3721 3720 -367 0
-3722 3721 368 0
-3722 -3721 -368 0
3722 -3721 368 0
3722 3721 -368 0
-3723 3722 370 0
-3723 -3722 -370 0
3723 -3722 370 0
3723 3722 -370 0
-3724 3723 371 0
-3724 -3723 -371 0
3724 -3723 371 0
3724 3723 -371 0
-3725 3724 373 0
-3725 -3724 -373 0
3725 -3724 373 0
3725 3724 -373 0
-175 -3725 0
-3726 324 327 0
-3726 -324 -327 0
3726 -324 327 0
3726 324 -327 0
-3727 3726 329 0
-3727 -3726 -329 0
3727 -3726 329 0
3727 3726 -329 0
-176 -3727 0
-3728 339 342 0
-3728 -339 -342 0
3728 -339 342 0
3728 339 -342 0
-3729 3728 344 0
-3729 -3728 -344 0
3729 -3728 344 0
3729 3728 -344 0
-176 -3729 0
-3730 354 357 0
-3730 -354 -357 0
3730 -354 357 0
3730 354 -357 0
-3731 3730 359 0
-3731 -3730 -359 0
3731 -3730 359 0
3731 3730 -359 0
-176 -3731 0
-3732 369 372 0
-3732 -369 -372 0
3732 -369 372 0
3732 369 -372 0
-3733 3732 374 0
-3733 -3732 -374 0
3733 -3732 374 0
3733 3732 -374 0
-176 -3733 0
-3734 321 322 0
-3734 -321 -322 0
3734 -321 322 0
3734 321 -322 0
-3735 3734 324 0
-3735 -3734 -324 0
3735 -3734 324 0
3735 3734 -324 0
-3736 3735 327 0
-3736 -3735 -327 0
3736 -3735 327 0
3736 3735 -327 0
-3737 3736 329 0
-3737 -3736 -329 0
3737 -3736 329 0
3737 3736 -329 0
-177 -3737 0
-3738 336 337 0
-3738 -336 -337 0
3738 -336 337 0
3738 336 -337 0
-3739 3738 339 0
-3739 -3738 -339 0
3739 -3738 339 0
3739 3738 -339 0
-3740 3739 342 0
-3740 -3739 -342 0
3740 -3739 342 0
3740 3739 -342 0
-3741 3740 344 0
-3741 -3740 -344 0
3741 -3740 344 0
3741 3740 -344 0
-177 -3741 0
-3742 351 352 0
-3742 -351 -352 0
3742 -351 352 0
3742 351 -352 0
-3743 3742 354 0
-3743 -3742 -354 0
3743 -3742 354 0
3743 3742 -354 0
-3744 3743 357 0
-3744 -3743 -357 0
3744 -3743 357 0
3744 3743 -357 0
-3745 3744 359 0
-3745 -3744 -359 0
3745 -3744 359 0
3745 3744 -359 0
-177 -3745 0
-3746 366 367 0
-3746 -366 -367 0
3746 -366 367 0
3746 366 -367 0
-3747 3746 369 0
-3747 -3746 -369 0
3747 -3746 369 0
3747 3746 -369 0
-3748 3747 372 0
-3748 -3747 -372 0
3748 -3747 372 0
3748 3747 -372 0
-3749 3748 374 0
-3749 -3748 -374 0
3749 -3748 374 0
3749 3748 -374 0
-177 -3749 0
-3750 316 317 0
-3750 -316 -317 0
3750 -316 317 0
3750 316 -317 0
-3751 3750 318 0
-3751 -3750 -318 0
3751 -3750 318 0
3751 3750 -318 0
-3752 3751 321 0
-3752 -3751 -321 0
3752 -3751 321 0
3752 3751 -321 0
-3753 3752 324 0
-3753 -3752 -324 0
3753 -3752 324 0
3753 3752 -324 0
-3754 3753 325 0
-3754 -3753 -325 0
3754 -3753 325 0
3754 3753 -325 0
-3755 3754 327 0
-3755 -3754 -327 0
3755 -3754 327 0
3755 3754 -327 0
-3756 3755 329 0
-3756 -3755 -329 0
3756 -3755 329 0
3756 3755 -329 0
-178 -3756 0
-3757 331 332 0
-3757 -331 -332 0
3757 -331 332 0
3757 331 -332 0
-3758 3757 333 0
-3758 -3757 -333 0
3758 -3757 333 0
3758 3757 -333 0
-3759 3758 336 0
-3759 -3758 -336 0
3759 -3758 336 0
3759 3758 -336 0
-3760 3759 339 0
-3760 -3759 -339 0
3760 -3759 339 0
3760 3759 -339 0
-3761 3760 340 0
-3761 -3760 -340 0
3761 -3760 340 0
3761 3760 -340 0
-3762 3761 342 0
-3762 -3761 -342 0
3762 -3761 342 0
3762 3761 -342 0
-3763 3762 344 0
-3763 -3762 -344 0
3763 -3762 344 0
3763 3762 -344 0
-178 -3763 0
-3764 346 347 0
-3764 -346 -347 0
3764 -346 347 0
3764 346 -347 0
-3765 3764 348 0
-3765 -3764 -348 0
3765 -3764 348 0
3765 3764 -348 0
-3766 3765 351 0
-3766 -3765 -351 0
3766 -3765 351 0
3766 3765 -351 0
-3767 3766 354 0
-3767 -3766 -354 0
3767 -3766 354 0
3767 3766 -354 0
-3768 3767 355 0
-3768 -3767 -355 0
3768 -3767 355 0
3768 3767 -355 0
-3769 3768 357 0
-3769 -3768 -357 0
3769 -3768 357 0
3769 3768 -357 0
-3770 3769 359 0
-3770 -3769 -359 0
3770 -3769 359 0
3770 3769 -359 0
-178 -3770 0
-3771 361 362 0
-3771 -361 -362 0
3771 -361 362 0
3771 361 -362 0
-3772 3771 363 0
-3772 -3771 -363 0
3772 -3771 363 0
3772 3771 -363 0
-3773 3772 366 0
-3773 -3772 -366 0
3773 -3772 366 0
3773 3772 -366 0
-3774 3773 369 0
-3774 -3773 -369 0
3774 -3773 369 0
3774 3773 -369 0
-3775 3774 370 0
-3775 -3774 -370 0
3775 -3774 370 0
3775 3774 -370 0
-3776 3775 372 0
-3776 -3775 -372 0
3776 -3775 372 0
3776 3775 -372 0
-3777 3776 374 0
-3777 -3776 -374 0
3777 -3776 374 0
3777 3776 -374 0
-178 -3777 0
-3778 316 317 0
-3778 -316 -317 0
3778 -316 317 0
3778 316 -317 0
-3779 3778 318 0
-3779 -3778 -318 0
3779 -3778 318 0
3779 3778 -318 0
-3780 3779 322 0
-3780 -3779 -322 0
3780 -3779 322 0
3780 3779 -322 0
-3781 3780 324 0
-3781 -3780 -324 0
3781 -3780 324 0
3781 3780 -324 0
-3782 3781 325 0
-3782 -3781 -325 0
3782 -3781 325 0
3782 3781 -325 0
-3783 3782 327 0
-3783 -3782 -327 0
3783 -3782 327 0
3783 3782 -327 0
-3784 3783 329 0
-3784 -3783 -329 0
3784 -3783 329 0
3784 3783 -329 0
-179 -3784 0
-3785 331 332 0
-3785 -331 -332 0
3785 -331 332 0
3785 331 -332 0
-3786 3785 333 0
-3786 -3785 -333 0
3786 -3785 333 0
3786 3785 -333 0
-3787 3786 337 0
-3787 -3786 -337 0
3787 -3786 337 0
3787 3786 -337 0
-3788 3787 339 0
-3788 -3787 -339 0
3788 -3787 339 0
3788 3787 -339 0
-3789 3788 340 0
-3789 -3788 -340 0
3789 -3788 340 0
3789 3788 -340 0
-3790 3789 342 0
-3790 -3789 -342 0
3790 -3789 342 0
3790 3789 -342 0
-3791 3790 344 0
-3791 -3790 -344 0
3791 -3790 344 0
3791 3790 -344 0
-179 -3791 0
-3792 346 347 0
-3792 -346 -347 0
3792 -346 347 0
3792 346 -347 0
-3793 3792 348 0
-3793 -3792 -348 0
3793 -3792 348 0
3793 3792 -348 0
-3794 3793 352 0
-3794 -3793 -352 0
3794 -3793 352 0
3794 3793 -352 0
-3795 3794 354 0
-3795 -3794 -354 0
3795 -3794 354 0
3795 3794 -354 0
-3796 3795 355 0
-3796 -3795 -355 0
3796 -3795 355 0
3796 3795 -355 0
-3797 3796 357 0
-3797 -3796 -357 0
3797 -3796 357 0
3797 3796 -357 0
-3798 3797 359 0
-3798 -3797 -359 0
3798 -3797 359 0
3798 3797 -359 0
-179 -3798 0
-3799 361 362 0
-3799 -361 -362 0
3799 -361 362 0
3799 361 -362 0
-3800 3799 363 0
-3800 -3799 -363 0
3800 -3799 363 0
3800 3799 -363 0
-3801 3800 367 0
-3801 -3800 -367 0
3801 -3800 367 0
3801 3800 -367 0
-3802 3801 369 0
-3802 -3801 -369 0
3802 -3801 369 0
3802 3801 -369 0
-3803 3802 370 0
-3803 -3802 -370 0
3803 -3802 370 0
3803 3802 -370 0
-3804 3803 372 0
-3804 -3803 -372 0
3804 -3803 372 0
3804 3803 -372 0
-3805 3804 374 0
-3805 -3804 -374 0
3805 -3804 374 0
3805 3804 -374 0
-179 -3805 0
-3806 323 324 0
-3806 -323 -324 0
3806 -323 324 0
3806 323 -324 0
-3807 3806 326 0
-3807 -3806 -326 0
3807 -3806 326 0
3807 3806 -326 0
-3808 3807 327 0
-3808 -3807 -327 0
3808 -3807 327 0
3808 3807 -327 0
-3809 3808 328 0
-3809 -3808 -328 0
3809 -3808 328 0
3809 3808 -328 0
-3810 3809 329 0
-3810 -3809 -329 0
3810 -3809 329 0
3810 3809 -329 0
-180 -3810 0
-3811 338 339 0
-3811 -338 -339 0
3811 -338 339 0
3811 338 -339 0
-3812 3811 341 0
-3812 -3811 -341 0
3812 -3811 341 0
3812 3811 -341 0
-3813 3812 342 0
-3813 -3812 -342 0
3813 -3812 342 0
3813 3812 -342 0
-3814 3813 343 0
-3814 -3813 -343 0
3814 -3813 343 0
3814 3813 -343 0
-3815 3814 344 0
-3815 -3814 -344 0
3815 -3814 344 0
3815 3814 -344 0
-180 -3815 0
-3816 353 354 0
-3816 -353 -354 0
3816 -353 354 0
3816 353 -354 0
-3817 3816 356 0
-3817 -3816 -356 0
3817 -3816 356 0
3817 3816 -356 0
-3818 3817 357 0
-3818 -3817 -357 0
3818 -3817 357 0
3818 3817 -357 0
-3819 3818 358 0
-3819 -3818 -358 0
3819 -3818 358 0
3819 3818 -358 0
-3820 3819 359 0
-3820 -3819 -359 0
3820 -3819 359 0
3820 3819 -359 0
-180 -3820 0
-3821 368 369 0
-3821 -368 -369 0
3821 -368 369 0
3821 368 -369 0
-3822 3821 371 0
-3822 -3821 -371 0
3822 -3821 371 0
3822 3821 -371 0
-3823 3822 372 0
-3823 -3822 -372 0
3823 -3822 372 0
3823 3822 -372 0
-3824 3823 373 0
-3824 -3823 -373 0
3824 -3823 373 0
3824 3823 -373 0
-3825 3824 374 0
-3825 -3824 -374 0
3825 -3824 374 0
3825 3824 -374 0
-180 -3825 0
-3826 321 322 0
-3826 -321 -322 0
3826 -321 322 0
3826 321 -322 0
-3827 3826 323 0
-3827 -3826 -323 0
3827 -3826 323 0
3827 3826 -323 0
-3828 3827 324 0
-3828 -3827 -324 0
3828 -3827 324 0
3828 3827 -324 0
-3829 3828 326 0
-3829 -3828 -326 0
3829 -3828 326 0
3829 3828 -326 0
-3830 3829 327 0
-3830 -3829 -327 0
3830 -3829 327 0
3830 3829 -327 0
-3831 3830 328 0
-3831 -3830 -328 0
3831 -3830 328 0
3831 3830 -328 0
-3832 3831 329 0
-3832 -3831 -329 0
3832 -3831 329 0
3832 3831 -329 0
-181 -3832 0
-3833 336 337 0
-3833 -336 -337 0
3833 -336 337 0
3833 336 -337 0
-3834 3833 338 0
-3834 -3833 -338 0
3834 -3833 338 0
3834 3833 -338 0
-3835 3834 339 0
-3835 -3834 -339 0
3835 -3834 339 0
3835 3834 -339 0
-3836 3835 341 0
-3836 -3835 -341 0
3836 -3835 341 0
3836 3835 -341 0
-3837 3836 342 0
-3837 -3836 -342 0
3837 -3836 342 0
3837 3836 -342 0
-3838 3837 343 0
-3838 -3837 -343 0
3838 -3837 343 0
3838 3837 -343 0
-3839 3838 344 0
-3839 -3838 -344 0
3839 -3838 344 0
3839 3838 -344 0
-181 -3839 0
-3840 351 352 0
-3840 -351 -352 0
3840 -351 352 0
3840 351 -352 0
-3841 3840 353 0
-3841 -3840 -353 0
3841 -3840 353 0
3841 3840 -353 0
-3842 3841 354 0
-3842 -3841 -354 0
3842 -3841 354 0
3842 3841 -354 0
-3843 3842 356 0
-3843 -3842 -356 0
3843 -3842 356 0
3843 3842 -356 0
-3844 3843 357 0
-3844 -3843 -357 0
3844 -3843 357 0
3844 3843 -357 0
-3845 3844 358 0
-3845 -3844 -358 0
3845 -3844 358 0
3845 3844 -358 0
-3846 3845 359 0
-3846 -3845 -359 0
3846 -3845 359 0
3846 3845 -359 0
-181 -3846 0
-3847 366 367 0
-3847 -366 -367 0
3847 -366 367 0
3847 366 -367 0
-3848 3847 368 0
-3848 -3847 -368 0
3848 -3847 368 0
3848 3847 -368 0
-3849 3848 369 0
-3849 -3848 -369 0
3849 -3848 369 0
3849 3848 -369 0
-3850 3849 371 0
-3850 -3849 -371 0
3850 -3849 371 0
3850 3849 -371 0
-3851 3850 372 0
-3851 -3850 -372 0
3851 -3850 372 0
3851 3850 -372 0
-3852 3851 373 0
-3852 -3851 -373 0
3852 -3851 373 0
3852 3851 -373 0
-3853 3852 374 0
-3853 -3852 -374 0
3853 -3852 374 0
3853 3852 -374 0
-181 -3853 0
-3854 316 317 0
-3854 -316 -317 0
3854 -316 317 0
3854 316 -317 0
-3855 3854 318 0
-3855 -3854 -318 0
3855 -3854 318 0
3855 3854 -318 0
-3856 3855 321 0
-3856 -3855 -321 0
3856 -3855 321 0
3856 3855 -321 0
-3857 3856 323 0
-3857 -3856 -323 0
3857 -3856 323 0
3857 3856 -323 0
-3858 3857 324 0
-3858 -3857 -324 0
3858 -3857 324 0
3858 3857 -324 0
-3859 3858 325 0
-3859 -3858 -325 0
3859 -3858 325 0
3859 3858 -325 0
-3860 3859 326 0
-3860 -3859 -326 0
3860 -3859 326 0
3860 3859 -326 0
-3861 3860 327 0
-3861 -3860 -327 0
3861 -3860 327 0
3861 3860 -327 0
-3862 3861 328 0
-3862 -3861 -328 0
3862 -3861 328 0
3862 3861 -328 0
-3863 3862 329 0
-3863 -3862 -329 0
3863 -3862 329 0
3863 3862 -329 0
-182 -3863 0
-3864 331 332 0
-3864 -331 -332 0
3864 -331 332 0
3864 331 -332 0
-3865 3864 333 0
-3865 -3864 -333 0
3865 -3864 333 0
3865 3864 -333 0
-3866 3865 336 0
-3866 -3865 -336 0
3866 -3865 336 0
3866 3865 -336 0
-3867 3866 338 0
-3867 -3866 -338 0
3867 -3866 338 0
3867 3866 -338 0
-3868 3867 339 0
-3868 -3867 -339 0
3868 -3867 339 0
3868 3867 -339 0
-3869 3868 340 0
-3869 -3868 -340 0
3869 -3868 340 0
3869 3868 -340 0
-3870 3869 341 0
-3870 -3869 -341 0
3870 -3869 341 0
3870 3869 -341 0
-3871 3870 342 0
-3871 -3870 -342 0
3871 -3870 342 0
3871 3870 -342 0
-3872 3871 343 0
-3872 -3871 -343 0
3872 -3871 343 0
3872 3871 -343 0
-3873 3872 344 0
-3873 -3872 -344 0
3873 -3872 344 0
3873 3872 -344 0
-182 -3873 0
-3874 346 347 0
-3874 -346 -347 0
3874 -346 347 0
3874 346 -347 0
-3875 3874 348 0
-3875 -3874 -348 0
3875 -3874 348 0
3875 3874 -348 0
-3876 3875 351 0
-3876 -3875 -351 0
3876 -3875 351 0
3876 3875 -351 0
-3877 3876 353 0
-3877 -3876 -353 0
3877 -3876 353 0
3877 3876 -353 0
-3878 3877 354 0
-3878 -3877 -354 0
3878 -3877 354 0
3878 3877 -354 0
-3879 3878 355 0
-3879 -3878 -355 0
3879 -3878 355 0
3879 3878 -355 0
-3880 3879 356 0
-3880 -3879 -356 0
3880 -3879 356 0
3880 3879 -356 0
-3881 3880 357 0
-3881 -3880 -357 0
3881 -3880 357 0
3881 3880 -357 0
-3882 3881 358 0
-3882 -3881 -358 0
3882 -3881 358 0
3882 3881 -358 0
-3883 3882 359 0
-3883 -3882 -359 0
3883 -3882 359 0
3883 3882 -359 0
-182 -3883 0
-3884 361 362 0
-3884 -361 -362 0
3884 -361 362 0
3884 361 -362 0
-3885 3884 363 0
-3885 -3884 -363 0
3885 -3884 363 0
3885 3884 -363 0
-3886 3885 366 0
-3886 -3885 -366 0
3886 -3885 366 0
3886 3885 -366 0
-3887 3886 368 0
-3887 -3886 -368 0
3887 -3886 368 0
3887 3886 -368 0
-3888 3887 369 0
-3888 -3887 -369 0
3888 -3887 369 0
3888 3887 -369 0
-3889 3888 370 0
-3889 -3888 -370 0
3889 -3888 370 0
3889 3888 -370 0
-3890 3889 371 0
-3890 -3889 -371 0
3890 -3889 371 0
3890 3889 -371 0
-3891 3890 372 0
-3891 -3890 -372 0
3891 -3890 372 0
3891 3890 -372 0
-3892 3891 373 0
-3892 -3891 -373 0
3892 -3891 373 0
3892 3891 -373 0
-3893 3892 374 0
-3893 -3892 -374 0
3893 -3892 374 0
3893 3892 -374 0
-182 -3893 0
-3894 316 317 0
-3894 -316 -317 0
3894 -316 317 0
3894 316 -317 0
-3895 3894 318 0
-3895 -3894 -318 0
3895 -3894 318 0
3895 3894 -318 0
-3896 3895 322 0
-3896 -3895 -322 0
3896 -3895 322 0
3896 3895 -322 0
-3897 3896 323 0
-3897 -3896 -323 0
3897 -3896 323 0
3897 3896 -323 0
-3898 3897 324 0
-3898 -3897 -324 0
3898 -3897 324 0
3898 3897 -324 0
-3899 3898 325 0
-3899 -3898 -325 0
3899 -3898 325 0
3899 3898 -325 0
-3900 3899 326 0
-3900 -3899 -326 0
3900 -3899 326 0
3900 3899 -326 0
-3901 3900 327 0
-3901 -3900 -327 0
3901 -3900 327 0
3901 3900 -327 0
-3902 3901 328 0
-3902 -3901 -328 0
3902 -3901 328 0
3902 3901 -328 0
-3903 3902 329 0
-3903 -3902 -329 0
3903 -3902 329 0
3903 3902 -329 0
-183 -3903 0
-3904 331 332 0
-3904 -331 -332 0
3904 -331 332 0
3904 331 -332 0
-3905 3904 333 0
-3905 -3904 -333 0
3905 -3904 333 0
3905 3904 -333 0
-3906 3905 337 0
-3906 -3905 -337 0
3906 -3905 337 0
3906 3905 -337 0
-3907 3906 338 0
-3907 -3906 -338 0
3907 -3906 338 0
3907 3906 -338 0
-3908 3907 339 0
-3908 -3907 -339 0
3908 -3907 339 0
3908 3907 -339 0
-3909 3908 340 0
-3909 -3908 -340 0
3909 -3908 340 0
3909 3908 -340 0
-3910 3909 341 0
-3910 -3909 -341 0
3910 -3909 341 0
3910 3909 -341 0
-3911 3910 342 0
-3911 -3910 -342 0
3911 -3910 342 0
3911 3910 -342 0
-3912 3911 343 0
-3912 -3911 -343 0
3912 -3911 343 0
3912 3911 -343 0
-3913 3912 344 0
-3913 -3912 -344 0
3913 -3912 344 0
3913 3912 -344 0
-183 -3913 0
-3914 346 347 0
-3914 -346 -347 0
3914 -346 347 0
3914 346 -347 0
-3915 3914 348 0
-3915 -3914 -348 0
3915 -3914 348 0
3915 3914 -348 0
-3916 3915 352 0
-3916 -3915 -352 0
3916 -3915 352 0
3916 3915 -352 0
-3917 3916 353 0
-3917 -3916 -353 0
3917 -3916 353 0
3917 3916 -353 0
-3918 3917 354 0
-3918 -3917 -354 0
3918 -3917 354 0
3918 3917 -354 0
-3919 3918 355 0
-3919 -3918 -355 0
3919 -3918 355 0
3919 3918 -355 0
-3920 3919 356 0
-3920 -3919 -356 0
3920 -3919 356 0
3920 3919 -356 0
-3921 3920 357 0
-3921 -3920 -357 0
3921 -3920 357 0
3921 3920 -357 0
-3922 3921 358 0
-3922 -3921 -358 0
3922 -3921 358 0
3922 3921 -358 0
-3923 3922 359 0
-3923 -3922 -359 0
3923 -3922 359 0
3923 3922 -359 0
-183 -3923 0
-3924 361 362 0
-3924 -361 -362 0
3924 -361 362 0
3924 361 -362 0
-3925 3924 363 0
-3925 -3924 -363 0
3925 -3924 363 0
3925 3924 -363 0
-3926 3925 367 0
-3926 -3925 -367 0
3926 -3925 367 0
3926 3925 -367 0
-3927 3926 368 0
-3927 -3926 -368 0
3927 -3926 368 0
3927 3926 -368 0
-3928 3927 369 0
-3928 -3927 -369 0
3928 -3927 369 0
3928 3927 -369 0
-3929 3928 370 0
-3929 -3928 -370 0
3929 -3928 370 0
3929 3928 -370 0
-3930 3929 371 0
-3930 -3929 -371 0
3930 -3929 371 0
3930 3929 -371 0
-3931 3930 372 0
-3931 -3930 -372 0
3931 -3930 372 0
3931 3930 -372 0
-3932 3931 373 0
-3932 -3931 -373 0
3932 -3931 373 0
3932 3931 -373 0
-3933 3932 374 0
-3933 -3932 -374 0
3933 -3932 374 0
3933 3932 -374 0
-183 -3933 0
-3934 319 323 0
-3934 -319 -323 0
3934 -319 323 0
3934 319 -323 0
-3935 3934 326 0
-3935 -3934 -326 0
3935 -3934 326 0
3935 3934 -326 0
-3936 3935 328 0
-3936 -3935 -328 0
3936 -3935 328 0
3936 3935 -328 0
-184 -3936 0
-3937 334 338 0
-3937 -334 -338 0
3937 -334 338 0
3937 334 -338 0
-3938 3937 341 0
-3938 -3937 -341 0
3938 -3937 341 0
3938 3937 -341 0
-3939 3938 343 0
-3939 -3938 -343 0
3939 -3938 343 0
3939 3938 -343 0
-184 -3939 0
-3940 349 353 0
-3940 -349 -353 0
3940 -349 353 0
3940 349 -353 0
-3941 3940 356 0
-3941 -3940 -356 0
3941 -3940 356 0
3941 3940 -356 0
-3942 3941 358 0
-3942 -3941 -358 0
3942 -3941 358 0
3942 3941 -358 0
-184 -3942 0
-3943 364 368 0
-3943 -364 -368 0
3943 -364 368 0
3943 364 -368 0
-3944 3943 371 0
-3944 -3943 -371 0
3944 -3943 371 0
3944 3943 -371 0
-3945 3944 373 0
-3945 -3944 -373 0
3945 -3944 373 0
3945 3944 -373 0
-184 -3945 0
-3946 317 318 0
-3946 -317 -318 0
3946 -317 318 0
3946 317 -318 0
-3947 3946 319 0
-3947 -3946 -319 0
3947 -3946 319 0
3947 3946 -319 0
-3948 3947 321 0
-3948 -3947 -321 0
3948 -3947 321 0
3948 3947 -321 0
-3949 3948 322 0
-3949 -3948 -322 0
3949 -3948 322 0
3949 3948 -322 0
-3950 3949 323 0
-3950 -3949 -323 0
3950 -3949 323 0
3950 3949 -323 0
-3951 3950 326 0
-3951 -3950 -326 0
3951 -3950 326 0
3951 3950 -326 0
-3952 3951 328 0
-3952 -3951 -328 0
3952 -3951 328 0
3952 3951 -328 0
-185 -3952 0
-3953 332 333 0
-3953 -332 -333 0
3953 -332 333 0
3953 332 -333 0
-3954 3953 334 0
-3954 -3953 -334 0
3954 -3953 334 0
3954 3953 -334 0
-3955 3954 336 0
-3955 -3954 -336 0
3955 -3954 336 0
3955 3954 -336 0
-3956 3955 337 0
-3956 -3955 -337 0
3956 -3955 337 0
3956 3955 -337 0
-3957 3956 338 0
-3957 -3956 -338 0
3957 -3956 338 0
3957 3956 -338 0
-3958 3957 341 0
-3958 -3957 -341 0
3958 -3957 341 0
3958 3957 -341 0
-3959 3958 343 0
-3959 -3958 -343 0
3959 -3958 343 0
3959 3958 -343 0
-185 -3959 0
-3960 347 348 0
-3960 -347 -348 0
3960 -347 348 0
3960 347 -348 0
-3961 3960 349 0
-3961 -3960 -349 0
3961 -3960 349 0
3961 3960 -349 0
-3962 3961 351 0
-3962 -3961 -351 0
3962 -3961 351 0
3962 3961 -351 0
-3963 3962 352 0
-3963 -3962 -352 0
3963 -3962 352 0
3963 3962 -352 0
-3964 3963 353 0
-3964 -3963 -353 0
3964 -3963 353 0
3964 3963 -353 0
-3965 3964 356 0
-3965 -3964 -356 0
3965 -3964 356 0
3965 3964 -356 0
-3966 3965 358 0
-3966 -3965 -358 0
3966 -3965 358 0
3966 3965 -358 0
-185 -3966 0
-3967 362 363 0
-3967 -362 -363 0
3967 -362 363 0
3967 362 -363 0
-3968 3967 364 0
-3968 -3967 -364 0
3968 -3967 364 0
3968 3967 -364 0
-3969 3968 366 0
-3969 -3968 -366 0
3969 -3968 366 0
3969 3968 -366 0
-3970 3969 367 0
-3970 -3969 -367 0
3970 -3969 367 0
3970 3969 -367 0
-3971 3970 368 0
-3971 -3970 -368 0
3971 -3970 368 0
3971 3970 -368 0
-3972 3971 371 0
-3972 -3971 -371 0
3972 -3971 371 0
3972 3971 -371 0
-3973 3972 373 0
-3973 -3972 -373 0
3973 -3972 373 0
3973 3972 -373 0
-185 -3973 0
-3974 316 318 0
-3974 -316 -318 0
3974 -316 318 0
3974 316 -318 0
-3975 3974 319 0
-3975 -3974 -319 0
3975 -3974 319 0
3975 3974 -319 0
-3976 3975 321 0
-3976 -3975 -321 0
3976 -3975 321 0
3976 3975 -321 0
-3977 3976 323 0
-3977 -3976 -323 0
3977 -3976 323 0
3977 3976 -323 0
-3978 3977 325 0
-3978 -3977 -325 0
3978 -3977 325 0
3978 3977 -325 0
-3979 3978 326 0
-3979 -3978 -326 0
3979 -3978 326 0
3979 3978 -326 0
-3980 3979 328 0
-3980 -3979 -328 0
3980 -3979 328 0
3980 3979 -328 0
-186 -3980 0
-3981 331 333 0
-3981 -331 -333 0
3981 -331 333 0
3981 331 -333 0
-3982 3981 334 0
-3982 -3981 -334 0
3982 -3981 334 0
3982 3981 -334 0
-3983 3982 336 0
-3983 -3982 -336 0
3983 -3982 336 0
3983 3982 -336 0
-3984 3983 338 0
-3984 -3983 -338 0
3984 -3983 338 0
3984 3983 -338 0
-3985 3984 340 0
-3985 -3984 -340 0
3985 -3984 340 0
3985 3984 -340 0
-3986 3985 341 0
-3986 -3985 -341 0
3986 -3985 341 0
3986 3985 -341 0
-3987 3986 343 0
-3987 -3986 -343 0
3987 -3986 343 0
3987 3986 -343 0
-186 -3987 0
-3988 346 348 0
-3988 -346 -348 0
3988 -346 348 0
3988 346 -348 0
-3989 3988 349 0
-3989 -3988 -349 0
3989 -3988 349 0
3989 3988 -349 0
-3990 3989 351 0
-3990 -3989 -351 0
3990 -3989 351 0
3990 3989 -351 0
-3991 3990 353 0
-3991 -3990 -353 0
3991 -3990 353 0
3991 3990 -353 0
-3992 3991 355 0
-3992 -3991 -355 0
3992 -3991 355 0
3992 3991 -355 0
-3993 3992 356 0
-3993 -3992 -356 0
3993 -3992 356 0
3993 3992 -356 0
-3994 3993 358 0
-3994 -3993 -358 0
3994 -3993 358 0
3994 3993 -358 0
-186 -3994 0
-3995 361 363 0
-3995 -361 -363 0
3995 -361 363 0
3995 361 -363 0
-3996 3995 364 0
-3996 -3995 -364 0
3996 -3995 364 0
3996 3995 -364 0
-3997 3996 366 0
-3997 -3996 -366 0
3997 -3996 366 0
3997 3996 -366 0
-3998 3997 368 0
-3998 -3997 -368 0
3998 -3997 368 0
3998 3997 -368 0
-3999 3998 370 0
-3999 -3998 -370 0
3999 -3998 370 0
3999 3998 -370 0
-4000 3999 371 0
-4000 -3999 -371 0
4000 -3999 371 0
4000 3999 -371 0
-4001 4000 373 0
-4001 -4000 -373 0
4001 -4000 373 0
4001 4000 -373 0
-186 -4001 0
-4002 316 317 0
-4002 -316 -317 0
4002 -316 317 0
4002 316 -317 0
-4003 4002 319 0
-4003 -4002 -319 0
4003 -4002 319 0
4003 4002 -319 0
-4004 4003 322 0
-4004 -4003 -322 0
4004 -4003 322 0
4004 4003 -322 0
-4005 4004 323 0
-4005 -4004 -323 0
4005 -4004 323 0
4005 4004 -323 0
-4006 4005 325 0
-4006 -4005 -325 0
4006 -4005 325 0
4006 4005 -325 0
-4007 4006 326 0
-4007 -4006 -326 0
4007 -4006 326 0
4007 4006 -326 0
-4008 4007 328 0
-4008 -4007 -328 0
4008 -4007 328 0
4008 4007 -328 0
-187 -4008 0
-4009 331 332 0
-4009 -331 -332 0
4009 -331 332 0
4009 331 -332 0
-4010 4009 334 0
-4010 -4009 -334 0
4010 -4009 334 0
4010 4009 -334 0
-4011 4010 337 0
-4011 -4010 -337 0
4011 -4010 337 0
4011 4010 -337 0
-4012 4011 338 0
-4012 -4011 -338 0
4012 -4011 338 0
4012 4011 -338 0
-4013 4012 340 0
-4013 -4012 -340 0
4013 -4012 340 0
4013 4012 -340 0
-4014 4013 341 0
-4014 -4013 -341 0
4014 -4013 341 0
4014 4013 -341 0
-4015 4014 343 0
-4015 -4014 -343 0
4015 -4014 343 0
4015 4014 -343 0
-187 -4015 0
-4016 346 347 0
-4016 -346 -347 0
4016 -346 347 0
4016 346 -347 0
-4017 4016 349 0
-4017 -4016 -349 0
4017 -4016 349 0
4017 4016 -349 0
-4018 4017 352 0
-4018 -4017 -352 0
4018 -4017 352 0
4018 4017 -352 0
-4019 4018 353 0
-4019 -4018 -353 0
4019 -4018 353 0
4019 4018 -353 0
-4020 4019 355 0
-4020 -4019 -355 0
4020 -4019 355 0
4020 4019 -355 0
-4021 4020 356 0
-4021 -4020 -356 0
4021 -4020 356 0
4021 4020 -356 0
-4022 4021 358 0
-4022 -4021 -358 0
4022 -4021 358 0
4022 4021 -358 0
-187 -4022 0
-4023 361 362 0
-4023 -361 -362 0
4023 -361 362 0
4023 361 -362 0
-4024 4023 364 0
-4024 -4023 -364 0
4024 -4023 364 0
4024 4023 -364 0
-4025 4024 367 0
-4025 -4024 -367 0
4025 -4024 367 0
4025 4024 -367 0
-4026 4025 368 0
-4026 -4025 -368 0
4026 -4025 368 0
4026 4025 -368 0
-4027 4026 370 0
-4027 -4026 -370 0
4027 -4026 370 0
4027 4026 -370 0
-4028 4027 371 0
-4028 -4027 -371 0
4028 -4027 371 0
4028 4027 -371 0
-4029 4028 373 0
-4029 -4028 -373 0
4029 -4028 373 0
4029 4028 -373 0
-187 -4029 0
-4030 320 324 0
-4030 -320 -324 0
4030 -320 324 0
4030 320 -324 0
-4031 4030 327 0
-4031 -4030 -327 0
4031 -4030 327 0
4031 4030 -327 0
-4032 4031 329 0
-4032 -4031 -329 0
4032 -4031 329 0
4032 4031 -329 0
-188 -4032 0
-4033 335 339 0
-4033 -335 -339 0
4033 -335 339 0
4033 335 -339 0
-4034 4033 342 0
-4034 -4033 -342 0
4034 -4033 342 0
4034 4033 -342 0
-4035 4034 344 0
-4035 -4034 -344 0
4035 -4034 344 0
4035 4034 -344 0
-188 -4035 0
-4036 350 354 0
-4036 -350 -354 0
4036 -350 354 0
4036 350 -354 0
-4037 4036 357 0
-4037 -4036 -357 0
4037 -4036 357 0
4037 4036 -357 0
-4038 4037 359 0
-4038 -4037 -359 0
4038 -4037 359 0
4038 4037 -359 0
-188 -4038 0
-4039 365 369 0
-4039 -365 -369 0
4039 -365 369 0
4039 365 -369 0
-4040 4039 372 0
-4040 -4039 -372 0
4040 -4039 372 0
4040 4039 -372 0
-4041 4040 374 0
-4041 -4040 -374 0
4041 -4040 374 0
4041 4040 -374 0
-188 -4041 0
-4042 317 318 0
-4042 -317 -318 0
4042 -317 318 0
4042 317 -318 0
-4043 4042 320 0
-4043 -4042 -320 0
4043 -4042 320 0
4043 4042 -320 0
-4044 4043 321 0
-4044 -4043 -321 0
4044 -4043 321 0
4044 4043 -321 0
-4045 4044 322 0
-4045 -4044 -322 0
4045 -4044 322 0
4045 4044 -322 0
-4046 4045 324 0
-4046 -4045 -324 0
4046 -4045 324 0
4046 4045 -324 0
-4047 4046 327 0
-4047 -4046 -327 0
4047 -4046 327 0
4047 4046 -327 0
-4048 4047 329 0
-4048 -4047 -329 0
4048 -4047 329 0
4048 4047 -329 0
-189 -4048 0
-4049 332 333 0
-4049 -332 -333 0
4049 -332 333 0
4049 332 -333 0
-4050 4049 335 0
-4050 -4049 -335 0
4050 -4049 335 0
4050 4049 -335 0
-4051 4050 336 0
-4051 -4050 -336 0
4051 -4050 336 0
4051 4050 -336 0
-4052 4051 337 0
-4052 -4051 -337 0
4052 -4051 337 0
4052 4051 -337 0
-4053 4052 339 0
-4053 -4052 -339 0
4053 -4052 339 0
4053 4052 -339 0
-4054 4053 342 0
-4054 -4053 -342 0
4054 -4053 342 0
4054 4053 -342 0
-4055 4054 344 0
-4055 -4054 -344 0
4055 -4054 344 0
4055 4054 -344 0
-189 -4055 0
-4056 347 348 0
-4056 -347 -348 0
4056 -347 348 0
4056 347 -348 0
-4057 4056 350 0
-4057 -4056 -350 0
4057 -4056 350 0
4057 4056 -350 0
-4058 4057 351 0
-4058 -4057 -351 0
4058 -4057 351 0
4058 4057 -351 0
-4059 4058 352 0
-4059 -4058 -352 0
4059 -4058 352 0
4059 4058 -352 0
-4060 4059 354 0
-4060 -4059 -354 0
4060 -4059 354 0
4060 4059 -354 0
-4061 4060 357 0
-4061 -4060 -357 0
4061 -4060 357 0
4061 4060 -357 0
-4062 4061 359 0
-4062 -4061 -359 0
4062 -4061 359 0
4062 4061 -359 0
-189 -4062 0
-4063 362 363 0
-4063 -362 -363 0
4063 -362 363 0
4063 362 -363 0
-4064 4063 365 0
-4064 -4063 -365 0
4064 -4063 365 0
4064 4063 -365 0
-4065 4064 366 0
-4065 -4064 -366 0
4065 -4064 366 0
4065 4064 -366 0
-4066 4065 367 0
-4066 -4065 -367 0
4066 -4065 367 0
4066 4065 -367 0
-4067 4066 369 0
-4067 -4066 -369 0
4067 -4066 369 0
4067 4066 -369 0
-4068 4067 372 0
-4068 -4067 -372 0
4068 -4067 372 0
4068 4067 -372 0
-4069 4068 374 0
-4069 -4068 -374 0
4069 -4068 374 0
4069 4068 -374 0
-189 -4069 0
-4070 316 318 0
-4070 -316 -318 0
4070 -316 318 0
4070 316 -318 0
-4071 4070 320 0
-4071 -4070 -320 0
4071 -4070 320 0
4071 4070 -320 0
-4072 4071 321 0
-4072 -4071 -321 0
4072 -4071 321 0
4072 4071 -321 0
-4073 4072 324 0
-4073 -4072 -324 0
4073 -4072 324 0
4073 4072 -324 0
-4074 4073 325 0
-4074 -4073 -325 0
4074 -4073 325 0
4074 4073 -325 0
-4075 4074 327 0
-4075 -4074 -327 0
4075 -4074 327 0
4075 4074 -327 0
-4076 4075 329 0
-4076 -4075 -329 0
4076 -4075 329 0
4076 4075 -329 0
-190 -4076 0
-4077 331 333 0
-4077 -331 -333 0
4077 -331 333 0
4077 331 -333 0
-4078 4077 335 0
-4078 -4077 -335 0
4078 -4077 335 0
4078 4077 -335 0
-4079 4078 336 0
-4079 -4078 -336 0
4079 -4078 336 0
4079 4078 -336 0
-4080 4079 339 0
-4080 -4079 -339 0
4080 -4079 339 0
4080 4079 -339 0
-4081 4080 340 0
-4081 -4080 -340 0
4081 -4080 340 0
4081 4080 -340 0
-4082 4081 342 0
-4082 -4081 -342 0
4082 -4081 342 0
4082 4081 -342 0
-4083 4082 344 0
-4083 -4082 -344 0
4083 -4082 344 0
4083 4082 -344 0
-190 -4083 0
-4084 346 348 0
-4084 -346 -348 0
4084 -346 348 0
4084 346 -348 0
-4085 4084 350 0
-4085 -4084 -350 0
4085 -4084 350 0
4085 4084 -350 0
-4086 4085 351 0
-4086 -4085 -351 0
4086 -4085 351 0
4086 4085 -351 0
-4087 4086 354 0
-4087 -4086 -354 0
4087 -4086 354 0
4087 4086 -354 0
-4088 4087 355 0
-4088 -4087 -355 0
4088 -4087 355 0
4088 4087 -355 0
-4089 4088 357 0
-4089 -4088 -357 0
4089 -4088 357 0
4089 4088 -357 0
-4090 4089 359 0
-4090 -4089 -359 0
4090 -4089 359 0
4090 4089 -359 0
-190 -4090 0
-4091 361 363 0
-4091 -361 -363 0
4091 -361 363 0
4091 361 -363 0
-4092 4091 365 0
-4092 -4091 -365 0
4092 -4091 365 0
4092 4091 -365 0
-4093 4092 366 0
-4093 -4092 -366 0
4093 -4092 366 0
4093 4092 -366 0
-4094 4093 369 0
-4094 -4093 -369 0
4094 -4093 369 0
4094 4093 -369 0
-4095 4094 370 0
-4095 -4094 -370 0
4095 -4094 370 0
4095 4094 -370 0
-4096 4095 372 0
-4096 -4095 -372 0
4096 -4095 372 0
4096 4095 -372 0
-4097 4096 374 0
-4097 -4096 -374 0
4097 -4096 374 0
4097 4096 -374 0
-190 -4097 0
-4098 316 317 0
-4098 -316 -317 0
4098 -316 317 0
4098 316 -317 0
-4099 4098 320 0
-4099 -4098 -320 0
4099 -4098 320 0
4099 4098 -320 0
-4100 4099 322 0
-4100 -4099 -322 0
4100 -4099 322 0
4100 4099 -322 0
-4101 4100 324 0
-4101 -4100 -324 0
4101 -4100 324 0
4101 4100 -324 0
-4102 4101 325 0
-4102 -4101 -325 0
4102 -4101 325 0
4102 4101 -325 0
-4103 4102 327 0
-4103 -4102 -327 0
4103 -4102 327 0
4103 4102 -327 0
-4104 4103 329 0
-4104 -4103 -329 0
4104 -4103 329 0
4104 4103 -329 0
-191 -4104 0
-4105 331 332 0
-4105 -331 -332 0
4105 -331 332 0
4105 331 -332 0
-4106 4105 335 0
-4106 -4105 -335 0
4106 -4105 335 0
4106 4105 -335 0
-4107 4106 337 0
-4107 -4106 -337 0
4107 -4106 337 0
4107 4106 -337 0
-4108 4107 339 0
-4108 -4107 -339 0
4108 -4107 339 0
4108 4107 -339 0
-4109 4108 340 0
-4109 -4108 -340 0
4109 -4108 340 0
4109 4108 -340 0
-4110 4109 342 0
-4110 -4109 -342 0
4110 -4109 342 0
4110 4109 -342 0
-4111 4110 344 0
-4111 -4110 -344 0
4111 -4110 344 0
4111 4110 -344 0
-191 -4111 0
-4112 346 347 0
-4112 -346 -347 0
4112 -346 347 0
4112 346 -347 0
-4113 4112 350 0
-4113 -4112 -350 0
4113 -4112 350 0
4113 4112 -350 0
-4114 4113 352 0
-4114 -4113 -352 0
4114 -4113 352 0
4114 4113 -352 0
-4115 4114 354 0
-4115 -4114 -354 0
4115 -4114 354 0
4115 4114 -354 0
-4116 4115 355 0
-4116 -4115 -355 0
4116 -4115 355 0
4116 4115 -355 0
-4117 4116 357 0
-4117 -4116 -357 0
4117 -4116 357 0
4117 4116 -357 0
-4118 4117 359 0
-4118 -4117 -359 0
4118 -4117 359 0
4118 4117 -359 0
-191 -4118 0
-4119 361 362 0
-4119 -361 -362 0
4119 -361 362 0
4119 361 -362 0
-4120 4119 365 0
-4120 -4119 -365 0
4120 -4119 365 0
4120 4119 -365 0
-4121 4120 367 0
-4121 -4120 -367 0
4121 -4120 367 0
4121 4120 -367 0
-4122 4121 369 0
-4122 -4121 -369 0
4122 -4121 369 0
4122 4121 -369 0
-4123 4122 370 0
-4123 -4122 -370 0
4123 -4122 370 0
4123 4122 -370 0
-4124 4123 372 0
-4124 -4123 -372 0
4124 -4123 372 0
4124 4123 -372 0
-4125 4124 374 0
-4125 -4124 -374 0
4125 -4124 374 0
4125 4124 -374 0
-191 -4125 0
-4126 319 320 0
-4126 -319 -320 0
4126 -319 320 0
4126 319 -320 0
-4127 4126 323 0
-4127 -4126 -323 0
4127 -4126 323 0
4127 4126 -323 0
-4128 4127 324 0
-4128 -4127 -324 0
4128 -4127 324 0
4128 4127 -324 0
-4129 4128 326 0
-4129 -4128 -326 0
4129 -4128 326 0
4129 4128 -326 0
-4130 4129 327 0
-4130 -4129 -327 0
4130 -4129 327 0
4130 4129 -327 0
-4131 4130 328 0
-4131 -4130 -328 0
4131 -4130 328 0
4131 4130 -328 0
-4132 4131 329 0
-4132 -4131 -329 0
4132 -4131 329 0
4132 4131 -329 0
-192 -4132 0
-4133 334 335 0
-4133 -334 -335 0
4133 -334 335 0
4133 334 -335 0
-4134 4133 338 0
-4134 -4133 -338 0
4134 -4133 338 0
4134 4133 -338 0
-4135 4134 339 0
-4135 -4134 -339 0
4135 -4134 339 0
4135 4134 -339 0
-4136 4135 341 0
-4136 -4135 -341 0
4136 -4135 341 0
4136 4135 -341 0
-4137 4136 342 0
-4137 -4136 -342 0
4137 -4136 342 0
4137 4136 -342 0
-4138 4137 343 0
-4138 -4137 -343 0
4138 -4137 343 0
4138 4137 -343 0
-4139 4138 344 0
-4139 -4138 -344 0
4139 -4138 344 0
4139 4138 -344 0
-192 -4139 0
-4140 349 350 0
-4140 -349 -350 0
4140 -349 350 0
4140 349 -350 0
-4141 4140 353 0
-4141 -4140 -353 0
4141 -4140 353 0
4141 4140 -353 0
-4142 4141 354 0
-4142 -4141 -354 0
4142 -4141 354 0
4142 4141 -354 0
-4143 4142 356 0
-4143 -4142 -356 0
4143 -4142 356 0
4143 4142 -356 0
-4144 4143 357 0
-4144 -4143 -357 0
4144 -4143 357 0
4144 4143 -357 0
-4145 4144 358 0
-4145 -4144 -358 0
4145 -4144 358 0
4145 4144 -358 0
-4146 4145 359 0
-4146 -4145 -359 0
4146 -4145 359 0
4146 4145 -359 0
-192 -4146 0
-4147 364 365 0
-4147 -364 -365 0
4147 -364 365 0
4147 364 -365 0
-4148 4147 368 0
-4148 -4147 -368 0
4148 -4147 368 0
4148 4147 -368 0
-4149 4148 369 0
-4149 -4148 -369 0
4149 -4148 369 0
4149 4148 -369 0
-4150 4149 371 0
-4150 -4149 -371 0
4150 -4149 371 0
4150 4149 -371 0
-4151 4150 372 0
-4151 -4150 -372 0
4151 -4150 372 0
4151 4150 -372 0
-4152 4151 373 0
-4152 -4151 -373 0
4152 -4151 373 0
4152 4151 -373 0
-4153 4152 374 0
-4153 -4152 -374 0
4153 -4152 374 0
4153 4152 -374 0
-192 -4153 0
-4154 317 318 0
-4154 -317 -318 0
4154 -317 318 0
4154 317 -318 0
-4155 4154 319 0
-4155 -4154 -319 0
4155 -4154 319 0
4155 4154 -319 0
-4156 4155 320 0
-4156 -4155 -320 0
4156 -4155 320 0
4156 4155 -320 0
-4157 4156 321 0
-4157 -4156 -321 0
4157 -4156 321 0
4157 4156 -321 0
-4158 4157 322 0
-4158 -4157 -322 0
4158 -4157 322 0
4158 4157 -322 0
-4159 4158 323 0
-4159 -4158 -323 0
4159 -4158 323 0
4159 4158 -323 0
-4160 4159 324 0
-4160 -4159 -324 0
4160 -4159 324 0
4160 4159 -324 0
-4161 4160 326 0
-4161 -4160 -326 0
4161 -4160 326 0
4161 4160 -326 0
-4162 4161 327 0
-4162 -4161 -327 0
4162 -4161 327 0
4162 4161 -327 0
-4163 4162 328 0
-4163 -4162 -328 0
4163 -4162 328 0
4163 4162 -328 0
-4164 4163 329 0
-4164 -4163 -329 0
4164 -4163 329 0
4164 4163 -329 0
-193 -4164 0
-4165 332 333 0
-4165 -332 -333 0
4165 -332 333 0
4165 332 -333 0
-4166 4165 334 0
-4166 -4165 -334 0
4166 -4165 334 0
4166 4165 -334 0
-4167 4166 335 0
-4167 -4166 -335 0
4167 -4166 335 0
4167 4166 -335 0
-4168 4167 336 0
-4168 -4167 -336 0
4168 -4167 336 0
4168 4167 -336 0
-4169 4168 337 0
-4169 -4168 -337 0
4169 -4168 337 0
4169 4168 -337 0
-4170 4169 338 0
-4170 -4169 -338 0
4170 -4169 338 0
4170 4169 -338 0
-4171 4170 339 0
-4171 -4170 -339 0
4171 -4170 339 0
4171 4170 -339 0
-4172 4171 341 0
-4172 -4171 -341 0
4172 -4171 341 0
4172 4171 -341 0
-4173 4172 342 0
-4173 -4172 -342 0
4173 -4172 342 0
4173 4172 -342 0
-4174 4173 343 0
-4174 -4173 -343 0
4174 -4173 343 0
4174 4173 -343 0
-4175 4174 344 0
-4175 -4174 -344 0
4175 -4174 344 0
4175 4174 -344 0
-193 -4175 0
-4176 347 348 0
-4176 -347 -348 0
4176 -347 348 0
4176 347 -348 0
-4177 4176 349 0
-4177 -4176 -349 0
4177 -4176 349 0
4177 4176 -349 0
-4178 4177 350 0
-4178 -4177 -350 0
4178 -4177 350 0
4178 4177 -350 0
-4179 4178 351 0
-4179 -4178 -351 0
4179 -4178 351 0
4179 4178 -351 0
-4180 4179 352 0
-4180 -4179 -352 0
4180 -4179 352 0
4180 4179 -352 0
-4181 4180 353 0
-4181 -4180 -353 0
4181 -4180 353 0
4181 4180 -353 0
-4182 4181 354 0
-4182 -4181 -354 0
4182 -4181 354 0
4182 4181 -354 0
-4183 4182 356 0
-4183 -4182 -356 0
4183 -4182 356 0
4183 4182 -356 0
-4184 4183 357 0
-4184 -4183 -357 0
4184 -4183 357 0
4184 4183 -357 0
-4185 4184 358 0
-4185 -4184 -358 0
4185 -4184 358 0
4185 4184 -358 0
-4186 4185 359 0
-4186 -4185 -359 0
4186 -4185 359 0
4186 4185 -359 0
-193 -4186 0
-4187 362 363 0
-4187 -362 -363 0
4187 -362 363 0
4187 362 -363 0
-4188 4187 364 0
-4188 -4187 -364 0
4188 -4187 364 0
4188 4187 -364 0
-4189 4188 365 0
-4189 -4188 -365 0
4189 -4188 365 0
4189 4188 -365 0
-4190 4189 366 0
-4190 -4189 -366 0
4190 -4189 366 0
4190 4189 -366 0
-4191 4190 367 0
-4191 -4190 -367 0
4191 -4190 367 0
4191 4190 -367 0
-4192 4191 368 0
-4192 -4191 -368 0
4192 -4191 368 0
4192 4191 -368 0
-4193 4192 369 0
-4193 -4192 -369 0
4193 -4192 369 0
4193 4192 -369 0
-4194 4193 371 0
-4194 -4193 -371 0
4194 -4193 371 0
4194 4193 -371 0
-4195 4194 372 0
-4195 -4194 -372 0
4195 -4194 372 0
4195 4194 -372 0
-4196 4195 373 0
-4196 -4195 -373 0
4196 -4195 373 0
4196 4195 -373 0
-4197 4196 374 0
-4197 -4196 -374 0
4197 -4196 374 0
4197 4196 -374 0
-193 -4197 0
-4198 316 318 0
-4198 -316 -318 0
4198 -316 318 0
4198 316 -318 0
-4199 4198 319 0
-4199 -4198 -319 0
4199 -4198 319 0
4199 4198 -319 0
-4200 4199 320 0
-4200 -4199 -320 0
4200 -4199 320 0
4200 4199 -320 0
-4201 4200 321 0
-4201 -4200 -321 0
4201 -4200 321 0
4201 4200 -321 0
-4202 4201 323 0
-4202 -4201 -323 0
4202 -4201 323 0
4202 4201 -323 0
-4203 4202 324 0
-4203 -4202 -324 0
4203 -4202 324 0
4203 4202 -324 0
-4204 4203 325 0
-4204 -4203 -325 0
4204 -4203 325 0
4204 4203 -325 0
-4205 4204 326 0
-4205 -4204 -326 0
4205 -4204 326 0
4205 4204 -326 0
-4206 4205 327 0
-4206 -4205 -327 0
4206 -4205 327 0
4206 4205 -327 0
-4207 4206 328 0
-4207 -4206 -328 0
4207 -4206 328 0
4207 4206 -328 0
-4208 4207 329 0
-4208 -4207 -329 0
4208 -4207 329 0
4208 4207 -329 0
-194 -4208 0
-4209 331 333 0
-4209 -331 -333 0
4209 -331 333 0
4209 331 -333 0
-4210 4209 334 0
-4210 -4209 -334 0
4210 -4209 334 0
4210 4209 -334 0
-4211 4210 335 0
-4211 -4210 -335 0
4211 -4210 335 0
4211 4210 -335 0
-4212 4211 336 0
-4212 -4211 -336 0
4212 -4211 336 0
4212 4211 -336 0
-4213 4212 338 0
-4213 -4212 -338 0
4213 -4212 338 0
4213 4212 -338 0
-4214 4213 339 0
-4214 -4213 -339 0
4214 -4213 339 0
4214 4213 -339 0
-4215 4214 340 0
-4215 -4214 -340 0
4215 -4214 340 0
4215 4214 -340 0
-4216 4215 341 0
-4216 -4215 -341 0
4216 -4215 341 0
4216 4215 -341 0
-4217 4216 342 0
-4217 -4216 -342 0
4217 -4216 342 0
4217 4216 -342 0
-4218 4217 343 0
-4218 -4217 -343 0
4218 -4217 343 0
4218 4217 -343 0
-4219 4218 344 0
-4219 -4218 -344 0
4219 -4218 344 0
4219 4218 -344 0
-194 -4219 0
-4220 346 348 0
-4220 -346 -348 0
4220 -346 348 0
4220 346 -348 0
-4221 4220 349 0
-4221 -4220 -349 0
4221 -4220 349 0
4221 4220 -349 0
-4222 4221 350 0
-4222 -4221 -350 0
4222 -4221 350 0
4222 4221 -350 0
-4223 4222 351 0
-4223 -4222 -351 0
4223 -4222 351 0
4223 4222 -351 0
-4224 4223 353 0
-4224 -4223 -353 0
4224 -4223 353 0
4224 4223 -353 0
-4225 4224 354 0
-4225 -4224 -354 0
4225 -4224 354 0
4225 4224 -354 0
-4226 4225 355 0
-4226 -4225 -355 0
4226 -4225 355 0
4226 4225 -355 0
-4227 4226 356 0
-4227 -4226 -356 0
4227 -4226 356 0
4227 4226 -356 0
-4228 4227 357 0
-4228 -4227 -357 0
4228 -4227 357 0
4228 4227 -357 0
-4229 4228 358 0
-4229 -4228 -358 0
4229 -4228 358 0
4229 4228 -358 0
-4230 4229 359 0
-4230 -4229 -359 0
4230 -4229 359 0
4230 4229 -359 0
-194 -4230 0
-4231 361 363 0
-4231 -361 -363 0
4231 -361 363 0
4231 361 -363 0
-4232 4231 364 0
-4232 -4231 -364 0
4232 -4231 364 0
4232 4231 -364 0
-4233 4232 365 0
-4233 -4232 -365 0
4233 -4232 365 0
4233 4232 -365 0
-4234 4233 366 0
-4234 -4233 -366 0
4234 -4233 366 0
4234 4233 -366 0
-4235 4234 368 0
-4235 -4234 -368 0
4235 -4234 368 0
4235 4234 -368 0
-4236 4235 369 0
-4236 -4235 -369 0
4236 -4235 369 0
4236 4235 -369 0
-4237 4236 370 0
-4237 -4236 -370 0
4237 -4236 370 0
4237 4236 -370 0
-4238 4237 371 0
-4238 -4237 -371 0
4238 -4237 371 0
4238 4237 -371 0
-4239 4238 372 0
-4239 -4238 -372 0
4239 -4238 372 0
4239 4238 -372 0
-4240 4239 373 0
-4240 -4239 -373 0
4240 -4239 373 0
4240 4239 -373 0
-4241 4240 374 0
-4241 -4240 -374 0
4241 -4240 374 0
4241 4240 -374 0
-194 -4241 0
-4242 316 317 0
-4242 -316 -317 0
4242 -316 317 0
4242 316 -317 0
-4243 4242 319 0
-4243 -4242 -319 0
4243 -4242 319 0
4243 4242 -319 0
-4244 4243 320 0
-4244 -4243 -320 0
4244 -4243 320 0
4244 4243 -320 0
-4245 4244 322 0
-4245 -4244 -322 0
4245 -4244 322 0
4245 4244 -322 0
-4246 4245 323 0
-4246 -4245 -323 0
4246 -4245 323 0
4246 4245 -323 0
-4247 4246 324 0
-4247 -4246 -324 0
4247 -4246 324 0
4247 4246 -324 0
-4248 4247 325 0
-4248 -4247 -325 0
4248 -4247 325 0
4248 4247 -325 0
-4249 4248 326 0
-4249 -4248 -326 0
4249 -4248 326 0
4249 4248 -326 0
-4250 4249 327 0
-4250 -4249 -327 0
4250 -4249 327 0
4250 4249 -327 0
-4251 4250 328 0
-4251 -4250 -328 0
4251 -4250 328 0
4251 4250 -328 0
-4252 4251 329 0
-4252 -4251 -329 0
4252 -4251 329 0
4252 4251 -329 0
-195 -4252 0
-4253 331 332 0
-4253 -331 -332 0
4253 -331 332 0
4253 331 -332 0
-4254 4253 334 0
-4254 -4253 -334 0
4254 -4253 334 0
4254 4253 -334 0
-4255 4254 335 0
-4255 -4254 -335 0
4255 -4254 335 0
4255 4254 -335 0
-4256 4255 337 0
-4256 -4255 -337 0
4256 -4255 337 0
4256 4255 -337 0
-4257 4256 338 0
-4257 -4256 -338 0
4257 -4256 338 0
4257 4256 -338 0
-4258 4257 339 0
-4258 -4257 -339 0
4258 -4257 339 0
4258 4257 -339 0
-4259 4258 340 0
-4259 -4258 -340 0
4259 -4258 340 0
4259 4258 -340 0
-4260 4259 341 0
-4260 -4259 -341 0
4260 -4259 341 0
4260 4259 -341 0
-4261 4260 342 0
-4261 -4260 -342 0
4261 -4260 342 0
4261 4260 -342 0
-4262 4261 343 0
-4262 -4261 -343 0
4262 -4261 343 0
4262 4261 -343 0
-4263 4262 344 0
-4263 -4262 -344 0
4263 -4262 344 0
4263 4262 -344 0
-195 -4263 0
-4264 346 347 0
-4264 -346 -347 0
4264 -346 347 0
4264 346 -347 0
-4265 4264 349 0
-4265 -4264 -349 0
4265 -4264 349 0
4265 4264 -349 0
-4266 4265 350 0
-4266 -4265 -350 0
4266 -4265 350 0
4266 4265 -350 0
-4267 4266 352 0
-4267 -4266 -352 0
4267 -4266 352 0
4267 4266 -352 0
-4268 4267 353 0
-4268 -4267 -353 0
4268 -4267 353 0
4268 4267 -353 0
-4269 4268 354 0
-4269 -4268 -354 0
4269 -4268 354 0
4269 4268 -354 0
-4270 4269 355 0
-4270 -4269 -355 0
4270 -4269 355 0
4270 4269 -355 0
-4271 4270 356 0
-4271 -4270 -356 0
4271 -4270 356 0
4271 4270 -356 0
-4272 4271 357 0
-4272 -4271 -357 0
4272 -4271 357 0
4272 4271 -357 0
-4273 4272 358 0
-4273 -4272 -358 0
4273 -4272 358 0
4273 4272 -358 0
-4274 4273 359 0
-4274 -4273 -359 0
4274 -4273 359 0
4274 4273 -359 0
-195 -4274 0
-4275 361 362 0
-4275 -361 -362 0
4275 -361 362 0
4275 361 -362 0
-4276 4275 364 0
-4276 -4275 -364 0
4276 -4275 364 0
4276 4275 -364 0
-4277 4276 365 0
-4277 -4276 -365 0
4277 -4276 365 0
4277 4276 -365 0
-4278 4277 367 0
-4278 -4277 -367 0
4278 -4277 367 0
4278 4277 -367 0
-4279 4278 368 0
-4279 -4278 -368 0
4279 -4278 368 0
4279 4278 -368 0
-4280 4279 369 0
-4280 -4279 -369 0
4280 -4279 369 0
4280 4279 -369 0
-4281 4280 370 0
-4281 -4280 -370 0
4281 -4280 370 0
4281 4280 -370 0
-4282 4281 371 0
-4282 -4281 -371 0
4282 -4281 371 0
4282 4281 -371 0
-4283 4282 372 0
-4283 -4282 -372 0
4283 -4282 372 0
4283 4282 -372 0
-4284 4283 373 0
-4284 -4283 -373 0
4284 -4283 373 0
4284 4283 -373 0
-4285 4284 374 0
-4285 -4284 -374 0
4285 -4284 374 0
4285 4284 -374 0
-195 -4285 0
-4286 316 320 0
-4286 -316 -320 0
4286 -316 320 0
4286 316 -320 0
-4287 4286 323 0
-4287 -4286 -323 0
4287 -4286 323 0
4287 4286 -323 0
-4288 4287 330 0
-4288 -4287 -330 0
4288 -4287 330 0
4288 4287 -330 0
-196 -4288 0
-4289 331 335 0
-4289 -331 -335 0
4289 -331 335 0
4289 331 -335 0
-4290 4289 338 0
-4290 -4289 -338 0
4290 -4289 338 0
4290 4289 -338 0
-4291 4290 345 0
-4291 -4290 -345 0
4291 -4290 345 0
4291 4290 -345 0
-196 -4291 0
-4292 346 350 0
-4292 -346 -350 0
4292 -346 350 0
4292 346 -350 0
-4293 4292 353 0
-4293 -4292 -353 0
4293 -4292 353 0
4293 4292 -353 0
-4294 4293 360 0
-4294 -4293 -360 0
4294 -4293 360 0
4294 4293 -360 0
-196 -4294 0
-4295 361 365 0
-4295 -361 -365 0
4295 -361 365 0
4295 361 -365 0
-4296 4295 368 0
-4296 -4295 -368 0
4296 -4295 368 0
4296 4295 -368 0
-4297 4296 375 0
-4297 -4296 -375 0
4297 -4296 375 0
4297 4296 -375 0
-196 -4297 0
-4298 316 319 0
-4298 -316 -319 0
4298 -316 319 0
4298 316 -319 0
-4299 4298 320 0
-4299 -4298 -320 0
4299 -4298 320 0
4299 4298 -320 0
-4300 4299 323 0
-4300 -4299 -323 0
4300 -4299 323 0
4300 4299 -323 0
-4301 4300 330 0
-4301 -4300 -330 0
4301 -4300 330 0
4301 4300 -330 0
-197 -4301 0
-4302 331 334 0
-4302 -331 -334 0
4302 -331 334 0
4302 331 -334 0
-4303 4302 335 0
-4303 -4302 -335 0
4303 -4302 335 0
4303 4302 -335 0
-4304 4303 338 0
-4304 -4303 -338 0
4304 -4303 338 0
4304 4303 -338 0
-4305 4304 345 0
-4305 -4304 -345 0
4305 -4304 345 0
4305 4304 -345 0
-197 -4305 0
-4306 346 349 0
-4306 -346 -349 0
4306 -346 349 0
4306 346 -349 0
-4307 4306 350 0
-4307 -4306 -350 0
4307 -4306 350 0
4307 4306 -350 0
-4308 4307 353 0
-4308 -4307 -353 0
4308 -4307 353 0
4308 4307 -353 0
-4309 4308 360 0
-4309 -4308 -360 0
4309 -4308 360 0
4309 4308 -360 0
-197 -4309 0
-4310 361 364 0
-4310 -361 -364 0
4310 -361 364 0
4310 361 -364 0
-4311 4310 365 0
-4311 -4310 -365 0
4311 -4310 365 0
4311 4310 -365 0
-4312 4311 368 0
-4312 -4311 -368 0
4312 -4311 368 0
4312 4311 -368 0
-4313 4312 375 0
-4313 -4312 -375 0
4313 -4312 375 0
4313 4312 -375 0
-197 -4313 0
-4314 316 317 0
-4314 -316 -317 0
4314 -316 317 0
4314 316 -317 0
-4315 4314 320 0
-4315 -4314 -320 0
4315 -4314 320 0
4315 4314 -320 0
-4316 4315 323 0
-4316 -4315 -323 0
4316 -4315 323 0
4316 4315 -323 0
-4317 4316 326 0
-4317 -4316 -326 0
4317 -4316 326 0
4317 4316 -326 0
-4318 4317 330 0
-4318 -4317 -330 0
4318 -4317 330 0
4318 4317 -330 0
-198 -4318 0
-4319 331 332 0
-4319 -331 -332 0
4319 -331 332 0
4319 331 -332 0
-4320 4319 335 0
-4320 -4319 -335 0
4320 -4319 335 0
4320 4319 -335 0
-4321 4320 338 0
-4321 -4320 -338 0
4321 -4320 338 0
4321 4320 -338 0
-4322 4321 341 0
-4322 -4321 -341 0
4322 -4321 341 0
4322 4321 -341 0
-4323 4322 345 0
-4323 -4322 -345 0
4323 -4322 345 0
4323 4322 -345 0
-198 -4323 0
-4324 346 347 0
-4324 -346 -347 0
4324 -346 347 0
4324 346 -347 0
-4325 4324 350 0
-4325 -4324 -350 0
4325 -4324 350 0
4325 4324 -350 0
-4326 4325 353 0
-4326 -4325 -353 0
4326 -4325 353 0
4326 4325 -353 0
-4327 4326 356 0
-4327 -4326 -356 0
4327 -4326 356 0
4327 4326 -356 0
-4328 4327 360 0
-4328 -4327 -360 0
4328 -4327 360 0
4328 4327 -360 0
-198 -4328 0
-4329 361 362 0
-4329 -361 -362 0
4329 -361 362 0
4329 361 -362 0
-4330 4329 365 0
-4330 -4329 -365 0
4330 -4329 365 0
4330 4329 -365 0
-4331 4330 368 0
-4331 -4330 -368 0
4331 -4330 368 0
4331 4330 -368 0
-4332 4331 371 0
-4332 -4331 -371 0
4332 -4331 371 0
4332 4331 -371 0
-4333 4332 375 0
-4333 -4332 -375 0
4333 -4332 375 0
4333 4332 -375 0
-198 -4333 0
-4334 316 317 0
-4334 -316 -317 0
4334 -316 317 0
4334 316 -317 0
-4335 4334 319 0
-4335 -4334 -319 0
4335 -4334 319 0
4335 4334 -319 0
-4336 4335 320 0
-4336 -4335 -320 0
4336 -4335 320 0
4336 4335 -320 0
-4337 4336 323 0
-4337 -4336 -323 0
4337 -4336 323 0
4337 4336 -323 0
-4338 4337 326 0
-4338 -4337 -326 0
4338 -4337 326 0
4338 4337 -326 0
-4339 4338 330 0
-4339 -4338 -330 0
4339 -4338 330 0
4339 4338 -330 0
-199 -4339 0
-4340 331 332 0
-4340 -331 -332 0
4340 -331 332 0
4340 331 -332 0
-4341 4340 334 0
-4341 -4340 -334 0
4341 -4340 334 0
4341 4340 -334 0
-4342 4341 335 0
-4342 -4341 -335 0
4342 -4341 335 0
4342 4341 -335 0
-4343 4342 338 0
-4343 -4342 -338 0
4343 -4342 338 0
4343 4342 -338 0
-4344 4343 341 0
-4344 -4343 -341 0
4344 -4343 341 0
4344 4343 -341 0
-4345 4344 345 0
-4345 -4344 -345 0
4345 -4344 345 0
4345 4344 -345 0
-199 -4345 0
-4346 346 347 0
-4346 -346 -347 0
4346 -346 347 0
4346 346 -347 0
-4347 4346 349 0
-4347 -4346 -349 0
4347 -4346 349 0
4347 4346 -349 0
-4348 4347 350 0
-4348 -4347 -350 0
4348 -4347 350 0
4348 4347 -350 0
-4349 4348 353 0
-4349 -4348 -353 0
4349 -4348 353 0
4349 4348 -353 0
-4350 4349 356 0
-4350 -4349 -356 0
4350 -4349 356 0
4350 4349 -356 0
-4351 4350 360 0
-4351 -4350 -360 0
4351 -4350 360 0
4351 4350 -360 0
-199 -4351 0
-4352 361 362 0
-4352 -361 -362 0
4352 -361 362 0
4352 361 -362 0
-4353 4352 364 0
-4353 -4352 -364 0
4353 -4352 364 0
4353 4352 -364 0
-4354 4353 365 0
-4354 -4353 -365 0
4354 -4353 365 0
4354 4353 -365 0
-4355 4354 368 0
-4355 -4354 -368 0
4355 -4354 368 0
4355 4354 -368 0
-4356 4355 371 0
-4356 -4355 -371 0
4356 -4355 371 0
4356 4355 -371 0
-4357 4356 375 0
-4357 -4356 -375 0
4357 -4356 375 0
4357 4356 -375 0
-199 -4357 0
-4358 316 318 0
-4358 -316 -318 0
4358 -316 318 0
4358 316 -318 0
-4359 4358 320 0
-4359 -4358 -320 0
4359 -4358 320 0
4359 4358 -320 0
-4360 4359 323 0
-4360 -4359 -323 0
4360 -4359 323 0
4360 4359 -323 0
-4361 4360 328 0
-4361 -4360 -328 0
4361 -4360 328 0
4361 4360 -328 0
-4362 4361 330 0
-4362 -4361 -330 0
4362 -4361 330 0
4362 4361 -330 0
-200 -4362 0
-4363 331 333 0
-4363 -331 -333 0
4363 -331 333 0
4363 331 -333 0
-4364 4363 335 0
-4364 -4363 -335 0
4364 -4363 335 0
4364 4363 -335 0
-4365 4364 338 0
-4365 -4364 -338 0
4365 -4364 338 0
4365 4364 -338 0
-4366 4365 343 0
-4366 -4365 -343 0
4366 -4365 343 0
4366 4365 -343 0
-4367 4366 345 0
-4367 -4366 -345 0
4367 -4366 345 0
4367 4366 -345 0
-200 -4367 0
-4368 346 348 0
-4368 -346 -348 0
4368 -346 348 0
4368 346 -348 0
-4369 4368 350 0
-4369 -4368 -350 0
4369 -4368 350 0
4369 4368 -350 0
-4370 4369 353 0
-4370 -4369 -353 0
4370 -4369 353 0
4370 4369 -353 0
-4371 4370 358 0
-4371 -4370 -358 0
4371 -4370 358 0
4371 4370 -358 0
-4372 4371 360 0
-4372 -4371 -360 0
4372 -4371 360 0
4372 4371 -360 0
-200 -4372 0
-4373 361 363 0
-4373 -361 -363 0
4373 -361 363 0
4373 361 -363 0
-4374 4373 365 0
-4374 -4373 -365 0
4374 -4373 365 0
4374 4373 -365 0
-4375 4374 368 0
-4375 -4374 -368 0
4375 -4374 368 0
4375 4374 -368 0
-4376 4375 373 0
-4376 -4375 -373 0
4376 -4375 373 0
4376 4375 -373 0
-4377 4376 375 0
-4377 -4376 -375 0
4377 -4376 375 0
4377 4376 -375 0
-200 -4377 0
-4378 316 318 0
-4378 -316 -318 0
4378 -316 318 0
4378 316 -318 0
-4379 4378 319 0
-4379 -4378 -319 0
4379 -4378 319 0
4379 4378 -319 0
-4380 4379 320 0
-4380 -4379 -320 0
4380 -4379 320 0
4380 4379 -320 0
-4381 4380 323 0
-4381 -4380 -323 0
4381 -4380 323 0
4381 4380 -323 0
-4382 4381 328 0
-4382 -4381 -328 0
4382 -4381 328 0
4382 4381 -328 0
-4383 4382 330 0
-4383 -4382 -330 0
4383 -4382 330 0
4383 4382 -330 0
-201 -4383 0
-4384 331 333 0
-4384 -331 -333 0
4384 -331 333 0
4384 331 -333 0
-4385 4384 334 0
-4385 -4384 -334 0
4385 -4384 334 0
4385 4384 -334 0
-4386 4385 335 0
-4386 -4385 -335 0
4386 -4385 335 0
4386 4385 -335 0
-4387 4386 338 0
-4387 -4386 -338 0
4387 -4386 338 0
4387 4386 -338 0
-4388 4387 343 0
-4388 -4387 -343 0
4388 -4387 343 0
4388 4387 -343 0
-4389 4388 345 0
-4389 -4388 -345 0
4389 -4388 345 0
4389 4388 -345 0
-201 -4389 0
-4390 346 348 0
-4390 -346 -348 0
4390 -346 348 0
4390 346 -348 0
-4391 4390 349 0
-4391 -4390 -349 0
4391 -4390 349 0
4391 4390 -349 0
-4392 4391 350 0
-4392 -4391 -350 0
4392 -4391 350 0
4392 4391 -350 0
-4393 4392 353 0
-4393 -4392 -353 0
4393 -4392 353 0
4393 4392 -353 0
-4394 4393 358 0
-4394 -4393 -358 0
4394 -4393 358 0
4394 4393 -358 0
-4395 4394 360 0
-4395 -4394 -360 0
4395 -4394 360 0
4395 4394 -360 0
-201 -4395 0
-4396 361 363 0
-4396 -361 -363 0
4396 -361 363 0
4396 361 -363 0
-4397 4396 364 0
-4397 -4396 -364 0
4397 -4396 364 0
4397 4396 -364 0
-4398 4397 365 0
-4398 -4397 -365 0
4398 -4397 365 0
4398 4397 -365 0
-4399 4398 368 0
-4399 -4398 -368 0
4399 -4398 368 0
4399 4398 -368 0
-4400 4399 373 0
-4400 -4399 -373 0
4400 -4399 373 0
4400 4399 -373 0
-4401 4400 375 0
-4401 -4400 -375 0
4401 -4400 375 0
4401 4400 -375 0
-201 -4401 0
-4402 316 317 0
-4402 -316 -317 0
4402 -316 317 0
4402 316 -317 0
-4403 4402 318 0
-4403 -4402 -318 0
4403 -4402 318 0
4403 4402 -318 0
-4404 4403 320 0
-4404 -4403 -320 0
4404 -4403 320 0
4404 4403 -320 0
-4405 4404 323 0
-4405 -4404 -323 0
4405 -4404 323 0
4405 4404 -323 0
-4406 4405 326 0
-4406 -4405 -326 0
4406 -4405 326 0
4406 4405 -326 0
-4407 4406 328 0
-4407 -4406 -328 0
4407 -4406 328 0
4407 4406 -328 0
-4408 4407 330 0
-4408 -4407 -330 0
4408 -4407 330 0
4408 4407 -330 0
-202 -4408 0
-4409 331 332 0
-4409 -331 -332 0
4409 -331 332 0
4409 331 -332 0
-4410 4409 333 0
-4410 -4409 -333 0
4410 -4409 333 0
4410 4409 -333 0
-4411 4410 335 0
-4411 -4410 -335 0
4411 -4410 335 0
4411 4410 -335 0
-4412 4411 338 0
-4412 -4411 -338 0
4412 -4411 338 0
4412 4411 -338 0
-4413 4412 341 0
-4413 -4412 -341 0
4413 -4412 341 0
4413 4412 -341 0
-4414 4413 343 0
-4414 -4413 -343 0
4414 -4413 343 0
4414 4413 -343 0
-4415 4414 345 0
-4415 -4414 -345 0
4415 -4414 345 0
4415 4414 -345 0
-202 -4415 0
-4416 346 347 0
-4416 -346 -347 0
4416 -346 347 0
4416 346 -347 0
-4417 4416 348 0
-4417 -4416 -348 0
4417 -4416 348 0
4417 4416 -348 0
-4418 4417 350 0
-4418 -4417 -350 0
4418 -4417 350 0
4418 4417 -350 0
-4419 4418 353 0
-4419 -4418 -353 0
4419 -4418 353 0
4419 4418 -353 0
-4420 4419 356 0
-4420 -4419 -356 0
4420 -4419 356 0
4420 4419 -356 0
-4421 4420 358 0
-4421 -4420 -358 0
4421 -4420 358 0
4421 4420 -358 0
-4422 4421 360 0
-4422 -4421 -360 0
4422 -4421 360 0
4422 4421 -360 0
-202 -4422 0
-4423 361 362 0
-4423 -361 -362 0
4423 -361 362 0
4423 361 -362 0
-4424 4423 363 0
-4424 -4423 -363 0
4424 -4423 363 0
4424 4423 -363 0
-4425 4424 365 0
-4425 -4424 -365 0
4425 -4424 365 0
4425 4424 -365 0
-4426 4425 368 0
-4426 -4425 -368 0
4426 -4425 368 0
4426 4425 -368 0
-4427 4426 371 0
-4427 -4426 -371 0
4427 -4426 371 0
4427 4426 -371 0
-4428 4427 373 0
-4428 -4427 -373 0
4428 -4427 373 0
4428 4427 -373 0
-4429 4428 375 0
-4429 -4428 -375 0
4429 -4428 375 0
4429 4428 -375 0
-202 -4429 0
-4430 316 317 0
-4430 -316 -317 0
4430 -316 317 0
4430 316 -317 0
-4431 4430 318 0
-4431 -4430 -318 0
4431 -4430 318 0
4431 4430 -318 0
-4432 4431 319 0
-4432 -4431 -319 0
4432 -4431 319 0
4432 4431 -319 0
-4433 4432 320 0
-4433 -4432 -320 0
4433 -4432 320 0
4433 4432 -320 0
-4434 4433 323 0
-4434 -4433 -323 0
4434 -4433 323 0
4434 4433 -323 0
-4435 4434 326 0
-4435 -4434 -326 0
4435 -4434 326 0
4435 4434 -326 0
-4436 4435 328 0
-4436 -4435 -328 0
4436 -4435 328 0
4436 4435 -328 0
-4437 4436 330 0
-4437 -4436 -330 0
4437 -4436 330 0
4437 4436 -330 0
-203 -4437 0
-4438 331 332 0
-4438 -331 -332 0
4438 -331 332 0
4438 331 -332 0
-4439 4438 333 0
-4439 -4438 -333 0
4439 -4438 333 0
4439 4438 -333 0
-4440 4439 334 0
-4440 -4439 -334 0
4440 -4439 334 0
4440 4439 -334 0
-4441 4440 335 0
-4441 -4440 -335 0
4441 -4440 335 0
4441 4440 -335 0
-4442 4441 338 0
-4442 -4441 -338 0
4442 -4441 338 0
4442 4441 -338 0
-4443 4442 341 0
-4443 -4442 -341 0
4443 -4442 341 0
4443 4442 -341 0
-4444 4443 343 0
-4444 -4443 -343 0
4444 -4443 343 0
4444 4443 -343 0
-4445 4444 345 0
-4445 -4444 -345 0
4445 -4444 345 0
4445 4444 -345 0
-203 -4445 0
-4446 346 347 0
-4446 -346 -347 0
4446 -346 347 0
4446 346 -347 0
-4447 4446 348 0
-4447 -4446 -348 0
4447 -4446 348 0
4447 4446 -348 0
-4448 4447 349 0
-4448 -4447 -349 0
4448 -4447 349 0
4448 4447 -349 0
-4449 4448 350 0
-4449 -4448 -350 0
4449 -4448 350 0
4449 4448 -350 0
-4450 4449 353 0
-4450 -4449 -353 0
4450 -4449 353 0
4450 4449 -353 0
-4451 4450 356 0
-4451 -4450 -356 0
4451 -4450 356 0
4451 4450 -356 0
-4452 4451 358 0
-4452 -4451 -358 0
4452 -4451 358 0
4452 4451 -358 0
-4453 4452 360 0
-4453 -4452 -360 0
4453 -4452 360 0
4453 4452 -360 0
-203 -4453 0
-4454 361 362 0
-4454 -361 -362 0
4454 -361 362 0
4454 361 -362 0
-4455 4454 363 0
-4455 -4454 -363 0
4455 -4454 363 0
4455 4454 -363 0
-4456 4455 364 0
-4456 -4455 -364 0
4456 -4455 364 0
4456 4455 -364 0
-4457 4456 365 0
-4457 -4456 -365 0
4457 -4456 365 0
4457 4456 -365 0
-4458 4457 368 0
-4458 -4457 -368 0
4458 -4457 368 0
4458 4457 -368 0
-4459 4458 371 0
-4459 -4458 -371 0
4459 -4458 371 0
4459 4458 -371 0
-4460 4459 373 0
-4460 -4459 -373 0
4460 -4459 373 0
4460 4459 -373 0
-4461 4460 375 0
-4461 -4460 -375 0
4461 -4460 375 0
4461 4460 -375 0
-203 -4461 0
-4462 316 319 0
-4462 -316 -319 0
4462 -316 319 0
4462 316 -319 0
-4463 4462 324 0
-4463 -4462 -324 0
4463 -4462 324 0
4463 4462 -324 0
-4464 4463 330 0
-4464 -4463 -330 0
4464 -4463 330 0
4464 4463 -330 0
-204 -4464 0
-4465 331 334 0
-4465 -331 -334 0
4465 -331 334 0
4465 331 -334 0
-4466 4465 339 0
-4466 -4465 -339 0
4466 -4465 339 0
4466 4465 -339 0
-4467 4466 345 0
-4467 -4466 -345 0
4467 -4466 345 0
4467 4466 -345 0
-204 -4467 0
-4468 346 349 0
-4468 -346 -349 0
4468 -346 349 0
4468 346 -349 0
-4469 4468 354 0
-4469 -4468 -354 0
4469 -4468 354 0
4469 4468 -354 0
-4470 4469 360 0
-4470 -4469 -360 0
4470 -4469 360 0
4470 4469 -360 0
-204 -4470 0
-4471 361 364 0
-4471 -361 -364 0
4471 -361 364 0
4471 361 -364 0
-4472 4471 369 0
-4472 -4471 -369 0
4472 -4471 369 0
4472 4471 -369 0
-4473 4472 375 0
-4473 -4472 -375 0
4473 -4472 375 0
4473 4472 -375 0
-204 -4473 0
-4474 316 319 0
-4474 -316 -319 0
4474 -316 319 0
4474 316 -319 0
-4475 4474 323 0
-4475 -4474 -323 0
4475 -4474 323 0
4475 4474 -323 0
-4476 4475 324 0
-4476 -4475 -324 0
4476 -4475 324 0
4476 4475 -324 0
-4477 4476 330 0
-4477 -4476 -330 0
4477 -4476 330 0
4477 4476 -330 0
-205 -4477 0
-4478 331 334 0
-4478 -331 -334 0
4478 -331 334 0
4478 331 -334 0
-4479 4478 338 0
-4479 -4478 -338 0
4479 -4478 338 0
4479 4478 -338 0
-4480 4479 339 0
-4480 -4479 -339 0
4480 -4479 339 0
4480 4479 -339 0
-4481 4480 345 0
-4481 -4480 -345 0
4481 -4480 345 0
4481 4480 -345 0
-205 -4481 0
-4482 346 349 0
-4482 -346 -349 0
4482 -346 349 0
4482 346 -349 0
-4483 4482 353 0
-4483 -4482 -353 0
4483 -4482 353 0
4483 4482 -353 0
-4484 4483 354 0
-4484 -4483 -354 0
4484 -4483 354 0
4484 4483 -354 0
-4485 4484 360 0
-4485 -4484 -360 0
4485 -4484 360 0
4485 4484 -360 0
-205 -4485 0
-4486 361 364 0
-4486 -361 -364 0
4486 -361 364 0
4486 361 -364 0
-4487 4486 368 0
-4487 -4486 -368 0
4487 -4486 368 0
4487 4486 -368 0
-4488 4487 369 0
-4488 -4487 -369 0
4488 -4487 369 0
4488 4487 -369 0
-4489 4488 375 0
-4489 -4488 -375 0
4489 -4488 375 0
4489 4488 -375 0
-205 -4489 0
-4490 316 319 0
-4490 -316 -319 0
4490 -316 319 0
4490 316 -319 0
-4491 4490 321 0
-4491 -4490 -321 0
4491 -4490 321 0
4491 4490 -321 0
-4492 4491 324 0
-4492 -4491 -324 0
4492 -4491 324 0
4492 4491 -324 0
-4493 4492 326 0
-4493 -4492 -326 0
4493 -4492 326 0
4493 4492 -326 0
-4494 4493 330 0
-4494 -4493 -330 0
4494 -4493 330 0
4494 4493 -330 0
-206 -4494 0
-4495 331 334 0
-4495 -331 -334 0
4495 -331 334 0
4495 331 -334 0
-4496 4495 336 0
-4496 -4495 -336 0
4496 -4495 336 0
4496 4495 -336 0
-4497 4496 339 0
-4497 -4496 -339 0
4497 -4496 339 0
4497 4496 -339 0
-4498 4497 341 0
-4498 -4497 -341 0
4498 -4497 341 0
4498 4497 -341 0
-4499 4498 345 0
-4499 -4498 -345 0
4499 -4498 345 0
4499 4498 -345 0
-206 -4499 0
-4500 346 349 0
-4500 -346 -349 0
4500 -346 349 0
4500 346 -349 0
-4501 4500 351 0
-4501 -4500 -351 0
4501 -4500 351 0
4501 4500 -351 0
-4502 4501 354 0
-4502 -4501 -354 0
4502 -4501 354 0
4502 4501 -354 0
-4503 4502 356 0
-4503 -4502 -356 0
4503 -4502 356 0
4503 4502 -356 0
-4504 4503 360 0
-4504 -4503 -360 0
4504 -4503 360 0
4504 4503 -360 0
-206 -4504 0
-4505 361 364 0
-4505 -361 -364 0
4505 -361 364 0
4505 361 -364 0
-4506 4505 366 0
-4506 -4505 -366 0
4506 -4505 366 0
4506 4505 -366 0
-4507 4506 369 0
-4507 -4506 -369 0
4507 -4506 369 0
4507 4506 -369 0
-4508 4507 371 0
-4508 -4507 -371 0
4508 -4507 371 0
4508 4507 -371 0
-4509 4508 375 0
-4509 -4508 -375 0
4509 -4508 375 0
4509 4508 -375 0
-206 -4509 0
-4510 316 319 0
-4510 -316 -319 0
4510 -316 319 0
4510 316 -319 0
-4511 4510 321 0
-4511 -4510 -321 0
4511 -4510 321 0
4511 4510 -321 0
-4512 4511 323 0
-4512 -4511 -323 0
4512 -4511 323 0
4512 4511 -323 0
-4513 4512 324 0
-4513 -4512 -324 0
4513 -4512 324 0
4513 4512 -324 0
-4514 4513 326 0
-4514 -4513 -326 0
4514 -4513 326 0
4514 4513 -326 0
-4515 4514 330 0
-4515 -4514 -330 0
4515 -4514 330 0
4515 4514 -330 0
-207 -4515 0
-4516 331 334 0
-4516 -331 -334 0
4516 -331 334 0
4516 331 -334 0
-4517 4516 336 0
-4517 -4516 -336 0
4517 -4516 336 0
4517 4516 -336 0
-4518 4517 338 0
-4518 -4517 -338 0
4518 -4517 338 0
4518 4517 -338 0
-4519 4518 339 0
-4519 -4518 -339 0
4519 -4518 339 0
4519 4518 -339 0
-4520 4519 341 0
-4520 -4519 -341 0
4520 -4519 341 0
4520 4519 -341 0
-4521 4520 345 0
-4521 -4520 -345 0
4521 -4520 345 0
4521 4520 -345 0
-207 -4521 0
-4522 346 349 0
-4522 -346 -349 0
4522 -346 349 0
4522 346 -349 0
-4523 4522 351 0
-4523 -4522 -351 0
4523 -4522 351 0
4523 4522 -351 0
-4524 4523 353 0
-4524 -4523 -353 0
4524 -4523 353 0
4524 4523 -353 0
-4525 4524 354 0
-4525 -4524 -354 0
4525 -4524 354 0
4525 4524 -354 0
-4526 4525 356 0
-4526 -4525 -356 0
4526 -4525 356 0
4526 4525 -356 0
-4527 4526 360 0
-4527 -4526 -360 0
4527 -4526 360 0
4527 4526 -360 0
-207 -4527 0
-4528 361 364 0
-4528 -361 -364 0
4528 -361 364 0
4528 361 -364 0
-4529 4528 366 0
-4529 -4528 -366 0
4529 -4528 366 0
4529 4528 -366 0
-4530 4529 368 0
-4530 -4529 -368 0
4530 -4529 368 0
4530 4529 -368 0
-4531 4530 369 0
-4531 -4530 -369 0
4531 -4530 369 0
4531 4530 -369 0
-4532 4531 371 0
-4532 -4531 -371 0
4532 -4531 371 0
4532 4531 -371 0
-4533 4532 375 0
-4533 -4532 -375 0
4533 -4532 375 0
4533 4532 -375 0
-207 -4533 0
-4534 316 319 0
-4534 -316 -319 0
4534 -316 319 0
4534 316 -319 0
-4535 4534 322 0
-4535 -4534 -322 0
4535 -4534 322 0
4535 4534 -322 0
-4536 4535 324 0
-4536 -4535 -324 0
4536 -4535 324 0
4536 4535 -324 0
-4537 4536 328 0
-4537 -4536 -328 0
4537 -4536 328 0
4537 4536 -328 0
-4538 4537 330 0
-4538 -4537 -330 0
4538 -4537 330 0
4538 4537 -330 0
-208 -4538 0
-4539 331 334 0
-4539 -331 -334 0
4539 -331 334 0
4539 331 -334 0
-4540 4539 337 0
-4540 -4539 -337 0
4540 -4539 337 0
4540 4539 -337 0
-4541 4540 339 0
-4541 -4540 -339 0
4541 -4540 339 0
4541 4540 -339 0
-4542 4541 343 0
-4542 -4541 -343 0
4542 -4541 343 0
4542 4541 -343 0
-4543 4542 345 0
-4543 -4542 -345 0
4543 -4542 345 0
4543 4542 -345 0
-208 -4543 0
-4544 346 349 0
-4544 -346 -349 0
4544 -346 349 0
4544 346 -349 0
-4545 4544 352 0
-4545 -4544 -352 0
4545 -4544 352 0
4545 4544 -352 0
-4546 4545 354 0
-4546 -4545 -354 0
4546 -4545 354 0
4546 4545 -354 0
-4547 4546 358 0
-4547 -4546 -358 0
4547 -4546 358 0
4547 4546 -358 0
-4548 4547 360 0
-4548 -4547 -360 0
4548 -4547 360 0
4548 4547 -360 0
-208 -4548 0
-4549 361 364 0
-4549 -361 -364 0
4549 -361 364 0
4549 361 -364 0
-4550 4549 367 0
-4550 -4549 -367 0
4550 -4549 367 0
4550 4549 -367 0
-4551 4550 369 0
-4551 -4550 -369 0
4551 -4550 369 0
4551 4550 -369 0
-4552 4551 373 0
-4552 -4551 -373 0
4552 -4551 373 0
4552 4551 -373 0
-4553 4552 375 0
-4553 -4552 -375 0
4553 -4552 375 0
4553 4552 -375 0
-208 -4553 0
-4554 316 319 0
-4554 -316 -319 0
4554 -316 319 0
4554 316 -319 0
-4555 4554 322 0
-4555 -4554 -322 0
4555 -4554 322 0
4555 4554 -322 0
-4556 4555 323 0
-4556 -4555 -323 0
4556 -4555 323 0
4556 4555 -323 0
-4557 4556 324 0
-4557 -4556 -324 0
4557 -4556 324 0
4557 4556 -324 0
-4558 4557 328 0
-4558 -4557 -328 0
4558 -4557 328 0
4558 4557 -328 0
-4559 4558 330 0
-4559 -4558 -330 0
4559 -4558 330 0
4559 4558 -330 0
-209 -4559 0
-4560 331 334 0
-4560 -331 -334 0
4560 -331 334 0
4560 331 -334 0
-4561 4560 337 0
-4561 -4560 -337 0
4561 -4560 337 0
4561 4560 -337 0
-4562 4561 338 0
-4562 -4561 -338 0
4562 -4561 338 0
4562 4561 -338 0
-4563 4562 339 0
-4563 -4562 -339 0
4563 -4562 339 0
4563 4562 -339 0
-4564 4563 343 0
-4564 -4563 -343 0
4564 -4563 343 0
4564 4563 -343 0
-4565 4564 345 0
-4565 -4564 -345 0
4565 -4564 345 0
4565 4564 -345 0
-209 -4565 0
-4566 346 349 0
-4566 -346 -349 0
4566 -346 349 0
4566 346 -349 0
-4567 4566 352 0
-4567 -4566 -352 0
4567 -4566 352 0
4567 4566 -352 0
-4568 4567 353 0
-4568 -4567 -353 0
4568 -4567 353 0
4568 4567 -353 0
-4569 4568 354 0
-4569 -4568 -354 0
4569 -4568 354 0
4569 4568 -354 0
-4570 4569 358 0
-4570 -4569 -358 0
4570 -4569 358 0
4570 4569 -358 0
-4571 4570 360 0
-4571 -4570 -360 0
4571 -4570 360 0
4571 4570 -360 0
-209 -4571 0
-4572 361 364 0
-4572 -361 -364 0
4572 -361 364 0
4572 361 -364 0
-4573 4572 367 0
-4573 -4572 -367 0
4573 -4572 367 0
4573 4572 -367 0
-4574 4573 368 0
-4574 -4573 -368 0
4574 -4573 368 0
4574 4573 -368 0
-4575 4574 369 0
-4575 -4574 -369 0
4575 -4574 369 0
4575 4574 -369 0
-4576 4575 373 0
-4576 -4575 -373 0
4576 -4575 373 0
4576 4575 -373 0
-4577 4576 375 0
-4577 -4576 -375 0
4577 -4576 375 0
4577 4576 -375 0
-209 -4577 0
-4578 316 319 0
-4578 -316 -319 0
4578 -316 319 0
4578 316 -319 0
-4579 4578 321 0
-4579 -4578 -321 0
4579 -4578 321 0
4579 4578 -321 0
-4580 4579 322 0
-4580 -4579 -322 0
4580 -4579 322 0
4580 4579 -322 0
-4581 4580 324 0
-4581 -4580 -324 0
4581 -4580 324 0
4581 4580 -324 0
-4582 4581 326 0
-4582 -4581 -326 0
4582 -4581 326 0
4582 4581 -326 0
-4583 4582 328 0
-4583 -4582 -328 0
4583 -4582 328 0
4583 4582 -328 0
-4584 4583 330 0
-4584 -4583 -330 0
4584 -4583 330 0
4584 4583 -330 0
-210 -4584 0
-4585 331 334 0
-4585 -331 -334 0
4585 -331 334 0
4585 331 -334 0
-4586 4585 336 0
-4586 -4585 -336 0
4586 -4585 336 0
4586 4585 -336 0
-4587 4586 337 0
-4587 -4586 -337 0
4587 -4586 337 0
4587 4586 -337 0
-4588 4587 339 0
-4588 -4587 -339 0
4588 -4587 339 0
4588 4587 -339 0
-4589 4588 341 0
-4589 -4588 -341 0
4589 -4588 341 0
4589 4588 -341 0
-4590 4589 343 0
-4590 -4589 -343 0
4590 -4589 343 0
4590 4589 -343 0
-4591 4590 345 0
-4591 -4590 -345 0
4591 -4590 345 0
4591 4590 -345 0
-210 -4591 0
-4592 346 349 0
-4592 -346 -349 0
4592 -346 349 0
4592 346 -349 0
-4593 4592 351 0
-4593 -4592 -351 0
4593 -4592 351 0
4593 4592 -351 0
-4594 4593 352 0
-4594 -4593 -352 0
4594 -4593 352 0
4594 4593 -352 0
-4595 4594 354 0
-4595 -4594 -354 0
4595 -4594 354 0
4595 4594 -354 0
-4596 4595 356 0
-4596 -4595 -356 0
4596 -4595 356 0
4596 4595 -356 0
-4597 4596 358 0
-4597 -4596 -358 0
4597 -4596 358 0
4597 4596 -358 0
-4598 4597 360 0
-4598 -4597 -360 0
4598 -4597 360 0
4598 4597 -360 0
-210 -4598 0
-4599 361 364 0
-4599 -361 -364 0
4599 -361 364 0
4599 361 -364 0
-4600 4599 366 0
-4600 -4599 -366 0
4600 -4599 366 0
4600 4599 -366 0
-4601 4600 367 0
-4601 -4600 -367 0
4601 -4600 367 0
4601 4600 -367 0
-4602 4601 369 0
-4602 -4601 -369 0
4602 -4601 369 0
4602 4601 -369 0
-4603 4602 371 0
-4603 -4602 -371 0
4603 -4602 371 0
4603 4602 -371 0
-4604 4603 373 0
-4604 -4603 -373 0
4604 -4603 373 0
4604 4603 -373 0
-4605 4604 375 0
-4605 -4604 -375 0
4605 -4604 375 0
4605 4604 -375 0
-210 -4605 0
-4606 316 319 0
-4606 -316 -319 0
4606 -316 319 0
4606 316 -319 0
-4607 4606 321 0
-4607 -4606 -321 0
4607 -4606 321 0
4607 4606 -321 0
-4608 4607 322 0
-4608 -4607 -322 0
4608 -4607 322 0
4608 4607 -322 0
-4609 4608 323 0
-4609 -4608 -323 0
4609 -4608 323 0
4609 4608 -323 0
-4610 4609 324 0
-4610 -4609 -324 0
4610 -4609 324 0
4610 4609 -324 0
-4611 4610 326 0
-4611 -4610 -326 0
4611 -4610 326 0
4611 4610 -326 0
-4612 4611 328 0
-4612 -4611 -328 0
4612 -4611 328 0
4612 4611 -328 0
-4613 4612 330 0
-4613 -4612 -330 0
4613 -4612 330 0
4613 4612 -330 0
-211 -4613 0
-4614 331 334 0
-4614 -331 -334 0
4614 -331 334 0
4614 331 -334 0
-4615 4614 336 0
-4615 -4614 -336 0
4615 -4614 336 0
4615 4614 -336 0
-4616 4615 337 0
-4616 -4615 -337 0
4616 -4615 337 0
4616 4615 -337 0
-4617 4616 338 0
-4617 -4616 -338 0
4617 -4616 338 0
4617 4616 -338 0
-4618 4617 339 0
-4618 -4617 -339 0
4618 -4617 339 0
4618 4617 -339 0
-4619 4618 341 0
-4619 -4618 -341 0
4619 -4618 341 0
4619 4618 -341 0
-4620 4619 343 0
-4620 -4619 -343 0
4620 -4619 343 0
4620 4619 -343 0
-4621 4620 345 0
-4621 -4620 -345 0
4621 -4620 345 0
4621 4620 -345 0
-211 -4621 0
-4622 346 349 0
-4622 -346 -349 0
4622 -346 349 0
4622 346 -349 0
-4623 4622 351 0
-4623 -4622 -351 0
4623 -4622 351 0
4623 4622 -351 0
-4624 4623 352 0
-4624 -4623 -352 0
4624 -4623 352 0
4624 4623 -352 0
-4625 4624 353 0
-4625 -4624 -353 0
4625 -4624 353 0
4625 4624 -353 0
-4626 4625 354 0
-4626 -4625 -354 0
4626 -4625 354 0
4626 4625 -354 0
-4627 4626 356 0
-4627 -4626 -356 0
4627 -4626 356 0
4627 4626 -356 0
-4628 4627 358 0
-4628 -4627 -358 0
4628 -4627 358 0
4628 4627 -358 0
-4629 4628 360 0
-4629 -4628 -360 0
4629 -4628 360 0
4629 4628 -360 0
-211 -4629 0
-4630 361 364 0
-4630 -361 -364 0
4630 -361 364 0
4630 361 -364 0
-4631 4630 366 0
-4631 -4630 -366 0
4631 -4630 366 0
4631 4630 -366 0
-4632 4631 367 0
-4632 -4631 -367 0
4632 -4631 367 0
4632 4631 -367 0
-4633 4632 368 0
-4633 -4632 -368 0
4633 -4632 368 0
4633 4632 -368 0
-4634 4633 369 0
-4634 -4633 -369 0
4634 -4633 369 0
4634 4633 -369 0
-4635 4634 371 0
-4635 -4634 -371 0
4635 -4634 371 0
4635 4634 -371 0
-4636 4635 373 0
-4636 -4635 -373 0
4636 -4635 373 0
4636 4635 -373 0
-4637 4636 375 0
-4637 -4636 -375 0
4637 -4636 375 0
4637 4636 -375 0
-211 -4637 0
-4638 316 319 0
-4638 -316 -319 0
4638 -316 319 0
4638 316 -319 0
-4639 4638 320 0
-4639 -4638 -320 0
4639 -4638 320 0
4639 4638 -320 0
-4640 4639 324 0
-4640 -4639 -324 0
4640 -4639 324 0
4640 4639 -324 0
-4641 4640 330 0
-4641 -4640 -330 0
4641 -4640 330 0
4641 4640 -330 0
-212 -4641 0
-4642 331 334 0
-4642 -331 -334 0
4642 -331 334 0
4642 331 -334 0
-4643 4642 335 0
-4643 -4642 -335 0
4643 -4642 335 0
4643 4642 -335 0
-4644 4643 339 0
-4644 -4643 -339 0
4644 -4643 339 0
4644 4643 -339 0
-4645 4644 345 0
-4645 -4644 -345 0
4645 -4644 345 0
4645 4644 -345 0
-212 -4645 0
-4646 346 349 0
-4646 -346 -349 0
4646 -346 349 0
4646 346 -349 0
-4647 4646 350 0
-4647 -4646 -350 0
4647 -4646 350 0
4647 4646 -350 0
-4648 4647 354 0
-4648 -4647 -354 0
4648 -4647 354 0
4648 4647 -354 0
-4649 4648 360 0
-4649 -4648 -360 0
4649 -4648 360 0
4649 4648 -360 0
-212 -4649 0
-4650 361 364 0
-4650 -361 -364 0
4650 -361 364 0
4650 361 -364 0
-4651 4650 365 0
-4651 -4650 -365 0
4651 -4650 365 0
4651 4650 -365 0
-4652 4651 369 0
-4652 -4651 -369 0
4652 -4651 369 0
4652 4651 -369 0
-4653 4652 375 0
-4653 -4652 -375 0
4653 -4652 375 0
4653 4652 -375 0
-212 -4653 0
-4654 316 320 0
-4654 -316 -320 0
4654 -316 320 0
4654 316 -320 0
-4655 4654 323 0
-4655 -4654 -323 0
4655 -4654 323 0
4655 4654 -323 0
-4656 4655 324 0
-4656 -4655 -324 0
4656 -4655 324 0
4656 4655 -324 0
-4657 4656 330 0
-4657 -4656 -330 0
4657 -4656 330 0
4657 4656 -330 0
-213 -4657 0
-4658 331 335 0
-4658 -331 -335 0
4658 -331 335 0
4658 331 -335 0
-4659 4658 338 0
-4659 -4658 -338 0
4659 -4658 338 0
4659 4658 -338 0
-4660 4659 339 0
-4660 -4659 -339 0
4660 -4659 339 0
4660 4659 -339 0
-4661 4660 345 0
-4661 -4660 -345 0
4661 -4660 345 0
4661 4660 -345 0
-213 -4661 0
-4662 346 350 0
-4662 -346 -350 0
4662 -346 350 0
4662 346 -350 0
-4663 4662 353 0
-4663 -4662 -353 0
4663 -4662 353 0
4663 4662 -353 0
-4664 4663 354 0
-4664 -4663 -354 0
4664 -4663 354 0
4664 4663 -354 0
-4665 4664 360 0
-4665 -4664 -360 0
4665 -4664 360 0
4665 4664 -360 0
-213 -4665 0
-4666 361 365 0
-4666 -361 -365 0
4666 -361 365 0
4666 361 -365 0
-4667 4666 368 0
-4667 -4666 -368 0
4667 -4666 368 0
4667 4666 -368 0
-4668 4667 369 0
-4668 -4667 -369 0
4668 -4667 369 0
4668 4667 -369 0
-4669 4668 375 0
-4669 -4668 -375 0
4669 -4668 375 0
4669 4668 -375 0
-213 -4669 0
-4670 316 317 0
-4670 -316 -317 0
4670 -316 317 0
4670 316 -317 0
-4671 4670 319 0
-4671 -4670 -319 0
4671 -4670 319 0
4671 4670 -319 0
-4672 4671 320 0
-4672 -4671 -320 0
4672 -4671 320 0
4672 4671 -320 0
-4673 4672 321 0
-4673 -4672 -321 0
4673 -4672 321 0
4673 4672 -321 0
-4674 4673 324 0
-4674 -4673 -324 0
4674 -4673 324 0
4674 4673 -324 0
-4675 4674 326 0
-4675 -4674 -326 0
4675 -4674 326 0
4675 4674 -326 0
-4676 4675 330 0
-4676 -4675 -330 0
4676 -4675 330 0
4676 4675 -330 0
-214 -4676 0
-4677 331 332 0
-4677 -331 -332 0
4677 -331 332 0
4677 331 -332 0
-4678 4677 334 0
-4678 -4677 -334 0
4678 -4677 334 0
4678 4677 -334 0
-4679 4678 335 0
-4679 -4678 -335 0
4679 -4678 335 0
4679 4678 -335 0
-4680 4679 336 0
-4680 -4679 -336 0
4680 -4679 336 0
4680 4679 -336 0
-4681 4680 339 0
-4681 -4680 -339 0
4681 -4680 339 0
4681 4680 -339 0
-4682 4681 341 0
-4682 -4681 -341 0
4682 -4681 341 0
4682 4681 -341 0
-4683 4682 345 0
-4683 -4682 -345 0
4683 -4682 345 0
4683 4682 -345 0
-214 -4683 0
-4684 346 347 0
-4684 -346 -347 0
4684 -346 347 0
4684 346 -347 0
-4685 4684 349 0
-4685 -4684 -349 0
4685 -4684 349 0
4685 4684 -349 0
-4686 4685 350 0
-4686 -4685 -350 0
4686 -4685 350 0
4686 4685 -350 0
-4687 4686 351 0
-4687 -4686 -351 0
4687 -4686 351 0
4687 4686 -351 0
-4688 4687 354 0
-4688 -4687 -354 0
4688 -4687 354 0
4688 4687 -354 0
-4689 4688 356 0
-4689 -4688 -356 0
4689 -4688 356 0
4689 4688 -356 0
-4690 4689 360 0
-4690 -4689 -360 0
4690 -4689 360 0
4690 4689 -360 0
-214 -4690 0
-4691 361 362 0
-4691 -361 -362 0
4691 -361 362 0
4691 361 -362 0
-4692 4691 364 0
-4692 -4691 -364 0
4692 -4691 364 0
4692 4691 -364 0
-4693 4692 365 0
-4693 -4692 -365 0
4693 -4692 365 0
4693 4692 -365 0
-4694 4693 366 0
-4694 -4693 -366 0
4694 -4693 366 0
4694 4693 -366 0
-4695 4694 369 0
-4695 -4694 -369 0
4695 -4694 369 0
4695 4694 -369 0
-4696 4695 371 0
-4696 -4695 -371 0
4696 -4695 371 0
4696 4695 -371 0
-4697 4696 375 0
-4697 -4696 -375 0
4697 -4696 375 0
4697 4696 -375 0
-214 -4697 0
-4698 316 317 0
-4698 -316 -317 0
4698 -316 317 0
4698 316 -317 0
-4699 4698 320 0
-4699 -4698 -320 0
4699 -4698 320 0
4699 4698 -320 0
-4700 4699 321 0
-4700 -4699 -321 0
4700 -4699 321 0
4700 4699 -321 0
-4701 4700 323 0
-4701 -4700 -323 0
4701 -4700 323 0
4701 4700 -323 0
-4702 4701 324 0
-4702 -4701 -324 0
4702 -4701 324 0
4702 4701 -324 0
-4703 4702 326 0
-4703 -4702 -326 0
4703 -4702 326 0
4703 4702 -326 0
-4704 4703 330 0
-4704 -4703 -330 0
4704 -4703 330 0
4704 4703 -330 0
-215 -4704 0
-4705 331 332 0
-4705 -331 -332 0
4705 -331 332 0
4705 331 -332 0
-4706 4705 335 0
-4706 -4705 -335 0
4706 -4705 335 0
4706 4705 -335 0
-4707 4706 336 0
-4707 -4706 -336 0
4707 -4706 336 0
4707 4706 -336 0
-4708 4707 338 0
-4708 -4707 -338 0
4708 -4707 338 0
4708 4707 -338 0
-4709 4708 339 0
-4709 -4708 -339 0
4709 -4708 339 0
4709 4708 -339 0
-4710 4709 341 0
-4710 -4709 -341 0
4710 -4709 341 0
4710 4709 -341 0
-4711 4710 345 0
-4711 -4710 -345 0
4711 -4710 345 0
4711 4710 -345 0
-215 -4711 0
-4712 346 347 0
-4712 -346 -347 0
4712 -346 347 0
4712 346 -347 0
-4713 4712 350 0
-4713 -4712 -350 0
4713 -4712 350 0
4713 4712 -350 0
-4714 4713 351 0
-4714 -4713 -351 0
4714 -4713 351 0
4714 4713 -351 0
-4715 4714 353 0
-4715 -4714 -353 0
4715 -4714 353 0
4715 4714 -353 0
-4716 4715 354 0
-4716 -4715 -354 0
4716 -4715 354 0
4716 4715 -354 0
-4717 4716 356 0
-4717 -4716 -356 0
4717 -4716 356 0
4717 4716 -356 0
-4718 4717 360 0
-4718 -4717 -360 0
4718 -4717 360 0
4718 4717 -360 0
-215 -4718 0
-4719 361 362 0
-4719 -361 -362 0
4719 -361 362 0
4719 361 -362 0
-4720 4719 365 0
-4720 -4719 -365 0
4720 -4719 365 0
4720 4719 -365 0
-4721 4720 366 0
-4721 -4720 -366 0
4721 -4720 366 0
4721 4720 -366 0
-4722 4721 368 0
-4722 -4721 -368 0
4722 -4721 368 0
4722 4721 -368 0
-4723 4722 369 0
-4723 -4722 -369 0
4723 -4722 369 0
4723 4722 -369 0
-4724 4723 371 0
-4724 -4723 -371 0
4724 -4723 371 0
4724 4723 -371 0
-4725 4724 375 0
-4725 -4724 -375 0
4725 -4724 375 0
4725 4724 -375 0
-215 -4725 0
-4726 316 318 0
-4726 -316 -318 0
4726 -316 318 0
4726 316 -318 0
-4727 4726 319 0
-4727 -4726 -319 0
4727 -4726 319 0
4727 4726 -319 0
-4728 4727 320 0
-4728 -4727 -320 0
4728 -4727 320 0
4728 4727 -320 0
-4729 4728 322 0
-4729 -4728 -322 0
4729 -4728 322 0
4729 4728 -322 0
-4730 4729 324 0
-4730 -4729 -324 0
4730 -4729 324 0
4730 4729 -324 0
-4731 4730 328 0
-4731 -4730 -328 0
4731 -4730 328 0
4731 4730 -328 0
-4732 4731 330 0
-4732 -4731 -330 0
4732 -4731 330 0
4732 4731 -330 0
-216 -4732 0
-4733 331 333 0
-4733 -331 -333 0
4733 -331 333 0
4733 331 -333 0
-4734 4733 334 0
-4734 -4733 -334 0
4734 -4733 334 0
4734 4733 -334 0
-4735 4734 335 0
-4735 -4734 -335 0
4735 -4734 335 0
4735 4734 -335 0
-4736 4735 337 0
-4736 -4735 -337 0
4736 -4735 337 0
4736 4735 -337 0
-4737 4736 339 0
-4737 -4736 -339 0
4737 -4736 339 0
4737 4736 -339 0
-4738 4737 343 0
-4738 -4737 -343 0
4738 -4737 343 0
4738 4737 -343 0
-4739 4738 345 0
-4739 -4738 -345 0
4739 -4738 345 0
4739 4738 -345 0
-216 -4739 0
-4740 346 348 0
-4740 -346 -348 0
4740 -346 348 0
4740 346 -348 0
-4741 4740 349 0
-4741 -4740 -349 0
4741 -4740 349 0
4741 4740 -349 0
-4742 4741 350 0
-4742 -4741 -350 0
4742 -4741 350 0
4742 4741 -350 0
-4743 4742 352 0
-4743 -4742 -352 0
4743 -4742 352 0
4743 4742 -352 0
-4744 4743 354 0
-4744 -4743 -354 0
4744 -4743 354 0
4744 4743 -354 0
-4745 4744 358 0
-4745 -4744 -358 0
4745 -4744 358 0
4745 4744 -358 0
-4746 4745 360 0
-4746 -4745 -360 0
4746 -4745 360 0
4746 4745 -360 0
-216 -4746 0
-4747 361 363 0
-4747 -361 -363 0
4747 -361 363 0
4747 361 -363 0
-4748 4747 364 0
-4748 -4747 -364 0
4748 -4747 364 0
4748 4747 -364 0
-4749 4748 365 0
-4749 -4748 -365 0
4749 -4748 365 0
4749 4748 -365 0
-4750 4749 367 0
-4750 -4749 -367 0
4750 -4749 367 0
4750 4749 -367 0
-4751 4750 369 0
-4751 -4750 -369 0
4751 -4750 369 0
4751 4750 -369 0
-4752 4751 373 0
-4752 -4751 -373 0
4752 -4751 373 0
4752 4751 -373 0
-4753 4752 375 0
-4753 -4752 -375 0
4753 -4752 375 0
4753 4752 -375 0
-216 -4753 0
-4754 316 318 0
-4754 -316 -318 0
4754 -316 318 0
4754 316 -318 0
-4755 4754 320 0
-4755 -4754 -320 0
4755 -4754 320 0
4755 4754 -320 0
-4756 4755 322 0
-4756 -4755 -322 0
4756 -4755 322 0
4756 4755 -322 0
-4757 4756 323 0
-4757 -4756 -323 0
4757 -4756 323 0
4757 4756 -323 0
-4758 4757 324 0
-4758 -4757 -324 0
4758 -4757 324 0
4758 4757 -324 0
-4759 4758 328 0
-4759 -4758 -328 0
4759 -4758 328 0
4759 4758 -328 0
-4760 4759 330 0
-4760 -4759 -330 0
4760 -4759 330 0
4760 4759 -330 0
-217 -4760 0
-4761 331 333 0
-4761 -331 -333 0
4761 -331 333 0
4761 331 -333 0
-4762 4761 335 0
-4762 -4761 -335 0
4762 -4761 335 0
4762 4761 -335 0
-4763 4762 337 0
-4763 -4762 -337 0
4763 -4762 337 0
4763 4762 -337 0
-4764 4763 338 0
-4764 -4763 -338 0
4764 -4763 338 0
4764 4763 -338 0
-4765 4764 339 0
-4765 -4764 -339 0
4765 -4764 339 0
4765 4764 -339 0
-4766 4765 343 0
-4766 -4765 -343 0
4766 -4765 343 0
4766 4765 -343 0
-4767 4766 345 0
-4767 -4766 -345 0
4767 -4766 345 0
4767 4766 -345 0
-217 -4767 0
-4768 346 348 0
-4768 -346 -348 0
4768 -346 348 0
4768 346 -348 0
-4769 4768 350 0
-4769 -4768 -350 0
4769 -4768 350 0
4769 4768 -350 0
-4770 4769 352 0
-4770 -4769 -352 0
4770 -4769 352 0
4770 4769 -352 0
-4771 4770 353 0
-4771 -4770 -353 0
4771 -4770 353 0
4771 4770 -353 0
-4772 4771 354 0
-4772 -4771 -354 0
4772 -4771 354 0
4772 4771 -354 0
-4773 4772 358 0
-4773 -4772 -358 0
4773 -4772 358 0
4773 4772 -358 0
-4774 4773 360 0
-4774 -4773 -360 0
4774 -4773 360 0
4774 4773 -360 0
-217 -4774 0
-4775 361 363 0
-4775 -361 -363 0
4775 -361 363 0
4775 361 -363 0
-4776 4775 365 0
-4776 -4775 -365 0
4776 -4775 365 0
4776 4775 -365 0
-4777 4776 367 0
-4777 -4776 -367 0
4777 -4776 367 0
4777 4776 -367 0
-4778 4777 368 0
-4778 -4777 -368 0
4778 -4777 368 0
4778 4777 -368 0
-4779 4778 369 0
-4779 -4778 -369 0
4779 -4778 369 0
4779 4778 -369 0
-4780 4779 373 0
-4780 -4779 -373 0
4780 -4779 373 0
4780 4779 -373 0
-4781 4780 375 0
-4781 -4780 -375 0
4781 -4780 375 0
4781 4780 -375 0
-217 -4781 0
-4782 316 317 0
-4782 -316 -317 0
4782 -316 317 0
4782 316 -317 0
-4783 4782 318 0
-4783 -4782 -318 0
4783 -4782 318 0
4783 4782 -318 0
-4784 4783 319 0
-4784 -4783 -319 0
4784 -4783 319 0
4784 4783 -319 0
-4785 4784 320 0
-4785 -4784 -320 0
4785 -4784 320 0
4785 4784 -320 0
-4786 4785 321 0
-4786 -4785 -321 0
4786 -4785 321 0
4786 4785 -321 0
-4787 4786 322 0
-4787 -4786 -322 0
4787 -4786 322 0
4787 4786 -322 0
-4788 4787 324 0
-4788 -4787 -324 0
4788 -4787 324 0
4788 4787 -324 0
-4789 4788 326 0
-4789 -4788 -326 0
4789 -4788 326 0
4789 4788 -326 0
-4790 4789 328 0
-4790 -4789 -328 0
4790 -4789 328 0
4790 4789 -328 0
-4791 4790 330 0
-4791 -4790 -330 0
4791 -4790 330 0
4791 4790 -330 0
-218 -4791 0
-4792 331 332 0
-4792 -331 -332 0
4792 -331 332 0
4792 331 -332 0
-4793 4792 333 0
-4793 -4792 -333 0
4793 -4792 333 0
4793 4792 -333 0
-4794 4793 334 0
-4794 -4793 -334 0
4794 -4793 334 0
4794 4793 -334 0
-4795 4794 335 0
-4795 -4794 -335 0
4795 -4794 335 0
4795 4794 -335 0
-4796 4795 336 0
-4796 -4795 -336 0
4796 -4795 336 0
4796 4795 -336 0
-4797 4796 337 0
-4797 -4796 -337 0
4797 -4796 337 0
4797 4796 -337 0
-4798 4797 339 0
-4798 -4797 -339 0
4798 -4797 339 0
4798 4797 -339 0
-4799 4798 341 0
-4799 -4798 -341 0
4799 -4798 341 0
4799 4798 -341 0
-4800 4799 343 0
-4800 -4799 -343 0
4800 -4799 343 0
4800 4799 -343 0
-4801 4800 345 0
-4801 -4800 -345 0
4801 -4800 345 0
4801 4800 -345 0
-218 -4801 0
-4802 346 347 0
-4802 -346 -347 0
4802 -346 347 0
4802 346 -347 0
-4803 4802 348 0
-4803 -4802 -348 0
4803 -4802 348 0
4803 4802 -348 0
-4804 4803 349 0
-4804 -4803 -349 0
4804 -4803 349 0
4804 4803 -349 0
-4805 4804 350 0
-4805 -4804 -350 0
4805 -4804 350 0
4805 4804 -350 0
-4806 4805 351 0
-4806 -4805 -351 0
4806 -4805 351 0
4806 4805 -351 0
-4807 4806 352 0
-4807 -4806 -352 0
4807 -4806 352 0
4807 4806 -352 0
-4808 4807 354 0
-4808 -4807 -354 0
4808 -4807 354 0
4808 4807 -354 0
-4809 4808 356 0
-4809 -4808 -356 0
4809 -4808 356 0
4809 4808 -356 0
-4810 4809 358 0
-4810 -4809 -358 0
4810 -4809 358 0
4810 4809 -358 0
-4811 4810 360 0
-4811 -4810 -360 0
4811 -4810 360 0
4811 4810 -360 0
-218 -4811 0
-4812 361 362 0
-4812 -361 -362 0
4812 -361 362 0
4812 361 -362 0
-4813 4812 363 0
-4813 -4812 -363 0
4813 -4812 363 0
4813 4812 -363 0
-4814 4813 364 0
-4814 -4813 -364 0
4814 -4813 364 0
4814 4813 -364 0
-4815 4814 365 0
-4815 -4814 -365 0
4815 -4814 365 0
4815 4814 -365 0
-4816 4815 366 0
-4816 -4815 -366 0
4816 -4815 366 0
4816 4815 -366 0
-4817 4816 367 0
-4817 -4816 -367 0
4817 -4816 367 0
4817 4816 -367 0
-4818 4817 369 0
-4818 -4817 -369 0
4818 -4817 369 0
4818 4817 -369 0
-4819 4818 371 0
-4819 -4818 -371 0
4819 -4818 371 0
4819 4818 -371 0
-4820 4819 373 0
-4820 -4819 -373 0
4820 -4819 373 0
4820 4819 -373 0
-4821 4820 375 0
-4821 -4820 -375 0
4821 -4820 375 0
4821 4820 -375 0
-218 -4821 0
-4822 316 317 0
-4822 -316 -317 0
4822 -316 317 0
4822 316 -317 0
-4823 4822 318 0
-4823 -4822 -318 0
4823 -4822 318 0
4823 4822 -318 0
-4824 4823 320 0
-4824 -4823 -320 0
4824 -4823 320 0
4824 4823 -320 0
-4825 4824 321 0
-4825 -4824 -321 0
4825 -4824 321 0
4825 4824 -321 0
-4826 4825 322 0
-4826 -4825 -322 0
4826 -4825 322 0
4826 4825 -322 0
-4827 4826 323 0
-4827 -4826 -323 0
4827 -4826 323 0
4827 4826 -323 0
-4828 4827 324 0
-4828 -4827 -324 0
4828 -4827 324 0
4828 4827 -324 0
-4829 4828 326 0
-4829 -4828 -326 0
4829 -4828 326 0
4829 4828 -326 0
-4830 4829 328 0
-4830 -4829 -328 0
4830 -4829 328 0
4830 4829 -328 0
-4831 4830 330 0
-4831 -4830 -330 0
4831 -4830 330 0
4831 4830 -330 0
-219 -4831 0
-4832 331 332 0
-4832 -331 -332 0
4832 -331 332 0
4832 331 -332 0
-4833 4832 333 0
-4833 -4832 -333 0
4833 -4832 333 0
4833 4832 -333 0
-4834 4833 335 0
-4834 -4833 -335 0
4834 -4833 335 0
4834 4833 -335 0
-4835 4834 336 0
-4835 -4834 -336 0
4835 -4834 336 0
4835 4834 -336 0
-4836 4835 337 0
-4836 -4835 -337 0
4836 -4835 337 0
4836 4835 -337 0
-4837 4836 338 0
-4837 -4836 -338 0
4837 -4836 338 0
4837 4836 -338 0
-4838 4837 339 0
-4838 -4837 -339 0
4838 -4837 339 0
4838 4837 -339 0
-4839 4838 341 0
-4839 -4838 -341 0
4839 -4838 341 0
4839 4838 -341 0
-4840 4839 343 0
-4840 -4839 -343 0
4840 -4839 343 0
4840 4839 -343 0
-4841 4840 345 0
-4841 -4840 -345 0
4841 -4840 345 0
4841 4840 -345 0
-219 -4841 0
-4842 346 347 0
-4842 -346 -347 0
4842 -346 347 0
4842 346 -347 0
-4843 4842 348 0
-4843 -4842 -348 0
4843 -4842 348 0
4843 4842 -348 0
-4844 4843 350 0
-4844 -4843 -350 0
4844 -4843 350 0
4844 4843 -350 0
-4845 4844 351 0
-4845 -4844 -351 0
4845 -4844 351 0
4845 4844 -351 0
-4846 4845 352 0
-4846 -4845 -352 0
4846 -4845 352 0
4846 4845 -352 0
-4847 4846 353 0
-4847 -4846 -353 0
4847 -4846 353 0
4847 4846 -353 0
-4848 4847 354 0
-4848 -4847 -354 0
4848 -4847 354 0
4848 4847 -354 0
-4849 4848 356 0
-4849 -4848 -356 0
4849 -4848 356 0
4849 4848 -356 0
-4850 4849 358 0
-4850 -4849 -358 0
4850 -4849 358 0
4850 4849 -358 0
-4851 4850 360 0
-4851 -4850 -360 0
4851 -4850 360 0
4851 4850 -360 0
-219 -4851 0
-4852 361 362 0
-4852 -361 -362 0
4852 -361 362 0
4852 361 -362 0
-4853 4852 363 0
-4853 -4852 -363 0
4853 -4852 363 0
4853 4852 -363 0
-4854 4853 365 0
-4854 -4853 -365 0
4854 -4853 365 0
4854 4853 -365 0
-4855 4854 366 0
-4855 -4854 -366 0
4855 -4854 366 0
4855 4854 -366 0
-4856 4855 367 0
-4856 -4855 -367 0
4856 -4855 367 0
4856 4855 -367 0
-4857 4856 368 0
-4857 -4856 -368 0
4857 -4856 368 0
4857 4856 -368 0
-4858 4857 369 0
-4858 -4857 -369 0
4858 -4857 369 0
4858 4857 -369 0
-4859 4858 371 0
-4859 -4858 -371 0
4859 -4858 371 0
4859 4858 -371 0
-4860 4859 373 0
-4860 -4859 -373 0
4860 -4859 373 0
4860 4859 -373 0
-4861 4860 375 0
-4861 -4860 -375 0
4861 -4860 375 0
4861 4860 -375 0
-219 -4861 0
-4862 325 327 0
-4862 -325 -327 0
4862 -325 327 0
4862 325 -327 0
-4863 4862 328 0
-4863 -4862 -328 0
4863 -4862 328 0
4863 4862 -328 0
-4864 4863 330 0
-4864 -4863 -330 0
4864 -4863 330 0
4864 4863 -330 0
-220 -4864 0
-4865 340 342 0
-4865 -340 -342 0
4865 -340 342 0
4865 340 -342 0
-4866 4865 343 0
-4866 -4865 -343 0
4866 -4865 343 0
4866 4865 -343 0
-4867 4866 345 0
-4867 -4866 -345 0
4867 -4866 345 0
4867 4866 -345 0
-220 -4867 0
-4868 355 357 0
-4868 -355 -357 0
4868 -355 357 0
4868 355 -357 0
-4869 4868 358 0
-4869 -4868 -358 0
4869 -4868 358 0
4869 4868 -358 0
-4870 4869 360 0
-4870 -4869 -360 0
4870 -4869 360 0
4870 4869 -360 0
-220 -4870 0
-4871 370 372 0
-4871 -370 -372 0
4871 -370 372 0
4871 370 -372 0
-4872 4871 373 0
-4872 -4871 -373 0
4872 -4871 373 0
4872 4871 -373 0
-4873 4872 375 0
-4873 -4872 -375 0
4873 -4872 375 0
4873 4872 -375 0
-220 -4873 0
-4874 317 319 0
-4874 -317 -319 0
4874 -317 319 0
4874 317 -319 0
-4875 4874 325 0
-4875 -4874 -325 0
4875 -4874 325 0
4875 4874 -325 0
-4876 4875 327 0
-4876 -4875 -327 0
4876 -4875 327 0
4876 4875 -327 0
-4877 4876 328 0
-4877 -4876 -328 0
4877 -4876 328 0
4877 4876 -328 0
-4878 4877 330 0
-4878 -4877 -330 0
4878 -4877 330 0
4878 4877 -330 0
-221 -4878 0
-4879 332 334 0
-4879 -332 -334 0
4879 -332 334 0
4879 332 -334 0
-4880 4879 340 0
-4880 -4879 -340 0
4880 -4879 340 0
4880 4879 -340 0
-4881 4880 342 0
-4881 -4880 -342 0
4881 -4880 342 0
4881 4880 -342 0
-4882 4881 343 0
-4882 -4881 -343 0
4882 -4881 343 0
4882 4881 -343 0
-4883 4882 345 0
-4883 -4882 -345 0
4883 -4882 345 0
4883 4882 -345 0
-221 -4883 0
-4884 347 349 0
-4884 -347 -349 0
4884 -347 349 0
4884 347 -349 0
-4885 4884 355 0
-4885 -4884 -355 0
4885 -4884 355 0
4885 4884 -355 0
-4886 4885 357 0
-4886 -4885 -357 0
4886 -4885 357 0
4886 4885 -357 0
-4887 4886 358 0
-4887 -4886 -358 0
4887 -4886 358 0
4887 4886 -358 0
-4888 4887 360 0
-4888 -4887 -360 0
4888 -4887 360 0
4888 4887 -360 0
-221 -4888 0
-4889 362 364 0
-4889 -362 -364 0
4889 -362 364 0
4889 362 -364 0
-4890 4889 370 0
-4890 -4889 -370 0
4890 -4889 370 0
4890 4889 -370 0
-4891 4890 372 0
-4891 -4890 -372 0
4891 -4890 372 0
4891 4890 -372 0
-4892 4891 373 0
-4892 -4891 -373 0
4892 -4891 373 0
4892 4891 -373 0
-4893 4892 375 0
-4893 -4892 -375 0
4893 -4892 375 0
4893 4892 -375 0
-221 -4893 0
-4894 321 323 0
-4894 -321 -323 0
4894 -321 323 0
4894 321 -323 0
-4895 4894 325 0
-4895 -4894 -325 0
4895 -4894 325 0
4895 4894 -325 0
-4896 4895 327 0
-4896 -4895 -327 0
4896 -4895 327 0
4896 4895 -327 0
-4897 4896 328 0
-4897 -4896 -328 0
4897 -4896 328 0
4897 4896 -328 0
-4898 4897 330 0
-4898 -4897 -330 0
4898 -4897 330 0
4898 4897 -330 0
-222 -4898 0
-4899 336 338 0
-4899 -336 -338 0
4899 -336 338 0
4899 336 -338 0
-4900 4899 340 0
-4900 -4899 -340 0
4900 -4899 340 0
4900 4899 -340 0
-4901 4900 342 0
-4901 -4900 -342 0
4901 -4900 342 0
4901 4900 -342 0
-4902 4901 343 0
-4902 -4901 -343 0
4902 -4901 343 0
4902 4901 -343 0
-4903 4902 345 0
-4903 -4902 -345 0
4903 -4902 345 0
4903 4902 -345 0
-222 -4903 0
-4904 351 353 0
-4904 -351 -353 0
4904 -351 353 0
4904 351 -353 0
-4905 4904 355 0
-4905 -4904 -355 0
4905 -4904 355 0
4905 4904 -355 0
-4906 4905 357 0
-4906 -4905 -357 0
4906 -4905 357 0
4906 4905 -357 0
-4907 4906 358 0
-4907 -4906 -358 0
4907 -4906 358 0
4907 4906 -358 0
-4908 4907 360 0
-4908 -4907 -360 0
4908 -4907 360 0
4908 4907 -360 0
-222 -4908 0
-4909 366 368 0
-4909 -366 -368 0
4909 -366 368 0
4909 366 -368 0
-4910 4909 370 0
-4910 -4909 -370 0
4910 -4909 370 0
4910 4909 -370 0
-4911 4910 372 0
-4911 -4910 -372 0
4911 -4910 372 0
4911 4910 -372 0
-4912 4911 373 0
-4912 -4911 -373 0
4912 -4911 373 0
4912 4911 -373 0
-4913 4912 375 0
-4913 -4912 -375 0
4913 -4912 375 0
4913 4912 -375 0
-222 -4913 0
-4914 317 319 0
-4914 -317 -319 0
4914 -317 319 0
4914 317 -319 0
-4915 4914 321 0
-4915 -4914 -321 0
4915 -4914 321 0
4915 4914 -321 0
-4916 4915 323 0
-4916 -4915 -323 0
4916 -4915 323 0
4916 4915 -323 0
-4917 4916 325 0
-4917 -4916 -325 0
4917 -4916 325 0
4917 4916 -325 0
-4918 4917 327 0
-4918 -4917 -327 0
4918 -4917 327 0
4918 4917 -327 0
-4919 4918 328 0
-4919 -4918 -328 0
4919 -4918 328 0
4919 4918 -328 0
-4920 4919 330 0
-4920 -4919 -330 0
4920 -4919 330 0
4920 4919 -330 0
-223 -4920 0
-4921 332 334 0
-4921 -332 -334 0
4921 -332 334 0
4921 332 -334 0
-4922 4921 336 0
-4922 -4921 -336 0
4922 -4921 336 0
4922 4921 -336 0
-4923 4922 338 0
-4923 -4922 -338 0
4923 -4922 338 0
4923 4922 -338 0
-4924 4923 340 0
-4924 -4923 -340 0
4924 -4923 340 0
4924 4923 -340 0
-4925 4924 342 0
-4925 -4924 -342 0
4925 -4924 342 0
4925 4924 -342 0
-4926 4925 343 0
-4926 -4925 -343 0
4926 -4925 343 0
4926 4925 -343 0
-4927 4926 345 0
-4927 -4926 -345 0
4927 -4926 345 0
4927 4926 -345 0
-223 -4927 0
-4928 347 349 0
-4928 -347 -349 0
4928 -347 349 0
4928 347 -349 0
-4929 4928 351 0
-4929 -4928 -351 0
4929 -4928 351 0
4929 4928 -351 0
-4930 4929 353 0
-4930 -4929 -353 0
4930 -4929 353 0
4930 4929 -353 0
-4931 4930 355 0
-4931 -4930 -355 0
4931 -4930 355 0
4931 4930 -355 0
-4932 4931 357 0
-4932 -4931 -357 0
4932 -4931 357 0
4932 4931 -357 0
-4933 4932 358 0
-4933 -4932 -358 0
4933 -4932 358 0
4933 4932 -358 0
-4934 4933 360 0
-4934 -4933 -360 0
4934 -4933 360 0
4934 4933 -360 0
-223 -4934 0
-4935 362 364 0
-4935 -362 -364 0
4935 -362 364 0
4935 362 -364 0
-4936 4935 366 0
-4936 -4935 -366 0
4936 -4935 366 0
4936 4935 -366 0
-4937 4936 368 0
-4937 -4936 -368 0
4937 -4936 368 0
4937 4936 -368 0
-4938 4937 370 0
-4938 -4937 -370 0
4938 -4937 370 0
4938 4937 -370 0
-4939 4938 372 0
-4939 -4938 -372 0
4939 -4938 372 0
4939 4938 -372 0
-4940 4939 373 0
-4940 -4939 -373 0
4940 -4939 373 0
4940 4939 -373 0
-4941 4940 375 0
-4941 -4940 -375 0
4941 -4940 375 0
4941 4940 -375 0
-223 -4941 0
-4942 325 326 0
-4942 -325 -326 0
4942 -325 326 0
4942 325 -326 0
-4943 4942 327 0
-4943 -4942 -327 0
4943 -4942 327 0
4943 4942 -327 0
-4944 4943 328 0
-4944 -4943 -328 0
4944 -4943 328 0
4944 4943 -328 0
-4945 4944 330 0
-4945 -4944 -330 0
4945 -4944 330 0
4945 4944 -330 0
-224 -4945 0
-4946 340 341 0
-4946 -340 -341 0
4946 -340 341 0
4946 340 -341 0
-4947 4946 342 0
-4947 -4946 -342 0
4947 -4946 342 0
4947 4946 -342 0
-4948 4947 343 0
-4948 -4947 -343 0
4948 -4947 343 0
4948 4947 -343 0
-4949 4948 345 0
-4949 -4948 -345 0
4949 -4948 345 0
4949 4948 -345 0
-224 -4949 0
-4950 355 356 0
-4950 -355 -356 0
4950 -355 356 0
4950 355 -356 0
-4951 4950 357 0
-4951 -4950 -357 0
4951 -4950 357 0
4951 4950 -357 0
-4952 4951 358 0
-4952 -4951 -358 0
4952 -4951 358 0
4952 4951 -358 0
-4953 4952 360 0
-4953 -4952 -360 0
4953 -4952 360 0
4953 4952 -360 0
-224 -4953 0
-4954 370 371 0
-4954 -370 -371 0
4954 -370 371 0
4954 370 -371 0
-4955 4954 372 0
-4955 -4954 -372 0
4955 -4954 372 0
4955 4954 -372 0
-4956 4955 373 0
-4956 -4955 -373 0
4956 -4955 373 0
4956 4955 -373 0
-4957 4956 375 0
-4957 -4956 -375 0
4957 -4956 375 0
4957 4956 -375 0
-224 -4957 0
-4958 317 319 0
-4958 -317 -319 0
4958 -317 319 0
4958 317 -319 0
-4959 4958 325 0
-4959 -4958 -325 0
4959 -4958 325 0
4959 4958 -325 0
-4960 4959 326 0
-4960 -4959 -326 0
4960 -4959 326 0
4960 4959 -326 0
-4961 4960 327 0
-4961 -4960 -327 0
4961 -4960 327 0
4961 4960 -327 0
-4962 4961 328 0
-4962 -4961 -328 0
4962 -4961 328 0
4962 4961 -328 0
-4963 4962 330 0
-4963 -4962 -330 0
4963 -4962 330 0
4963 4962 -330 0
-225 -4963 0
-4964 332 334 0
-4964 -332 -334 0
4964 -332 334 0
4964 332 -334 0
-4965 4964 340 0
-4965 -4964 -340 0
4965 -4964 340 0
4965 4964 -340 0
-4966 4965 341 0
-4966 -4965 -341 0
4966 -4965 341 0
4966 4965 -341 0
-4967 4966 342 0
-4967 -4966 -342 0
4967 -4966 342 0
4967 4966 -342 0
-4968 4967 343 0
-4968 -4967 -343 0
4968 -4967 343 0
4968 4967 -343 0
-4969 4968 345 0
-4969 -4968 -345 0
4969 -4968 345 0
4969 4968 -345 0
-225 -4969 0
-4970 347 349 0
-4970 -347 -349 0
4970 -347 349 0
4970 347 -349 0
-4971 4970 355 0
-4971 -4970 -355 0
4971 -4970 355 0
4971 4970 -355 0
-4972 4971 356 0
-4972 -4971 -356 0
4972 -4971 356 0
4972 4971 -356 0
-4973 4972 357 0
-4973 -4972 -357 0
4973 -4972 357 0
4973 4972 -357 0
-4974 4973 358 0
-4974 -4973 -358 0
4974 -4973 358 0
4974 4973 -358 0
-4975 4974 360 0
-4975 -4974 -360 0
4975 -4974 360 0
4975 4974 -360 0
-225 -4975 0
-4976 362 364 0
-4976 -362 -364 0
4976 -362 364 0
4976 362 -364 0
-4977 4976 370 0
-4977 -4976 -370 0
4977 -4976 370 0
4977 4976 -370 0
-4978 4977 371 0
-4978 -4977 -371 0
4978 -4977 371 0
4978 4977 -371 0
-4979 4978 372 0
-4979 -4978 -372 0
4979 -4978 372 0
4979 4978 -372 0
-4980 4979 373 0
-4980 -4979 -373 0
4980 -4979 373 0
4980 4979 -373 0
-4981 4980 375 0
-4981 -4980 -375 0
4981 -4980 375 0
4981 4980 -375 0
-225 -4981 0
-4982 321 323 0
-4982 -321 -323 0
4982 -321 323 0
4982 321 -323 0
-4983 4982 325 0
-4983 -4982 -325 0
4983 -4982 325 0
4983 4982 -325 0
-4984 4983 326 0
-4984 -4983 -326 0
4984 -4983 326 0
4984 4983 -326 0
-4985 4984 327 0
-4985 -4984 -327 0
4985 -4984 327 0
4985 4984 -327 0
-4986 4985 328 0
-4986 -4985 -328 0
4986 -4985 328 0
4986 4985 -328 0
-4987 4986 330 0
-4987 -4986 -330 0
4987 -4986 330 0
4987 4986 -330 0
-226 -4987 0
-4988 336 338 0
-4988 -336 -338 0
4988 -336 338 0
4988 336 -338 0
-4989 4988 340 0
-4989 -4988 -340 0
4989 -4988 340 0
4989 4988 -340 0
-4990 4989 341 0
-4990 -4989 -341 0
4990 -4989 341 0
4990 4989 -341 0
-4991 4990 342 0
-4991 -4990 -342 0
4991 -4990 342 0
4991 4990 -342 0
-4992 4991 343 0
-4992 -4991 -343 0
4992 -4991 343 0
4992 4991 -343 0
-4993 4992 345 0
-4993 -4992 -345 0
4993 -4992 345 0
4993 4992 -345 0
-226 -4993 0
-4994 351 353 0
-4994 -351 -353 0
4994 -351 353 0
4994 351 -353 0
-4995 4994 355 0
-4995 -4994 -355 0
4995 -4994 355 0
4995 4994 -355 0
-4996 4995 356 0
-4996 -4995 -356 0
4996 -4995 356 0
4996 4995 -356 0
-4997 4996 357 0
-4997 -4996 -357 0
4997 -4996 357 0
4997 4996 -357 0
-4998 4997 358 0
-4998 -4997 -358 0
4998 -4997 358 0
4998 4997 -358 0
-4999 4998 360 0
-4999 -4998 -360 0
4999 -4998 360 0
4999 4998 -360 0
-226 -4999 0
-5000 366 368 0
-5000 -366 -368 0
5000 -366 368 0
5000 366 -368 0
-5001 5000 370 0
-5001 -5000 -370 0
5001 -5000 370 0
5001 5000 -370 0
-5002 5001 371 0
-5002 -5001 -371 0
5002 -5001 371 0
5002 5001 -371 0
-5003 5002 372 0
-5003 -5002 -372 0
5003 -5002 372 0
5003 5002 -372 0
-5004 5003 373 0
-5004 -5003 -373 0
5004 -5003 373 0
5004 5003 -373 0
-5005 5004 375 0
-5005 -5004 -375 0
5005 -5004 375 0
5005 5004 -375 0
-226 -5005 0
-5006 317 319 0
-5006 -317 -319 0
5006 -317 319 0
5006 317 -319 0
-5007 5006 321 0
-5007 -5006 -321 0
5007 -5006 321 0
5007 5006 -321 0
-5008 5007 323 0
-5008 -5007 -323 0
5008 -5007 323 0
5008 5007 -323 0
-5009 5008 325 0
-5009 -5008 -325 0
5009 -5008 325 0
5009 5008 -325 0
-5010 5009 326 0
-5010 -5009 -326 0
5010 -5009 326 0
5010 5009 -326 0
-5011 5010 327 0
-5011 -5010 -327 0
5011 -5010 327 0
5011 5010 -327 0
-5012 5011 328 0
-5012 -5011 -328 0
5012 -5011 328 0
5012 5011 -328 0
-5013 5012 330 0
-5013 -5012 -330 0
5013 -5012 330 0
5013 5012 -330 0
-227 -5013 0
-5014 332 334 0
-5014 -332 -334 0
5014 -332 334 0
5014 332 -334 0
-5015 5014 336 0
-5015 -5014 -336 0
5015 -5014 336 0
5015 5014 -336 0
-5016 5015 338 0
-5016 -5015 -338 0
5016 -5015 338 0
5016 5015 -338 0
-5017 5016 340 0
-5017 -5016 -340 0
5017 -5016 340 0
5017 5016 -340 0
-5018 5017 341 0
-5018 -5017 -341 0
5018 -5017 341 0
5018 5017 -341 0
-5019 5018 342 0
-5019 -5018 -342 0
5019 -5018 342 0
5019 5018 -342 0
-5020 5019 343 0
-5020 -5019 -343 0
5020 -5019 343 0
5020 5019 -343 0
-5021 5020 345 0
-5021 -5020 -345 0
5021 -5020 345 0
5021 5020 -345 0
-227 -5021 0
-5022 347 349 0
-5022 -347 -349 0
5022 -347 349 0
5022 347 -349 0
-5023 5022 351 0
-5023 -5022 -351 0
5023 -5022 351 0
5023 5022 -351 0
-5024 5023 353 0
-5024 -5023 -353 0
5024 -5023 353 0
5024 5023 -353 0
-5025 5024 355 0
-5025 -5024 -355 0
5025 -5024 355 0
5025 5024 -355 0
-5026 5025 356 0
-5026 -5025 -356 0
5026 -5025 356 0
5026 5025 -356 0
-5027 5026 357 0
-5027 -5026 -357 0
5027 -5026 357 0
5027 5026 -357 0
-5028 5027 358 0
-5028 -5027 -358 0
5028 -5027 358 0
5028 5027 -358 0
-5029 5028 360 0
-5029 -5028 -360 0
5029 -5028 360 0
5029 5028 -360 0
-227 -5029 0
-5030 362 364 0
-5030 -362 -364 0
5030 -362 364 0
5030 362 -364 0
-5031 5030 366 0
-5031 -5030 -366 0
5031 -5030 366 0
5031 5030 -366 0
-5032 5031 368 0
-5032 -5031 -368 0
5032 -5031 368 0
5032 5031 -368 0
-5033 5032 370 0
-5033 -5032 -370 0
5033 -5032 370 0
5033 5032 -370 0
-5034 5033 371 0
-5034 -5033 -371 0
5034 -5033 371 0
5034 5033 -371 0
-5035 5034 372 0
-5035 -5034 -372 0
5035 -5034 372 0
5035 5034 -372 0
-5036 5035 373 0
-5036 -5035 -373 0
5036 -5035 373 0
5036 5035 -373 0
-5037 5036 375 0
-5037 -5036 -375 0
5037 -5036 375 0
5037 5036 -375 0
-227 -5037 0
-5038 316 320 0
-5038 -316 -320 0
5038 -316 320 0
5038 316 -320 0
-5039 5038 321 0
-5039 -5038 -321 0
5039 -5038 321 0
5039 5038 -321 0
-5040 5039 323 0
-5040 -5039 -323 0
5040 -5039 323 0
5040 5039 -323 0
-5041 5040 327 0
-5041 -5040 -327 0
5041 -5040 327 0
5041 5040 -327 0
-5042 5041 330 0
-5042 -5041 -330 0
5042 -5041 330 0
5042 5041 -330 0
-228 -5042 0
-5043 331 335 0
-5043 -331 -335 0
5043 -331 335 0
5043 331 -335 0
-5044 5043 336 0
-5044 -5043 -336 0
5044 -5043 336 0
5044 5043 -336 0
-5045 5044 338 0
-5045 -5044 -338 0
5045 -5044 338 0
5045 5044 -338 0
-5046 5045 342 0
-5046 -5045 -342 0
5046 -5045 342 0
5046 5045 -342 0
-5047 5046 345 0
-5047 -5046 -345 0
5047 -5046 345 0
5047 5046 -345 0
-228 -5047 0
-5048 346 350 0
-5048 -346 -350 0
5048 -346 350 0
5048 346 -350 0
-5049 5048 351 0
-5049 -5048 -351 0
5049 -5048 351 0
5049 5048 -351 0
-5050 5049 353 0
-5050 -5049 -353 0
5050 -5049 353 0
5050 5049 -353 0
-5051 5050 357 0
-5051 -5050 -357 0
5051 -5050 357 0
5051 5050 -357 0
-5052 5051 360 0
-5052 -5051 -360 0
5052 -5051 360 0
5052 5051 -360 0
-228 -5052 0
-5053 361 365 0
-5053 -361 -365 0
5053 -361 365 0
5053 361 -365 0
-5054 5053 366 0
-5054 -5053 -366 0
5054 -5053 366 0
5054 5053 -366 0
-5055 5054 368 0
-5055 -5054 -368 0
5055 -5054 368 0
5055 5054 -368 0
-5056 5055 372 0
-5056 -5055 -372 0
5056 -5055 372 0
5056 5055 -372 0
-5057 5056 375 0
-5057 -5056 -375 0
5057 -5056 375 0
5057 5056 -375 0
-228 -5057 0
-5058 316 317 0
-5058 -316 -317 0
5058 -316 317 0
5058 316 -317 0
-5059 5058 319 0
-5059 -5058 -319 0
5059 -5058 319 0
5059 5058 -319 0
-5060 5059 320 0
-5060 -5059 -320 0
5060 -5059 320 0
5060 5059 -320 0
-5061 5060 321 0
-5061 -5060 -321 0
5061 -5060 321 0
5061 5060 -321 0
-5062 5061 323 0
-5062 -5061 -323 0
5062 -5061 323 0
5062 5061 -323 0
-5063 5062 327 0
-5063 -5062 -327 0
5063 -5062 327 0
5063 5062 -327 0
-5064 5063 330 0
-5064 -5063 -330 0
5064 -5063 330 0
5064 5063 -330 0
-229 -5064 0
-5065 331 332 0
-5065 -331 -332 0
5065 -331 332 0
5065 331 -332 0
-5066 5065 334 0
-5066 -5065 -334 0
5066 -5065 334 0
5066 5065 -334 0
-5067 5066 335 0
-5067 -5066 -335 0
5067 -5066 335 0
5067 5066 -335 0
-5068 5067 336 0
-5068 -5067 -336 0
5068 -5067 336 0
5068 5067 -336 0
-5069 5068 338 0
-5069 -5068 -338 0
5069 -5068 338 0
5069 5068 -338 0
-5070 5069 342 0
-5070 -5069 -342 0
5070 -5069 342 0
5070 5069 -342 0
-5071 5070 345 0
-5071 -5070 -345 0
5071 -5070 345 0
5071 5070 -345 0
-229 -5071 0
-5072 346 347 0
-5072 -346 -347 0
5072 -346 347 0
5072 346 -347 0
-5073 5072 349 0
-5073 -5072 -349 0
5073 -5072 349 0
5073 5072 -349 0
-5074 5073 350 0
-5074 -5073 -350 0
5074 -5073 350 0
5074 5073 -350 0
-5075 5074 351 0
-5075 -5074 -351 0
5075 -5074 351 0
5075 5074 -351 0
-5076 5075 353 0
-5076 -5075 -353 0
5076 -5075 353 0
5076 5075 -353 0
-5077 5076 357 0
-5077 -5076 -357 0
5077 -5076 357 0
5077 5076 -357 0
-5078 5077 360 0
-5078 -5077 -360 0
5078 -5077 360 0
5078 5077 -360 0
-229 -5078 0
-5079 361 362 0
-5079 -361 -362 0
5079 -361 362 0
5079 361 -362 0
-5080 5079 364 0
-5080 -5079 -364 0
5080 -5079 364 0
5080 5079 -364 0
-5081 5080 365 0
-5081 -5080 -365 0
5081 -5080 365 0
5081 5080 -365 0
-5082 5081 366 0
-5082 -5081 -366 0
5082 -5081 366 0
5082 5081 -366 0
-5083 5082 368 0
-5083 -5082 -368 0
5083 -5082 368 0
5083 5082 -368 0
-5084 5083 372 0
-5084 -5083 -372 0
5084 -5083 372 0
5084 5083 -372 0
-5085 5084 375 0
-5085 -5084 -375 0
5085 -5084 375 0
5085 5084 -375 0
-229 -5085 0
-5086 316 317 0
-5086 -316 -317 0
5086 -316 317 0
5086 316 -317 0
-5087 5086 320 0
-5087 -5086 -320 0
5087 -5086 320 0
5087 5086 -320 0
-5088 5087 321 0
-5088 -5087 -321 0
5088 -5087 321 0
5088 5087 -321 0
-5089 5088 323 0
-5089 -5088 -323 0
5089 -5088 323 0
5089 5088 -323 0
-5090 5089 326 0
-5090 -5089 -326 0
5090 -5089 326 0
5090 5089 -326 0
-5091 5090 327 0
-5091 -5090 -327 0
5091 -5090 327 0
5091 5090 -327 0
-5092 5091 330 0
-5092 -5091 -330 0
5092 -5091 330 0
5092 5091 -330 0
-230 -5092 0
-5093 331 332 0
-5093 -331 -332 0
5093 -331 332 0
5093 331 -332 0
-5094 5093 335 0
-5094 -5093 -335 0
5094 -5093 335 0
5094 5093 -335 0
-5095 5094 336 0
-5095 -5094 -336 0
5095 -5094 336 0
5095 5094 -336 0
-5096 5095 338 0
-5096 -5095 -338 0
5096 -5095 338 0
5096 5095 -338 0
-5097 5096 341 0
-5097 -5096 -341 0
5097 -5096 341 0
5097 5096 -341 0
-5098 5097 342 0
-5098 -5097 -342 0
5098 -5097 342 0
5098 5097 -342 0
-5099 5098 345 0
-5099 -5098 -345 0
5099 -5098 345 0
5099 5098 -345 0
-230 -5099 0
-5100 346 347 0
-5100 -346 -347 0
5100 -346 347 0
5100 346 -347 0
-5101 5100 350 0
-5101 -5100 -350 0
5101 -5100 350 0
5101 5100 -350 0
-5102 5101 351 0
-5102 -5101 -351 0
5102 -5101 351 0
5102 5101 -351 0
-5103 5102 353 0
-5103 -5102 -353 0
5103 -5102 353 0
5103 5102 -353 0
-5104 5103 356 0
-5104 -5103 -356 0
5104 -5103 356 0
5104 5103 -356 0
-5105 5104 357 0
-5105 -5104 -357 0
5105 -5104 357 0
5105 5104 -357 0
-5106 5105 360 0
-5106 -5105 -360 0
5106 -5105 360 0
5106 5105 -360 0
-230 -5106 0
-5107 361 362 0
-5107 -361 -362 0
5107 -361 362 0
5107 361 -362 0
-5108 5107 365 0
-5108 -5107 -365 0
5108 -5107 365 0
5108 5107 -365 0
-5109 5108 366 0
-5109 -5108 -366 0
5109 -5108 366 0
5109 5108 -366 0
-5110 5109 368 0
-5110 -5109 -368 0
5110 -5109 368 0
5110 5109 -368 0
-5111 5110 371 0
-5111 -5110 -371 0
5111 -5110 371 0
5111 5110 -371 0
-5112 5111 372 0
-5112 -5111 -372 0
5112 -5111 372 0
5112 5111 -372 0
-5113 5112 375 0
-5113 -5112 -375 0
5113 -5112 375 0
5113 5112 -375 0
-230 -5113 0
-5114 316 319 0
-5114 -316 -319 0
5114 -316 319 0
5114 316 -319 0
-5115 5114 320 0
-5115 -5114 -320 0
5115 -5114 320 0
5115 5114 -320 0
-5116 5115 321 0
-5116 -5115 -321 0
5116 -5115 321 0
5116 5115 -321 0
-5117 5116 323 0
-5117 -5116 -323 0
5117 -5116 323 0
5117 5116 -323 0
-5118 5117 326 0
-5118 -5117 -326 0
5118 -5117 326 0
5118 5117 -326 0
-5119 5118 327 0
-5119 -5118 -327 0
5119 -5118 327 0
5119 5118 -327 0
-5120 5119 330 0
-5120 -5119 -330 0
5120 -5119 330 0
5120 5119 -330 0
-231 -5120 0
-5121 331 334 0
-5121 -331 -334 0
5121 -331 334 0
5121 331 -334 0
-5122 5121 335 0
-5122 -5121 -335 0
5122 -5121 335 0
5122 5121 -335 0
-5123 5122 336 0
-5123 -5122 -336 0
5123 -5122 336 0
5123 5122 -336 0
-5124 5123 338 0
-5124 -5123 -338 0
5124 -5123 338 0
5124 5123 -338 0
-5125 5124 341 0
-5125 -5124 -341 0
5125 -5124 341 0
5125 5124 -341 0
-5126 5125 342 0
-5126 -5125 -342 0
5126 -5125 342 0
5126 5125 -342 0
-5127 5126 345 0
-5127 -5126 -345 0
5127 -5126 345 0
5127 5126 -345 0
-231 -5127 0
-5128 346 349 0
-5128 -346 -349 0
5128 -346 349 0
5128 346 -349 0
-5129 5128 350 0
-5129 -5128 -350 0
5129 -5128 350 0
5129 5128 -350 0
-5130 5129 351 0
-5130 -5129 -351 0
5130 -5129 351 0
5130 5129 -351 0
-5131 5130 353 0
-5131 -5130 -353 0
5131 -5130 353 0
5131 5130 -353 0
-5132 5131 356 0
-5132 -5131 -356 0
5132 -5131 356 0
5132 5131 -356 0
-5133 5132 357 0
-5133 -5132 -357 0
5133 -5132 357 0
5133 5132 -357 0
-5134 5133 360 0
-5134 -5133 -360 0
5134 -5133 360 0
5134 5133 -360 0
-231 -5134 0
-5135 361 364 0
-5135 -361 -364 0
5135 -361 364 0
5135 361 -364 0
-5136 5135 365 0
-5136 -5135 -365 0
5136 -5135 365 0
5136 5135 -365 0
-5137 5136 366 0
-5137 -5136 -366 0
5137 -5136 366 0
5137 5136 -366 0
-5138 5137 368 0
-5138 -5137 -368 0
5138 -5137 368 0
5138 5137 -368 0
-5139 5138 371 0
-5139 -5138 -371 0
5139 -5138 371 0
5139 5138 -371 0
-5140 5139 372 0
-5140 -5139 -372 0
5140 -5139 372 0
5140 5139 -372 0
-5141 5140 375 0
-5141 -5140 -375 0
5141 -5140 375 0
5141 5140 -375 0
-231 -5141 0
-5142 318 320 0
-5142 -318 -320 0
5142 -318 320 0
5142 318 -320 0
-5143 5142 325 0
-5143 -5142 -325 0
5143 -5142 325 0
5143 5142 -325 0
-5144 5143 327 0
-5144 -5143 -327 0
5144 -5143 327 0
5144 5143 -327 0
-5145 5144 328 0
-5145 -5144 -328 0
5145 -5144 328 0
5145 5144 -328 0
-5146 5145 330 0
-5146 -5145 -330 0
5146 -5145 330 0
5146 5145 -330 0
-232 -5146 0
-5147 333 335 0
-5147 -333 -335 0
5147 -333 335 0
5147 333 -335 0
-5148 5147 340 0
-5148 -5147 -340 0
5148 -5147 340 0
5148 5147 -340 0
-5149 5148 342 0
-5149 -5148 -342 0
5149 -5148 342 0
5149 5148 -342 0
-5150 5149 343 0
-5150 -5149 -343 0
5150 -5149 343 0
5150 5149 -343 0
-5151 5150 345 0
-5151 -5150 -345 0
5151 -5150 345 0
5151 5150 -345 0
-232 -5151 0
-5152 348 350 0
-5152 -348 -350 0
5152 -348 350 0
5152 348 -350 0
-5153 5152 355 0
-5153 -5152 -355 0
5153 -5152 355 0
5153 5152 -355 0
-5154 5153 357 0
-5154 -5153 -357 0
5154 -5153 357 0
5154 5153 -357 0
-5155 5154 358 0
-5155 -5154 -358 0
5155 -5154 358 0
5155 5154 -358 0
-5156 5155 360 0
-5156 -5155 -360 0
5156 -5155 360 0
5156 5155 -360 0
-232 -5156 0
-5157 363 365 0
-5157 -363 -365 0
5157 -363 365 0
5157 363 -365 0
-5158 5157 370 0
-5158 -5157 -370 0
5158 -5157 370 0
5158 5157 -370 0
-5159 5158 372 0
-5159 -5158 -372 0
5159 -5158 372 0
5159 5158 -372 0
-5160 5159 373 0
-5160 -5159 -373 0
5160 -5159 373 0
5160 5159 -373 0
-5161 5160 375 0
-5161 -5160 -375 0
5161 -5160 375 0
5161 5160 -375 0
-232 -5161 0
-5162 317 318 0
-5162 -317 -318 0
5162 -317 318 0
5162 317 -318 0
-5163 5162 319 0
-5163 -5162 -319 0
5163 -5162 319 0
5163 5162 -319 0
-5164 5163 320 0
-5164 -5163 -320 0
5164 -5163 320 0
5164 5163 -320 0
-5165 5164 325 0
-5165 -5164 -325 0
5165 -5164 325 0
5165 5164 -325 0
-5166 5165 327 0
-5166 -5165 -327 0
5166 -5165 327 0
5166 5165 -327 0
-5167 5166 328 0
-5167 -5166 -328 0
5167 -5166 328 0
5167 5166 -328 0
-5168 5167 330 0
-5168 -5167 -330 0
5168 -5167 330 0
5168 5167 -330 0
-233 -5168 0
-5169 332 333 0
-5169 -332 -333 0
5169 -332 333 0
5169 332 -333 0
-5170 5169 334 0
-5170 -5169 -334 0
5170 -5169 334 0
5170 5169 -334 0
-5171 5170 335 0
-5171 -5170 -335 0
5171 -5170 335 0
5171 5170 -335 0
-5172 5171 340 0
-5172 -5171 -340 0
5172 -5171 340 0
5172 5171 -340 0
-5173 5172 342 0
-5173 -5172 -342 0
5173 -5172 342 0
5173 5172 -342 0
-5174 5173 343 0
-5174 -5173 -343 0
5174 -5173 343 0
5174 5173 -343 0
-5175 5174 345 0
-5175 -5174 -345 0
5175 -5174 345 0
5175 5174 -345 0
-233 -5175 0
-5176 347 348 0
-5176 -347 -348 0
5176 -347 348 0
5176 347 -348 0
-5177 5176 349 0
-5177 -5176 -349 0
5177 -5176 349 0
5177 5176 -349 0
-5178 5177 350 0
-5178 -5177 -350 0
5178 -5177 350 0
5178 5177 -350 0
-5179 5178 355 0
-5179 -5178 -355 0
5179 -5178 355 0
5179 5178 -355 0
-5180 5179 357 0
-5180 -5179 -357 0
5180 -5179 357 0
5180 5179 -357 0
-5181 5180 358 0
-5181 -5180 -358 0
5181 -5180 358 0
5181 5180 -358 0
-5182 5181 360 0
-5182 -5181 -360 0
5182 -5181 360 0
5182 5181 -360 0
-233 -5182 0
-5183 362 363 0
-5183 -362 -363 0
5183 -362 363 0
5183 362 -363 0
-5184 5183 364 0
-5184 -5183 -364 0
5184 -5183 364 0
5184 5183 -364 0
-5185 5184 365 0
-5185 -5184 -365 0
5185 -5184 365 0
5185 5184 -365 0
-5186 5185 370 0
-5186 -5185 -370 0
5186 -5185 370 0
5186 5185 -370 0
-5187 5186 372 0
-5187 -5186 -372 0
5187 -5186 372 0
5187 5186 -372 0
-5188 5187 373 0
-5188 -5187 -373 0
5188 -5187 373 0
5188 5187 -373 0
-5189 5188 375 0
-5189 -5188 -375 0
5189 -5188 375 0
5189 5188 -375 0
-233 -5189 0
-5190 317 318 0
-5190 -317 -318 0
5190 -317 318 0
5190 317 -318 0
-5191 5190 320 0
-5191 -5190 -320 0
5191 -5190 320 0
5191 5190 -320 0
-5192 5191 325 0
-5192 -5191 -325 0
5192 -5191 325 0
5192 5191 -325 0
-5193 5192 326 0
-5193 -5192 -326 0
5193 -5192 326 0
5193 5192 -326 0
-5194 5193 327 0
-5194 -5193 -327 0
5194 -5193 327 0
5194 5193 -327 0
-5195 5194 328 0
-5195 -5194 -328 0
5195 -5194 328 0
5195 5194 -328 0
-5196 5195 330 0
-5196 -5195 -330 0
5196 -5195 330 0
5196 5195 -330 0
-234 -5196 0
-5197 332 333 0
-5197 -332 -333 0
5197 -332 333 0
5197 332 -333 0
-5198 5197 335 0
-5198 -5197 -335 0
5198 -5197 335 0
5198 5197 -335 0
-5199 5198 340 0
-5199 -5198 -340 0
5199 -5198 340 0
5199 5198 -340 0
-5200 5199 341 0
-5200 -5199 -341 0
5200 -5199 341 0
5200 5199 -341 0
-5201 5200 342 0
-5201 -5200 -342 0
5201 -5200 342 0
5201 5200 -342 0
-5202 5201 343 0
-5202 -5201 -343 0
5202 -5201 343 0
5202 5201 -343 0
-5203 5202 345 0
-5203 -5202 -345 0
5203 -5202 345 0
5203 5202 -345 0
-234 -5203 0
-5204 347 348 0
-5204 -347 -348 0
5204 -347 348 0
5204 347 -348 0
-5205 5204 350 0
-5205 -5204 -350 0
5205 -5204 350 0
5205 5204 -350 0
-5206 5205 355 0
-5206 -5205 -355 0
5206 -5205 355 0
5206 5205 -355 0
-5207 5206 356 0
-5207 -5206 -356 0
5207 -5206 356 0
5207 5206 -356 0
-5208 5207 357 0
-5208 -5207 -357 0
5208 -5207 357 0
5208 5207 -357 0
-5209 5208 358 0
-5209 -5208 -358 0
5209 -5208 358 0
5209 5208 -358 0
-5210 5209 360 0
-5210 -5209 -360 0
5210 -5209 360 0
5210 5209 -360 0
-234 -5210 0
-5211 362 363 0
-5211 -362 -363 0
5211 -362 363 0
5211 362 -363 0
-5212 5211 365 0
-5212 -5211 -365 0
5212 -5211 365 0
5212 5211 -365 0
-5213 5212 370 0
-5213 -5212 -370 0
5213 -5212 370 0
5213 5212 -370 0
-5214 5213 371 0
-5214 -5213 -371 0
5214 -5213 371 0
5214 5213 -371 0
-5215 5214 372 0
-5215 -5214 -372 0
5215 -5214 372 0
5215 5214 -372 0
-5216 5215 373 0
-5216 -5215 -373 0
5216 -5215 373 0
5216 5215 -373 0
-5217 5216 375 0
-5217 -5216 -375 0
5217 -5216 375 0
5217 5216 -375 0
-234 -5217 0
-5218 318 319 0
-5218 -318 -319 0
5218 -318 319 0
5218 318 -319 0
-5219 5218 320 0
-5219 -5218 -320 0
5219 -5218 320 0
5219 5218 -320 0
-5220 5219 325 0
-5220 -5219 -325 0
5220 -5219 325 0
5220 5219 -325 0
-5221 5220 326 0
-5221 -5220 -326 0
5221 -5220 326 0
5221 5220 -326 0
-5222 5221 327 0
-5222 -5221 -327 0
5222 -5221 327 0
5222 5221 -327 0
-5223 5222 328 0
-5223 -5222 -328 0
5223 -5222 328 0
5223 5222 -328 0
-5224 5223 330 0
-5224 -5223 -330 0
5224 -5223 330 0
5224 5223 -330 0
-235 -5224 0
-5225 333 334 0
-5225 -333 -334 0
5225 -333 334 0
5225 333 -334 0
-5226 5225 335 0
-5226 -5225 -335 0
5226 -5225 335 0
5226 5225 -335 0
-5227 5226 340 0
-5227 -5226 -340 0
5227 -5226 340 0
5227 5226 -340 0
-5228 5227 341 0
-5228 -5227 -341 0
5228 -5227 341 0
5228 5227 -341 0
-5229 5228 342 0
-5229 -5228 -342 0
5229 -5228 342 0
5229 5228 -342 0
-5230 5229 343 0
-5230 -5229 -343 0
5230 -5229 343 0
5230 5229 -343 0
-5231 5230 345 0
-5231 -5230 -345 0
5231 -5230 345 0
5231 5230 -345 0
-235 -5231 0
-5232 348 349 0
-5232 -348 -349 0
5232 -348 349 0
5232 348 -349 0
-5233 5232 350 0
-5233 -5232 -350 0
5233 -5232 350 0
5233 5232 -350 0
-5234 5233 355 0
-5234 -5233 -355 0
5234 -5233 355 0
5234 5233 -355 0
-5235 5234 356 0
-5235 -5234 -356 0
5235 -5234 356 0
5235 5234 -356 0
-5236 5235 357 0
-5236 -5235 -357 0
5236 -5235 357 0
5236 5235 -357 0
-5237 5236 358 0
-5237 -5236 -358 0
5237 -5236 358 0
5237 5236 -358 0
-5238 5237 360 0
-5238 -5237 -360 0
5238 -5237 360 0
5238 5237 -360 0
-235 -5238 0
-5239 363 364 0
-5239 -363 -364 0
5239 -363 364 0
5239 363 -364 0
-5240 5239 365 0
-5240 -5239 -365 0
5240 -5239 365 0
5240 5239 -365 0
-5241 5240 370 0
-5241 -5240 -370 0
5241 -5240 370 0
5241 5240 -370 0
-5242 5241 371 0
-5242 -5241 -371 0
5242 -5241 371 0
5242 5241 -371 0
-5243 5242 372 0
-5243 -5242 -372 0
5243 -5242 372 0
5243 5242 -372 0
-5244 5243 373 0
-5244 -5243 -373 0
5244 -5243 373 0
5244 5243 -373 0
-5245 5244 375 0
-5245 -5244 -375 0
5245 -5244 375 0
5245 5244 -375 0
-235 -5245 0
-5246 316 317 0
-5246 -316 -317 0
5246 -316 317 0
5246 316 -317 0
-5247 5246 319 0
-5247 -5246 -319 0
5247 -5246 319 0
5247 5246 -319 0
-5248 5247 324 0
-5248 -5247 -324 0
5248 -5247 324 0
5248 5247 -324 0
-5249 5248 327 0
-5249 -5248 -327 0
5249 -5248 327 0
5249 5248 -327 0
-5250 5249 330 0
-5250 -5249 -330 0
5250 -5249 330 0
5250 5249 -330 0
-236 -5250 0
-5251 331 332 0
-5251 -331 -332 0
5251 -331 332 0
5251 331 -332 0
-5252 5251 334 0
-5252 -5251 -334 0
5252 -5251 334 0
5252 5251 -334 0
-5253 5252 339 0
-5253 -5252 -339 0
5253 -5252 339 0
5253 5252 -339 0
-5254 5253 342 0
-5254 -5253 -342 0
5254 -5253 342 0
5254 5253 -342 0
-5255 5254 345 0
-5255 -5254 -345 0
5255 -5254 345 0
5255 5254 -345 0
-236 -5255 0
-5256 346 347 0
-5256 -346 -347 0
5256 -346 347 0
5256 346 -347 0
-5257 5256 349 0
-5257 -5256 -349 0
5257 -5256 349 0
5257 5256 -349 0
-5258 5257 354 0
-5258 -5257 -354 0
5258 -5257 354 0
5258 5257 -354 0
-5259 5258 357 0
-5259 -5258 -357 0
5259 -5258 357 0
5259 5258 -357 0
-5260 5259 360 0
-5260 -5259 -360 0
5260 -5259 360 0
5260 5259 -360 0
-236 -5260 0
-5261 361 362 0
-5261 -361 -362 0
5261 -361 362 0
5261 361 -362 0
-5262 5261 364 0
-5262 -5261 -364 0
5262 -5261 364 0
5262 5261 -364 0
-5263 5262 369 0
-5263 -5262 -369 0
5263 -5262 369 0
5263 5262 -369 0
-5264 5263 372 0
-5264 -5263 -372 0
5264 -5263 372 0
5264 5263 -372 0
-5265 5264 375 0
-5265 -5264 -375 0
5265 -5264 375 0
5265 5264 -375 0
-236 -5265 0
-5266 316 317 0
-5266 -316 -317 0
5266 -316 317 0
5266 316 -317 0
-5267 5266 319 0
-5267 -5266 -319 0
5267 -5266 319 0
5267 5266 -319 0
-5268 5267 321 0
-5268 -5267 -321 0
5268 -5267 321 0
5268 5267 -321 0
-5269 5268 323 0
-5269 -5268 -323 0
5269 -5268 323 0
5269 5268 -323 0
-5270 5269 324 0
-5270 -5269 -324 0
5270 -5269 324 0
5270 5269 -324 0
-5271 5270 327 0
-5271 -5270 -327 0
5271 -5270 327 0
5271 5270 -327 0
-5272 5271 330 0
-5272 -5271 -330 0
5272 -5271 330 0
5272 5271 -330 0
-237 -5272 0
-5273 331 332 0
-5273 -331 -332 0
5273 -331 332 0
5273 331 -332 0
-5274 5273 334 0
-5274 -5273 -334 0
5274 -5273 334 0
5274 5273 -334 0
-5275 5274 336 0
-5275 -5274 -336 0
5275 -5274 336 0
5275 5274 -336 0
-5276 5275 338 0
-5276 -5275 -338 0
5276 -5275 338 0
5276 5275 -338 0
-5277 5276 339 0
-5277 -5276 -339 0
5277 -5276 339 0
5277 5276 -339 0
-5278 5277 342 0
-5278 -5277 -342 0
5278 -5277 342 0
5278 5277 -342 0
-5279 5278 345 0
-5279 -5278 -345 0
5279 -5278 345 0
5279 5278 -345 0
-237 -5279 0
-5280 346 347 0
-5280 -346 -347 0
5280 -346 347 0
5280 346 -347 0
-5281 5280 349 0
-5281 -5280 -349 0
5281 -5280 349 0
5281 5280 -349 0
-5282 5281 351 0
-5282 -5281 -351 0
5282 -5281 351 0
5282 5281 -351 0
-5283 5282 353 0
-5283 -5282 -353 0
5283 -5282 353 0
5283 5282 -353 0
-5284 5283 354 0
-5284 -5283 -354 0
5284 -5283 354 0
5284 5283 -354 0
-5285 5284 357 0
-5285 -5284 -357 0
5285 -5284 357 0
5285 5284 -357 0
-5286 5285 360 0
-5286 -5285 -360 0
5286 -5285 360 0
5286 5285 -360 0
-237 -5286 0
-5287 361 362 0
-5287 -361 -362 0
5287 -361 362 0
5287 361 -362 0
-5288 5287 364 0
-5288 -5287 -364 0
5288 -5287 364 0
5288 5287 -364 0
-5289 5288 366 0
-5289 -5288 -366 0
5289 -5288 366 0
5289 5288 -366 0
-5290 5289 368 0
-5290 -5289 -368 0
5290 -5289 368 0
5290 5289 -368 0
-5291 5290 369 0
-5291 -5290 -369 0
5291 -5290 369 0
5291 5290 -369 0
-5292 5291 372 0
-5292 -5291 -372 0
5292 -5291 372 0
5292 5291 -372 0
-5293 5292 375 0
-5293 -5292 -375 0
5293 -5292 375 0
5293 5292 -375 0
-237 -5293 0
-5294 316 317 0
-5294 -316 -317 0
5294 -316 317 0
5294 316 -317 0
-5295 5294 319 0
-5295 -5294 -319 0
5295 -5294 319 0
5295 5294 -319 0
-5296 5295 321 0
-5296 -5295 -321 0
5296 -5295 321 0
5296 5295 -321 0
-5297 5296 324 0
-5297 -5296 -324 0
5297 -5296 324 0
5297 5296 -324 0
-5298 5297 326 0
-5298 -5297 -326 0
5298 -5297 326 0
5298 5297 -326 0
-5299 5298 327 0
-5299 -5298 -327 0
5299 -5298 327 0
5299 5298 -327 0
-5300 5299 330 0
-5300 -5299 -330 0
5300 -5299 330 0
5300 5299 -330 0
-238 -5300 0
-5301 331 332 0
-5301 -331 -332 0
5301 -331 332 0
5301 331 -332 0
-5302 5301 334 0
-5302 -5301 -334 0
5302 -5301 334 0
5302 5301 -334 0
-5303 5302 336 0
-5303 -5302 -336 0
5303 -5302 336 0
5303 5302 -336 0
-5304 5303 339 0
-5304 -5303 -339 0
5304 -5303 339 0
5304 5303 -339 0
-5305 5304 341 0
-5305 -5304 -341 0
5305 -5304 341 0
5305 5304 -341 0
-5306 5305 342 0
-5306 -5305 -342 0
5306 -5305 342 0
5306 5305 -342 0
-5307 5306 345 0
-5307 -5306 -345 0
5307 -5306 345 0
5307 5306 -345 0
-238 -5307 0
-5308 346 347 0
-5308 -346 -347 0
5308 -346 347 0
5308 346 -347 0
-5309 5308 349 0
-5309 -5308 -349 0
5309 -5308 349 0
5309 5308 -349 0
-5310 5309 351 0
-5310 -5309 -351 0
5310 -5309 351 0
5310 5309 -351 0
-5311 5310 354 0
-5311 -5310 -354 0
5311 -5310 354 0
5311 5310 -354 0
-5312 5311 356 0
-5312 -5311 -356 0
5312 -5311 356 0
5312 5311 -356 0
-5313 5312 357 0
-5313 -5312 -357 0
5313 -5312 357 0
5313 5312 -357 0
-5314 5313 360 0
-5314 -5313 -360 0
5314 -5313 360 0
5314 5313 -360 0
-238 -5314 0
-5315 361 362 0
-5315 -361 -362 0
5315 -361 362 0
5315 361 -362 0
-5316 5315 364 0
-5316 -5315 -364 0
5316 -5315 364 0
5316 5315 -364 0
-5317 5316 366 0
-5317 -5316 -366 0
5317 -5316 366 0
5317 5316 -366 0
-5318 5317 369 0
-5318 -5317 -369 0
5318 -5317 369 0
5318 5317 -369 0
-5319 5318 371 0
-5319 -5318 -371 0
5319 -5318 371 0
5319 5318 -371 0
-5320 5319 372 0
-5320 -5319 -372 0
5320 -5319 372 0
5320 5319 -372 0
-5321 5320 375 0
-5321 -5320 -375 0
5321 -5320 375 0
5321 5320 -375 0
-238 -5321 0
-5322 316 317 0
-5322 -316 -317 0
5322 -316 317 0
5322 316 -317 0
-5323 5322 319 0
-5323 -5322 -319 0
5323 -5322 319 0
5323 5322 -319 0
-5324 5323 323 0
-5324 -5323 -323 0
5324 -5323 323 0
5324 5323 -323 0
-5325 5324 324 0
-5325 -5324 -324 0
5325 -5324 324 0
5325 5324 -324 0
-5326 5325 326 0
-5326 -5325 -326 0
5326 -5325 326 0
5326 5325 -326 0
-5327 5326 327 0
-5327 -5326 -327 0
5327 -5326 327 0
5327 5326 -327 0
-5328 5327 330 0
-5328 -5327 -330 0
5328 -5327 330 0
5328 5327 -330 0
-239 -5328 0
-5329 331 332 0
-5329 -331 -332 0
5329 -331 332 0
5329 331 -332 0
-5330 5329 334 0
-5330 -5329 -334 0
5330 -5329 334 0
5330 5329 -334 0
-5331 5330 338 0
-5331 -5330 -338 0
5331 -5330 338 0
5331 5330 -338 0
-5332 5331 339 0
-5332 -5331 -339 0
5332 -5331 339 0
5332 5331 -339 0
-5333 5332 341 0
-5333 -5332 -341 0
5333 -5332 341 0
5333 5332 -341 0
-5334 5333 342 0
-5334 -5333 -342 0
5334 -5333 342 0
5334 5333 -342 0
-5335 5334 345 0
-5335 -5334 -345 0
5335 -5334 345 0
5335 5334 -345 0
-239 -5335 0
-5336 346 347 0
-5336 -346 -347 0
5336 -346 347 0
5336 346 -347 0
-5337 5336 349 0
-5337 -5336 -349 0
5337 -5336 349 0
5337 5336 -349 0
-5338 5337 353 0
-5338 -5337 -353 0
5338 -5337 353 0
5338 5337 -353 0
-5339 5338 354 0
-5339 -5338 -354 0
5339 -5338 354 0
5339 5338 -354 0
-5340 5339 356 0
-5340 -5339 -356 0
5340 -5339 356 0
5340 5339 -356 0
-5341 5340 357 0
-5341 -5340 -357 0
5341 -5340 357 0
5341 5340 -357 0
-5342 5341 360 0
-5342 -5341 -360 0
5342 -5341 360 0
5342 5341 -360 0
-239 -5342 0
-5343 361 362 0
-5343 -361 -362 0
5343 -361 362 0
5343 361 -362 0
-5344 5343 364 0
-5344 -5343 -364 0
5344 -5343 364 0
5344 5343 -364 0
-5345 5344 368 0
-5345 -5344 -368 0
5345 -5344 368 0
5345 5344 -368 0
-5346 5345 369 0
-5346 -5345 -369 0
5346 -5345 369 0
5346 5345 -369 0
-5347 5346 371 0
-5347 -5346 -371 0
5347 -5346 371 0
5347 5346 -371 0
-5348 5347 372 0
-5348 -5347 -372 0
5348 -5347 372 0
5348 5347 -372 0
-5349 5348 375 0
-5349 -5348 -375 0
5349 -5348 375 0
5349 5348 -375 0
-239 -5349 0
-5350 322 324 0
-5350 -322 -324 0
5350 -322 324 0
5350 322 -324 0
-5351 5350 325 0
-5351 -5350 -325 0
5351 -5350 325 0
5351 5350 -325 0
-5352 5351 327 0
-5352 -5351 -327 0
5352 -5351 327 0
5352 5351 -327 0
-5353 5352 328 0
-5353 -5352 -328 0
5353 -5352 328 0
5353 5352 -328 0
-5354 5353 330 0
-5354 -5353 -330 0
5354 -5353 330 0
5354 5353 -330 0
-240 -5354 0
-5355 337 339 0
-5355 -337 -339 0
5355 -337 339 0
5355 337 -339 0
-5356 5355 340 0
-5356 -5355 -340 0
5356 -5355 340 0
5356 5355 -340 0
-5357 5356 342 0
-5357 -5356 -342 0
5357 -5356 342 0
5357 5356 -342 0
-5358 5357 343 0
-5358 -5357 -343 0
5358 -5357 343 0
5358 5357 -343 0
-5359 5358 345 0
-5359 -5358 -345 0
5359 -5358 345 0
5359 5358 -345 0
-240 -5359 0
-5360 352 354 0
-5360 -352 -354 0
5360 -352 354 0
5360 352 -354 0
-5361 5360 355 0
-5361 -5360 -355 0
5361 -5360 355 0
5361 5360 -355 0
-5362 5361 357 0
-5362 -5361 -357 0
5362 -5361 357 0
5362 5361 -357 0
-5363 5362 358 0
-5363 -5362 -358 0
5363 -5362 358 0
5363 5362 -358 0
-5364 5363 360 0
-5364 -5363 -360 0
5364 -5363 360 0
5364 5363 -360 0
-240 -5364 0
-5365 367 369 0
-5365 -367 -369 0
5365 -367 369 0
5365 367 -369 0
-5366 5365 370 0
-5366 -5365 -370 0
5366 -5365 370 0
5366 5365 -370 0
-5367 5366 372 0
-5367 -5366 -372 0
5367 -5366 372 0
5367 5366 -372 0
-5368 5367 373 0
-5368 -5367 -373 0
5368 -5367 373 0
5368 5367 -373 0
-5369 5368 375 0
-5369 -5368 -375 0
5369 -5368 375 0
5369 5368 -375 0
-240 -5369 0
-5370 321 322 0
-5370 -321 -322 0
5370 -321 322 0
5370 321 -322 0
-5371 5370 323 0
-5371 -5370 -323 0
5371 -5370 323 0
5371 5370 -323 0
-5372 5371 324 0
-5372 -5371 -324 0
5372 -5371 324 0
5372 5371 -324 0
-5373 5372 325 0
-5373 -5372 -325 0
5373 -5372 325 0
5373 5372 -325 0
-5374 5373 327 0
-5374 -5373 -327 0
5374 -5373 327 0
5374 5373 -327 0
-5375 5374 328 0
-5375 -5374 -328 0
5375 -5374 328 0
5375 5374 -328 0
-5376 5375 330 0
-5376 -5375 -330 0
5376 -5375 330 0
5376 5375 -330 0
-241 -5376 0
-5377 336 337 0
-5377 -336 -337 0
5377 -336 337 0
5377 336 -337 0
-5378 5377 338 0
-5378 -5377 -338 0
5378 -5377 338 0
5378 5377 -338 0
-5379 5378 339 0
-5379 -5378 -339 0
5379 -5378 339 0
5379 5378 -339 0
-5380 5379 340 0
-5380 -5379 -340 0
5380 -5379 340 0
5380 5379 -340 0
-5381 5380 342 0
-5381 -5380 -342 0
5381 -5380 342 0
5381 5380 -342 0
-5382 5381 343 0
-5382 -5381 -343 0
5382 -5381 343 0
5382 5381 -343 0
-5383 5382 345 0
-5383 -5382 -345 0
5383 -5382 345 0
5383 5382 -345 0
-241 -5383 0
-5384 351 352 0
-5384 -351 -352 0
5384 -351 352 0
5384 351 -352 0
-5385 5384 353 0
-5385 -5384 -353 0
5385 -5384 353 0
5385 5384 -353 0
-5386 5385 354 0
-5386 -5385 -354 0
5386 -5385 354 0
5386 5385 -354 0
-5387 5386 355 0
-5387 -5386 -355 0
5387 -5386 355 0
5387 5386 -355 0
-5388 5387 357 0
-5388 -5387 -357 0
5388 -5387 357 0
5388 5387 -357 0
-5389 5388 358 0
-5389 -5388 -358 0
5389 -5388 358 0
5389 5388 -358 0
-5390 5389 360 0
-5390 -5389 -360 0
5390 -5389 360 0
5390 5389 -360 0
-241 -5390 0
-5391 366 367 0
-5391 -366 -367 0
5391 -366 367 0
5391 366 -367 0
-5392 5391 368 0
-5392 -5391 -368 0
5392 -5391 368 0
5392 5391 -368 0
-5393 5392 369 0
-5393 -5392 -369 0
5393 -5392 369 0
5393 5392 -369 0
-5394 5393 370 0
-5394 -5393 -370 0
5394 -5393 370 0
5394 5393 -370 0
-5395 5394 372 0
-5395 -5394 -372 0
5395 -5394 372 0
5395 5394 -372 0
-5396 5395 373 0
-5396 -5395 -373 0
5396 -5395 373 0
5396 5395 -373 0
-5397 5396 375 0
-5397 -5396 -375 0
5397 -5396 375 0
5397 5396 -375 0
-241 -5397 0
-5398 321 322 0
-5398 -321 -322 0
5398 -321 322 0
5398 321 -322 0
-5399 5398 324 0
-5399 -5398 -324 0
5399 -5398 324 0
5399 5398 -324 0
-5400 5399 325 0
-5400 -5399 -325 0
5400 -5399 325 0
5400 5399 -325 0
-5401 5400 326 0
-5401 -5400 -326 0
5401 -5400 326 0
5401 5400 -326 0
-5402 5401 327 0
-5402 -5401 -327 0
5402 -5401 327 0
5402 5401 -327 0
-5403 5402 328 0
-5403 -5402 -328 0
5403 -5402 328 0
5403 5402 -328 0
-5404 5403 330 0
-5404 -5403 -330 0
5404 -5403 330 0
5404 5403 -330 0
-242 -5404 0
-5405 336 337 0
-5405 -336 -337 0
5405 -336 337 0
5405 336 -337 0
-5406 5405 339 0
-5406 -5405 -339 0
5406 -5405 339 0
5406 5405 -339 0
-5407 5406 340 0
-5407 -5406 -340 0
5407 -5406 340 0
5407 5406 -340 0
-5408 5407 341 0
-5408 -5407 -341 0
5408 -5407 341 0
5408 5407 -341 0
-5409 5408 342 0
-5409 -5408 -342 0
5409 -5408 342 0
5409 5408 -342 0
-5410 5409 343 0
-5410 -5409 -343 0
5410 -5409 343 0
5410 5409 -343 0
-5411 5410 345 0
-5411 -5410 -345 0
5411 -5410 345 0
5411 5410 -345 0
-242 -5411 0
-5412 351 352 0
-5412 -351 -352 0
5412 -351 352 0
5412 351 -352 0
-5413 5412 354 0
-5413 -5412 -354 0
5413 -5412 354 0
5413 5412 -354 0
-5414 5413 355 0
-5414 -5413 -355 0
5414 -5413 355 0
5414 5413 -355 0
-5415 5414 356 0
-5415 -5414 -356 0
5415 -5414 356 0
5415 5414 -356 0
-5416 5415 357 0
-5416 -5415 -357 0
5416 -5415 357 0
5416 5415 -357 0
-5417 5416 358 0
-5417 -5416 -358 0
5417 -5416 358 0
5417 5416 -358 0
-5418 5417 360 0
-5418 -5417 -360 0
5418 -5417 360 0
5418 5417 -360 0
-242 -5418 0
-5419 366 367 0
-5419 -366 -367 0
5419 -366 367 0
5419 366 -367 0
-5420 5419 369 0
-5420 -5419 -369 0
5420 -5419 369 0
5420 5419 -369 0
-5421 5420 370 0
-5421 -5420 -370 0
5421 -5420 370 0
5421 5420 -370 0
-5422 5421 371 0
-5422 -5421 -371 0
5422 -5421 371 0
5422 5421 -371 0
-5423 5422 372 0
-5423 -5422 -372 0
5423 -5422 372 0
5423 5422 -372 0
-5424 5423 373 0
-5424 -5423 -373 0
5424 -5423 373 0
5424 5423 -373 0
-5425 5424 375 0
-5425 -5424 -375 0
5425 -5424 375 0
5425 5424 -375 0
-242 -5425 0
-5426 322 323 0
-5426 -322 -323 0
5426 -322 323 0
5426 322 -323 0
-5427 5426 324 0
-5427 -5426 -324 0
5427 -5426 324 0
5427 5426 -324 0
-5428 5427 325 0
-5428 -5427 -325 0
5428 -5427 325 0
5428 5427 -325 0
-5429 5428 326 0
-5429 -5428 -326 0
5429 -5428 326 0
5429 5428 -326 0
-5430 5429 327 0
-5430 -5429 -327 0
5430 -5429 327 0
5430 5429 -327 0
-5431 5430 328 0
-5431 -5430 -328 0
5431 -5430 328 0
5431 5430 -328 0
-5432 5431 330 0
-5432 -5431 -330 0
5432 -5431 330 0
5432 5431 -330 0
-243 -5432 0
-5433 337 338 0
-5433 -337 -338 0
5433 -337 338 0
5433 337 -338 0
-5434 5433 339 0
-5434 -5433 -339 0
5434 -5433 339 0
5434 5433 -339 0
-5435 5434 340 0
-5435 -5434 -340 0
5435 -5434 340 0
5435 5434 -340 0
-5436 5435 341 0
-5436 -5435 -341 0
5436 -5435 341 0
5436 5435 -341 0
-5437 5436 342 0
-5437 -5436 -342 0
5437 -5436 342 0
5437 5436 -342 0
-5438 5437 343 0
-5438 -5437 -343 0
5438 -5437 343 0
5438 5437 -343 0
-5439 5438 345 0
-5439 -5438 -345 0
5439 -5438 345 0
5439 5438 -345 0
-243 -5439 0
-5440 352 353 0
-5440 -352 -353 0
5440 -352 353 0
5440 352 -353 0
-5441 5440 354 0
-5441 -5440 -354 0
5441 -5440 354 0
5441 5440 -354 0
-5442 5441 355 0
-5442 -5441 -355 0
5442 -5441 355 0
5442 5441 -355 0
-5443 5442 356 0
-5443 -5442 -356 0
5443 -5442 356 0
5443 5442 -356 0
-5444 5443 357 0
-5444 -5443 -357 0
5444 -5443 357 0
5444 5443 -357 0
-5445 5444 358 0
-5445 -5444 -358 0
5445 -5444 358 0
5445 5444 -358 0
-5446 5445 360 0
-5446 -5445 -360 0
5446 -5445 360 0
5446 5445 -360 0
-243 -5446 0
-5447 367 368 0
-5447 -367 -368 0
5447 -367 368 0
5447 367 -368 0
-5448 5447 369 0
-5448 -5447 -369 0
5448 -5447 369 0
5448 5447 -369 0
-5449 5448 370 0
-5449 -5448 -370 0
5449 -5448 370 0
5449 5448 -370 0
-5450 5449 371 0
-5450 -5449 -371 0
5450 -5449 371 0
5450 5449 -371 0
-5451 5450 372 0
-5451 -5450 -372 0
5451 -5450 372 0
5451 5450 -372 0
-5452 5451 373 0
-5452 -5451 -373 0
5452 -5451 373 0
5452 5451 -373 0
-5453 5452 375 0
-5453 -5452 -375 0
5453 -5452 375 0
5453 5452 -375 0
-243 -5453 0
-5454 316 317 0
-5454 -316 -317 0
5454 -316 317 0
5454 316 -317 0
-5455 5454 319 0
-5455 -5454 -319 0
5455 -5454 319 0
5455 5454 -319 0
-5456 5455 320 0
-5456 -5455 -320 0
5456 -5455 320 0
5456 5455 -320 0
-5457 5456 324 0
-5457 -5456 -324 0
5457 -5456 324 0
5457 5456 -324 0
-5458 5457 327 0
-5458 -5457 -327 0
5458 -5457 327 0
5458 5457 -327 0
-5459 5458 330 0
-5459 -5458 -330 0
5459 -5458 330 0
5459 5458 -330 0
-244 -5459 0
-5460 331 332 0
-5460 -331 -332 0
5460 -331 332 0
5460 331 -332 0
-5461 5460 334 0
-5461 -5460 -334 0
5461 -5460 334 0
5461 5460 -334 0
-5462 5461 335 0
-5462 -5461 -335 0
5462 -5461 335 0
5462 5461 -335 0
-5463 5462 339 0
-5463 -5462 -339 0
5463 -5462 339 0
5463 5462 -339 0
-5464 5463 342 0
-5464 -5463 -342 0
5464 -5463 342 0
5464 5463 -342 0
-5465 5464 345 0
-5465 -5464 -345 0
5465 -5464 345 0
5465 5464 -345 0
-244 -5465 0
-5466 346 347 0
-5466 -346 -347 0
5466 -346 347 0
5466 346 -347 0
-5467 5466 349 0
-5467 -5466 -349 0
5467 -5466 349 0
5467 5466 -349 0
-5468 5467 350 0
-5468 -5467 -350 0
5468 -5467 350 0
5468 5467 -350 0
-5469 5468 354 0
-5469 -5468 -354 0
5469 -5468 354 0
5469 5468 -354 0
-5470 5469 357 0
-5470 -5469 -357 0
5470 -5469 357 0
5470 5469 -357 0
-5471 5470 360 0
-5471 -5470 -360 0
5471 -5470 360 0
5471 5470 -360 0
-244 -5471 0
-5472 361 362 0
-5472 -361 -362 0
5472 -361 362 0
5472 361 -362 0
-5473 5472 364 0
-5473 -5472 -364 0
5473 -5472 364 0
5473 5472 -364 0
-5474 5473 365 0
-5474 -5473 -365 0
5474 -5473 365 0
5474 5473 -365 0
-5475 5474 369 0
-5475 -5474 -369 0
5475 -5474 369 0
5475 5474 -369 0
-5476 5475 372 0
-5476 -5475 -372 0
5476 -5475 372 0
5476 5475 -372 0
-5477 5476 375 0
-5477 -5476 -375 0
5477 -5476 375 0
5477 5476 -375 0
-244 -5477 0
-5478 316 320 0
-5478 -316 -320 0
5478 -316 320 0
5478 316 -320 0
-5479 5478 321 0
-5479 -5478 -321 0
5479 -5478 321 0
5479 5478 -321 0
-5480 5479 323 0
-5480 -5479 -323 0
5480 -5479 323 0
5480 5479 -323 0
-5481 5480 324 0
-5481 -5480 -324 0
5481 -5480 324 0
5481 5480 -324 0
-5482 5481 327 0
-5482 -5481 -327 0
5482 -5481 327 0
5482 5481 -327 0
-5483 5482 330 0
-5483 -5482 -330 0
5483 -5482 330 0
5483 5482 -330 0
-245 -5483 0
-5484 331 335 0
-5484 -331 -335 0
5484 -331 335 0
5484 331 -335 0
-5485 5484 336 0
-5485 -5484 -336 0
5485 -5484 336 0
5485 5484 -336 0
-5486 5485 338 0
-5486 -5485 -338 0
5486 -5485 338 0
5486 5485 -338 0
-5487 5486 339 0
-5487 -5486 -339 0
5487 -5486 339 0
5487 5486 -339 0
-5488 5487 342 0
-5488 -5487 -342 0
5488 -5487 342 0
5488 5487 -342 0
-5489 5488 345 0
-5489 -5488 -345 0
5489 -5488 345 0
5489 5488 -345 0
-245 -5489 0
-5490 346 350 0
-5490 -346 -350 0
5490 -346 350 0
5490 346 -350 0
-5491 5490 351 0
-5491 -5490 -351 0
5491 -5490 351 0
5491 5490 -351 0
-5492 5491 353 0
-5492 -5491 -353 0
5492 -5491 353 0
5492 5491 -353 0
-5493 5492 354 0
-5493 -5492 -354 0
5493 -5492 354 0
5493 5492 -354 0
-5494 5493 357 0
-5494 -5493 -357 0
5494 -5493 357 0
5494 5493 -357 0
-5495 5494 360 0
-5495 -5494 -360 0
5495 -5494 360 0
5495 5494 -360 0
-245 -5495 0
-5496 361 365 0
-5496 -361 -365 0
5496 -361 365 0
5496 361 -365 0
-5497 5496 366 0
-5497 -5496 -366 0
5497 -5496 366 0
5497 5496 -366 0
-5498 5497 368 0
-5498 -5497 -368 0
5498 -5497 368 0
5498 5497 -368 0
-5499 5498 369 0
-5499 -5498 -369 0
5499 -5498 369 0
5499 5498 -369 0
-5500 5499 372 0
-5500 -5499 -372 0
5500 -5499 372 0
5500 5499 -372 0
-5501 5500 375 0
-5501 -5500 -375 0
5501 -5500 375 0
5501 5500 -375 0
-245 -5501 0
-5502 316 319 0
-5502 -316 -319 0
5502 -316 319 0
5502 316 -319 0
-5503 5502 320 0
-5503 -5502 -320 0
5503 -5502 320 0
5503 5502 -320 0
-5504 5503 321 0
-5504 -5503 -321 0
5504 -5503 321 0
5504 5503 -321 0
-5505 5504 324 0
-5505 -5504 -324 0
5505 -5504 324 0
5505 5504 -324 0
-5506 5505 326 0
-5506 -5505 -326 0
5506 -5505 326 0
5506 5505 -326 0
-5507 5506 327 0
-5507 -5506 -327 0
5507 -5506 327 0
5507 5506 -327 0
-5508 5507 330 0
-5508 -5507 -330 0
5508 -5507 330 0
5508 5507 -330 0
-246 -5508 0
-5509 331 334 0
-5509 -331 -334 0
5509 -331 334 0
5509 331 -334 0
-5510 5509 335 0
-5510 -5509 -335 0
5510 -5509 335 0
5510 5509 -335 0
-5511 5510 336 0
-5511 -5510 -336 0
5511 -5510 336 0
5511 5510 -336 0
-5512 5511 339 0
-5512 -5511 -339 0
5512 -5511 339 0
5512 5511 -339 0
-5513 5512 341 0
-5513 -5512 -341 0
5513 -5512 341 0
5513 5512 -341 0
-5514 5513 342 0
-5514 -5513 -342 0
5514 -5513 342 0
5514 5513 -342 0
-5515 5514 345 0
-5515 -5514 -345 0
5515 -5514 345 0
5515 5514 -345 0
-246 -5515 0
-5516 346 349 0
-5516 -346 -349 0
5516 -346 349 0
5516 346 -349 0
-5517 5516 350 0
-5517 -5516 -350 0
5517 -5516 350 0
5517 5516 -350 0
-5518 5517 351 0
-5518 -5517 -351 0
5518 -5517 351 0
5518 5517 -351 0
-5519 5518 354 0
-5519 -5518 -354 0
5519 -5518 354 0
5519 5518 -354 0
-5520 5519 356 0
-5520 -5519 -356 0
5520 -5519 356 0
5520 5519 -356 0
-5521 5520 357 0
-5521 -5520 -357 0
5521 -5520 357 0
5521 5520 -357 0
-5522 5521 360 0
-5522 -5521 -360 0
5522 -5521 360 0
5522 5521 -360 0
-246 -5522 0
-5523 361 364 0
-5523 -361 -364 0
5523 -361 364 0
5523 361 -364 0
-5524 5523 365 0
-5524 -5523 -365 0
5524 -5523 365 0
5524 5523 -365 0
-5525 5524 366 0
-5525 -5524 -366 0
5525 -5524 366 0
5525 5524 -366 0
-5526 5525 369 0
-5526 -5525 -369 0
5526 -5525 369 0
5526 5525 -369 0
-5527 5526 371 0
-5527 -5526 -371 0
5527 -5526 371 0
5527 5526 -371 0
-5528 5527 372 0
-5528 -5527 -372 0
5528 -5527 372 0
5528 5527 -372 0
-5529 5528 375 0
-5529 -5528 -375 0
5529 -5528 375 0
5529 5528 -375 0
-246 -5529 0
-5530 316 317 0
-5530 -316 -317 0
5530 -316 317 0
5530 316 -317 0
-5531 5530 320 0
-5531 -5530 -320 0
5531 -5530 320 0
5531 5530 -320 0
-5532 5531 323 0
-5532 -5531 -323 0
5532 -5531 323 0
5532 5531 -323 0
-5533 5532 324 0
-5533 -5532 -324 0
5533 -5532 324 0
5533 5532 -324 0
-5534 5533 326 0
-5534 -5533 -326 0
5534 -5533 326 0
5534 5533 -326 0
-5535 5534 327 0
-5535 -5534 -327 0
5535 -5534 327 0
5535 5534 -327 0
-5536 5535 330 0
-5536 -5535 -330 0
5536 -5535 330 0
5536 5535 -330 0
-247 -5536 0
-5537 331 332 0
-5537 -331 -332 0
5537 -331 332 0
5537 331 -332 0
-5538 5537 335 0
-5538 -5537 -335 0
5538 -5537 335 0
5538 5537 -335 0
-5539 5538 338 0
-5539 -5538 -338 0
5539 -5538 338 0
5539 5538 -338 0
-5540 5539 339 0
-5540 -5539 -339 0
5540 -5539 339 0
5540 5539 -339 0
-5541 5540 341 0
-5541 -5540 -341 0
5541 -5540 341 0
5541 5540 -341 0
-5542 5541 342 0
-5542 -5541 -342 0
5542 -5541 342 0
5542 5541 -342 0
-5543 5542 345 0
-5543 -5542 -345 0
5543 -5542 345 0
5543 5542 -345 0
-247 -5543 0
-5544 346 347 0
-5544 -346 -347 0
5544 -346 347 0
5544 346 -347 0
-5545 5544 350 0
-5545 -5544 -350 0
5545 -5544 350 0
5545 5544 -350 0
-5546 5545 353 0
-5546 -5545 -353 0
5546 -5545 353 0
5546 5545 -353 0
-5547 5546 354 0
-5547 -5546 -354 0
5547 -5546 354 0
5547 5546 -354 0
-5548 5547 356 0
-5548 -5547 -356 0
5548 -5547 356 0
5548 5547 -356 0
-5549 5548 357 0
-5549 -5548 -357 0
5549 -5548 357 0
5549 5548 -357 0
-5550 5549 360 0
-5550 -5549 -360 0
5550 -5549 360 0
5550 5549 -360 0
-247 -5550 0
-5551 361 362 0
-5551 -361 -362 0
5551 -361 362 0
5551 361 -362 0
-5552 5551 365 0
-5552 -5551 -365 0
5552 -5551 365 0
5552 5551 -365 0
-5553 5552 368 0
-5553 -5552 -368 0
5553 -5552 368 0
5553 5552 -368 0
-5554 5553 369 0
-5554 -5553 -369 0
5554 -5553 369 0
5554 5553 -369 0
-5555 5554 371 0
-5555 -5554 -371 0
5555 -5554 371 0
5555 5554 -371 0
-5556 5555 372 0
-5556 -5555 -372 0
5556 -5555 372 0
5556 5555 -372 0
-5557 5556 375 0
-5557 -5556 -375 0
5557 -5556 375 0
5557 5556 -375 0
-247 -5557 0
-5558 318 320 0
-5558 -318 -320 0
5558 -318 320 0
5558 318 -320 0
-5559 5558 322 0
-5559 -5558 -322 0
5559 -5558 322 0
5559 5558 -322 0
-5560 5559 324 0
-5560 -5559 -324 0
5560 -5559 324 0
5560 5559 -324 0
-5561 5560 325 0
-5561 -5560 -325 0
5561 -5560 325 0
5561 5560 -325 0
-5562 5561 327 0
-5562 -5561 -327 0
5562 -5561 327 0
5562 5561 -327 0
-5563 5562 328 0
-5563 -5562 -328 0
5563 -5562 328 0
5563 5562 -328 0
-5564 5563 330 0
-5564 -5563 -330 0
5564 -5563 330 0
5564 5563 -330 0
-248 -5564 0
-5565 333 335 0
-5565 -333 -335 0
5565 -333 335 0
5565 333 -335 0
-5566 5565 337 0
-5566 -5565 -337 0
5566 -5565 337 0
5566 5565 -337 0
-5567 5566 339 0
-5567 -5566 -339 0
5567 -5566 339 0
5567 5566 -339 0
-5568 5567 340 0
-5568 -5567 -340 0
5568 -5567 340 0
5568 5567 -340 0
-5569 5568 342 0
-5569 -5568 -342 0
5569 -5568 342 0
5569 5568 -342 0
-5570 5569 343 0
-5570 -5569 -343 0
5570 -5569 343 0
5570 5569 -343 0
-5571 5570 345 0
-5571 -5570 -345 0
5571 -5570 345 0
5571 5570 -345 0
-248 -5571 0
-5572 348 350 0
-5572 -348 -350 0
5572 -348 350 0
5572 348 -350 0
-5573 5572 352 0
-5573 -5572 -352 0
5573 -5572 352 0
5573 5572 -352 0
-5574 5573 354 0
-5574 -5573 -354 0
5574 -5573 354 0
5574 5573 -354 0
-5575 5574 355 0
-5575 -5574 -355 0
5575 -5574 355 0
5575 5574 -355 0
-5576 5575 357 0
-5576 -5575 -357 0
5576 -5575 357 0
5576 5575 -357 0
-5577 5576 358 0
-5577 -5576 -358 0
5577 -5576 358 0
5577 5576 -358 0
-5578 5577 360 0
-5578 -5577 -360 0
5578 -5577 360 0
5578 5577 -360 0
-248 -5578 0
-5579 363 365 0
-5579 -363 -365 0
5579 -363 365 0
5579 363 -365 0
-5580 5579 367 0
-5580 -5579 -367 0
5580 -5579 367 0
5580 5579 -367 0
-5581 5580 369 0
-5581 -5580 -369 0
5581 -5580 369 0
5581 5580 -369 0
-5582 5581 370 0
-5582 -5581 -370 0
5582 -5581 370 0
5582 5581 -370 0
-5583 5582 372 0
-5583 -5582 -372 0
5583 -5582 372 0
5583 5582 -372 0
-5584 5583 373 0
-5584 -5583 -373 0
5584 -5583 373 0
5584 5583 -373 0
-5585 5584 375 0
-5585 -5584 -375 0
5585 -5584 375 0
5585 5584 -375 0
-248 -5585 0
-5586 317 318 0
-5586 -317 -318 0
5586 -317 318 0
5586 317 -318 0
-5587 5586 319 0
-5587 -5586 -319 0
5587 -5586 319 0
5587 5586 -319 0
-5588 5587 320 0
-5588 -5587 -320 0
5588 -5587 320 0
5588 5587 -320 0
-5589 5588 321 0
-5589 -5588 -321 0
5589 -5588 321 0
5589 5588 -321 0
-5590 5589 322 0
-5590 -5589 -322 0
5590 -5589 322 0
5590 5589 -322 0
-5591 5590 323 0
-5591 -5590 -323 0
5591 -5590 323 0
5591 5590 -323 0
-5592 5591 324 0
-5592 -5591 -324 0
5592 -5591 324 0
5592 5591 -324 0
-5593 5592 325 0
-5593 -5592 -325 0
5593 -5592 325 0
5593 5592 -325 0
-5594 5593 327 0
-5594 -5593 -327 0
5594 -5593 327 0
5594 5593 -327 0
-5595 5594 328 0
-5595 -5594 -328 0
5595 -5594 328 0
5595 5594 -328 0
-5596 5595 330 0
-5596 -5595 -330 0
5596 -5595 330 0
5596 5595 -330 0
-249 -5596 0
-5597 332 333 0
-5597 -332 -333 0
5597 -332 333 0
5597 332 -333 0
-5598 5597 334 0
-5598 -5597 -334 0
5598 -5597 334 0
5598 5597 -334 0
-5599 5598 335 0
-5599 -5598 -335 0
5599 -5598 335 0
5599 5598 -335 0
-5600 5599 336 0
-5600 -5599 -336 0
5600 -5599 336 0
5600 5599 -336 0
-5601 5600 337 0
-5601 -5600 -337 0
5601 -5600 337 0
5601 5600 -337 0
-5602 5601 338 0
-5602 -5601 -338 0
5602 -5601 338 0
5602 5601 -338 0
-5603 5602 339 0
-5603 -5602 -339 0
5603 -5602 339 0
5603 5602 -339 0
-5604 5603 340 0
-5604 -5603 -340 0
5604 -5603 340 0
5604 5603 -340 0
-5605 5604 342 0
-5605 -5604 -342 0
5605 -5604 342 0
5605 5604 -342 0
-5606 5605 343 0
-5606 -5605 -343 0
5606 -5605 343 0
5606 5605 -343 0
-5607 5606 345 0
-5607 -5606 -345 0
5607 -5606 345 0
5607 5606 -345 0
-249 -5607 0
-5608 347 348 0
-5608 -347 -348 0
5608 -347 348 0
5608 347 -348 0
-5609 5608 349 0
-5609 -5608 -349 0
5609 -5608 349 0
5609 5608 -349 0
-5610 5609 350 0
-5610 -5609 -350 0
5610 -5609 350 0
5610 5609 -350 0
-5611 5610 351 0
-5611 -5610 -351 0
5611 -5610 351 0
5611 5610 -351 0
-5612 5611 352 0
-5612 -5611 -352 0
5612 -5611 352 0
5612 5611 -352 0
-5613 5612 353 0
-5613 -5612 -353 0
5613 -5612 353 0
5613 5612 -353 0
-5614 5613 354 0
-5614 -5613 -354 0
5614 -5613 354 0
5614 5613 -354 0
-5615 5614 355 0
-5615 -5614 -355 0
5615 -5614 355 0
5615 5614 -355 0
-5616 5615 357 0
-5616 -5615 -357 0
5616 -5615 357 0
5616 5615 -357 0
-5617 5616 358 0
-5617 -5616 -358 0
5617 -5616 358 0
5617 5616 -358 0
-5618 5617 360 0
-5618 -5617 -360 0
5618 -5617 360 0
5618 5617 -360 0
-249 -5618 0
-5619 362 363 0
-5619 -362 -363 0
5619 -362 363 0
5619 362 -363 0
-5620 5619 364 0
-5620 -5619 -364 0
5620 -5619 364 0
5620 5619 -364 0
-5621 5620 365 0
-5621 -5620 -365 0
5621 -5620 365 0
5621 5620 -365 0
-5622 5621 366 0
-5622 -5621 -366 0
5622 -5621 366 0
5622 5621 -366 0
-5623 5622 367 0
-5623 -5622 -367 0
5623 -5622 367 0
5623 5622 -367 0
-5624 5623 368 0
-5624 -5623 -368 0
5624 -5623 368 0
5624 5623 -368 0
-5625 5624 369 0
-5625 -5624 -369 0
5625 -5624 369 0
5625 5624 -369 0
-5626 5625 370 0
-5626 -5625 -370 0
5626 -5625 370 0
5626 5625 -370 0
-5627 5626 372 0
-5627 -5626 -372 0
5627 -5626 372 0
5627 5626 -372 0
-5628 5627 373 0
-5628 -5627 -373 0
5628 -5627 373 0
5628 5627 -373 0
-5629 5628 375 0
-5629 -5628 -375 0
5629 -5628 375 0
5629 5628 -375 0
-249 -5629 0
-5630 317 318 0
-5630 -317 -318 0
5630 -317 318 0
5630 317 -318 0
-5631 5630 320 0
-5631 -5630 -320 0
5631 -5630 320 0
5631 5630 -320 0
-5632 5631 321 0
-5632 -5631 -321 0
5632 -5631 321 0
5632 5631 -321 0
-5633 5632 322 0
-5633 -5632 -322 0
5633 -5632 322 0
5633 5632 -322 0
-5634 5633 324 0
-5634 -5633 -324 0
5634 -5633 324 0
5634 5633 -324 0
-5635 5634 325 0
-5635 -5634 -325 0
5635 -5634 325 0
5635 5634 -325 0
-5636 5635 326 0
-5636 -5635 -326 0
5636 -5635 326 0
5636 5635 -326 0
-5637 5636 327 0
-5637 -5636 -327 0
5637 -5636 327 0
5637 5636 -327 0
-5638 5637 328 0
-5638 -5637 -328 0
5638 -5637 328 0
5638 5637 -328 0
-5639 5638 330 0
-5639 -5638 -330 0
5639 -5638 330 0
5639 5638 -330 0
-250 -5639 0
-5640 332 333 0
-5640 -332 -333 0
5640 -332 333 0
5640 332 -333 0
-5641 5640 335 0
-5641 -5640 -335 0
5641 -5640 335 0
5641 5640 -335 0
-5642 5641 336 0
-5642 -5641 -336 0
5642 -5641 336 0
5642 5641 -336 0
-5643 5642 337 0
-5643 -5642 -337 0
5643 -5642 337 0
5643 5642 -337 0
-5644 5643 339 0
-5644 -5643 -339 0
5644 -5643 339 0
5644 5643 -339 0
-5645 5644 340 0
-5645 -5644 -340 0
5645 -5644 340 0
5645 5644 -340 0
-5646 5645 341 0
-5646 -5645 -341 0
5646 -5645 341 0
5646 5645 -341 0
-5647 5646 342 0
-5647 -5646 -342 0
5647 -5646 342 0
5647 5646 -342 0
-5648 5647 343 0
-5648 -5647 -343 0
5648 -5647 343 0
5648 5647 -343 0
-5649 5648 345 0
-5649 -5648 -345 0
5649 -5648 345 0
5649 5648 -345 0
-250 -5649 0
-5650 347 348 0
-5650 -347 -348 0
5650 -347 348 0
5650 347 -348 0
-5651 5650 350 0
-5651 -5650 -350 0
5651 -5650 350 0
5651 5650 -350 0
-5652 5651 351 0
-5652 -5651 -351 0
5652 -5651 351 0
5652 5651 -351 0
-5653 5652 352 0
-5653 -5652 -352 0
5653 -5652 352 0
5653 5652 -352 0
-5654 5653 354 0
-5654 -5653 -354 0
5654 -5653 354 0
5654 5653 -354 0
-5655 5654 355 0
-5655 -5654 -355 0
5655 -5654 355 0
5655 5654 -355 0
-5656 5655 356 0
-5656 -5655 -356 0
5656 -5655 356 0
5656 5655 -356 0
-5657 5656 357 0
-5657 -5656 -357 0
5657 -5656 357 0
5657 5656 -357 0
-5658 5657 358 0
-5658 -5657 -358 0
5658 -5657 358 0
5658 5657 -358 0
-5659 5658 360 0
-5659 -5658 -360 0
5659 -5658 360 0
5659 5658 -360 0
-250 -5659 0
-5660 362 363 0
-5660 -362 -363 0
5660 -362 363 0
5660 362 -363 0
-5661 5660 365 0
-5661 -5660 -365 0
5661 -5660 365 0
5661 5660 -365 0
-5662 5661 366 0
-5662 -5661 -366 0
5662 -5661 366 0
5662 5661 -366 0
-5663 5662 367 0
-5663 -5662 -367 0
5663 -5662 367 0
5663 5662 -367 0
-5664 5663 369 0
-5664 -5663 -369 0
5664 -5663 369 0
5664 5663 -369 0
-5665 5664 370 0
-5665 -5664 -370 0
5665 -5664 370 0
5665 5664 -370 0
-5666 5665 371 0
-5666 -5665 -371 0
5666 -5665 371 0
5666 5665 -371 0
-5667 5666 372 0
-5667 -5666 -372 0
5667 -5666 372 0
5667 5666 -372 0
-5668 5667 373 0
-5668 -5667 -373 0
5668 -5667 373 0
5668 5667 -373 0
-5669 5668 375 0
-5669 -5668 -375 0
5669 -5668 375 0
5669 5668 -375 0
-250 -5669 0
-5670 318 319 0
-5670 -318 -319 0
5670 -318 319 0
5670 318 -319 0
-5671 5670 320 0
-5671 -5670 -320 0
5671 -5670 320 0
5671 5670 -320 0
-5672 5671 322 0
-5672 -5671 -322 0
5672 -5671 322 0
5672 5671 -322 0
-5673 5672 323 0
-5673 -5672 -323 0
5673 -5672 323 0
5673 5672 -323 0
-5674 5673 324 0
-5674 -5673 -324 0
5674 -5673 324 0
5674 5673 -324 0
-5675 5674 325 0
-5675 -5674 -325 0
5675 -5674 325 0
5675 5674 -325 0
-5676 5675 326 0
-5676 -5675 -326 0
5676 -5675 326 0
5676 5675 -326 0
-5677 5676 327 0
-5677 -5676 -327 0
5677 -5676 327 0
5677 5676 -327 0
-5678 5677 328 0
-5678 -5677 -328 0
5678 -5677 328 0
5678 5677 -328 0
-5679 5678 330 0
-5679 -5678 -330 0
5679 -5678 330 0
5679 5678 -330 0
-251 -5679 0
-5680 333 334 0
-5680 -333 -334 0
5680 -333 334 0
5680 333 -334 0
-5681 5680 335 0
-5681 -5680 -335 0
5681 -5680 335 0
5681 5680 -335 0
-5682 5681 337 0
-5682 -5681 -337 0
5682 -5681 337 0
5682 5681 -337 0
-5683 5682 338 0
-5683 -5682 -338 0
5683 -5682 338 0
5683 5682 -338 0
-5684 5683 339 0
-5684 -5683 -339 0
5684 -5683 339 0
5684 5683 -339 0
-5685 5684 340 0
-5685 -5684 -340 0
5685 -5684 340 0
5685 5684 -340 0
-5686 5685 341 0
-5686 -5685 -341 0
5686 -5685 341 0
5686 5685 -341 0
-5687 5686 342 0
-5687 -5686 -342 0
5687 -5686 342 0
5687 5686 -342 0
-5688 5687 343 0
-5688 -5687 -343 0
5688 -5687 343 0
5688 5687 -343 0
-5689 5688 345 0
-5689 -5688 -345 0
5689 -5688 345 0
5689 5688 -345 0
-251 -5689 0
-5690 348 349 0
-5690 -348 -349 0
5690 -348 349 0
5690 348 -349 0
-5691 5690 350 0
-5691 -5690 -350 0
5691 -5690 350 0
5691 5690 -350 0
-5692 5691 352 0
-5692 -5691 -352 0
5692 -5691 352 0
5692 5691 -352 0
-5693 5692 353 0
-5693 -5692 -353 0
5693 -5692 353 0
5693 5692 -353 0
-5694 5693 354 0
-5694 -5693 -354 0
5694 -5693 354 0
5694 5693 -354 0
-5695 5694 355 0
-5695 -5694 -355 0
5695 -5694 355 0
5695 5694 -355 0
-5696 5695 356 0
-5696 -5695 -356 0
5696 -5695 356 0
5696 5695 -356 0
-5697 5696 357 0
-5697 -5696 -357 0
5697 -5696 357 0
5697 5696 -357 0
-5698 5697 358 0
-5698 -5697 -358 0
5698 -5697 358 0
5698 5697 -358 0
-5699 5698 360 0
-5699 -5698 -360 0
5699 -5698 360 0
5699 5698 -360 0
-251 -5699 0
-5700 363 364 0
-5700 -363 -364 0
5700 -363 364 0
5700 363 -364 0
-5701 5700 365 0
-5701 -5700 -365 0
5701 -5700 365 0
5701 5700 -365 0
-5702 5701 367 0
-5702 -5701 -367 0
5702 -5701 367 0
5702 5701 -367 0
-5703 5702 368 0
-5703 -5702 -368 0
5703 -5702 368 0
5703 5702 -368 0
-5704 5703 369 0
-5704 -5703 -369 0
5704 -5703 369 0
5704 5703 -369 0
-5705 5704 370 0
-5705 -5704 -370 0
5705 -5704 370 0
5705 5704 -370 0
-5706 5705 371 0
-5706 -5705 -371 0
5706 -5705 371 0
5706 5705 -371 0
-5707 5706 372 0
-5707 -5706 -372 0
5707 -5706 372 0
5707 5706 -372 0
-5708 5707 373 0
-5708 -5707 -373 0
5708 -5707 373 0
5708 5707 -373 0
-5709 5708 375 0
-5709 -5708 -375 0
5709 -5708 375 0
5709 5708 -375 0
-251 -5709 0
-5710 325 326 0
-5710 -325 -326 0
5710 -325 326 0
5710 325 -326 0
-5711 5710 329 0
-5711 -5710 -329 0
5711 -5710 329 0
5711 5710 -329 0
-5712 5711 330 0
-5712 -5711 -330 0
5712 -5711 330 0
5712 5711 -330 0
-252 -5712 0
-5713 340 341 0
-5713 -340 -341 0
5713 -340 341 0
5713 340 -341 0
-5714 5713 344 0
-5714 -5713 -344 0
5714 -5713 344 0
5714 5713 -344 0
-5715 5714 345 0
-5715 -5714 -345 0
5715 -5714 345 0
5715 5714 -345 0
-252 -5715 0
-5716 355 356 0
-5716 -355 -356 0
5716 -355 356 0
5716 355 -356 0
-5717 5716 359 0
-5717 -5716 -359 0
5717 -5716 359 0
5717 5716 -359 0
-5718 5717 360 0
-5718 -5717 -360 0
5718 -5717 360 0
5718 5717 -360 0
-252 -5718 0
-5719 370 371 0
-5719 -370 -371 0
5719 -370 371 0
5719 370 -371 0
-5720 5719 374 0
-5720 -5719 -374 0
5720 -5719 374 0
5720 5719 -374 0
-5721 5720 375 0
-5721 -5720 -375 0
5721 -5720 375 0
5721 5720 -375 0
-252 -5721 0
-5722 318 319 0
-5722 -318 -319 0
5722 -318 319 0
5722 318 -319 0
-5723 5722 325 0
-5723 -5722 -325 0
5723 -5722 325 0
5723 5722 -325 0
-5724 5723 326 0
-5724 -5723 -326 0
5724 -5723 326 0
5724 5723 -326 0
-5725 5724 329 0
-5725 -5724 -329 0
5725 -5724 329 0
5725 5724 -329 0
-5726 5725 330 0
-5726 -5725 -330 0
5726 -5725 330 0
5726 5725 -330 0
-253 -5726 0
-5727 333 334 0
-5727 -333 -334 0
5727 -333 334 0
5727 333 -334 0
-5728 5727 340 0
-5728 -5727 -340 0
5728 -5727 340 0
5728 5727 -340 0
-5729 5728 341 0
-5729 -5728 -341 0
5729 -5728 341 0
5729 5728 -341 0
-5730 5729 344 0
-5730 -5729 -344 0
5730 -5729 344 0
5730 5729 -344 0
-5731 5730 345 0
-5731 -5730 -345 0
5731 -5730 345 0
5731 5730 -345 0
-253 -5731 0
-5732 348 349 0
-5732 -348 -349 0
5732 -348 349 0
5732 348 -349 0
-5733 5732 355 0
-5733 -5732 -355 0
5733 -5732 355 0
5733 5732 -355 0
-5734 5733 356 0
-5734 -5733 -356 0
5734 -5733 356 0
5734 5733 -356 0
-5735 5734 359 0
-5735 -5734 -359 0
5735 -5734 359 0
5735 5734 -359 0
-5736 5735 360 0
-5736 -5735 -360 0
5736 -5735 360 0
5736 5735 -360 0
-253 -5736 0
-5737 363 364 0
-5737 -363 -364 0
5737 -363 364 0
5737 363 -364 0
-5738 5737 370 0
-5738 -5737 -370 0
5738 -5737 370 0
5738 5737 -370 0
-5739 5738 371 0
-5739 -5738 -371 0
5739 -5738 371 0
5739 5738 -371 0
-5740 5739 374 0
-5740 -5739 -374 0
5740 -5739 374 0
5740 5739 -374 0
-5741 5740 375 0
-5741 -5740 -375 0
5741 -5740 375 0
5741 5740 -375 0
-253 -5741 0
-5742 322 323 0
-5742 -322 -323 0
5742 -322 323 0
5742 322 -323 0
-5743 5742 325 0
-5743 -5742 -325 0
5743 -5742 325 0
5743 5742 -325 0
-5744 5743 326 0
-5744 -5743 -326 0
5744 -5743 326 0
5744 5743 -326 0
-5745 5744 329 0
-5745 -5744 -329 0
5745 -5744 329 0
5745 5744 -329 0
-5746 5745 330 0
-5746 -5745 -330 0
5746 -5745 330 0
5746 5745 -330 0
-254 -5746 0
-5747 337 338 0
-5747 -337 -338 0
5747 -337 338 0
5747 337 -338 0
-5748 5747 340 0
-5748 -5747 -340 0
5748 -5747 340 0
5748 5747 -340 0
-5749 5748 341 0
-5749 -5748 -341 0
5749 -5748 341 0
5749 5748 -341 0
-5750 5749 344 0
-5750 -5749 -344 0
5750 -5749 344 0
5750 5749 -344 0
-5751 5750 345 0
-5751 -5750 -345 0
5751 -5750 345 0
5751 5750 -345 0
-254 -5751 0
-5752 352 353 0
-5752 -352 -353 0
5752 -352 353 0
5752 352 -353 0
-5753 5752 355 0
-5753 -5752 -355 0
5753 -5752 355 0
5753 5752 -355 0
-5754 5753 356 0
-5754 -5753 -356 0
5754 -5753 356 0
5754 5753 -356 0
-5755 5754 359 0
-5755 -5754 -359 0
5755 -5754 359 0
5755 5754 -359 0
-5756 5755 360 0
-5756 -5755 -360 0
5756 -5755 360 0
5756 5755 -360 0
-254 -5756 0
-5757 367 368 0
-5757 -367 -368 0
5757 -367 368 0
5757 367 -368 0
-5758 5757 370 0
-5758 -5757 -370 0
5758 -5757 370 0
5758 5757 -370 0
-5759 5758 371 0
-5759 -5758 -371 0
5759 -5758 371 0
5759 5758 -371 0
-5760 5759 374 0
-5760 -5759 -374 0
5760 -5759 374 0
5760 5759 -374 0
-5761 5760 375 0
-5761 -5760 -375 0
5761 -5760 375 0
5761 5760 -375 0
-254 -5761 0
-5762 318 319 0
-5762 -318 -319 0
5762 -318 319 0
5762 318 -319 0
-5763 5762 322 0
-5763 -5762 -322 0
5763 -5762 322 0
5763 5762 -322 0
-5764 5763 323 0
-5764 -5763 -323 0
5764 -5763 323 0
5764 5763 -323 0
-5765 5764 325 0
-5765 -5764 -325 0
5765 -5764 325 0
5765 5764 -325 0
-5766 5765 326 0
-5766 -5765 -326 0
5766 -5765 326 0
5766 5765 -326 0
-5767 5766 329 0
-5767 -5766 -329 0
5767 -5766 329 0
5767 5766 -329 0
-5768 5767 330 0
-5768 -5767 -330 0
5768 -5767 330 0
5768 5767 -330 0
-255 -5768 0
-5769 333 334 0
-5769 -333 -334 0
5769 -333 334 0
5769 333 -334 0
-5770 5769 337 0
-5770 -5769 -337 0
5770 -5769 337 0
5770 5769 -337 0
-5771 5770 338 0
-5771 -5770 -338 0
5771 -5770 338 0
5771 5770 -338 0
-5772 5771 340 0
-5772 -5771 -340 0
5772 -5771 340 0
5772 5771 -340 0
-5773 5772 341 0
-5773 -5772 -341 0
5773 -5772 341 0
5773 5772 -341 0
-5774 5773 344 0
-5774 -5773 -344 0
5774 -5773 344 0
5774 5773 -344 0
-5775 5774 345 0
-5775 -5774 -345 0
5775 -5774 345 0
5775 5774 -345 0
-255 -5775 0
-5776 348 349 0
-5776 -348 -349 0
5776 -348 349 0
5776 348 -349 0
-5777 5776 352 0
-5777 -5776 -352 0
5777 -5776 352 0
5777 5776 -352 0
-5778 5777 353 0
-5778 -5777 -353 0
5778 -5777 353 0
5778 5777 -353 0
-5779 5778 355 0
-5779 -5778 -355 0
5779 -5778 355 0
5779 5778 -355 0
-5780 5779 356 0
-5780 -5779 -356 0
5780 -5779 356 0
5780 5779 -356 0
-5781 5780 359 0
-5781 -5780 -359 0
5781 -5780 359 0
5781 5780 -359 0
-5782 5781 360 0
-5782 -5781 -360 0
5782 -5781 360 0
5782 5781 -360 0
-255 -5782 0
-5783 363 364 0
-5783 -363 -364 0
5783 -363 364 0
5783 363 -364 0
-5784 5783 367 0
-5784 -5783 -367 0
5784 -5783 367 0
5784 5783 -367 0
-5785 5784 368 0
-5785 -5784 -368 0
5785 -5784 368 0
5785 5784 -368 0
-5786 5785 370 0
-5786 -5785 -370 0
5786 -5785 370 0
5786 5785 -370 0
-5787 5786 371 0
-5787 -5786 -371 0
5787 -5786 371 0
5787 5786 -371 0
-5788 5787 374 0
-5788 -5787 -374 0
5788 -5787 374 0
5788 5787 -374 0
-5789 5788 375 0
-5789 -5788 -375 0
5789 -5788 375 0
5789 5788 -375 0
-255 -5789 0
-5790 325 326 0
-5790 -325 -326 0
5790 -325 326 0
5790 325 -326 0
-5791 5790 328 0
-5791 -5790 -328 0
5791 -5790 328 0
5791 5790 -328 0
-5792 5791 329 0
-5792 -5791 -329 0
5792 -5791 329 0
5792 5791 -329 0
-5793 5792 330 0
-5793 -5792 -330 0
5793 -5792 330 0
5793 5792 -330 0
-256 -5793 0
-5794 340 341 0
-5794 -340 -341 0
5794 -340 341 0
5794 340 -341 0
-5795 5794 343 0
-5795 -5794 -343 0
5795 -5794 343 0
5795 5794 -343 0
-5796 5795 344 0
-5796 -5795 -344 0
5796 -5795 344 0
5796 5795 -344 0
-5797 5796 345 0
-5797 -5796 -345 0
5797 -5796 345 0
5797 5796 -345 0
-256 -5797 0
-5798 355 356 0
-5798 -355 -356 0
5798 -355 356 0
5798 355 -356 0
-5799 5798 358 0
-5799 -5798 -358 0
5799 -5798 358 0
5799 5798 -358 0
-5800 5799 359 0
-5800 -5799 -359 0
5800 -5799 359 0
5800 5799 -359 0
-5801 5800 360 0
-5801 -5800 -360 0
5801 -5800 360 0
5801 5800 -360 0
-256 -5801 0
-5802 370 371 0
-5802 -370 -371 0
5802 -370 371 0
5802 370 -371 0
-5803 5802 373 0
-5803 -5802 -373 0
5803 -5802 373 0
5803 5802 -373 0
-5804 5803 374 0
-5804 -5803 -374 0
5804 -5803 374 0
5804 5803 -374 0
-5805 5804 375 0
-5805 -5804 -375 0
5805 -5804 375 0
5805 5804 -375 0
-256 -5805 0
-5806 318 319 0
-5806 -318 -319 0
5806 -318 319 0
5806 318 -319 0
-5807 5806 325 0
-5807 -5806 -325 0
5807 -5806 325 0
5807 5806 -325 0
-5808 5807 326 0
-5808 -5807 -326 0
5808 -5807 326 0
5808 5807 -326 0
-5809 5808 328 0
-5809 -5808 -328 0
5809 -5808 328 0
5809 5808 -328 0
-5810 5809 329 0
-5810 -5809 -329 0
5810 -5809 329 0
5810 5809 -329 0
-5811 5810 330 0
-5811 -5810 -330 0
5811 -5810 330 0
5811 5810 -330 0
-257 -5811 0
-5812 333 334 0
-5812 -333 -334 0
5812 -333 334 0
5812 333 -334 0
-5813 5812 340 0
-5813 -5812 -340 0
5813 -5812 340 0
5813 5812 -340 0
-5814 5813 341 0
-5814 -5813 -341 0
5814 -5813 341 0
5814 5813 -341 0
-5815 5814 343 0
-5815 -5814 -343 0
5815 -5814 343 0
5815 5814 -343 0
-5816 5815 344 0
-5816 -5815 -344 0
5816 -5815 344 0
5816 5815 -344 0
-5817 5816 345 0
-5817 -5816 -345 0
5817 -5816 345 0
5817 5816 -345 0
-257 -5817 0
-5818 348 349 0
-5818 -348 -349 0
5818 -348 349 0
5818 348 -349 0
-5819 5818 355 0
-5819 -5818 -355 0
5819 -5818 355 0
5819 5818 -355 0
-5820 5819 356 0
-5820 -5819 -356 0
5820 -5819 356 0
5820 5819 -356 0
-5821 5820 358 0
-5821 -5820 -358 0
5821 -5820 358 0
5821 5820 -358 0
-5822 5821 359 0
-5822 -5821 -359 0
5822 -5821 359 0
5822 5821 -359 0
-5823 5822 360 0
-5823 -5822 -360 0
5823 -5822 360 0
5823 5822 -360 0
-257 -5823 0
-5824 363 364 0
-5824 -363 -364 0
5824 -363 364 0
5824 363 -364 0
-5825 5824 370 0
-5825 -5824 -370 0
5825 -5824 370 0
5825 5824 -370 0
-5826 5825 371 0
-5826 -5825 -371 0
5826 -5825 371 0
5826 5825 -371 0
-5827 5826 373 0
-5827 -5826 -373 0
5827 -5826 373 0
5827 5826 -373 0
-5828 5827 374 0
-5828 -5827 -374 0
5828 -5827 374 0
5828 5827 -374 0
-5829 5828 375 0
-5829 -5828 -375 0
5829 -5828 375 0
5829 5828 -375 0
-257 -5829 0
-5830 322 323 0
-5830 -322 -323 0
5830 -322 323 0
5830 322 -323 0
-5831 5830 325 0
-5831 -5830 -325 0
5831 -5830 325 0
5831 5830 -325 0
-5832 5831 326 0
-5832 -5831 -326 0
5832 -5831 326 0
5832 5831 -326 0
-5833 5832 328 0
-5833 -5832 -328 0
5833 -5832 328 0
5833 5832 -328 0
-5834 5833 329 0
-5834 -5833 -329 0
5834 -5833 329 0
5834 5833 -329 0
-5835 5834 330 0
-5835 -5834 -330 0
5835 -5834 330 0
5835 5834 -330 0
-258 -5835 0
-5836 337 338 0
-5836 -337 -338 0
5836 -337 338 0
5836 337 -338 0
-5837 5836 340 0
-5837 -5836 -340 0
5837 -5836 340 0
5837 5836 -340 0
-5838 5837 341 0
-5838 -5837 -341 0
5838 -5837 341 0
5838 5837 -341 0
-5839 5838 343 0
-5839 -5838 -343 0
5839 -5838 343 0
5839 5838 -343 0
-5840 5839 344 0
-5840 -5839 -344 0
5840 -5839 344 0
5840 5839 -344 0
-5841 5840 345 0
-5841 -5840 -345 0
5841 -5840 345 0
5841 5840 -345 0
-258 -5841 0
-5842 352 353 0
-5842 -352 -353 0
5842 -352 353 0
5842 352 -353 0
-5843 5842 355 0
-5843 -5842 -355 0
5843 -5842 355 0
5843 5842 -355 0
-5844 5843 356 0
-5844 -5843 -356 0
5844 -5843 356 0
5844 5843 -356 0
-5845 5844 358 0
-5845 -5844 -358 0
5845 -5844 358 0
5845 5844 -358 0
-5846 5845 359 0
-5846 -5845 -359 0
5846 -5845 359 0
5846 5845 -359 0
-5847 5846 360 0
-5847 -5846 -360 0
5847 -5846 360 0
5847 5846 -360 0
-258 -5847 0
-5848 367 368 0
-5848 -367 -368 0
5848 -367 368 0
5848 367 -368 0
-5849 5848 370 0
-5849 -5848 -370 0
5849 -5848 370 0
5849 5848 -370 0
-5850 5849 371 0
-5850 -5849 -371 0
5850 -5849 371 0
5850 5849 -371 0
-5851 5850 373 0
-5851 -5850 -373 0
5851 -5850 373 0
5851 5850 -373 0
-5852 5851 374 0
-5852 -5851 -374 0
5852 -5851 374 0
5852 5851 -374 0
-5853 5852 375 0
-5853 -5852 -375 0
5853 -5852 375 0
5853 5852 -375 0
-258 -5853 0
-5854 318 319 0
-5854 -318 -319 0
5854 -318 319 0
5854 318 -319 0
-5855 5854 322 0
-5855 -5854 -322 0
5855 -5854 322 0
5855 5854 -322 0
-5856 5855 323 0
-5856 -5855 -323 0
5856 -5855 323 0
5856 5855 -323 0
-5857 5856 325 0
-5857 -5856 -325 0
5857 -5856 325 0
5857 5856 -325 0
-5858 5857 326 0
-5858 -5857 -326 0
5858 -5857 326 0
5858 5857 -326 0
-5859 5858 328 0
-5859 -5858 -328 0
5859 -5858 328 0
5859 5858 -328 0
-5860 5859 329 0
-5860 -5859 -329 0
5860 -5859 329 0
5860 5859 -329 0
-5861 5860 330 0
-5861 -5860 -330 0
5861 -5860 330 0
5861 5860 -330 0
-259 -5861 0
-5862 333 334 0
-5862 -333 -334 0
5862 -333 334 0
5862 333 -334 0
-5863 5862 337 0
-5863 -5862 -337 0
5863 -5862 337 0
5863 5862 -337 0
-5864 5863 338 0
-5864 -5863 -338 0
5864 -5863 338 0
5864 5863 -338 0
-5865 5864 340 0
-5865 -5864 -340 0
5865 -5864 340 0
5865 5864 -340 0
-5866 5865 341 0
-5866 -5865 -341 0
5866 -5865 341 0
5866 5865 -341 0
-5867 5866 343 0
-5867 -5866 -343 0
5867 -5866 343 0
5867 5866 -343 0
-5868 5867 344 0
-5868 -5867 -344 0
5868 -5867 344 0
5868 5867 -344 0
-5869 5868 345 0
-5869 -5868 -345 0
5869 -5868 345 0
5869 5868 -345 0
-259 -5869 0
-5870 348 349 0
-5870 -348 -349 0
5870 -348 349 0
5870 348 -349 0
-5871 5870 352 0
-5871 -5870 -352 0
5871 -5870 352 0
5871 5870 -352 0
-5872 5871 353 0
-5872 -5871 -353 0
5872 -5871 353 0
5872 5871 -353 0
-5873 5872 355 0
-5873 -5872 -355 0
5873 -5872 355 0
5873 5872 -355 0
-5874 5873 356 0
-5874 -5873 -356 0
5874 -5873 356 0
5874 5873 -356 0
-5875 5874 358 0
-5875 -5874 -358 0
5875 -5874 358 0
5875 5874 -358 0
-5876 5875 359 0
-5876 -5875 -359 0
5876 -5875 359 0
5876 5875 -359 0
-5877 5876 360 0
-5877 -5876 -360 0
5877 -5876 360 0
5877 5876 -360 0
-259 -5877 0
-5878 363 364 0
-5878 -363 -364 0
5878 -363 364 0
5878 363 -364 0
-5879 5878 367 0
-5879 -5878 -367 0
5879 -5878 367 0
5879 5878 -367 0
-5880 5879 368 0
-5880 -5879 -368 0
5880 -5879 368 0
5880 5879 -368 0
-5881 5880 370 0
-5881 -5880 -370 0
5881 -5880 370 0
5881 5880 -370 0
-5882 5881 371 0
-5882 -5881 -371 0
5882 -5881 371 0
5882 5881 -371 0
-5883 5882 373 0
-5883 -5882 -373 0
5883 -5882 373 0
5883 5882 -373 0
-5884 5883 374 0
-5884 -5883 -374 0
5884 -5883 374 0
5884 5883 -374 0
-5885 5884 375 0
-5885 -5884 -375 0
5885 -5884 375 0
5885 5884 -375 0
-259 -5885 0
-5886 316 320 0
-5886 -316 -320 0
5886 -316 320 0
5886 316 -320 0
-5887 5886 322 0
-5887 -5886 -322 0
5887 -5886 322 0
5887 5886 -322 0
-5888 5887 323 0
-5888 -5887 -323 0
5888 -5887 323 0
5888 5887 -323 0
-5889 5888 329 0
-5889 -5888 -329 0
5889 -5888 329 0
5889 5888 -329 0
-5890 5889 330 0
-5890 -5889 -330 0
5890 -5889 330 0
5890 5889 -330 0
-260 -5890 0
-5891 331 335 0
-5891 -331 -335 0
5891 -331 335 0
5891 331 -335 0
-5892 5891 337 0
-5892 -5891 -337 0
5892 -5891 337 0
5892 5891 -337 0
-5893 5892 338 0
-5893 -5892 -338 0
5893 -5892 338 0
5893 5892 -338 0
-5894 5893 344 0
-5894 -5893 -344 0
5894 -5893 344 0
5894 5893 -344 0
-5895 5894 345 0
-5895 -5894 -345 0
5895 -5894 345 0
5895 5894 -345 0
-260 -5895 0
-5896 346 350 0
-5896 -346 -350 0
5896 -346 350 0
5896 346 -350 0
-5897 5896 352 0
-5897 -5896 -352 0
5897 -5896 352 0
5897 5896 -352 0
-5898 5897 353 0
-5898 -5897 -353 0
5898 -5897 353 0
5898 5897 -353 0
-5899 5898 359 0
-5899 -5898 -359 0
5899 -5898 359 0
5899 5898 -359 0
-5900 5899 360 0
-5900 -5899 -360 0
5900 -5899 360 0
5900 5899 -360 0
-260 -5900 0
-5901 361 365 0
-5901 -361 -365 0
5901 -361 365 0
5901 361 -365 0
-5902 5901 367 0
-5902 -5901 -367 0
5902 -5901 367 0
5902 5901 -367 0
-5903 5902 368 0
-5903 -5902 -368 0
5903 -5902 368 0
5903 5902 -368 0
-5904 5903 374 0
-5904 -5903 -374 0
5904 -5903 374 0
5904 5903 -374 0
-5905 5904 375 0
-5905 -5904 -375 0
5905 -5904 375 0
5905 5904 -375 0
-260 -5905 0
-5906 316 318 0
-5906 -316 -318 0
5906 -316 318 0
5906 316 -318 0
-5907 5906 319 0
-5907 -5906 -319 0
5907 -5906 319 0
5907 5906 -319 0
-5908 5907 320 0
-5908 -5907 -320 0
5908 -5907 320 0
5908 5907 -320 0
-5909 5908 322 0
-5909 -5908 -322 0
5909 -5908 322 0
5909 5908 -322 0
-5910 5909 323 0
-5910 -5909 -323 0
5910 -5909 323 0
5910 5909 -323 0
-5911 5910 329 0
-5911 -5910 -329 0
5911 -5910 329 0
5911 5910 -329 0
-5912 5911 330 0
-5912 -5911 -330 0
5912 -5911 330 0
5912 5911 -330 0
-261 -5912 0
-5913 331 333 0
-5913 -331 -333 0
5913 -331 333 0
5913 331 -333 0
-5914 5913 334 0
-5914 -5913 -334 0
5914 -5913 334 0
5914 5913 -334 0
-5915 5914 335 0
-5915 -5914 -335 0
5915 -5914 335 0
5915 5914 -335 0
-5916 5915 337 0
-5916 -5915 -337 0
5916 -5915 337 0
5916 5915 -337 0
-5917 5916 338 0
-5917 -5916 -338 0
5917 -5916 338 0
5917 5916 -338 0
-5918 5917 344 0
-5918 -5917 -344 0
5918 -5917 344 0
5918 5917 -344 0
-5919 5918 345 0
-5919 -5918 -345 0
5919 -5918 345 0
5919 5918 -345 0
-261 -5919 0
-5920 346 348 0
-5920 -346 -348 0
5920 -346 348 0
5920 346 -348 0
-5921 5920 349 0
-5921 -5920 -349 0
5921 -5920 349 0
5921 5920 -349 0
-5922 5921 350 0
-5922 -5921 -350 0
5922 -5921 350 0
5922 5921 -350 0
-5923 5922 352 0
-5923 -5922 -352 0
5923 -5922 352 0
5923 5922 -352 0
-5924 5923 353 0
-5924 -5923 -353 0
5924 -5923 353 0
5924 5923 -353 0
-5925 5924 359 0
-5925 -5924 -359 0
5925 -5924 359 0
5925 5924 -359 0
-5926 5925 360 0
-5926 -5925 -360 0
5926 -5925 360 0
5926 5925 -360 0
-261 -5926 0
-5927 361 363 0
-5927 -361 -363 0
5927 -361 363 0
5927 361 -363 0
-5928 5927 364 0
-5928 -5927 -364 0
5928 -5927 364 0
5928 5927 -364 0
-5929 5928 365 0
-5929 -5928 -365 0
5929 -5928 365 0
5929 5928 -365 0
-5930 5929 367 0
-5930 -5929 -367 0
5930 -5929 367 0
5930 5929 -367 0
-5931 5930 368 0
-5931 -5930 -368 0
5931 -5930 368 0
5931 5930 -368 0
-5932 5931 374 0
-5932 -5931 -374 0
5932 -5931 374 0
5932 5931 -374 0
-5933 5932 375 0
-5933 -5932 -375 0
5933 -5932 375 0
5933 5932 -375 0
-261 -5933 0
-5934 317 320 0
-5934 -317 -320 0
5934 -317 320 0
5934 317 -320 0
-5935 5934 325 0
-5935 -5934 -325 0
5935 -5934 325 0
5935 5934 -325 0
-5936 5935 326 0
-5936 -5935 -326 0
5936 -5935 326 0
5936 5935 -326 0
-5937 5936 329 0
-5937 -5936 -329 0
5937 -5936 329 0
5937 5936 -329 0
-5938 5937 330 0
-5938 -5937 -330 0
5938 -5937 330 0
5938 5937 -330 0
-262 -5938 0
-5939 332 335 0
-5939 -332 -335 0
5939 -332 335 0
5939 332 -335 0
-5940 5939 340 0
-5940 -5939 -340 0
5940 -5939 340 0
5940 5939 -340 0
-5941 5940 341 0
-5941 -5940 -341 0
5941 -5940 341 0
5941 5940 -341 0
-5942 5941 344 0
-5942 -5941 -344 0
5942 -5941 344 0
5942 5941 -344 0
-5943 5942 345 0
-5943 -5942 -345 0
5943 -5942 345 0
5943 5942 -345 0
-262 -5943 0
-5944 347 350 0
-5944 -347 -350 0
5944 -347 350 0
5944 347 -350 0
-5945 5944 355 0
-5945 -5944 -355 0
5945 -5944 355 0
5945 5944 -355 0
-5946 5945 356 0
-5946 -5945 -356 0
5946 -5945 356 0
5946 5945 -356 0
-5947 5946 359 0
-5947 -5946 -359 0
5947 -5946 359 0
5947 5946 -359 0
-5948 5947 360 0
-5948 -5947 -360 0
5948 -5947 360 0
5948 5947 -360 0
-262 -5948 0
-5949 362 365 0
-5949 -362 -365 0
5949 -362 365 0
5949 362 -365 0
-5950 5949 370 0
-5950 -5949 -370 0
5950 -5949 370 0
5950 5949 -370 0
-5951 5950 371 0
-5951 -5950 -371 0
5951 -5950 371 0
5951 5950 -371 0
-5952 5951 374 0
-5952 -5951 -374 0
5952 -5951 374 0
5952 5951 -374 0
-5953 5952 375 0
-5953 -5952 -375 0
5953 -5952 375 0
5953 5952 -375 0
-262 -5953 0
-5954 317 318 0
-5954 -317 -318 0
5954 -317 318 0
5954 317 -318 0
-5955 5954 319 0
-5955 -5954 -319 0
5955 -5954 319 0
5955 5954 -319 0
-5956 5955 320 0
-5956 -5955 -320 0
5956 -5955 320 0
5956 5955 -320 0
-5957 5956 325 0
-5957 -5956 -325 0
5957 -5956 325 0
5957 5956 -325 0
-5958 5957 326 0
-5958 -5957 -326 0
5958 -5957 326 0
5958 5957 -326 0
-5959 5958 329 0
-5959 -5958 -329 0
5959 -5958 329 0
5959 5958 -329 0
-5960 5959 330 0
-5960 -5959 -330 0
5960 -5959 330 0
5960 5959 -330 0
-263 -5960 0
-5961 332 333 0
-5961 -332 -333 0
5961 -332 333 0
5961 332 -333 0
-5962 5961 334 0
-5962 -5961 -334 0
5962 -5961 334 0
5962 5961 -334 0
-5963 5962 335 0
-5963 -5962 -335 0
5963 -5962 335 0
5963 5962 -335 0
-5964 5963 340 0
-5964 -5963 -340 0
5964 -5963 340 0
5964 5963 -340 0
-5965 5964 341 0
-5965 -5964 -341 0
5965 -5964 341 0
5965 5964 -341 0
-5966 5965 344 0
-5966 -5965 -344 0
5966 -5965 344 0
5966 5965 -344 0
-5967 5966 345 0
-5967 -5966 -345 0
5967 -5966 345 0
5967 5966 -345 0
-263 -5967 0
-5968 347 348 0
-5968 -347 -348 0
5968 -347 348 0
5968 347 -348 0
-5969 5968 349 0
-5969 -5968 -349 0
5969 -5968 349 0
5969 5968 -349 0
-5970 5969 350 0
-5970 -5969 -350 0
5970 -5969 350 0
5970 5969 -350 0
-5971 5970 355 0
-5971 -5970 -355 0
5971 -5970 355 0
5971 5970 -355 0
-5972 5971 356 0
-5972 -5971 -356 0
5972 -5971 356 0
5972 5971 -356 0
-5973 5972 359 0
-5973 -5972 -359 0
5973 -5972 359 0
5973 5972 -359 0
-5974 5973 360 0
-5974 -5973 -360 0
5974 -5973 360 0
5974 5973 -360 0
-263 -5974 0
-5975 362 363 0
-5975 -362 -363 0
5975 -362 363 0
5975 362 -363 0
-5976 5975 364 0
-5976 -5975 -364 0
5976 -5975 364 0
5976 5975 -364 0
-5977 5976 365 0
-5977 -5976 -365 0
5977 -5976 365 0
5977 5976 -365 0
-5978 5977 370 0
-5978 -5977 -370 0
5978 -5977 370 0
5978 5977 -370 0
-5979 5978 371 0
-5979 -5978 -371 0
5979 -5978 371 0
5979 5978 -371 0
-5980 5979 374 0
-5980 -5979 -374 0
5980 -5979 374 0
5980 5979 -374 0
-5981 5980 375 0
-5981 -5980 -375 0
5981 -5980 375 0
5981 5980 -375 0
-263 -5981 0
-5982 316 318 0
-5982 -316 -318 0
5982 -316 318 0
5982 316 -318 0
-5983 5982 320 0
-5983 -5982 -320 0
5983 -5982 320 0
5983 5982 -320 0
-5984 5983 322 0
-5984 -5983 -322 0
5984 -5983 322 0
5984 5983 -322 0
-5985 5984 323 0
-5985 -5984 -323 0
5985 -5984 323 0
5985 5984 -323 0
-5986 5985 328 0
-5986 -5985 -328 0
5986 -5985 328 0
5986 5985 -328 0
-5987 5986 329 0
-5987 -5986 -329 0
5987 -5986 329 0
5987 5986 -329 0
-5988 5987 330 0
-5988 -5987 -330 0
5988 -5987 330 0
5988 5987 -330 0
-264 -5988 0
-5989 331 333 0
-5989 -331 -333 0
5989 -331 333 0
5989 331 -333 0
-5990 5989 335 0
-5990 -5989 -335 0
5990 -5989 335 0
5990 5989 -335 0
-5991 5990 337 0
-5991 -5990 -337 0
5991 -5990 337 0
5991 5990 -337 0
-5992 5991 338 0
-5992 -5991 -338 0
5992 -5991 338 0
5992 5991 -338 0
-5993 5992 343 0
-5993 -5992 -343 0
5993 -5992 343 0
5993 5992 -343 0
-5994 5993 344 0
-5994 -5993 -344 0
5994 -5993 344 0
5994 5993 -344 0
-5995 5994 345 0
-5995 -5994 -345 0
5995 -5994 345 0
5995 5994 -345 0
-264 -5995 0
-5996 346 348 0
-5996 -346 -348 0
5996 -346 348 0
5996 346 -348 0
-5997 5996 350 0
-5997 -5996 -350 0
5997 -5996 350 0
5997 5996 -350 0
-5998 5997 352 0
-5998 -5997 -352 0
5998 -5997 352 0
5998 5997 -352 0
-5999 5998 353 0
-5999 -5998 -353 0
5999 -5998 353 0
5999 5998 -353 0
-6000 5999 358 0
-6000 -5999 -358 0
6000 -5999 358 0
6000 5999 -358 0
-6001 6000 359 0
-6001 -6000 -359 0
6001 -6000 359 0
6001 6000 -359 0
-6002 6001 360 0
-6002 -6001 -360 0
6002 -6001 360 0
6002 6001 -360 0
-264 -6002 0
-6003 361 363 0
-6003 -361 -363 0
6003 -361 363 0
6003 361 -363 0
-6004 6003 365 0
-6004 -6003 -365 0
6004 -6003 365 0
6004 6003 -365 0
-6005 6004 367 0
-6005 -6004 -367 0
6005 -6004 367 0
6005 6004 -367 0
-6006 6005 368 0
-6006 -6005 -368 0
6006 -6005 368 0
6006 6005 -368 0
-6007 6006 373 0
-6007 -6006 -373 0
6007 -6006 373 0
6007 6006 -373 0
-6008 6007 374 0
-6008 -6007 -374 0
6008 -6007 374 0
6008 6007 -374 0
-6009 6008 375 0
-6009 -6008 -375 0
6009 -6008 375 0
6009 6008 -375 0
-264 -6009 0
-6010 316 319 0
-6010 -316 -319 0
6010 -316 319 0
6010 316 -319 0
-6011 6010 320 0
-6011 -6010 -320 0
6011 -6010 320 0
6011 6010 -320 0
-6012 6011 322 0
-6012 -6011 -322 0
6012 -6011 322 0
6012 6011 -322 0
-6013 6012 323 0
-6013 -6012 -323 0
6013 -6012 323 0
6013 6012 -323 0
-6014 6013 328 0
-6014 -6013 -328 0
6014 -6013 328 0
6014 6013 -328 0
-6015 6014 329 0
-6015 -6014 -329 0
6015 -6014 329 0
6015 6014 -329 0
-6016 6015 330 0
-6016 -6015 -330 0
6016 -6015 330 0
6016 6015 -330 0
-265 -6016 0
-6017 331 334 0
-6017 -331 -334 0
6017 -331 334 0
6017 331 -334 0
-6018 6017 335 0
-6018 -6017 -335 0
6018 -6017 335 0
6018 6017 -335 0
-6019 6018 337 0
-6019 -6018 -337 0
6019 -6018 337 0
6019 6018 -337 0
-6020 6019 338 0
-6020 -6019 -338 0
6020 -6019 338 0
6020 6019 -338 0
-6021 6020 343 0
-6021 -6020 -343 0
6021 -6020 343 0
6021 6020 -343 0
-6022 6021 344 0
-6022 -6021 -344 0
6022 -6021 344 0
6022 6021 -344 0
-6023 6022 345 0
-6023 -6022 -345 0
6023 -6022 345 0
6023 6022 -345 0
-265 -6023 0
-6024 346 349 0
-6024 -346 -349 0
6024 -346 349 0
6024 346 -349 0
-6025 6024 350 0
-6025 -6024 -350 0
6025 -6024 350 0
6025 6024 -350 0
-6026 6025 352 0
-6026 -6025 -352 0
6026 -6025 352 0
6026 6025 -352 0
-6027 6026 353 0
-6027 -6026 -353 0
6027 -6026 353 0
6027 6026 -353 0
-6028 6027 358 0
-6028 -6027 -358 0
6028 -6027 358 0
6028 6027 -358 0
-6029 6028 359 0
-6029 -6028 -359 0
6029 -6028 359 0
6029 6028 -359 0
-6030 6029 360 0
-6030 -6029 -360 0
6030 -6029 360 0
6030 6029 -360 0
-265 -6030 0
-6031 361 364 0
-6031 -361 -364 0
6031 -361 364 0
6031 361 -364 0
-6032 6031 365 0
-6032 -6031 -365 0
6032 -6031 365 0
6032 6031 -365 0
-6033 6032 367 0
-6033 -6032 -367 0
6033 -6032 367 0
6033 6032 -367 0
-6034 6033 368 0
-6034 -6033 -368 0
6034 -6033 368 0
6034 6033 -368 0
-6035 6034 373 0
-6035 -6034 -373 0
6035 -6034 373 0
6035 6034 -373 0
-6036 6035 374 0
-6036 -6035 -374 0
6036 -6035 374 0
6036 6035 -374 0
-6037 6036 375 0
-6037 -6036 -375 0
6037 -6036 375 0
6037 6036 -375 0
-265 -6037 0
-6038 317 318 0
-6038 -317 -318 0
6038 -317 318 0
6038 317 -318 0
-6039 6038 320 0
-6039 -6038 -320 0
6039 -6038 320 0
6039 6038 -320 0
-6040 6039 325 0
-6040 -6039 -325 0
6040 -6039 325 0
6040 6039 -325 0
-6041 6040 326 0
-6041 -6040 -326 0
6041 -6040 326 0
6041 6040 -326 0
-6042 6041 328 0
-6042 -6041 -328 0
6042 -6041 328 0
6042 6041 -328 0
-6043 6042 329 0
-6043 -6042 -329 0
6043 -6042 329 0
6043 6042 -329 0
-6044 6043 330 0
-6044 -6043 -330 0
6044 -6043 330 0
6044 6043 -330 0
-266 -6044 0
-6045 332 333 0
-6045 -332 -333 0
6045 -332 333 0
6045 332 -333 0
-6046 6045 335 0
-6046 -6045 -335 0
6046 -6045 335 0
6046 6045 -335 0
-6047 6046 340 0
-6047 -6046 -340 0
6047 -6046 340 0
6047 6046 -340 0
-6048 6047 341 0
-6048 -6047 -341 0
6048 -6047 341 0
6048 6047 -341 0
-6049 6048 343 0
-6049 -6048 -343 0
6049 -6048 343 0
6049 6048 -343 0
-6050 6049 344 0
-6050 -6049 -344 0
6050 -6049 344 0
6050 6049 -344 0
-6051 6050 345 0
-6051 -6050 -345 0
6051 -6050 345 0
6051 6050 -345 0
-266 -6051 0
-6052 347 348 0
-6052 -347 -348 0
6052 -347 348 0
6052 347 -348 0
-6053 6052 350 0
-6053 -6052 -350 0
6053 -6052 350 0
6053 6052 -350 0
-6054 6053 355 0
-6054 -6053 -355 0
6054 -6053 355 0
6054 6053 -355 0
-6055 6054 356 0
-6055 -6054 -356 0
6055 -6054 356 0
6055 6054 -356 0
-6056 6055 358 0
-6056 -6055 -358 0
6056 -6055 358 0
6056 6055 -358 0
-6057 6056 359 0
-6057 -6056 -359 0
6057 -6056 359 0
6057 6056 -359 0
-6058 6057 360 0
-6058 -6057 -360 0
6058 -6057 360 0
6058 6057 -360 0
-266 -6058 0
-6059 362 363 0
-6059 -362 -363 0
6059 -362 363 0
6059 362 -363 0
-6060 6059 365 0
-6060 -6059 -365 0
6060 -6059 365 0
6060 6059 -365 0
-6061 6060 370 0
-6061 -6060 -370 0
6061 -6060 370 0
6061 6060 -370 0
-6062 6061 371 0
-6062 -6061 -371 0
6062 -6061 371 0
6062 6061 -371 0
-6063 6062 373 0
-6063 -6062 -373 0
6063 -6062 373 0
6063 6062 -373 0
-6064 6063 374 0
-6064 -6063 -374 0
6064 -6063 374 0
6064 6063 -374 0
-6065 6064 375 0
-6065 -6064 -375 0
6065 -6064 375 0
6065 6064 -375 0
-266 -6065 0
-6066 317 319 0
-6066 -317 -319 0
6066 -317 319 0
6066 317 -319 0
-6067 6066 320 0
-6067 -6066 -320 0
6067 -6066 320 0
6067 6066 -320 0
-6068 6067 325 0
-6068 -6067 -325 0
6068 -6067 325 0
6068 6067 -325 0
-6069 6068 326 0
-6069 -6068 -326 0
6069 -6068 326 0
6069 6068 -326 0
-6070 6069 328 0
-6070 -6069 -328 0
6070 -6069 328 0
6070 6069 -328 0
-6071 6070 329 0
-6071 -6070 -329 0
6071 -6070 329 0
6071 6070 -329 0
-6072 6071 330 0
-6072 -6071 -330 0
6072 -6071 330 0
6072 6071 -330 0
-267 -6072 0
-6073 332 334 0
-6073 -332 -334 0
6073 -332 334 0
6073 332 -334 0
-6074 6073 335 0
-6074 -6073 -335 0
6074 -6073 335 0
6074 6073 -335 0
-6075 6074 340 0
-6075 -6074 -340 0
6075 -6074 340 0
6075 6074 -340 0
-6076 6075 341 0
-6076 -6075 -341 0
6076 -6075 341 0
6076 6075 -341 0
-6077 6076 343 0
-6077 -6076 -343 0
6077 -6076 343 0
6077 6076 -343 0
-6078 6077 344 0
-6078 -6077 -344 0
6078 -6077 344 0
6078 6077 -344 0
-6079 6078 345 0
-6079 -6078 -345 0
6079 -6078 345 0
6079 6078 -345 0
-267 -6079 0
-6080 347 349 0
-6080 -347 -349 0
6080 -347 349 0
6080 347 -349 0
-6081 6080 350 0
-6081 -6080 -350 0
6081 -6080 350 0
6081 6080 -350 0
-6082 6081 355 0
-6082 -6081 -355 0
6082 -6081 355 0
6082 6081 -355 0
-6083 6082 356 0
-6083 -6082 -356 0
6083 -6082 356 0
6083 6082 -356 0
-6084 6083 358 0
-6084 -6083 -358 0
6084 -6083 358 0
6084 6083 -358 0
-6085 6084 359 0
-6085 -6084 -359 0
6085 -6084 359 0
6085 6084 -359 0
-6086 6085 360 0
-6086 -6085 -360 0
6086 -6085 360 0
6086 6085 -360 0
-267 -6086 0
-6087 362 364 0
-6087 -362 -364 0
6087 -362 364 0
6087 362 -364 0
-6088 6087 365 0
-6088 -6087 -365 0
6088 -6087 365 0
6088 6087 -365 0
-6089 6088 370 0
-6089 -6088 -370 0
6089 -6088 370 0
6089 6088 -370 0
-6090 6089 371 0
-6090 -6089 -371 0
6090 -6089 371 0
6090 6089 -371 0
-6091 6090 373 0
-6091 -6090 -373 0
6091 -6090 373 0
6091 6090 -373 0
-6092 6091 374 0
-6092 -6091 -374 0
6092 -6091 374 0
6092 6091 -374 0
-6093 6092 375 0
-6093 -6092 -375 0
6093 -6092 375 0
6093 6092 -375 0
-267 -6093 0
-6094 316 318 0
-6094 -316 -318 0
6094 -316 318 0
6094 316 -318 0
-6095 6094 319 0
-6095 -6094 -319 0
6095 -6094 319 0
6095 6094 -319 0
-6096 6095 324 0
-6096 -6095 -324 0
6096 -6095 324 0
6096 6095 -324 0
-6097 6096 329 0
-6097 -6096 -329 0
6097 -6096 329 0
6097 6096 -329 0
-6098 6097 330 0
-6098 -6097 -330 0
6098 -6097 330 0
6098 6097 -330 0
-268 -6098 0
-6099 331 333 0
-6099 -331 -333 0
6099 -331 333 0
6099 331 -333 0
-6100 6099 334 0
-6100 -6099 -334 0
6100 -6099 334 0
6100 6099 -334 0
-6101 6100 339 0
-6101 -6100 -339 0
6101 -6100 339 0
6101 6100 -339 0
-6102 6101 344 0
-6102 -6101 -344 0
6102 -6101 344 0
6102 6101 -344 0
-6103 6102 345 0
-6103 -6102 -345 0
6103 -6102 345 0
6103 6102 -345 0
-268 -6103 0
-6104 346 348 0
-6104 -346 -348 0
6104 -346 348 0
6104 346 -348 0
-6105 6104 349 0
-6105 -6104 -349 0
6105 -6104 349 0
6105 6104 -349 0
-6106 6105 354 0
-6106 -6105 -354 0
6106 -6105 354 0
6106 6105 -354 0
-6107 6106 359 0
-6107 -6106 -359 0
6107 -6106 359 0
6107 6106 -359 0
-6108 6107 360 0
-6108 -6107 -360 0
6108 -6107 360 0
6108 6107 -360 0
-268 -6108 0
-6109 361 363 0
-6109 -361 -363 0
6109 -361 363 0
6109 361 -363 0
-6110 6109 364 0
-6110 -6109 -364 0
6110 -6109 364 0
6110 6109 -364 0
-6111 6110 369 0
-6111 -6110 -369 0
6111 -6110 369 0
6111 6110 -369 0
-6112 6111 374 0
-6112 -6111 -374 0
6112 -6111 374 0
6112 6111 -374 0
-6113 6112 375 0
-6113 -6112 -375 0
6113 -6112 375 0
6113 6112 -375 0
-268 -6113 0
-6114 316 318 0
-6114 -316 -318 0
6114 -316 318 0
6114 316 -318 0
-6115 6114 319 0
-6115 -6114 -319 0
6115 -6114 319 0
6115 6114 -319 0
-6116 6115 322 0
-6116 -6115 -322 0
6116 -6115 322 0
6116 6115 -322 0
-6117 6116 323 0
-6117 -6116 -323 0
6117 -6116 323 0
6117 6116 -323 0
-6118 6117 324 0
-6118 -6117 -324 0
6118 -6117 324 0
6118 6117 -324 0
-6119 6118 329 0
-6119 -6118 -329 0
6119 -6118 329 0
6119 6118 -329 0
-6120 6119 330 0
-6120 -6119 -330 0
6120 -6119 330 0
6120 6119 -330 0
-269 -6120 0
-6121 331 333 0
-6121 -331 -333 0
6121 -331 333 0
6121 331 -333 0
-6122 6121 334 0
-6122 -6121 -334 0
6122 -6121 334 0
6122 6121 -334 0
-6123 6122 337 0
-6123 -6122 -337 0
6123 -6122 337 0
6123 6122 -337 0
-6124 6123 338 0
-6124 -6123 -338 0
6124 -6123 338 0
6124 6123 -338 0
-6125 6124 339 0
-6125 -6124 -339 0
6125 -6124 339 0
6125 6124 -339 0
-6126 6125 344 0
-6126 -6125 -344 0
6126 -6125 344 0
6126 6125 -344 0
-6127 6126 345 0
-6127 -6126 -345 0
6127 -6126 345 0
6127 6126 -345 0
-269 -6127 0
-6128 346 348 0
-6128 -346 -348 0
6128 -346 348 0
6128 346 -348 0
-6129 6128 349 0
-6129 -6128 -349 0
6129 -6128 349 0
6129 6128 -349 0
-6130 6129 352 0
-6130 -6129 -352 0
6130 -6129 352 0
6130 6129 -352 0
-6131 6130 353 0
-6131 -6130 -353 0
6131 -6130 353 0
6131 6130 -353 0
-6132 6131 354 0
-6132 -6131 -354 0
6132 -6131 354 0
6132 6131 -354 0
-6133 6132 359 0
-6133 -6132 -359 0
6133 -6132 359 0
6133 6132 -359 0
-6134 6133 360 0
-6134 -6133 -360 0
6134 -6133 360 0
6134 6133 -360 0
-269 -6134 0
-6135 361 363 0
-6135 -361 -363 0
6135 -361 363 0
6135 361 -363 0
-6136 6135 364 0
-6136 -6135 -364 0
6136 -6135 364 0
6136 6135 -364 0
-6137 6136 367 0
-6137 -6136 -367 0
6137 -6136 367 0
6137 6136 -367 0
-6138 6137 368 0
-6138 -6137 -368 0
6138 -6137 368 0
6138 6137 -368 0
-6139 6138 369 0
-6139 -6138 -369 0
6139 -6138 369 0
6139 6138 -369 0
-6140 6139 374 0
-6140 -6139 -374 0
6140 -6139 374 0
6140 6139 -374 0
-6141 6140 375 0
-6141 -6140 -375 0
6141 -6140 375 0
6141 6140 -375 0
-269 -6141 0
-6142 321 324 0
-6142 -321 -324 0
6142 -321 324 0
6142 321 -324 0
-6143 6142 325 0
-6143 -6142 -325 0
6143 -6142 325 0
6143 6142 -325 0
-6144 6143 326 0
-6144 -6143 -326 0
6144 -6143 326 0
6144 6143 -326 0
-6145 6144 329 0
-6145 -6144 -329 0
6145 -6144 329 0
6145 6144 -329 0
-6146 6145 330 0
-6146 -6145 -330 0
6146 -6145 330 0
6146 6145 -330 0
-270 -6146 0
-6147 336 339 0
-6147 -336 -339 0
6147 -336 339 0
6147 336 -339 0
-6148 6147 340 0
-6148 -6147 -340 0
6148 -6147 340 0
6148 6147 -340 0
-6149 6148 341 0
-6149 -6148 -341 0
6149 -6148 341 0
6149 6148 -341 0
-6150 6149 344 0
-6150 -6149 -344 0
6150 -6149 344 0
6150 6149 -344 0
-6151 6150 345 0
-6151 -6150 -345 0
6151 -6150 345 0
6151 6150 -345 0
-270 -6151 0
-6152 351 354 0
-6152 -351 -354 0
6152 -351 354 0
6152 351 -354 0
-6153 6152 355 0
-6153 -6152 -355 0
6153 -6152 355 0
6153 6152 -355 0
-6154 6153 356 0
-6154 -6153 -356 0
6154 -6153 356 0
6154 6153 -356 0
-6155 6154 359 0
-6155 -6154 -359 0
6155 -6154 359 0
6155 6154 -359 0
-6156 6155 360 0
-6156 -6155 -360 0
6156 -6155 360 0
6156 6155 -360 0
-270 -6156 0
-6157 366 369 0
-6157 -366 -369 0
6157 -366 369 0
6157 366 -369 0
-6158 6157 370 0
-6158 -6157 -370 0
6158 -6157 370 0
6158 6157 -370 0
-6159 6158 371 0
-6159 -6158 -371 0
6159 -6158 371 0
6159 6158 -371 0
-6160 6159 374 0
-6160 -6159 -374 0
6160 -6159 374 0
6160 6159 -374 0
-6161 6160 375 0
-6161 -6160 -375 0
6161 -6160 375 0
6161 6160 -375 0
-270 -6161 0
-6162 321 322 0
-6162 -321 -322 0
6162 -321 322 0
6162 321 -322 0
-6163 6162 323 0
-6163 -6162 -323 0
6163 -6162 323 0
6163 6162 -323 0
-6164 6163 324 0
-6164 -6163 -324 0
6164 -6163 324 0
6164 6163 -324 0
-6165 6164 325 0
-6165 -6164 -325 0
6165 -6164 325 0
6165 6164 -325 0
-6166 6165 326 0
-6166 -6165 -326 0
6166 -6165 326 0
6166 6165 -326 0
-6167 6166 329 0
-6167 -6166 -329 0
6167 -6166 329 0
6167 6166 -329 0
-6168 6167 330 0
-6168 -6167 -330 0
6168 -6167 330 0
6168 6167 -330 0
-271 -6168 0
-6169 336 337 0
-6169 -336 -337 0
6169 -336 337 0
6169 336 -337 0
-6170 6169 338 0
-6170 -6169 -338 0
6170 -6169 338 0
6170 6169 -338 0
-6171 6170 339 0
-6171 -6170 -339 0
6171 -6170 339 0
6171 6170 -339 0
-6172 6171 340 0
-6172 -6171 -340 0
6172 -6171 340 0
6172 6171 -340 0
-6173 6172 341 0
-6173 -6172 -341 0
6173 -6172 341 0
6173 6172 -341 0
-6174 6173 344 0
-6174 -6173 -344 0
6174 -6173 344 0
6174 6173 -344 0
-6175 6174 345 0
-6175 -6174 -345 0
6175 -6174 345 0
6175 6174 -345 0
-271 -6175 0
-6176 351 352 0
-6176 -351 -352 0
6176 -351 352 0
6176 351 -352 0
-6177 6176 353 0
-6177 -6176 -353 0
6177 -6176 353 0
6177 6176 -353 0
-6178 6177 354 0
-6178 -6177 -354 0
6178 -6177 354 0
6178 6177 -354 0
-6179 6178 355 0
-6179 -6178 -355 0
6179 -6178 355 0
6179 6178 -355 0
-6180 6179 356 0
-6180 -6179 -356 0
6180 -6179 356 0
6180 6179 -356 0
-6181 6180 359 0
-6181 -6180 -359 0
6181 -6180 359 0
6181 6180 -359 0
-6182 6181 360 0
-6182 -6181 -360 0
6182 -6181 360 0
6182 6181 -360 0
-271 -6182 0
-6183 366 367 0
-6183 -366 -367 0
6183 -366 367 0
6183 366 -367 0
-6184 6183 368 0
-6184 -6183 -368 0
6184 -6183 368 0
6184 6183 -368 0
-6185 6184 369 0
-6185 -6184 -369 0
6185 -6184 369 0
6185 6184 -369 0
-6186 6185 370 0
-6186 -6185 -370 0
6186 -6185 370 0
6186 6185 -370 0
-6187 6186 371 0
-6187 -6186 -371 0
6187 -6186 371 0
6187 6186 -371 0
-6188 6187 374 0
-6188 -6187 -374 0
6188 -6187 374 0
6188 6187 -374 0
-6189 6188 375 0
-6189 -6188 -375 0
6189 -6188 375 0
6189 6188 -375 0
-271 -6189 0
-6190 316 318 0
-6190 -316 -318 0
6190 -316 318 0
6190 316 -318 0
-6191 6190 319 0
-6191 -6190 -319 0
6191 -6190 319 0
6191 6190 -319 0
-6192 6191 322 0
-6192 -6191 -322 0
6192 -6191 322 0
6192 6191 -322 0
-6193 6192 324 0
-6193 -6192 -324 0
6193 -6192 324 0
6193 6192 -324 0
-6194 6193 328 0
-6194 -6193 -328 0
6194 -6193 328 0
6194 6193 -328 0
-6195 6194 329 0
-6195 -6194 -329 0
6195 -6194 329 0
6195 6194 -329 0
-6196 6195 330 0
-6196 -6195 -330 0
6196 -6195 330 0
6196 6195 -330 0
-272 -6196 0
-6197 331 333 0
-6197 -331 -333 0
6197 -331 333 0
6197 331 -333 0
-6198 6197 334 0
-6198 -6197 -334 0
6198 -6197 334 0
6198 6197 -334 0
-6199 6198 337 0
-6199 -6198 -337 0
6199 -6198 337 0
6199 6198 -337 0
-6200 6199 339 0
-6200 -6199 -339 0
6200 -6199 339 0
6200 6199 -339 0
-6201 6200 343 0
-6201 -6200 -343 0
6201 -6200 343 0
6201 6200 -343 0
-6202 6201 344 0
-6202 -6201 -344 0
6202 -6201 344 0
6202 6201 -344 0
-6203 6202 345 0
-6203 -6202 -345 0
6203 -6202 345 0
6203 6202 -345 0
-272 -6203 0
-6204 346 348 0
-6204 -346 -348 0
6204 -346 348 0
6204 346 -348 0
-6205 6204 349 0
-6205 -6204 -349 0
6205 -6204 349 0
6205 6204 -349 0
-6206 6205 352 0
-6206 -6205 -352 0
6206 -6205 352 0
6206 6205 -352 0
-6207 6206 354 0
-6207 -6206 -354 0
6207 -6206 354 0
6207 6206 -354 0
-6208 6207 358 0
-6208 -6207 -358 0
6208 -6207 358 0
6208 6207 -358 0
-6209 6208 359 0
-6209 -6208 -359 0
6209 -6208 359 0
6209 6208 -359 0
-6210 6209 360 0
-6210 -6209 -360 0
6210 -6209 360 0
6210 6209 -360 0
-272 -6210 0
-6211 361 363 0
-6211 -361 -363 0
6211 -361 363 0
6211 361 -363 0
-6212 6211 364 0
-6212 -6211 -364 0
6212 -6211 364 0
6212 6211 -364 0
-6213 6212 367 0
-6213 -6212 -367 0
6213 -6212 367 0
6213 6212 -367 0
-6214 6213 369 0
-6214 -6213 -369 0
6214 -6213 369 0
6214 6213 -369 0
-6215 6214 373 0
-6215 -6214 -373 0
6215 -6214 373 0
6215 6214 -373 0
-6216 6215 374 0
-6216 -6215 -374 0
6216 -6215 374 0
6216 6215 -374 0
-6217 6216 375 0
-6217 -6216 -375 0
6217 -6216 375 0
6217 6216 -375 0
-272 -6217 0
-6218 316 318 0
-6218 -316 -318 0
6218 -316 318 0
6218 316 -318 0
-6219 6218 319 0
-6219 -6218 -319 0
6219 -6218 319 0
6219 6218 -319 0
-6220 6219 323 0
-6220 -6219 -323 0
6220 -6219 323 0
6220 6219 -323 0
-6221 6220 324 0
-6221 -6220 -324 0
6221 -6220 324 0
6221 6220 -324 0
-6222 6221 328 0
-6222 -6221 -328 0
6222 -6221 328 0
6222 6221 -328 0
-6223 6222 329 0
-6223 -6222 -329 0
6223 -6222 329 0
6223 6222 -329 0
-6224 6223 330 0
-6224 -6223 -330 0
6224 -6223 330 0
6224 6223 -330 0
-273 -6224 0
-6225 331 333 0
-6225 -331 -333 0
6225 -331 333 0
6225 331 -333 0
-6226 6225 334 0
-6226 -6225 -334 0
6226 -6225 334 0
6226 6225 -334 0
-6227 6226 338 0
-6227 -6226 -338 0
6227 -6226 338 0
6227 6226 -338 0
-6228 6227 339 0
-6228 -6227 -339 0
6228 -6227 339 0
6228 6227 -339 0
-6229 6228 343 0
-6229 -6228 -343 0
6229 -6228 343 0
6229 6228 -343 0
-6230 6229 344 0
-6230 -6229 -344 0
6230 -6229 344 0
6230 6229 -344 0
-6231 6230 345 0
-6231 -6230 -345 0
6231 -6230 345 0
6231 6230 -345 0
-273 -6231 0
-6232 346 348 0
-6232 -346 -348 0
6232 -346 348 0
6232 346 -348 0
-6233 6232 349 0
-6233 -6232 -349 0
6233 -6232 349 0
6233 6232 -349 0
-6234 6233 353 0
-6234 -6233 -353 0
6234 -6233 353 0
6234 6233 -353 0
-6235 6234 354 0
-6235 -6234 -354 0
6235 -6234 354 0
6235 6234 -354 0
-6236 6235 358 0
-6236 -6235 -358 0
6236 -6235 358 0
6236 6235 -358 0
-6237 6236 359 0
-6237 -6236 -359 0
6237 -6236 359 0
6237 6236 -359 0
-6238 6237 360 0
-6238 -6237 -360 0
6238 -6237 360 0
6238 6237 -360 0
-273 -6238 0
-6239 361 363 0
-6239 -361 -363 0
6239 -361 363 0
6239 361 -363 0
-6240 6239 364 0
-6240 -6239 -364 0
6240 -6239 364 0
6240 6239 -364 0
-6241 6240 368 0
-6241 -6240 -368 0
6241 -6240 368 0
6241 6240 -368 0
-6242 6241 369 0
-6242 -6241 -369 0
6242 -6241 369 0
6242 6241 -369 0
-6243 6242 373 0
-6243 -6242 -373 0
6243 -6242 373 0
6243 6242 -373 0
-6244 6243 374 0
-6244 -6243 -374 0
6244 -6243 374 0
6244 6243 -374 0
-6245 6244 375 0
-6245 -6244 -375 0
6245 -6244 375 0
6245 6244 -375 0
-273 -6245 0
-6246 321 322 0
-6246 -321 -322 0
6246 -321 322 0
6246 321 -322 0
-6247 6246 324 0
-6247 -6246 -324 0
6247 -6246 324 0
6247 6246 -324 0
-6248 6247 325 0
-6248 -6247 -325 0
6248 -6247 325 0
6248 6247 -325 0
-6249 6248 326 0
-6249 -6248 -326 0
6249 -6248 326 0
6249 6248 -326 0
-6250 6249 328 0
-6250 -6249 -328 0
6250 -6249 328 0
6250 6249 -328 0
-6251 6250 329 0
-6251 -6250 -329 0
6251 -6250 329 0
6251 6250 -329 0
-6252 6251 330 0
-6252 -6251 -330 0
6252 -6251 330 0
6252 6251 -330 0
-274 -6252 0
-6253 336 337 0
-6253 -336 -337 0
6253 -336 337 0
6253 336 -337 0
-6254 6253 339 0
-6254 -6253 -339 0
6254 -6253 339 0
6254 6253 -339 0
-6255 6254 340 0
-6255 -6254 -340 0
6255 -6254 340 0
6255 6254 -340 0
-6256 6255 341 0
-6256 -6255 -341 0
6256 -6255 341 0
6256 6255 -341 0
-6257 6256 343 0
-6257 -6256 -343 0
6257 -6256 343 0
6257 6256 -343 0
-6258 6257 344 0
-6258 -6257 -344 0
6258 -6257 344 0
6258 6257 -344 0
-6259 6258 345 0
-6259 -6258 -345 0
6259 -6258 345 0
6259 6258 -345 0
-274 -6259 0
-6260 351 352 0
-6260 -351 -352 0
6260 -351 352 0
6260 351 -352 0
-6261 6260 354 0
-6261 -6260 -354 0
6261 -6260 354 0
6261 6260 -354 0
-6262 6261 355 0
-6262 -6261 -355 0
6262 -6261 355 0
6262 6261 -355 0
-6263 6262 356 0
-6263 -6262 -356 0
6263 -6262 356 0
6263 6262 -356 0
-6264 6263 358 0
-6264 -6263 -358 0
6264 -6263 358 0
6264 6263 -358 0
-6265 6264 359 0
-6265 -6264 -359 0
6265 -6264 359 0
6265 6264 -359 0
-6266 6265 360 0
-6266 -6265 -360 0
6266 -6265 360 0
6266 6265 -360 0
-274 -6266 0
-6267 366 367 0
-6267 -366 -367 0
6267 -366 367 0
6267 366 -367 0
-6268 6267 369 0
-6268 -6267 -369 0
6268 -6267 369 0
6268 6267 -369 0
-6269 6268 370 0
-6269 -6268 -370 0
6269 -6268 370 0
6269 6268 -370 0
-6270 6269 371 0
-6270 -6269 -371 0
6270 -6269 371 0
6270 6269 -371 0
-6271 6270 373 0
-6271 -6270 -373 0
6271 -6270 373 0
6271 6270 -373 0
-6272 6271 374 0
-6272 -6271 -374 0
6272 -6271 374 0
6272 6271 -374 0
-6273 6272 375 0
-6273 -6272 -375 0
6273 -6272 375 0
6273 6272 -375 0
-274 -6273 0
-6274 321 323 0
-6274 -321 -323 0
6274 -321 323 0
6274 321 -323 0
-6275 6274 324 0
-6275 -6274 -324 0
6275 -6274 324 0
6275 6274 -324 0
-6276 6275 325 0
-6276 -6275 -325 0
6276 -6275 325 0
6276 6275 -325 0
-6277 6276 326 0
-6277 -6276 -326 0
6277 -6276 326 0
6277 6276 -326 0
-6278 6277 328 0
-6278 -6277 -328 0
6278 -6277 328 0
6278 6277 -328 0
-6279 6278 329 0
-6279 -6278 -329 0
6279 -6278 329 0
6279 6278 -329 0
-6280 6279 330 0
-6280 -6279 -330 0
6280 -6279 330 0
6280 6279 -330 0
-275 -6280 0
-6281 336 338 0
-6281 -336 -338 0
6281 -336 338 0
6281 336 -338 0
-6282 6281 339 0
-6282 -6281 -339 0
6282 -6281 339 0
6282 6281 -339 0
-6283 6282 340 0
-6283 -6282 -340 0
6283 -6282 340 0
6283 6282 -340 0
-6284 6283 341 0
-6284 -6283 -341 0
6284 -6283 341 0
6284 6283 -341 0
-6285 6284 343 0
-6285 -6284 -343 0
6285 -6284 343 0
6285 6284 -343 0
-6286 6285 344 0
-6286 -6285 -344 0
6286 -6285 344 0
6286 6285 -344 0
-6287 6286 345 0
-6287 -6286 -345 0
6287 -6286 345 0
6287 6286 -345 0
-275 -6287 0
-6288 351 353 0
-6288 -351 -353 0
6288 -351 353 0
6288 351 -353 0
-6289 6288 354 0
-6289 -6288 -354 0
6289 -6288 354 0
6289 6288 -354 0
-6290 6289 355 0
-6290 -6289 -355 0
6290 -6289 355 0
6290 6289 -355 0
-6291 6290 356 0
-6291 -6290 -356 0
6291 -6290 356 0
6291 6290 -356 0
-6292 6291 358 0
-6292 -6291 -358 0
6292 -6291 358 0
6292 6291 -358 0
-6293 6292 359 0
-6293 -6292 -359 0
6293 -6292 359 0
6293 6292 -359 0
-6294 6293 360 0
-6294 -6293 -360 0
6294 -6293 360 0
6294 6293 -360 0
-275 -6294 0
-6295 366 368 0
-6295 -366 -368 0
6295 -366 368 0
6295 366 -368 0
-6296 6295 369 0
-6296 -6295 -369 0
6296 -6295 369 0
6296 6295 -369 0
-6297 6296 370 0
-6297 -6296 -370 0
6297 -6296 370 0
6297 6296 -370 0
-6298 6297 371 0
-6298 -6297 -371 0
6298 -6297 371 0
6298 6297 -371 0
-6299 6298 373 0
-6299 -6298 -373 0
6299 -6298 373 0
6299 6298 -373 0
-6300 6299 374 0
-6300 -6299 -374 0
6300 -6299 374 0
6300 6299 -374 0
-6301 6300 375 0
-6301 -6300 -375 0
6301 -6300 375 0
6301 6300 -375 0
-275 -6301 0
-6302 316 318 0
-6302 -316 -318 0
6302 -316 318 0
6302 316 -318 0
-6303 6302 319 0
-6303 -6302 -319 0
6303 -6302 319 0
6303 6302 -319 0
-6304 6303 320 0
-6304 -6303 -320 0
6304 -6303 320 0
6304 6303 -320 0
-6305 6304 324 0
-6305 -6304 -324 0
6305 -6304 324 0
6305 6304 -324 0
-6306 6305 329 0
-6306 -6305 -329 0
6306 -6305 329 0
6306 6305 -329 0
-6307 6306 330 0
-6307 -6306 -330 0
6307 -6306 330 0
6307 6306 -330 0
-276 -6307 0
-6308 331 333 0
-6308 -331 -333 0
6308 -331 333 0
6308 331 -333 0
-6309 6308 334 0
-6309 -6308 -334 0
6309 -6308 334 0
6309 6308 -334 0
-6310 6309 335 0
-6310 -6309 -335 0
6310 -6309 335 0
6310 6309 -335 0
-6311 6310 339 0
-6311 -6310 -339 0
6311 -6310 339 0
6311 6310 -339 0
-6312 6311 344 0
-6312 -6311 -344 0
6312 -6311 344 0
6312 6311 -344 0
-6313 6312 345 0
-6313 -6312 -345 0
6313 -6312 345 0
6313 6312 -345 0
-276 -6313 0
-6314 346 348 0
-6314 -346 -348 0
6314 -346 348 0
6314 346 -348 0
-6315 6314 349 0
-6315 -6314 -349 0
6315 -6314 349 0
6315 6314 -349 0
-6316 6315 350 0
-6316 -6315 -350 0
6316 -6315 350 0
6316 6315 -350 0
-6317 6316 354 0
-6317 -6316 -354 0
6317 -6316 354 0
6317 6316 -354 0
-6318 6317 359 0
-6318 -6317 -359 0
6318 -6317 359 0
6318 6317 -359 0
-6319 6318 360 0
-6319 -6318 -360 0
6319 -6318 360 0
6319 6318 -360 0
-276 -6319 0
-6320 361 363 0
-6320 -361 -363 0
6320 -361 363 0
6320 361 -363 0
-6321 6320 364 0
-6321 -6320 -364 0
6321 -6320 364 0
6321 6320 -364 0
-6322 6321 365 0
-6322 -6321 -365 0
6322 -6321 365 0
6322 6321 -365 0
-6323 6322 369 0
-6323 -6322 -369 0
6323 -6322 369 0
6323 6322 -369 0
-6324 6323 374 0
-6324 -6323 -374 0
6324 -6323 374 0
6324 6323 -374 0
-6325 6324 375 0
-6325 -6324 -375 0
6325 -6324 375 0
6325 6324 -375 0
-276 -6325 0
-6326 316 320 0
-6326 -316 -320 0
6326 -316 320 0
6326 316 -320 0
-6327 6326 322 0
-6327 -6326 -322 0
6327 -6326 322 0
6327 6326 -322 0
-6328 6327 323 0
-6328 -6327 -323 0
6328 -6327 323 0
6328 6327 -323 0
-6329 6328 324 0
-6329 -6328 -324 0
6329 -6328 324 0
6329 6328 -324 0
-6330 6329 329 0
-6330 -6329 -329 0
6330 -6329 329 0
6330 6329 -329 0
-6331 6330 330 0
-6331 -6330 -330 0
6331 -6330 330 0
6331 6330 -330 0
-277 -6331 0
-6332 331 335 0
-6332 -331 -335 0
6332 -331 335 0
6332 331 -335 0
-6333 6332 337 0
-6333 -6332 -337 0
6333 -6332 337 0
6333 6332 -337 0
-6334 6333 338 0
-6334 -6333 -338 0
6334 -6333 338 0
6334 6333 -338 0
-6335 6334 339 0
-6335 -6334 -339 0
6335 -6334 339 0
6335 6334 -339 0
-6336 6335 344 0
-6336 -6335 -344 0
6336 -6335 344 0
6336 6335 -344 0
-6337 6336 345 0
-6337 -6336 -345 0
6337 -6336 345 0
6337 6336 -345 0
-277 -6337 0
-6338 346 350 0
-6338 -346 -350 0
6338 -346 350 0
6338 346 -350 0
-6339 6338 352 0
-6339 -6338 -352 0
6339 -6338 352 0
6339 6338 -352 0
-6340 6339 353 0
-6340 -6339 -353 0
6340 -6339 353 0
6340 6339 -353 0
-6341 6340 354 0
-6341 -6340 -354 0
6341 -6340 354 0
6341 6340 -354 0
-6342 6341 359 0
-6342 -6341 -359 0
6342 -6341 359 0
6342 6341 -359 0
-6343 6342 360 0
-6343 -6342 -360 0
6343 -6342 360 0
6343 6342 -360 0
-277 -6343 0
-6344 361 365 0
-6344 -361 -365 0
6344 -361 365 0
6344 361 -365 0
-6345 6344 367 0
-6345 -6344 -367 0
6345 -6344 367 0
6345 6344 -367 0
-6346 6345 368 0
-6346 -6345 -368 0
6346 -6345 368 0
6346 6345 -368 0
-6347 6346 369 0
-6347 -6346 -369 0
6347 -6346 369 0
6347 6346 -369 0
-6348 6347 374 0
-6348 -6347 -374 0
6348 -6347 374 0
6348 6347 -374 0
-6349 6348 375 0
-6349 -6348 -375 0
6349 -6348 375 0
6349 6348 -375 0
-277 -6349 0
-6350 317 320 0
-6350 -317 -320 0
6350 -317 320 0
6350 317 -320 0
-6351 6350 321 0
-6351 -6350 -321 0
6351 -6350 321 0
6351 6350 -321 0
-6352 6351 324 0
-6352 -6351 -324 0
6352 -6351 324 0
6352 6351 -324 0
-6353 6352 325 0
-6353 -6352 -325 0
6353 -6352 325 0
6353 6352 -325 0
-6354 6353 326 0
-6354 -6353 -326 0
6354 -6353 326 0
6354 6353 -326 0
-6355 6354 329 0
-6355 -6354 -329 0
6355 -6354 329 0
6355 6354 -329 0
-6356 6355 330 0
-6356 -6355 -330 0
6356 -6355 330 0
6356 6355 -330 0
-278 -6356 0
-6357 332 335 0
-6357 -332 -335 0
6357 -332 335 0
6357 332 -335 0
-6358 6357 336 0
-6358 -6357 -336 0
6358 -6357 336 0
6358 6357 -336 0
-6359 6358 339 0
-6359 -6358 -339 0
6359 -6358 339 0
6359 6358 -339 0
-6360 6359 340 0
-6360 -6359 -340 0
6360 -6359 340 0
6360 6359 -340 0
-6361 6360 341 0
-6361 -6360 -341 0
6361 -6360 341 0
6361 6360 -341 0
-6362 6361 344 0
-6362 -6361 -344 0
6362 -6361 344 0
6362 6361 -344 0
-6363 6362 345 0
-6363 -6362 -345 0
6363 -6362 345 0
6363 6362 -345 0
-278 -6363 0
-6364 347 350 0
-6364 -347 -350 0
6364 -347 350 0
6364 347 -350 0
-6365 6364 351 0
-6365 -6364 -351 0
6365 -6364 351 0
6365 6364 -351 0
-6366 6365 354 0
-6366 -6365 -354 0
6366 -6365 354 0
6366 6365 -354 0
-6367 6366 355 0
-6367 -6366 -355 0
6367 -6366 355 0
6367 6366 -355 0
-6368 6367 356 0
-6368 -6367 -356 0
6368 -6367 356 0
6368 6367 -356 0
-6369 6368 359 0
-6369 -6368 -359 0
6369 -6368 359 0
6369 6368 -359 0
-6370 6369 360 0
-6370 -6369 -360 0
6370 -6369 360 0
6370 6369 -360 0
-278 -6370 0
-6371 362 365 0
-6371 -362 -365 0
6371 -362 365 0
6371 362 -365 0
-6372 6371 366 0
-6372 -6371 -366 0
6372 -6371 366 0
6372 6371 -366 0
-6373 6372 369 0
-6373 -6372 -369 0
6373 -6372 369 0
6373 6372 -369 0
-6374 6373 370 0
-6374 -6373 -370 0
6374 -6373 370 0
6374 6373 -370 0
-6375 6374 371 0
-6375 -6374 -371 0
6375 -6374 371 0
6375 6374 -371 0
-6376 6375 374 0
-6376 -6375 -374 0
6376 -6375 374 0
6376 6375 -374 0
-6377 6376 375 0
-6377 -6376 -375 0
6377 -6376 375 0
6377 6376 -375 0
-278 -6377 0
-6378 317 318 0
-6378 -317 -318 0
6378 -317 318 0
6378 317 -318 0
-6379 6378 319 0
-6379 -6378 -319 0
6379 -6378 319 0
6379 6378 -319 0
-6380 6379 320 0
-6380 -6379 -320 0
6380 -6379 320 0
6380 6379 -320 0
-6381 6380 321 0
-6381 -6380 -321 0
6381 -6380 321 0
6381 6380 -321 0
-6382 6381 322 0
-6382 -6381 -322 0
6382 -6381 322 0
6382 6381 -322 0
-6383 6382 323 0
-6383 -6382 -323 0
6383 -6382 323 0
6383 6382 -323 0
-6384 6383 324 0
-6384 -6383 -324 0
6384 -6383 324 0
6384 6383 -324 0
-6385 6384 325 0
-6385 -6384 -325 0
6385 -6384 325 0
6385 6384 -325 0
-6386 6385 326 0
-6386 -6385 -326 0
6386 -6385 326 0
6386 6385 -326 0
-6387 6386 329 0
-6387 -6386 -329 0
6387 -6386 329 0
6387 6386 -329 0
-6388 6387 330 0
-6388 -6387 -330 0
6388 -6387 330 0
6388 6387 -330 0
-279 -6388 0
-6389 332 333 0
-6389 -332 -333 0
6389 -332 333 0
6389 332 -333 0
-6390 6389 334 0
-6390 -6389 -334 0
6390 -6389 334 0
6390 6389 -334 0
-6391 6390 335 0
-6391 -6390 -335 0
6391 -6390 335 0
6391 6390 -335 0
-6392 6391 336 0
-6392 -6391 -336 0
6392 -6391 336 0
6392 6391 -336 0
-6393 6392 337 0
-6393 -6392 -337 0
6393 -6392 337 0
6393 6392 -337 0
-6394 6393 338 0
-6394 -6393 -338 0
6394 -6393 338 0
6394 6393 -338 0
-6395 6394 339 0
-6395 -6394 -339 0
6395 -6394 339 0
6395 6394 -339 0
-6396 6395 340 0
-6396 -6395 -340 0
6396 -6395 340 0
6396 6395 -340 0
-6397 6396 341 0
-6397 -6396 -341 0
6397 -6396 341 0
6397 6396 -341 0
-6398 6397 344 0
-6398 -6397 -344 0
6398 -6397 344 0
6398 6397 -344 0
-6399 6398 345 0
-6399 -6398 -345 0
6399 -6398 345 0
6399 6398 -345 0
-279 -6399 0
-6400 347 348 0
-6400 -347 -348 0
6400 -347 348 0
6400 347 -348 0
-6401 6400 349 0
-6401 -6400 -349 0
6401 -6400 349 0
6401 6400 -349 0
-6402 6401 350 0
-6402 -6401 -350 0
6402 -6401 350 0
6402 6401 -350 0
-6403 6402 351 0
-6403 -6402 -351 0
6403 -6402 351 0
6403 6402 -351 0
-6404 6403 352 0
-6404 -6403 -352 0
6404 -6403 352 0
6404 6403 -352 0
-6405 6404 353 0
-6405 -6404 -353 0
6405 -6404 353 0
6405 6404 -353 0
-6406 6405 354 0
-6406 -6405 -354 0
6406 -6405 354 0
6406 6405 -354 0
-6407 6406 355 0
-6407 -6406 -355 0
6407 -6406 355 0
6407 6406 -355 0
-6408 6407 356 0
-6408 -6407 -356 0
6408 -6407 356 0
6408 6407 -356 0
-6409 6408 359 0
-6409 -6408 -359 0
6409 -6408 359 0
6409 6408 -359 0
-6410 6409 360 0
-6410 -6409 -360 0
6410 -6409 360 0
6410 6409 -360 0
-279 -6410 0
-6411 362 363 0
-6411 -362 -363 0
6411 -362 363 0
6411 362 -363 0
-6412 6411 364 0
-6412 -6411 -364 0
6412 -6411 364 0
6412 6411 -364 0
-6413 6412 365 0
-6413 -6412 -365 0
6413 -6412 365 0
6413 6412 -365 0
-6414 6413 366 0
-6414 -6413 -366 0
6414 -6413 366 0
6414 6413 -366 0
-6415 6414 367 0
-6415 -6414 -367 0
6415 -6414 367 0
6415 6414 -367 0
-6416 6415 368 0
-6416 -6415 -368 0
6416 -6415 368 0
6416 6415 -368 0
-6417 6416 369 0
-6417 -6416 -369 0
6417 -6416 369 0
6417 6416 -369 0
-6418 6417 370 0
-6418 -6417 -370 0
6418 -6417 370 0
6418 6417 -370 0
-6419 6418 371 0
-6419 -6418 -371 0
6419 -6418 371 0
6419 6418 -371 0
-6420 6419 374 0
-6420 -6419 -374 0
6420 -6419 374 0
6420 6419 -374 0
-6421 6420 375 0
-6421 -6420 -375 0
6421 -6420 375 0
6421 6420 -375 0
-279 -6421 0
-6422 316 319 0
-6422 -316 -319 0
6422 -316 319 0
6422 316 -319 0
-6423 6422 320 0
-6423 -6422 -320 0
6423 -6422 320 0
6423 6422 -320 0
-6424 6423 322 0
-6424 -6423 -322 0
6424 -6423 322 0
6424 6423 -322 0
-6425 6424 324 0
-6425 -6424 -324 0
6425 -6424 324 0
6425 6424 -324 0
-6426 6425 328 0
-6426 -6425 -328 0
6426 -6425 328 0
6426 6425 -328 0
-6427 6426 329 0
-6427 -6426 -329 0
6427 -6426 329 0
6427 6426 -329 0
-6428 6427 330 0
-6428 -6427 -330 0
6428 -6427 330 0
6428 6427 -330 0
-280 -6428 0
-6429 331 334 0
-6429 -331 -334 0
6429 -331 334 0
6429 331 -334 0
-6430 6429 335 0
-6430 -6429 -335 0
6430 -6429 335 0
6430 6429 -335 0
-6431 6430 337 0
-6431 -6430 -337 0
6431 -6430 337 0
6431 6430 -337 0
-6432 6431 339 0
-6432 -6431 -339 0
6432 -6431 339 0
6432 6431 -339 0
-6433 6432 343 0
-6433 -6432 -343 0
6433 -6432 343 0
6433 6432 -343 0
-6434 6433 344 0
-6434 -6433 -344 0
6434 -6433 344 0
6434 6433 -344 0
-6435 6434 345 0
-6435 -6434 -345 0
6435 -6434 345 0
6435 6434 -345 0
-280 -6435 0
-6436 346 349 0
-6436 -346 -349 0
6436 -346 349 0
6436 346 -349 0
-6437 6436 350 0
-6437 -6436 -350 0
6437 -6436 350 0
6437 6436 -350 0
-6438 6437 352 0
-6438 -6437 -352 0
6438 -6437 352 0
6438 6437 -352 0
-6439 6438 354 0
-6439 -6438 -354 0
6439 -6438 354 0
6439 6438 -354 0
-6440 6439 358 0
-6440 -6439 -358 0
6440 -6439 358 0
6440 6439 -358 0
-6441 6440 359 0
-6441 -6440 -359 0
6441 -6440 359 0
6441 6440 -359 0
-6442 6441 360 0
-6442 -6441 -360 0
6442 -6441 360 0
6442 6441 -360 0
-280 -6442 0
-6443 361 364 0
-6443 -361 -364 0
6443 -361 364 0
6443 361 -364 0
-6444 6443 365 0
-6444 -6443 -365 0
6444 -6443 365 0
6444 6443 -365 0
-6445 6444 367 0
-6445 -6444 -367 0
6445 -6444 367 0
6445 6444 -367 0
-6446 6445 369 0
-6446 -6445 -369 0
6446 -6445 369 0
6446 6445 -369 0
-6447 6446 373 0
-6447 -6446 -373 0
6447 -6446 373 0
6447 6446 -373 0
-6448 6447 374 0
-6448 -6447 -374 0
6448 -6447 374 0
6448 6447 -374 0
-6449 6448 375 0
-6449 -6448 -375 0
6449 -6448 375 0
6449 6448 -375 0
-280 -6449 0
-6450 316 318 0
-6450 -316 -318 0
6450 -316 318 0
6450 316 -318 0
-6451 6450 320 0
-6451 -6450 -320 0
6451 -6450 320 0
6451 6450 -320 0
-6452 6451 323 0
-6452 -6451 -323 0
6452 -6451 323 0
6452 6451 -323 0
-6453 6452 324 0
-6453 -6452 -324 0
6453 -6452 324 0
6453 6452 -324 0
-6454 6453 328 0
-6454 -6453 -328 0
6454 -6453 328 0
6454 6453 -328 0
-6455 6454 329 0
-6455 -6454 -329 0
6455 -6454 329 0
6455 6454 -329 0
-6456 6455 330 0
-6456 -6455 -330 0
6456 -6455 330 0
6456 6455 -330 0
-281 -6456 0
-6457 331 333 0
-6457 -331 -333 0
6457 -331 333 0
6457 331 -333 0
-6458 6457 335 0
-6458 -6457 -335 0
6458 -6457 335 0
6458 6457 -335 0
-6459 6458 338 0
-6459 -6458 -338 0
6459 -6458 338 0
6459 6458 -338 0
-6460 6459 339 0
-6460 -6459 -339 0
6460 -6459 339 0
6460 6459 -339 0
-6461 6460 343 0
-6461 -6460 -343 0
6461 -6460 343 0
6461 6460 -343 0
-6462 6461 344 0
-6462 -6461 -344 0
6462 -6461 344 0
6462 6461 -344 0
-6463 6462 345 0
-6463 -6462 -345 0
6463 -6462 345 0
6463 6462 -345 0
-281 -6463 0
-6464 346 348 0
-6464 -346 -348 0
6464 -346 348 0
6464 346 -348 0
-6465 6464 350 0
-6465 -6464 -350 0
6465 -6464 350 0
6465 6464 -350 0
-6466 6465 353 0
-6466 -6465 -353 0
6466 -6465 353 0
6466 6465 -353 0
-6467 6466 354 0
-6467 -6466 -354 0
6467 -6466 354 0
6467 6466 -354 0
-6468 6467 358 0
-6468 -6467 -358 0
6468 -6467 358 0
6468 6467 -358 0
-6469 6468 359 0
-6469 -6468 -359 0
6469 -6468 359 0
6469 6468 -359 0
-6470 6469 360 0
-6470 -6469 -360 0
6470 -6469 360 0
6470 6469 -360 0
-281 -6470 0
-6471 361 363 0
-6471 -361 -363 0
6471 -361 363 0
6471 361 -363 0
-6472 6471 365 0
-6472 -6471 -365 0
6472 -6471 365 0
6472 6471 -365 0
-6473 6472 368 0
-6473 -6472 -368 0
6473 -6472 368 0
6473 6472 -368 0
-6474 6473 369 0
-6474 -6473 -369 0
6474 -6473 369 0
6474 6473 -369 0
-6475 6474 373 0
-6475 -6474 -373 0
6475 -6474 373 0
6475 6474 -373 0
-6476 6475 374 0
-6476 -6475 -374 0
6476 -6475 374 0
6476 6475 -374 0
-6477 6476 375 0
-6477 -6476 -375 0
6477 -6476 375 0
6477 6476 -375 0
-281 -6477 0
-6478 317 318 0
-6478 -317 -318 0
6478 -317 318 0
6478 317 -318 0
-6479 6478 320 0
-6479 -6478 -320 0
6479 -6478 320 0
6479 6478 -320 0
-6480 6479 321 0
-6480 -6479 -321 0
6480 -6479 321 0
6480 6479 -321 0
-6481 6480 322 0
-6481 -6480 -322 0
6481 -6480 322 0
6481 6480 -322 0
-6482 6481 324 0
-6482 -6481 -324 0
6482 -6481 324 0
6482 6481 -324 0
-6483 6482 325 0
-6483 -6482 -325 0
6483 -6482 325 0
6483 6482 -325 0
-6484 6483 326 0
-6484 -6483 -326 0
6484 -6483 326 0
6484 6483 -326 0
-6485 6484 328 0
-6485 -6484 -328 0
6485 -6484 328 0
6485 6484 -328 0
-6486 6485 329 0
-6486 -6485 -329 0
6486 -6485 329 0
6486 6485 -329 0
-6487 6486 330 0
-6487 -6486 -330 0
6487 -6486 330 0
6487 6486 -330 0
-282 -6487 0
-6488 332 333 0
-6488 -332 -333 0
6488 -332 333 0
6488 332 -333 0
-6489 6488 335 0
-6489 -6488 -335 0
6489 -6488 335 0
6489 6488 -335 0
-6490 6489 336 0
-6490 -6489 -336 0
6490 -6489 336 0
6490 6489 -336 0
-6491 6490 337 0
-6491 -6490 -337 0
6491 -6490 337 0
6491 6490 -337 0
-6492 6491 339 0
-6492 -6491 -339 0
6492 -6491 339 0
6492 6491 -339 0
-6493 6492 340 0
-6493 -6492 -340 0
6493 -6492 340 0
6493 6492 -340 0
-6494 6493 341 0
-6494 -6493 -341 0
6494 -6493 341 0
6494 6493 -341 0
-6495 6494 343 0
-6495 -6494 -343 0
6495 -6494 343 0
6495 6494 -343 0
-6496 6495 344 0
-6496 -6495 -344 0
6496 -6495 344 0
6496 6495 -344 0
-6497 6496 345 0
-6497 -6496 -345 0
6497 -6496 345 0
6497 6496 -345 0
-282 -6497 0
-6498 347 348 0
-6498 -347 -348 0
6498 -347 348 0
6498 347 -348 0
-6499 6498 350 0
-6499 -6498 -350 0
6499 -6498 350 0
6499 6498 -350 0
-6500 6499 351 0
-6500 -6499 -351 0
6500 -6499 351 0
6500 6499 -351 0
-6501 6500 352 0
-6501 -6500 -352 0
6501 -6500 352 0
6501 6500 -352 0
-6502 6501 354 0
-6502 -6501 -354 0
6502 -6501 354 0
6502 6501 -354 0
-6503 6502 355 0
-6503 -6502 -355 0
6503 -6502 355 0
6503 6502 -355 0
-6504 6503 356 0
-6504 -6503 -356 0
6504 -6503 356 0
6504 6503 -356 0
-6505 6504 358 0
-6505 -6504 -358 0
6505 -6504 358 0
6505 6504 -358 0
-6506 6505 359 0
-6506 -6505 -359 0
6506 -6505 359 0
6506 6505 -359 0
-6507 6506 360 0
-6507 -6506 -360 0
6507 -6506 360 0
6507 6506 -360 0
-282 -6507 0
-6508 362 363 0
-6508 -362 -363 0
6508 -362 363 0
6508 362 -363 0
-6509 6508 365 0
-6509 -6508 -365 0
6509 -6508 365 0
6509 6508 -365 0
-6510 6509 366 0
-6510 -6509 -366 0
6510 -6509 366 0
6510 6509 -366 0
-6511 6510 367 0
-6511 -6510 -367 0
6511 -6510 367 0
6511 6510 -367 0
-6512 6511 369 0
-6512 -6511 -369 0
6512 -6511 369 0
6512 6511 -369 0
-6513 6512 370 0
-6513 -6512 -370 0
6513 -6512 370 0
6513 6512 -370 0
-6514 6513 371 0
-6514 -6513 -371 0
6514 -6513 371 0
6514 6513 -371 0
-6515 6514 373 0
-6515 -6514 -373 0
6515 -6514 373 0
6515 6514 -373 0
-6516 6515 374 0
-6516 -6515 -374 0
6516 -6515 374 0
6516 6515 -374 0
-6517 6516 375 0
-6517 -6516 -375 0
6517 -6516 375 0
6517 6516 -375 0
-282 -6517 0
-6518 317 319 0
-6518 -317 -319 0
6518 -317 319 0
6518 317 -319 0
-6519 6518 320 0
-6519 -6518 -320 0
6519 -6518 320 0
6519 6518 -320 0
-6520 6519 321 0
-6520 -6519 -321 0
6520 -6519 321 0
6520 6519 -321 0
-6521 6520 323 0
-6521 -6520 -323 0
6521 -6520 323 0
6521 6520 -323 0
-6522 6521 324 0
-6522 -6521 -324 0
6522 -6521 324 0
6522 6521 -324 0
-6523 6522 325 0
-6523 -6522 -325 0
6523 -6522 325 0
6523 6522 -325 0
-6524 6523 326 0
-6524 -6523 -326 0
6524 -6523 326 0
6524 6523 -326 0
-6525 6524 328 0
-6525 -6524 -328 0
6525 -6524 328 0
6525 6524 -328 0
-6526 6525 329 0
-6526 -6525 -329 0
6526 -6525 329 0
6526 6525 -329 0
-6527 6526 330 0
-6527 -6526 -330 0
6527 -6526 330 0
6527 6526 -330 0
-283 -6527 0
-6528 332 334 0
-6528 -332 -334 0
6528 -332 334 0
6528 332 -334 0
-6529 6528 335 0
-6529 -6528 -335 0
6529 -6528 335 0
6529 6528 -335 0
-6530 6529 336 0
-6530 -6529 -336 0
6530 -6529 336 0
6530 6529 -336 0
-6531 6530 338 0
-6531 -6530 -338 0
6531 -6530 338 0
6531 6530 -338 0
-6532 6531 339 0
-6532 -6531 -339 0
6532 -6531 339 0
6532 6531 -339 0
-6533 6532 340 0
-6533 -6532 -340 0
6533 -6532 340 0
6533 6532 -340 0
-6534 6533 341 0
-6534 -6533 -341 0
6534 -6533 341 0
6534 6533 -341 0
-6535 6534 343 0
-6535 -6534 -343 0
6535 -6534 343 0
6535 6534 -343 0
-6536 6535 344 0
-6536 -6535 -344 0
6536 -6535 344 0
6536 6535 -344 0
-6537 6536 345 0
-6537 -6536 -345 0
6537 -6536 345 0
6537 6536 -345 0
-283 -6537 0
-6538 347 349 0
-6538 -347 -349 0
6538 -347 349 0
6538 347 -349 0
-6539 6538 350 0
-6539 -6538 -350 0
6539 -6538 350 0
6539 6538 -350 0
-6540 6539 351 0
-6540 -6539 -351 0
6540 -6539 351 0
6540 6539 -351 0
-6541 6540 353 0
-6541 -6540 -353 0
6541 -6540 353 0
6541 6540 -353 0
-6542 6541 354 0
-6542 -6541 -354 0
6542 -6541 354 0
6542 6541 -354 0
-6543 6542 355 0
-6543 -6542 -355 0
6543 -6542 355 0
6543 6542 -355 0
-6544 6543 356 0
-6544 -6543 -356 0
6544 -6543 356 0
6544 6543 -356 0
-6545 6544 358 0
-6545 -6544 -358 0
6545 -6544 358 0
6545 6544 -358 0
-6546 6545 359 0
-6546 -6545 -359 0
6546 -6545 359 0
6546 6545 -359 0
-6547 6546 360 0
-6547 -6546 -360 0
6547 -6546 360 0
6547 6546 -360 0
-283 -6547 0
-6548 362 364 0
-6548 -362 -364 0
6548 -362 364 0
6548 362 -364 0
-6549 6548 365 0
-6549 -6548 -365 0
6549 -6548 365 0
6549 6548 -365 0
-6550 6549 366 0
-6550 -6549 -366 0
6550 -6549 366 0
6550 6549 -366 0
-6551 6550 368 0
-6551 -6550 -368 0
6551 -6550 368 0
6551 6550 -368 0
-6552 6551 369 0
-6552 -6551 -369 0
6552 -6551 369 0
6552 6551 -369 0
-6553 6552 370 0
-6553 -6552 -370 0
6553 -6552 370 0
6553 6552 -370 0
-6554 6553 371 0
-6554 -6553 -371 0
6554 -6553 371 0
6554 6553 -371 0
-6555 6554 373 0
-6555 -6554 -373 0
6555 -6554 373 0
6555 6554 -373 0
-6556 6555 374 0
-6556 -6555 -374 0
6556 -6555 374 0
6556 6555 -374 0
-6557 6556 375 0
-6557 -6556 -375 0
6557 -6556 375 0
6557 6556 -375 0
-283 -6557 0
-6558 325 326 0
-6558 -325 -326 0
6558 -325 326 0
6558 325 -326 0
-6559 6558 327 0
-6559 -6558 -327 0
6559 -6558 327 0
6559 6558 -327 0
-6560 6559 329 0
-6560 -6559 -329 0
6560 -6559 329 0
6560 6559 -329 0
-6561 6560 330 0
-6561 -6560 -330 0
6561 -6560 330 0
6561 6560 -330 0
-284 -6561 0
-6562 340 341 0
-6562 -340 -341 0
6562 -340 341 0
6562 340 -341 0
-6563 6562 342 0
-6563 -6562 -342 0
6563 -6562 342 0
6563 6562 -342 0
-6564 6563 344 0
-6564 -6563 -344 0
6564 -6563 344 0
6564 6563 -344 0
-6565 6564 345 0
-6565 -6564 -345 0
6565 -6564 345 0
6565 6564 -345 0
-284 -6565 0
-6566 355 356 0
-6566 -355 -356 0
6566 -355 356 0
6566 355 -356 0
-6567 6566 357 0
-6567 -6566 -357 0
6567 -6566 357 0
6567 6566 -357 0
-6568 6567 359 0
-6568 -6567 -359 0
6568 -6567 359 0
6568 6567 -359 0
-6569 6568 360 0
-6569 -6568 -360 0
6569 -6568 360 0
6569 6568 -360 0
-284 -6569 0
-6570 370 371 0
-6570 -370 -371 0
6570 -370 371 0
6570 370 -371 0
-6571 6570 372 0
-6571 -6570 -372 0
6571 -6570 372 0
6571 6570 -372 0
-6572 6571 374 0
-6572 -6571 -374 0
6572 -6571 374 0
6572 6571 -374 0
-6573 6572 375 0
-6573 -6572 -375 0
6573 -6572 375 0
6573 6572 -375 0
-284 -6573 0
-6574 317 318 0
-6574 -317 -318 0
6574 -317 318 0
6574 317 -318 0
-6575 6574 319 0
-6575 -6574 -319 0
6575 -6574 319 0
6575 6574 -319 0
-6576 6575 325 0
-6576 -6575 -325 0
6576 -6575 325 0
6576 6575 -325 0
-6577 6576 326 0
-6577 -6576 -326 0
6577 -6576 326 0
6577 6576 -326 0
-6578 6577 327 0
-6578 -6577 -327 0
6578 -6577 327 0
6578 6577 -327 0
-6579 6578 329 0
-6579 -6578 -329 0
6579 -6578 329 0
6579 6578 -329 0
-6580 6579 330 0
-6580 -6579 -330 0
6580 -6579 330 0
6580 6579 -330 0
-285 -6580 0
-6581 332 333 0
-6581 -332 -333 0
6581 -332 333 0
6581 332 -333 0
-6582 6581 334 0
-6582 -6581 -334 0
6582 -6581 334 0
6582 6581 -334 0
-6583 6582 340 0
-6583 -6582 -340 0
6583 -6582 340 0
6583 6582 -340 0
-6584 6583 341 0
-6584 -6583 -341 0
6584 -6583 341 0
6584 6583 -341 0
-6585 6584 342 0
-6585 -6584 -342 0
6585 -6584 342 0
6585 6584 -342 0
-6586 6585 344 0
-6586 -6585 -344 0
6586 -6585 344 0
6586 6585 -344 0
-6587 6586 345 0
-6587 -6586 -345 0
6587 -6586 345 0
6587 6586 -345 0
-285 -6587 0
-6588 347 348 0
-6588 -347 -348 0
6588 -347 348 0
6588 347 -348 0
-6589 6588 349 0
-6589 -6588 -349 0
6589 -6588 349 0
6589 6588 -349 0
-6590 6589 355 0
-6590 -6589 -355 0
6590 -6589 355 0
6590 6589 -355 0
-6591 6590 356 0
-6591 -6590 -356 0
6591 -6590 356 0
6591 6590 -356 0
-6592 6591 357 0
-6592 -6591 -357 0
6592 -6591 357 0
6592 6591 -357 0
-6593 6592 359 0
-6593 -6592 -359 0
6593 -6592 359 0
6593 6592 -359 0
-6594 6593 360 0
-6594 -6593 -360 0
6594 -6593 360 0
6594 6593 -360 0
-285 -6594 0
-6595 362 363 0
-6595 -362 -363 0
6595 -362 363 0
6595 362 -363 0
-6596 6595 364 0
-6596 -6595 -364 0
6596 -6595 364 0
6596 6595 -364 0
-6597 6596 370 0
-6597 -6596 -370 0
6597 -6596 370 0
6597 6596 -370 0
-6598 6597 371 0
-6598 -6597 -371 0
6598 -6597 371 0
6598 6597 -371 0
-6599 6598 372 0
-6599 -6598 -372 0
6599 -6598 372 0
6599 6598 -372 0
-6600 6599 374 0
-6600 -6599 -374 0
6600 -6599 374 0
6600 6599 -374 0
-6601 6600 375 0
-6601 -6600 -375 0
6601 -6600 375 0
6601 6600 -375 0
-285 -6601 0
-6602 321 322 0
-6602 -321 -322 0
6602 -321 322 0
6602 321 -322 0
-6603 6602 323 0
-6603 -6602 -323 0
6603 -6602 323 0
6603 6602 -323 0
-6604 6603 325 0
-6604 -6603 -325 0
6604 -6603 325 0
6604 6603 -325 0
-6605 6604 326 0
-6605 -6604 -326 0
6605 -6604 326 0
6605 6604 -326 0
-6606 6605 327 0
-6606 -6605 -327 0
6606 -6605 327 0
6606 6605 -327 0
-6607 6606 329 0
-6607 -6606 -329 0
6607 -6606 329 0
6607 6606 -329 0
-6608 6607 330 0
-6608 -6607 -330 0
6608 -6607 330 0
6608 6607 -330 0
-286 -6608 0
-6609 336 337 0
-6609 -336 -337 0
6609 -336 337 0
6609 336 -337 0
-6610 6609 338 0
-6610 -6609 -338 0
6610 -6609 338 0
6610 6609 -338 0
-6611 6610 340 0
-6611 -6610 -340 0
6611 -6610 340 0
6611 6610 -340 0
-6612 6611 341 0
-6612 -6611 -341 0
6612 -6611 341 0
6612 6611 -341 0
-6613 6612 342 0
-6613 -6612 -342 0
6613 -6612 342 0
6613 6612 -342 0
-6614 6613 344 0
-6614 -6613 -344 0
6614 -6613 344 0
6614 6613 -344 0
-6615 6614 345 0
-6615 -6614 -345 0
6615 -6614 345 0
6615 6614 -345 0
-286 -6615 0
-6616 351 352 0
-6616 -351 -352 0
6616 -351 352 0
6616 351 -352 0
-6617 6616 353 0
-6617 -6616 -353 0
6617 -6616 353 0
6617 6616 -353 0
-6618 6617 355 0
-6618 -6617 -355 0
6618 -6617 355 0
6618 6617 -355 0
-6619 6618 356 0
-6619 -6618 -356 0
6619 -6618 356 0
6619 6618 -356 0
-6620 6619 357 0
-6620 -6619 -357 0
6620 -6619 357 0
6620 6619 -357 0
-6621 6620 359 0
-6621 -6620 -359 0
6621 -6620 359 0
6621 6620 -359 0
-6622 6621 360 0
-6622 -6621 -360 0
6622 -6621 360 0
6622 6621 -360 0
-286 -6622 0
-6623 366 367 0
-6623 -366 -367 0
6623 -366 367 0
6623 366 -367 0
-6624 6623 368 0
-6624 -6623 -368 0
6624 -6623 368 0
6624 6623 -368 0
-6625 6624 370 0
-6625 -6624 -370 0
6625 -6624 370 0
6625 6624 -370 0
-6626 6625 371 0
-6626 -6625 -371 0
6626 -6625 371 0
6626 6625 -371 0
-6627 6626 372 0
-6627 -6626 -372 0
6627 -6626 372 0
6627 6626 -372 0
-6628 6627 374 0
-6628 -6627 -374 0
6628 -6627 374 0
6628 6627 -374 0
-6629 6628 375 0
-6629 -6628 -375 0
6629 -6628 375 0
6629 6628 -375 0
-286 -6629 0
-6630 317 318 0
-6630 -317 -318 0
6630 -317 318 0
6630 317 -318 0
-6631 6630 319 0
-6631 -6630 -319 0
6631 -6630 319 0
6631 6630 -319 0
-6632 6631 321 0
-6632 -6631 -321 0
6632 -6631 321 0
6632 6631 -321 0
-6633 6632 322 0
-6633 -6632 -322 0
6633 -6632 322 0
6633 6632 -322 0
-6634 6633 323 0
-6634 -6633 -323 0
6634 -6633 323 0
6634 6633 -323 0
-6635 6634 325 0
-6635 -6634 -325 0
6635 -6634 325 0
6635 6634 -325 0
-6636 6635 326 0
-6636 -6635 -326 0
6636 -6635 326 0
6636 6635 -326 0
-6637 6636 327 0
-6637 -6636 -327 0
6637 -6636 327 0
6637 6636 -327 0
-6638 6637 329 0
-6638 -6637 -329 0
6638 -6637 329 0
6638 6637 -329 0
-6639 6638 330 0
-6639 -6638 -330 0
6639 -6638 330 0
6639 6638 -330 0
-287 -6639 0
-6640 332 333 0
-6640 -332 -333 0
6640 -332 333 0
6640 332 -333 0
-6641 6640 334 0
-6641 -6640 -334 0
6641 -6640 334 0
6641 6640 -334 0
-6642 6641 336 0
-6642 -6641 -336 0
6642 -6641 336 0
6642 6641 -336 0
-6643 6642 337 0
-6643 -6642 -337 0
6643 -6642 337 0
6643 6642 -337 0
-6644 6643 338 0
-6644 -6643 -338 0
6644 -6643 338 0
6644 6643 -338 0
-6645 6644 340 0
-6645 -6644 -340 0
6645 -6644 340 0
6645 6644 -340 0
-6646 6645 341 0
-6646 -6645 -341 0
6646 -6645 341 0
6646 6645 -341 0
-6647 6646 342 0
-6647 -6646 -342 0
6647 -6646 342 0
6647 6646 -342 0
-6648 6647 344 0
-6648 -6647 -344 0
6648 -6647 344 0
6648 6647 -344 0
-6649 6648 345 0
-6649 -6648 -345 0
6649 -6648 345 0
6649 6648 -345 0
-287 -6649 0
-6650 347 348 0
-6650 -347 -348 0
6650 -347 348 0
6650 347 -348 0
-6651 6650 349 0
-6651 -6650 -349 0
6651 -6650 349 0
6651 6650 -349 0
-6652 6651 351 0
-6652 -6651 -351 0
6652 -6651 351 0
6652 6651 -351 0
-6653 6652 352 0
-6653 -6652 -352 0
6653 -6652 352 0
6653 6652 -352 0
-6654 6653 353 0
-6654 -6653 -353 0
6654 -6653 353 0
6654 6653 -353 0
-6655 6654 355 0
-6655 -6654 -355 0
6655 -6654 355 0
6655 6654 -355 0
-6656 6655 356 0
-6656 -6655 -356 0
6656 -6655 356 0
6656 6655 -356 0
-6657 6656 357 0
-6657 -6656 -357 0
6657 -6656 357 0
6657 6656 -357 0
-6658 6657 359 0
-6658 -6657 -359 0
6658 -6657 359 0
6658 6657 -359 0
-6659 6658 360 0
-6659 -6658 -360 0
6659 -6658 360 0
6659 6658 -360 0
-287 -6659 0
-6660 362 363 0
-6660 -362 -363 0
6660 -362 363 0
6660 362 -363 0
-6661 6660 364 0
-6661 -6660 -364 0
6661 -6660 364 0
6661 6660 -364 0
-6662 6661 366 0
-6662 -6661 -366 0
6662 -6661 366 0
6662 6661 -366 0
-6663 6662 367 0
-6663 -6662 -367 0
6663 -6662 367 0
6663 6662 -367 0
-6664 6663 368 0
-6664 -6663 -368 0
6664 -6663 368 0
6664 6663 -368 0
-6665 6664 370 0
-6665 -6664 -370 0
6665 -6664 370 0
6665 6664 -370 0
-6666 6665 371 0
-6666 -6665 -371 0
6666 -6665 371 0
6666 6665 -371 0
-6667 6666 372 0
-6667 -6666 -372 0
6667 -6666 372 0
6667 6666 -372 0
-6668 6667 374 0
-6668 -6667 -374 0
6668 -6667 374 0
6668 6667 -374 0
-6669 6668 375 0
-6669 -6668 -375 0
6669 -6668 375 0
6669 6668 -375 0
-287 -6669 0
-6670 325 327 0
-6670 -325 -327 0
6670 -325 327 0
6670 325 -327 0
-6671 6670 328 0
-6671 -6670 -328 0
6671 -6670 328 0
6671 6670 -328 0
-6672 6671 329 0
-6672 -6671 -329 0
6672 -6671 329 0
6672 6671 -329 0
-6673 6672 330 0
-6673 -6672 -330 0
6673 -6672 330 0
6673 6672 -330 0
-288 -6673 0
-6674 340 342 0
-6674 -340 -342 0
6674 -340 342 0
6674 340 -342 0
-6675 6674 343 0
-6675 -6674 -343 0
6675 -6674 343 0
6675 6674 -343 0
-6676 6675 344 0
-6676 -6675 -344 0
6676 -6675 344 0
6676 6675 -344 0
-6677 6676 345 0
-6677 -6676 -345 0
6677 -6676 345 0
6677 6676 -345 0
-288 -6677 0
-6678 355 357 0
-6678 -355 -357 0
6678 -355 357 0
6678 355 -357 0
-6679 6678 358 0
-6679 -6678 -358 0
6679 -6678 358 0
6679 6678 -358 0
-6680 6679 359 0
-6680 -6679 -359 0
6680 -6679 359 0
6680 6679 -359 0
-6681 6680 360 0
-6681 -6680 -360 0
6681 -6680 360 0
6681 6680 -360 0
-288 -6681 0
-6682 370 372 0
-6682 -370 -372 0
6682 -370 372 0
6682 370 -372 0
-6683 6682 373 0
-6683 -6682 -373 0
6683 -6682 373 0
6683 6682 -373 0
-6684 6683 374 0
-6684 -6683 -374 0
6684 -6683 374 0
6684 6683 -374 0
-6685 6684 375 0
-6685 -6684 -375 0
6685 -6684 375 0
6685 6684 -375 0
-288 -6685 0
-6686 317 318 0
-6686 -317 -318 0
6686 -317 318 0
6686 317 -318 0
-6687 6686 319 0
-6687 -6686 -319 0
6687 -6686 319 0
6687 6686 -319 0
-6688 6687 325 0
-6688 -6687 -325 0
6688 -6687 325 0
6688 6687 -325 0
-6689 6688 327 0
-6689 -6688 -327 0
6689 -6688 327 0
6689 6688 -327 0
-6690 6689 328 0
-6690 -6689 -328 0
6690 -6689 328 0
6690 6689 -328 0
-6691 6690 329 0
-6691 -6690 -329 0
6691 -6690 329 0
6691 6690 -329 0
-6692 6691 330 0
-6692 -6691 -330 0
6692 -6691 330 0
6692 6691 -330 0
-289 -6692 0
-6693 332 333 0
-6693 -332 -333 0
6693 -332 333 0
6693 332 -333 0
-6694 6693 334 0
-6694 -6693 -334 0
6694 -6693 334 0
6694 6693 -334 0
-6695 6694 340 0
-6695 -6694 -340 0
6695 -6694 340 0
6695 6694 -340 0
-6696 6695 342 0
-6696 -6695 -342 0
6696 -6695 342 0
6696 6695 -342 0
-6697 6696 343 0
-6697 -6696 -343 0
6697 -6696 343 0
6697 6696 -343 0
-6698 6697 344 0
-6698 -6697 -344 0
6698 -6697 344 0
6698 6697 -344 0
-6699 6698 345 0
-6699 -6698 -345 0
6699 -6698 345 0
6699 6698 -345 0
-289 -6699 0
-6700 347 348 0
-6700 -347 -348 0
6700 -347 348 0
6700 347 -348 0
-6701 6700 349 0
-6701 -6700 -349 0
6701 -6700 349 0
6701 6700 -349 0
-6702 6701 355 0
-6702 -6701 -355 0
6702 -6701 355 0
6702 6701 -355 0
-6703 6702 357 0
-6703 -6702 -357 0
6703 -6702 357 0
6703 6702 -357 0
-6704 6703 358 0
-6704 -6703 -358 0
6704 -6703 358 0
6704 6703 -358 0
-6705 6704 359 0
-6705 -6704 -359 0
6705 -6704 359 0
6705 6704 -359 0
-6706 6705 360 0
-6706 -6705 -360 0
6706 -6705 360 0
6706 6705 -360 0
-289 -6706 0
-6707 362 363 0
-6707 -362 -363 0
6707 -362 363 0
6707 362 -363 0
-6708 6707 364 0
-6708 -6707 -364 0
6708 -6707 364 0
6708 6707 -364 0
-6709 6708 370 0
-6709 -6708 -370 0
6709 -6708 370 0
6709 6708 -370 0
-6710 6709 372 0
-6710 -6709 -372 0
6710 -6709 372 0
6710 6709 -372 0
-6711 6710 373 0
-6711 -6710 -373 0
6711 -6710 373 0
6711 6710 -373 0
-6712 6711 374 0
-6712 -6711 -374 0
6712 -6711 374 0
6712 6711 -374 0
-6713 6712 375 0
-6713 -6712 -375 0
6713 -6712 375 0
6713 6712 -375 0
-289 -6713 0
-6714 321 322 0
-6714 -321 -322 0
6714 -321 322 0
6714 321 -322 0
-6715 6714 323 0
-6715 -6714 -323 0
6715 -6714 323 0
6715 6714 -323 0
-6716 6715 325 0
-6716 -6715 -325 0
6716 -6715 325 0
6716 6715 -325 0
-6717 6716 327 0
-6717 -6716 -327 0
6717 -6716 327 0
6717 6716 -327 0
-6718 6717 328 0
-6718 -6717 -328 0
6718 -6717 328 0
6718 6717 -328 0
-6719 6718 329 0
-6719 -6718 -329 0
6719 -6718 329 0
6719 6718 -329 0
-6720 6719 330 0
-6720 -6719 -330 0
6720 -6719 330 0
6720 6719 -330 0
-290 -6720 0
-6721 336 337 0
-6721 -336 -337 0
6721 -336 337 0
6721 336 -337 0
-6722 6721 338 0
-6722 -6721 -338 0
6722 -6721 338 0
6722 6721 -338 0
-6723 6722 340 0
-6723 -6722 -340 0
6723 -6722 340 0
6723 6722 -340 0
-6724 6723 342 0
-6724 -6723 -342 0
6724 -6723 342 0
6724 6723 -342 0
-6725 6724 343 0
-6725 -6724 -343 0
6725 -6724 343 0
6725 6724 -343 0
-6726 6725 344 0
-6726 -6725 -344 0
6726 -6725 344 0
6726 6725 -344 0
-6727 6726 345 0
-6727 -6726 -345 0
6727 -6726 345 0
6727 6726 -345 0
-290 -6727 0
-6728 351 352 0
-6728 -351 -352 0
6728 -351 352 0
6728 351 -352 0
-6729 6728 353 0
-6729 -6728 -353 0
6729 -6728 353 0
6729 6728 -353 0
-6730 6729 355 0
-6730 -6729 -355 0
6730 -6729 355 0
6730 6729 -355 0
-6731 6730 357 0
-6731 -6730 -357 0
6731 -6730 357 0
6731 6730 -357 0
-6732 6731 358 0
-6732 -6731 -358 0
6732 -6731 358 0
6732 6731 -358 0
-6733 6732 359 0
-6733 -6732 -359 0
6733 -6732 359 0
6733 6732 -359 0
-6734 6733 360 0
-6734 -6733 -360 0
6734 -6733 360 0
6734 6733 -360 0
-290 -6734 0
-6735 366 367 0
-6735 -366 -367 0
6735 -366 367 0
6735 366 -367 0
-6736 6735 368 0
-6736 -6735 -368 0
6736 -6735 368 0
6736 6735 -368 0
-6737 6736 370 0
-6737 -6736 -370 0
6737 -6736 370 0
6737 6736 -370 0
-6738 6737 372 0
-6738 -6737 -372 0
6738 -6737 372 0
6738 6737 -372 0
-6739 6738 373 0
-6739 -6738 -373 0
6739 -6738 373 0
6739 6738 -373 0
-6740 6739 374 0
-6740 -6739 -374 0
6740 -6739 374 0
6740 6739 -374 0
-6741 6740 375 0
-6741 -6740 -375 0
6741 -6740 375 0
6741 6740 -375 0
-290 -6741 0
-6742 317 318 0
-6742 -317 -318 0
6742 -317 318 0
6742 317 -318 0
-6743 6742 319 0
-6743 -6742 -319 0
6743 -6742 319 0
6743 6742 -319 0
-6744 6743 321 0
-6744 -6743 -321 0
6744 -6743 321 0
6744 6743 -321 0
-6745 6744 322 0
-6745 -6744 -322 0
6745 -6744 322 0
6745 6744 -322 0
-6746 6745 323 0
-6746 -6745 -323 0
6746 -6745 323 0
6746 6745 -323 0
-6747 6746 325 0
-6747 -6746 -325 0
6747 -6746 325 0
6747 6746 -325 0
-6748 6747 327 0
-6748 -6747 -327 0
6748 -6747 327 0
6748 6747 -327 0
-6749 6748 328 0
-6749 -6748 -328 0
6749 -6748 328 0
6749 6748 -328 0
-6750 6749 329 0
-6750 -6749 -329 0
6750 -6749 329 0
6750 6749 -329 0
-6751 6750 330 0
-6751 -6750 -330 0
6751 -6750 330 0
6751 6750 -330 0
-291 -6751 0
-6752 332 333 0
-6752 -332 -333 0
6752 -332 333 0
6752 332 -333 0
-6753 6752 334 0
-6753 -6752 -334 0
6753 -6752 334 0
6753 6752 -334 0
-6754 6753 336 0
-6754 -6753 -336 0
6754 -6753 336 0
6754 6753 -336 0
-6755 6754 337 0
-6755 -6754 -337 0
6755 -6754 337 0
6755 6754 -337 0
-6756 6755 338 0
-6756 -6755 -338 0
6756 -6755 338 0
6756 6755 -338 0
-6757 6756 340 0
-6757 -6756 -340 0
6757 -6756 340 0
6757 6756 -340 0
-6758 6757 342 0
-6758 -6757 -342 0
6758 -6757 342 0
6758 6757 -342 0
-6759 6758 343 0
-6759 -6758 -343 0
6759 -6758 343 0
6759 6758 -343 0
-6760 6759 344 0
-6760 -6759 -344 0
6760 -6759 344 0
6760 6759 -344 0
-6761 6760 345 0
-6761 -6760 -345 0
6761 -6760 345 0
6761 6760 -345 0
-291 -6761 0
-6762 347 348 0
-6762 -347 -348 0
6762 -347 348 0
6762 347 -348 0
-6763 6762 349 0
-6763 -6762 -349 0
6763 -6762 349 0
6763 6762 -349 0
-6764 6763 351 0
-6764 -6763 -351 0
6764 -6763 351 0
6764 6763 -351 0
-6765 6764 352 0
-6765 -6764 -352 0
6765 -6764 352 0
6765 6764 -352 0
-6766 6765 353 0
-6766 -6765 -353 0
6766 -6765 353 0
6766 6765 -353 0
-6767 6766 355 0
-6767 -6766 -355 0
6767 -6766 355 0
6767 6766 -355 0
-6768 6767 357 0
-6768 -6767 -357 0
6768 -6767 357 0
6768 6767 -357 0
-6769 6768 358 0
-6769 -6768 -358 0
6769 -6768 358 0
6769 6768 -358 0
-6770 6769 359 0
-6770 -6769 -359 0
6770 -6769 359 0
6770 6769 -359 0
-6771 6770 360 0
-6771 -6770 -360 0
6771 -6770 360 0
6771 6770 -360 0
-291 -6771 0
-6772 362 363 0
-6772 -362 -363 0
6772 -362 363 0
6772 362 -363 0
-6773 6772 364 0
-6773 -6772 -364 0
6773 -6772 364 0
6773 6772 -364 0
-6774 6773 366 0
-6774 -6773 -366 0
6774 -6773 366 0
6774 6773 -366 0
-6775 6774 367 0
-6775 -6774 -367 0
6775 -6774 367 0
6775 6774 -367 0
-6776 6775 368 0
-6776 -6775 -368 0
6776 -6775 368 0
6776 6775 -368 0
-6777 6776 370 0
-6777 -6776 -370 0
6777 -6776 370 0
6777 6776 -370 0
-6778 6777 372 0
-6778 -6777 -372 0
6778 -6777 372 0
6778 6777 -372 0
-6779 6778 373 0
-6779 -6778 -373 0
6779 -6778 373 0
6779 6778 -373 0
-6780 6779 374 0
-6780 -6779 -374 0
6780 -6779 374 0
6780 6779 -374 0
-6781 6780 375 0
-6781 -6780 -375 0
6781 -6780 375 0
6781 6780 -375 0
-291 -6781 0
-6782 316 320 0
-6782 -316 -320 0
6782 -316 320 0
6782 316 -320 0
-6783 6782 321 0
-6783 -6782 -321 0
6783 -6782 321 0
6783 6782 -321 0
-6784 6783 322 0
-6784 -6783 -322 0
6784 -6783 322 0
6784 6783 -322 0
-6785 6784 323 0
-6785 -6784 -323 0
6785 -6784 323 0
6785 6784 -323 0
-6786 6785 327 0
-6786 -6785 -327 0
6786 -6785 327 0
6786 6785 -327 0
-6787 6786 329 0
-6787 -6786 -329 0
6787 -6786 329 0
6787 6786 -329 0
-6788 6787 330 0
-6788 -6787 -330 0
6788 -6787 330 0
6788 6787 -330 0
-292 -6788 0
-6789 331 335 0
-6789 -331 -335 0
6789 -331 335 0
6789 331 -335 0
-6790 6789 336 0
-6790 -6789 -336 0
6790 -6789 336 0
6790 6789 -336 0
-6791 6790 337 0
-6791 -6790 -337 0
6791 -6790 337 0
6791 6790 -337 0
-6792 6791 338 0
-6792 -6791 -338 0
6792 -6791 338 0
6792 6791 -338 0
-6793 6792 342 0
-6793 -6792 -342 0
6793 -6792 342 0
6793 6792 -342 0
-6794 6793 344 0
-6794 -6793 -344 0
6794 -6793 344 0
6794 6793 -344 0
-6795 6794 345 0
-6795 -6794 -345 0
6795 -6794 345 0
6795 6794 -345 0
-292 -6795 0
-6796 346 350 0
-6796 -346 -350 0
6796 -346 350 0
6796 346 -350 0
-6797 6796 351 0
-6797 -6796 -351 0
6797 -6796 351 0
6797 6796 -351 0
-6798 6797 352 0
-6798 -6797 -352 0
6798 -6797 352 0
6798 6797 -352 0
-6799 6798 353 0
-6799 -6798 -353 0
6799 -6798 353 0
6799 6798 -353 0
-6800 6799 357 0
-6800 -6799 -357 0
6800 -6799 357 0
6800 6799 -357 0
-6801 6800 359 0
-6801 -6800 -359 0
6801 -6800 359 0
6801 6800 -359 0
-6802 6801 360 0
-6802 -6801 -360 0
6802 -6801 360 0
6802 6801 -360 0
-292 -6802 0
-6803 361 365 0
-6803 -361 -365 0
6803 -361 365 0
6803 361 -365 0
-6804 6803 366 0
-6804 -6803 -366 0
6804 -6803 366 0
6804 6803 -366 0
-6805 6804 367 0
-6805 -6804 -367 0
6805 -6804 367 0
6805 6804 -367 0
-6806 6805 368 0
-6806 -6805 -368 0
6806 -6805 368 0
6806 6805 -368 0
-6807 6806 372 0
-6807 -6806 -372 0
6807 -6806 372 0
6807 6806 -372 0
-6808 6807 374 0
-6808 -6807 -374 0
6808 -6807 374 0
6808 6807 -374 0
-6809 6808 375 0
-6809 -6808 -375 0
6809 -6808 375 0
6809 6808 -375 0
-292 -6809 0
-6810 316 317 0
-6810 -316 -317 0
6810 -316 317 0
6810 316 -317 0
-6811 6810 318 0
-6811 -6810 -318 0
6811 -6810 318 0
6811 6810 -318 0
-6812 6811 319 0
-6812 -6811 -319 0
6812 -6811 319 0
6812 6811 -319 0
-6813 6812 320 0
-6813 -6812 -320 0
6813 -6812 320 0
6813 6812 -320 0
-6814 6813 321 0
-6814 -6813 -321 0
6814 -6813 321 0
6814 6813 -321 0
-6815 6814 322 0
-6815 -6814 -322 0
6815 -6814 322 0
6815 6814 -322 0
-6816 6815 323 0
-6816 -6815 -323 0
6816 -6815 323 0
6816 6815 -323 0
-6817 6816 327 0
-6817 -6816 -327 0
6817 -6816 327 0
6817 6816 -327 0
-6818 6817 329 0
-6818 -6817 -329 0
6818 -6817 329 0
6818 6817 -329 0
-6819 6818 330 0
-6819 -6818 -330 0
6819 -6818 330 0
6819 6818 -330 0
-293 -6819 0
-6820 331 332 0
-6820 -331 -332 0
6820 -331 332 0
6820 331 -332 0
-6821 6820 333 0
-6821 -6820 -333 0
6821 -6820 333 0
6821 6820 -333 0
-6822 6821 334 0
-6822 -6821 -334 0
6822 -6821 334 0
6822 6821 -334 0
-6823 6822 335 0
-6823 -6822 -335 0
6823 -6822 335 0
6823 6822 -335 0
-6824 6823 336 0
-6824 -6823 -336 0
6824 -6823 336 0
6824 6823 -336 0
-6825 6824 337 0
-6825 -6824 -337 0
6825 -6824 337 0
6825 6824 -337 0
-6826 6825 338 0
-6826 -6825 -338 0
6826 -6825 338 0
6826 6825 -338 0
-6827 6826 342 0
-6827 -6826 -342 0
6827 -6826 342 0
6827 6826 -342 0
-6828 6827 344 0
-6828 -6827 -344 0
6828 -6827 344 0
6828 6827 -344 0
-6829 6828 345 0
-6829 -6828 -345 0
6829 -6828 345 0
6829 6828 -345 0
-293 -6829 0
-6830 346 347 0
-6830 -346 -347 0
6830 -346 347 0
6830 346 -347 0
-6831 6830 348 0
-6831 -6830 -348 0
6831 -6830 348 0
6831 6830 -348 0
-6832 6831 349 0
-6832 -6831 -349 0
6832 -6831 349 0
6832 6831 -349 0
-6833 6832 350 0
-6833 -6832 -350 0
6833 -6832 350 0
6833 6832 -350 0
-6834 6833 351 0
-6834 -6833 -351 0
6834 -6833 351 0
6834 6833 -351 0
-6835 6834 352 0
-6835 -6834 -352 0
6835 -6834 352 0
6835 6834 -352 0
-6836 6835 353 0
-6836 -6835 -353 0
6836 -6835 353 0
6836 6835 -353 0
-6837 6836 357 0
-6837 -6836 -357 0
6837 -6836 357 0
6837 6836 -357 0
-6838 6837 359 0
-6838 -6837 -359 0
6838 -6837 359 0
6838 6837 -359 0
-6839 6838 360 0
-6839 -6838 -360 0
6839 -6838 360 0
6839 6838 -360 0
-293 -6839 0
-6840 361 362 0
-6840 -361 -362 0
6840 -361 362 0
6840 361 -362 0
-6841 6840 363 0
-6841 -6840 -363 0
6841 -6840 363 0
6841 6840 -363 0
-6842 6841 364 0
-6842 -6841 -364 0
6842 -6841 364 0
6842 6841 -364 0
-6843 6842 365 0
-6843 -6842 -365 0
6843 -6842 365 0
6843 6842 -365 0
-6844 6843 366 0
-6844 -6843 -366 0
6844 -6843 366 0
6844 6843 -366 0
-6845 6844 367 0
-6845 -6844 -367 0
6845 -6844 367 0
6845 6844 -367 0
-6846 6845 368 0
-6846 -6845 -368 0
6846 -6845 368 0
6846 6845 -368 0
-6847 6846 372 0
-6847 -6846 -372 0
6847 -6846 372 0
6847 6846 -372 0
-6848 6847 374 0
-6848 -6847 -374 0
6848 -6847 374 0
6848 6847 -374 0
-6849 6848 375 0
-6849 -6848 -375 0
6849 -6848 375 0
6849 6848 -375 0
-293 -6849 0
-6850 317 320 0
-6850 -317 -320 0
6850 -317 320 0
6850 317 -320 0
-6851 6850 325 0
-6851 -6850 -325 0
6851 -6850 325 0
6851 6850 -325 0
-6852 6851 326 0
-6852 -6851 -326 0
6852 -6851 326 0
6852 6851 -326 0
-6853 6852 327 0
-6853 -6852 -327 0
6853 -6852 327 0
6853 6852 -327 0
-6854 6853 329 0
-6854 -6853 -329 0
6854 -6853 329 0
6854 6853 -329 0
-6855 6854 330 0
-6855 -6854 -330 0
6855 -6854 330 0
6855 6854 -330 0
-294 -6855 0
-6856 332 335 0
-6856 -332 -335 0
6856 -332 335 0
6856 332 -335 0
-6857 6856 340 0
-6857 -6856 -340 0
6857 -6856 340 0
6857 6856 -340 0
-6858 6857 341 0
-6858 -6857 -341 0
6858 -6857 341 0
6858 6857 -341 0
-6859 6858 342 0
-6859 -6858 -342 0
6859 -6858 342 0
6859 6858 -342 0
-6860 6859 344 0
-6860 -6859 -344 0
6860 -6859 344 0
6860 6859 -344 0
-6861 6860 345 0
-6861 -6860 -345 0
6861 -6860 345 0
6861 6860 -345 0
-294 -6861 0
-6862 347 350 0
-6862 -347 -350 0
6862 -347 350 0
6862 347 -350 0
-6863 6862 355 0
-6863 -6862 -355 0
6863 -6862 355 0
6863 6862 -355 0
-6864 6863 356 0
-6864 -6863 -356 0
6864 -6863 356 0
6864 6863 -356 0
-6865 6864 357 0
-6865 -6864 -357 0
6865 -6864 357 0
6865 6864 -357 0
-6866 6865 359 0
-6866 -6865 -359 0
6866 -6865 359 0
6866 6865 -359 0
-6867 6866 360 0
-6867 -6866 -360 0
6867 -6866 360 0
6867 6866 -360 0
-294 -6867 0
-6868 362 365 0
-6868 -362 -365 0
6868 -362 365 0
6868 362 -365 0
-6869 6868 370 0
-6869 -6868 -370 0
6869 -6868 370 0
6869 6868 -370 0
-6870 6869 371 0
-6870 -6869 -371 0
6870 -6869 371 0
6870 6869 -371 0
-6871 6870 372 0
-6871 -6870 -372 0
6871 -6870 372 0
6871 6870 -372 0
-6872 6871 374 0
-6872 -6871 -374 0
6872 -6871 374 0
6872 6871 -374 0
-6873 6872 375 0
-6873 -6872 -375 0
6873 -6872 375 0
6873 6872 -375 0
-294 -6873 0
-6874 318 319 0
-6874 -318 -319 0
6874 -318 319 0
6874 318 -319 0
-6875 6874 320 0
-6875 -6874 -320 0
6875 -6874 320 0
6875 6874 -320 0
-6876 6875 325 0
-6876 -6875 -325 0
6876 -6875 325 0
6876 6875 -325 0
-6877 6876 326 0
-6877 -6876 -326 0
6877 -6876 326 0
6877 6876 -326 0
-6878 6877 327 0
-6878 -6877 -327 0
6878 -6877 327 0
6878 6877 -327 0
-6879 6878 329 0
-6879 -6878 -329 0
6879 -6878 329 0
6879 6878 -329 0
-6880 6879 330 0
-6880 -6879 -330 0
6880 -6879 330 0
6880 6879 -330 0
-295 -6880 0
-6881 333 334 0
-6881 -333 -334 0
6881 -333 334 0
6881 333 -334 0
-6882 6881 335 0
-6882 -6881 -335 0
6882 -6881 335 0
6882 6881 -335 0
-6883 6882 340 0
-6883 -6882 -340 0
6883 -6882 340 0
6883 6882 -340 0
-6884 6883 341 0
-6884 -6883 -341 0
6884 -6883 341 0
6884 6883 -341 0
-6885 6884 342 0
-6885 -6884 -342 0
6885 -6884 342 0
6885 6884 -342 0
-6886 6885 344 0
-6886 -6885 -344 0
6886 -6885 344 0
6886 6885 -344 0
-6887 6886 345 0
-6887 -6886 -345 0
6887 -6886 345 0
6887 6886 -345 0
-295 -6887 0
-6888 348 349 0
-6888 -348 -349 0
6888 -348 349 0
6888 348 -349 0
-6889 6888 350 0
-6889 -6888 -350 0
6889 -6888 350 0
6889 6888 -350 0
-6890 6889 355 0
-6890 -6889 -355 0
6890 -6889 355 0
6890 6889 -355 0
-6891 6890 356 0
-6891 -6890 -356 0
6891 -6890 356 0
6891 6890 -356 0
-6892 6891 357 0
-6892 -6891 -357 0
6892 -6891 357 0
6892 6891 -357 0
-6893 6892 359 0
-6893 -6892 -359 0
6893 -6892 359 0
6893 6892 -359 0
-6894 6893 360 0
-6894 -6893 -360 0
6894 -6893 360 0
6894 6893 -360 0
-295 -6894 0
-6895 363 364 0
-6895 -363 -364 0
6895 -363 364 0
6895 363 -364 0
-6896 6895 365 0
-6896 -6895 -365 0
6896 -6895 365 0
6896 6895 -365 0
-6897 6896 370 0
-6897 -6896 -370 0
6897 -6896 370 0
6897 6896 -370 0
-6898 6897 371 0
-6898 -6897 -371 0
6898 -6897 371 0
6898 6897 -371 0
-6899 6898 372 0
-6899 -6898 -372 0
6899 -6898 372 0
6899 6898 -372 0
-6900 6899 374 0
-6900 -6899 -374 0
6900 -6899 374 0
6900 6899 -374 0
-6901 6900 375 0
-6901 -6900 -375 0
6901 -6900 375 0
6901 6900 -375 0
-295 -6901 0
-6902 318 320 0
-6902 -318 -320 0
6902 -318 320 0
6902 318 -320 0
-6903 6902 325 0
-6903 -6902 -325 0
6903 -6902 325 0
6903 6902 -325 0
-6904 6903 327 0
-6904 -6903 -327 0
6904 -6903 327 0
6904 6903 -327 0
-6905 6904 328 0
-6905 -6904 -328 0
6905 -6904 328 0
6905 6904 -328 0
-6906 6905 329 0
-6906 -6905 -329 0
6906 -6905 329 0
6906 6905 -329 0
-6907 6906 330 0
-6907 -6906 -330 0
6907 -6906 330 0
6907 6906 -330 0
-296 -6907 0
-6908 333 335 0
-6908 -333 -335 0
6908 -333 335 0
6908 333 -335 0
-6909 6908 340 0
-6909 -6908 -340 0
6909 -6908 340 0
6909 6908 -340 0
-6910 6909 342 0
-6910 -6909 -342 0
6910 -6909 342 0
6910 6909 -342 0
-6911 6910 343 0
-6911 -6910 -343 0
6911 -6910 343 0
6911 6910 -343 0
-6912 6911 344 0
-6912 -6911 -344 0
6912 -6911 344 0
6912 6911 -344 0
-6913 6912 345 0
-6913 -6912 -345 0
6913 -6912 345 0
6913 6912 -345 0
-296 -6913 0
-6914 348 350 0
-6914 -348 -350 0
6914 -348 350 0
6914 348 -350 0
-6915 6914 355 0
-6915 -6914 -355 0
6915 -6914 355 0
6915 6914 -355 0
-6916 6915 357 0
-6916 -6915 -357 0
6916 -6915 357 0
6916 6915 -357 0
-6917 6916 358 0
-6917 -6916 -358 0
6917 -6916 358 0
6917 6916 -358 0
-6918 6917 359 0
-6918 -6917 -359 0
6918 -6917 359 0
6918 6917 -359 0
-6919 6918 360 0
-6919 -6918 -360 0
6919 -6918 360 0
6919 6918 -360 0
-296 -6919 0
-6920 363 365 0
-6920 -363 -365 0
6920 -363 365 0
6920 363 -365 0
-6921 6920 370 0
-6921 -6920 -370 0
6921 -6920 370 0
6921 6920 -370 0
-6922 6921 372 0
-6922 -6921 -372 0
6922 -6921 372 0
6922 6921 -372 0
-6923 6922 373 0
-6923 -6922 -373 0
6923 -6922 373 0
6923 6922 -373 0
-6924 6923 374 0
-6924 -6923 -374 0
6924 -6923 374 0
6924 6923 -374 0
-6925 6924 375 0
-6925 -6924 -375 0
6925 -6924 375 0
6925 6924 -375 0
-296 -6925 0
-6926 317 319 0
-6926 -317 -319 0
6926 -317 319 0
6926 317 -319 0
-6927 6926 320 0
-6927 -6926 -320 0
6927 -6926 320 0
6927 6926 -320 0
-6928 6927 325 0
-6928 -6927 -325 0
6928 -6927 325 0
6928 6927 -325 0
-6929 6928 327 0
-6929 -6928 -327 0
6929 -6928 327 0
6929 6928 -327 0
-6930 6929 328 0
-6930 -6929 -328 0
6930 -6929 328 0
6930 6929 -328 0
-6931 6930 329 0
-6931 -6930 -329 0
6931 -6930 329 0
6931 6930 -329 0
-6932 6931 330 0
-6932 -6931 -330 0
6932 -6931 330 0
6932 6931 -330 0
-297 -6932 0
-6933 332 334 0
-6933 -332 -334 0
6933 -332 334 0
6933 332 -334 0
-6934 6933 335 0
-6934 -6933 -335 0
6934 -6933 335 0
6934 6933 -335 0
-6935 6934 340 0
-6935 -6934 -340 0
6935 -6934 340 0
6935 6934 -340 0
-6936 6935 342 0
-6936 -6935 -342 0
6936 -6935 342 0
6936 6935 -342 0
-6937 6936 343 0
-6937 -6936 -343 0
6937 -6936 343 0
6937 6936 -343 0
-6938 6937 344 0
-6938 -6937 -344 0
6938 -6937 344 0
6938 6937 -344 0
-6939 6938 345 0
-6939 -6938 -345 0
6939 -6938 345 0
6939 6938 -345 0
-297 -6939 0
-6940 347 349 0
-6940 -347 -349 0
6940 -347 349 0
6940 347 -349 0
-6941 6940 350 0
-6941 -6940 -350 0
6941 -6940 350 0
6941 6940 -350 0
-6942 6941 355 0
-6942 -6941 -355 0
6942 -6941 355 0
6942 6941 -355 0
-6943 6942 357 0
-6943 -6942 -357 0
6943 -6942 357 0
6943 6942 -357 0
-6944 6943 358 0
-6944 -6943 -358 0
6944 -6943 358 0
6944 6943 -358 0
-6945 6944 359 0
-6945 -6944 -359 0
6945 -6944 359 0
6945 6944 -359 0
-6946 6945 360 0
-6946 -6945 -360 0
6946 -6945 360 0
6946 6945 -360 0
-297 -6946 0
-6947 362 364 0
-6947 -362 -364 0
6947 -362 364 0
6947 362 -364 0
-6948 6947 365 0
-6948 -6947 -365 0
6948 -6947 365 0
6948 6947 -365 0
-6949 6948 370 0
-6949 -6948 -370 0
6949 -6948 370 0
6949 6948 -370 0
-6950 6949 372 0
-6950 -6949 -372 0
6950 -6949 372 0
6950 6949 -372 0
-6951 6950 373 0
-6951 -6950 -373 0
6951 -6950 373 0
6951 6950 -373 0
-6952 6951 374 0
-6952 -6951 -374 0
6952 -6951 374 0
6952 6951 -374 0
-6953 6952 375 0
-6953 -6952 -375 0
6953 -6952 375 0
6953 6952 -375 0
-297 -6953 0
-6954 316 317 0
-6954 -316 -317 0
6954 -316 317 0
6954 316 -317 0
-6955 6954 318 0
-6955 -6954 -318 0
6955 -6954 318 0
6955 6954 -318 0
-6956 6955 320 0
-6956 -6955 -320 0
6956 -6955 320 0
6956 6955 -320 0
-6957 6956 321 0
-6957 -6956 -321 0
6957 -6956 321 0
6957 6956 -321 0
-6958 6957 322 0
-6958 -6957 -322 0
6958 -6957 322 0
6958 6957 -322 0
-6959 6958 323 0
-6959 -6958 -323 0
6959 -6958 323 0
6959 6958 -323 0
-6960 6959 326 0
-6960 -6959 -326 0
6960 -6959 326 0
6960 6959 -326 0
-6961 6960 327 0
-6961 -6960 -327 0
6961 -6960 327 0
6961 6960 -327 0
-6962 6961 328 0
-6962 -6961 -328 0
6962 -6961 328 0
6962 6961 -328 0
-6963 6962 329 0
-6963 -6962 -329 0
6963 -6962 329 0
6963 6962 -329 0
-6964 6963 330 0
-6964 -6963 -330 0
6964 -6963 330 0
6964 6963 -330 0
-298 -6964 0
-6965 331 332 0
-6965 -331 -332 0
6965 -331 332 0
6965 331 -332 0
-6966 6965 333 0
-6966 -6965 -333 0
6966 -6965 333 0
6966 6965 -333 0
-6967 6966 335 0
-6967 -6966 -335 0
6967 -6966 335 0
6967 6966 -335 0
-6968 6967 336 0
-6968 -6967 -336 0
6968 -6967 336 0
6968 6967 -336 0
-6969 6968 337 0
-6969 -6968 -337 0
6969 -6968 337 0
6969 6968 -337 0
-6970 6969 338 0
-6970 -6969 -338 0
6970 -6969 338 0
6970 6969 -338 0
-6971 6970 341 0
-6971 -6970 -341 0
6971 -6970 341 0
6971 6970 -341 0
-6972 6971 342 0
-6972 -6971 -342 0
6972 -6971 342 0
6972 6971 -342 0
-6973 6972 343 0
-6973 -6972 -343 0
6973 -6972 343 0
6973 6972 -343 0
-6974 6973 344 0
-6974 -6973 -344 0
6974 -6973 344 0
6974 6973 -344 0
-6975 6974 345 0
-6975 -6974 -345 0
6975 -6974 345 0
6975 6974 -345 0
-298 -6975 0
-6976 346 347 0
-6976 -346 -347 0
6976 -346 347 0
6976 346 -347 0
-6977 6976 348 0
-6977 -6976 -348 0
6977 -6976 348 0
6977 6976 -348 0
-6978 6977 350 0
-6978 -6977 -350 0
6978 -6977 350 0
6978 6977 -350 0
-6979 6978 351 0
-6979 -6978 -351 0
6979 -6978 351 0
6979 6978 -351 0
-6980 6979 352 0
-6980 -6979 -352 0
6980 -6979 352 0
6980 6979 -352 0
-6981 6980 353 0
-6981 -6980 -353 0
6981 -6980 353 0
6981 6980 -353 0
-6982 6981 356 0
-6982 -6981 -356 0
6982 -6981 356 0
6982 6981 -356 0
-6983 6982 357 0
-6983 -6982 -357 0
6983 -6982 357 0
6983 6982 -357 0
-6984 6983 358 0
-6984 -6983 -358 0
6984 -6983 358 0
6984 6983 -358 0
-6985 6984 359 0
-6985 -6984 -359 0
6985 -6984 359 0
6985 6984 -359 0
-6986 6985 360 0
-6986 -6985 -360 0
6986 -6985 360 0
6986 6985 -360 0
-298 -6986 0
-6987 361 362 0
-6987 -361 -362 0
6987 -361 362 0
6987 361 -362 0
-6988 6987 363 0
-6988 -6987 -363 0
6988 -6987 363 0
6988 6987 -363 0
-6989 6988 365 0
-6989 -6988 -365 0
6989 -6988 365 0
6989 6988 -365 0
-6990 6989 366 0
-6990 -6989 -366 0
6990 -6989 366 0
6990 6989 -366 0
-6991 6990 367 0
-6991 -6990 -367 0
6991 -6990 367 0
6991 6990 -367 0
-6992 6991 368 0
-6992 -6991 -368 0
6992 -6991 368 0
6992 6991 -368 0
-6993 6992 371 0
-6993 -6992 -371 0
6993 -6992 371 0
6993 6992 -371 0
-6994 6993 372 0
-6994 -6993 -372 0
6994 -6993 372 0
6994 6993 -372 0
-6995 6994 373 0
-6995 -6994 -373 0
6995 -6994 373 0
6995 6994 -373 0
-6996 6995 374 0
-6996 -6995 -374 0
6996 -6995 374 0
6996 6995 -374 0
-6997 6996 375 0
-6997 -6996 -375 0
6997 -6996 375 0
6997 6996 -375 0
-298 -6997 0
-6998 316 319 0
-6998 -316 -319 0
6998 -316 319 0
6998 316 -319 0
-6999 6998 320 0
-6999 -6998 -320 0
6999 -6998 320 0
6999 6998 -320 0
-7000 6999 321 0
-7000 -6999 -321 0
7000 -6999 321 0
7000 6999 -321 0
-7001 7000 322 0
-7001 -7000 -322 0
7001 -7000 322 0
7001 7000 -322 0
-7002 7001 323 0
-7002 -7001 -323 0
7002 -7001 323 0
7002 7001 -323 0
-7003 7002 326 0
-7003 -7002 -326 0
7003 -7002 326 0
7003 7002 -326 0
-7004 7003 327 0
-7004 -7003 -327 0
7004 -7003 327 0
7004 7003 -327 0
-7005 7004 328 0
-7005 -7004 -328 0
7005 -7004 328 0
7005 7004 -328 0
-7006 7005 329 0
-7006 -7005 -329 0
7006 -7005 329 0
7006 7005 -329 0
-7007 7006 330 0
-7007 -7006 -330 0
7007 -7006 330 0
7007 7006 -330 0
-299 -7007 0
-7008 331 334 0
-7008 -331 -334 0
7008 -331 334 0
7008 331 -334 0
-7009 7008 335 0
-7009 -7008 -335 0
7009 -7008 335 0
7009 7008 -335 0
-7010 7009 336 0
-7010 -7009 -336 0
7010 -7009 336 0
7010 7009 -336 0
-7011 7010 337 0
-7011 -7010 -337 0
7011 -7010 337 0
7011 7010 -337 0
-7012 7011 338 0
-7012 -7011 -338 0
7012 -7011 338 0
7012 7011 -338 0
-7013 7012 341 0
-7013 -7012 -341 0
7013 -7012 341 0
7013 7012 -341 0
-7014 7013 342 0
-7014 -7013 -342 0
7014 -7013 342 0
7014 7013 -342 0
-7015 7014 343 0
-7015 -7014 -343 0
7015 -7014 343 0
7015 7014 -343 0
-7016 7015 344 0
-7016 -7015 -344 0
7016 -7015 344 0
7016 7015 -344 0
-7017 7016 345 0
-7017 -7016 -345 0
7017 -7016 345 0
7017 7016 -345 0
-299 -7017 0
-7018 346 349 0
-7018 -346 -349 0
7018 -346 349 0
7018 346 -349 0
-7019 7018 350 0
-7019 -7018 -350 0
7019 -7018 350 0
7019 7018 -350 0
-7020 7019 351 0
-7020 -7019 -351 0
7020 -7019 351 0
7020 7019 -351 0
-7021 7020 352 0
-7021 -7020 -352 0
7021 -7020 352 0
7021 7020 -352 0
-7022 7021 353 0
-7022 -7021 -353 0
7022 -7021 353 0
7022 7021 -353 0
-7023 7022 356 0
-7023 -7022 -356 0
7023 -7022 356 0
7023 7022 -356 0
-7024 7023 357 0
-7024 -7023 -357 0
7024 -7023 357 0
7024 7023 -357 0
-7025 7024 358 0
-7025 -7024 -358 0
7025 -7024 358 0
7025 7024 -358 0
-7026 7025 359 0
-7026 -7025 -359 0
7026 -7025 359 0
7026 7025 -359 0
-7027 7026 360 0
-7027 -7026 -360 0
7027 -7026 360 0
7027 7026 -360 0
-299 -7027 0
-7028 361 364 0
-7028 -361 -364 0
7028 -361 364 0
7028 361 -364 0
-7029 7028 365 0
-7029 -7028 -365 0
7029 -7028 365 0
7029 7028 -365 0
-7030 7029 366 0
-7030 -7029 -366 0
7030 -7029 366 0
7030 7029 -366 0
-7031 7030 367 0
-7031 -7030 -367 0
7031 -7030 367 0
7031 7030 -367 0
-7032 7031 368 0
-7032 -7031 -368 0
7032 -7031 368 0
7032 7031 -368 0
-7033 7032 371 0
-7033 -7032 -371 0
7033 -7032 371 0
7033 7032 -371 0
-7034 7033 372 0
-7034 -7033 -372 0
7034 -7033 372 0
7034 7033 -372 0
-7035 7034 373 0
-7035 -7034 -373 0
7035 -7034 373 0
7035 7034 -373 0
-7036 7035 374 0
-7036 -7035 -374 0
7036 -7035 374 0
7036 7035 -374 0
-7037 7036 375 0
-7037 -7036 -375 0
7037 -7036 375 0
7037 7036 -375 0
-299 -7037 0
-7038 316 317 0
-7038 -316 -317 0
7038 -316 317 0
7038 316 -317 0
-7039 7038 318 0
-7039 -7038 -318 0
7039 -7038 318 0
7039 7038 -318 0
-7040 7039 319 0
-7040 -7039 -319 0
7040 -7039 319 0
7040 7039 -319 0
-7041 7040 324 0
-7041 -7040 -324 0
7041 -7040 324 0
7041 7040 -324 0
-7042 7041 327 0
-7042 -7041 -327 0
7042 -7041 327 0
7042 7041 -327 0
-7043 7042 329 0
-7043 -7042 -329 0
7043 -7042 329 0
7043 7042 -329 0
-7044 7043 330 0
-7044 -7043 -330 0
7044 -7043 330 0
7044 7043 -330 0
-300 -7044 0
-7045 331 332 0
-7045 -331 -332 0
7045 -331 332 0
7045 331 -332 0
-7046 7045 333 0
-7046 -7045 -333 0
7046 -7045 333 0
7046 7045 -333 0
-7047 7046 334 0
-7047 -7046 -334 0
7047 -7046 334 0
7047 7046 -334 0
-7048 7047 339 0
-7048 -7047 -339 0
7048 -7047 339 0
7048 7047 -339 0
-7049 7048 342 0
-7049 -7048 -342 0
7049 -7048 342 0
7049 7048 -342 0
-7050 7049 344 0
-7050 -7049 -344 0
7050 -7049 344 0
7050 7049 -344 0
-7051 7050 345 0
-7051 -7050 -345 0
7051 -7050 345 0
7051 7050 -345 0
-300 -7051 0
-7052 346 347 0
-7052 -346 -347 0
7052 -346 347 0
7052 346 -347 0
-7053 7052 348 0
-7053 -7052 -348 0
7053 -7052 348 0
7053 7052 -348 0
-7054 7053 349 0
-7054 -7053 -349 0
7054 -7053 349 0
7054 7053 -349 0
-7055 7054 354 0
-7055 -7054 -354 0
7055 -7054 354 0
7055 7054 -354 0
-7056 7055 357 0
-7056 -7055 -357 0
7056 -7055 357 0
7056 7055 -357 0
-7057 7056 359 0
-7057 -7056 -359 0
7057 -7056 359 0
7057 7056 -359 0
-7058 7057 360 0
-7058 -7057 -360 0
7058 -7057 360 0
7058 7057 -360 0
-300 -7058 0
-7059 361 362 0
-7059 -361 -362 0
7059 -361 362 0
7059 361 -362 0
-7060 7059 363 0
-7060 -7059 -363 0
7060 -7059 363 0
7060 7059 -363 0
-7061 7060 364 0
-7061 -7060 -364 0
7061 -7060 364 0
7061 7060 -364 0
-7062 7061 369 0
-7062 -7061 -369 0
7062 -7061 369 0
7062 7061 -369 0
-7063 7062 372 0
-7063 -7062 -372 0
7063 -7062 372 0
7063 7062 -372 0
-7064 7063 374 0
-7064 -7063 -374 0
7064 -7063 374 0
7064 7063 -374 0
-7065 7064 375 0
-7065 -7064 -375 0
7065 -7064 375 0
7065 7064 -375 0
-300 -7065 0
-7066 316 317 0
-7066 -316 -317 0
7066 -316 317 0
7066 316 -317 0
-7067 7066 318 0
-7067 -7066 -318 0
7067 -7066 318 0
7067 7066 -318 0
-7068 7067 319 0
-7068 -7067 -319 0
7068 -7067 319 0
7068 7067 -319 0
-7069 7068 321 0
-7069 -7068 -321 0
7069 -7068 321 0
7069 7068 -321 0
-7070 7069 322 0
-7070 -7069 -322 0
7070 -7069 322 0
7070 7069 -322 0
-7071 7070 323 0
-7071 -7070 -323 0
7071 -7070 323 0
7071 7070 -323 0
-7072 7071 324 0
-7072 -7071 -324 0
7072 -7071 324 0
7072 7071 -324 0
-7073 7072 327 0
-7073 -7072 -327 0
7073 -7072 327 0
7073 7072 -327 0
-7074 7073 329 0
-7074 -7073 -329 0
7074 -7073 329 0
7074 7073 -329 0
-7075 7074 330 0
-7075 -7074 -330 0
7075 -7074 330 0
7075 7074 -330 0
-301 -7075 0
-7076 331 332 0
-7076 -331 -332 0
7076 -331 332 0
7076 331 -332 0
-7077 7076 333 0
-7077 -7076 -333 0
7077 -7076 333 0
7077 7076 -333 0
-7078 7077 334 0
-7078 -7077 -334 0
7078 -7077 334 0
7078 7077 -334 0
-7079 7078 336 0
-7079 -7078 -336 0
7079 -7078 336 0
7079 7078 -336 0
-7080 7079 337 0
-7080 -7079 -337 0
7080 -7079 337 0
7080 7079 -337 0
-7081 7080 338 0
-7081 -7080 -338 0
7081 -7080 338 0
7081 7080 -338 0
-7082 7081 339 0
-7082 -7081 -339 0
7082 -7081 339 0
7082 7081 -339 0
-7083 7082 342 0
-7083 -7082 -342 0
7083 -7082 342 0
7083 7082 -342 0
-7084 7083 344 0
-7084 -7083 -344 0
7084 -7083 344 0
7084 7083 -344 0
-7085 7084 345 0
-7085 -7084 -345 0
7085 -7084 345 0
7085 7084 -345 0
-301 -7085 0
-7086 346 347 0
-7086 -346 -347 0
7086 -346 347 0
7086 346 -347 0
-7087 7086 348 0
-7087 -7086 -348 0
7087 -7086 348 0
7087 7086 -348 0
-7088 7087 349 0
-7088 -7087 -349 0
7088 -7087 349 0
7088 7087 -349 0
-7089 7088 351 0
-7089 -7088 -351 0
7089 -7088 351 0
7089 7088 -351 0
-7090 7089 352 0
-7090 -7089 -352 0
7090 -7089 352 0
7090 7089 -352 0
-7091 7090 353 0
-7091 -7090 -353 0
7091 -7090 353 0
7091 7090 -353 0
-7092 7091 354 0
-7092 -7091 -354 0
7092 -7091 354 0
7092 7091 -354 0
-7093 7092 357 0
-7093 -7092 -357 0
7093 -7092 357 0
7093 7092 -357 0
-7094 7093 359 0
-7094 -7093 -359 0
7094 -7093 359 0
7094 7093 -359 0
-7095 7094 360 0
-7095 -7094 -360 0
7095 -7094 360 0
7095 7094 -360 0
-301 -7095 0
-7096 361 362 0
-7096 -361 -362 0
7096 -361 362 0
7096 361 -362 0
-7097 7096 363 0
-7097 -7096 -363 0
7097 -7096 363 0
7097 7096 -363 0
-7098 7097 364 0
-7098 -7097 -364 0
7098 -7097 364 0
7098 7097 -364 0
-7099 7098 366 0
-7099 -7098 -366 0
7099 -7098 366 0
7099 7098 -366 0
-7100 7099 367 0
-7100 -7099 -367 0
7100 -7099 367 0
7100 7099 -367 0
-7101 7100 368 0
-7101 -7100 -368 0
7101 -7100 368 0
7101 7100 -368 0
-7102 7101 369 0
-7102 -7101 -369 0
7102 -7101 369 0
7102 7101 -369 0
-7103 7102 372 0
-7103 -7102 -372 0
7103 -7102 372 0
7103 7102 -372 0
-7104 7103 374 0
-7104 -7103 -374 0
7104 -7103 374 0
7104 7103 -374 0
-7105 7104 375 0
-7105 -7104 -375 0
7105 -7104 375 0
7105 7104 -375 0
-301 -7105 0
-7106 321 324 0
-7106 -321 -324 0
7106 -321 324 0
7106 321 -324 0
-7107 7106 325 0
-7107 -7106 -325 0
7107 -7106 325 0
7107 7106 -325 0
-7108 7107 326 0
-7108 -7107 -326 0
7108 -7107 326 0
7108 7107 -326 0
-7109 7108 327 0
-7109 -7108 -327 0
7109 -7108 327 0
7109 7108 -327 0
-7110 7109 329 0
-7110 -7109 -329 0
7110 -7109 329 0
7110 7109 -329 0
-7111 7110 330 0
-7111 -7110 -330 0
7111 -7110 330 0
7111 7110 -330 0
-302 -7111 0
-7112 336 339 0
-7112 -336 -339 0
7112 -336 339 0
7112 336 -339 0
-7113 7112 340 0
-7113 -7112 -340 0
7113 -7112 340 0
7113 7112 -340 0
-7114 7113 341 0
-7114 -7113 -341 0
7114 -7113 341 0
7114 7113 -341 0
-7115 7114 342 0
-7115 -7114 -342 0
7115 -7114 342 0
7115 7114 -342 0
-7116 7115 344 0
-7116 -7115 -344 0
7116 -7115 344 0
7116 7115 -344 0
-7117 7116 345 0
-7117 -7116 -345 0
7117 -7116 345 0
7117 7116 -345 0
-302 -7117 0
-7118 351 354 0
-7118 -351 -354 0
7118 -351 354 0
7118 351 -354 0
-7119 7118 355 0
-7119 -7118 -355 0
7119 -7118 355 0
7119 7118 -355 0
-7120 7119 356 0
-7120 -7119 -356 0
7120 -7119 356 0
7120 7119 -356 0
-7121 7120 357 0
-7121 -7120 -357 0
7121 -7120 357 0
7121 7120 -357 0
-7122 7121 359 0
-7122 -7121 -359 0
7122 -7121 359 0
7122 7121 -359 0
-7123 7122 360 0
-7123 -7122 -360 0
7123 -7122 360 0
7123 7122 -360 0
-302 -7123 0
-7124 366 369 0
-7124 -366 -369 0
7124 -366 369 0
7124 366 -369 0
-7125 7124 370 0
-7125 -7124 -370 0
7125 -7124 370 0
7125 7124 -370 0
-7126 7125 371 0
-7126 -7125 -371 0
7126 -7125 371 0
7126 7125 -371 0
-7127 7126 372 0
-7127 -7126 -372 0
7127 -7126 372 0
7127 7126 -372 0
-7128 7127 374 0
-7128 -7127 -374 0
7128 -7127 374 0
7128 7127 -374 0
-7129 7128 375 0
-7129 -7128 -375 0
7129 -7128 375 0
7129 7128 -375 0
-302 -7129 0
-7130 322 323 0
-7130 -322 -323 0
7130 -322 323 0
7130 322 -323 0
-7131 7130 324 0
-7131 -7130 -324 0
7131 -7130 324 0
7131 7130 -324 0
-7132 7131 325 0
-7132 -7131 -325 0
7132 -7131 325 0
7132 7131 -325 0
-7133 7132 326 0
-7133 -7132 -326 0
7133 -7132 326 0
7133 7132 -326 0
-7134 7133 327 0
-7134 -7133 -327 0
7134 -7133 327 0
7134 7133 -327 0
-7135 7134 329 0
-7135 -7134 -329 0
7135 -7134 329 0
7135 7134 -329 0
-7136 7135 330 0
-7136 -7135 -330 0
7136 -7135 330 0
7136 7135 -330 0
-303 -7136 0
-7137 337 338 0
-7137 -337 -338 0
7137 -337 338 0
7137 337 -338 0
-7138 7137 339 0
-7138 -7137 -339 0
7138 -7137 339 0
7138 7137 -339 0
-7139 7138 340 0
-7139 -7138 -340 0
7139 -7138 340 0
7139 7138 -340 0
-7140 7139 341 0
-7140 -7139 -341 0
7140 -7139 341 0
7140 7139 -341 0
-7141 7140 342 0
-7141 -7140 -342 0
7141 -7140 342 0
7141 7140 -342 0
-7142 7141 344 0
-7142 -7141 -344 0
7142 -7141 344 0
7142 7141 -344 0
-7143 7142 345 0
-7143 -7142 -345 0
7143 -7142 345 0
7143 7142 -345 0
-303 -7143 0
-7144 352 353 0
-7144 -352 -353 0
7144 -352 353 0
7144 352 -353 0
-7145 7144 354 0
-7145 -7144 -354 0
7145 -7144 354 0
7145 7144 -354 0
-7146 7145 355 0
-7146 -7145 -355 0
7146 -7145 355 0
7146 7145 -355 0
-7147 7146 356 0
-7147 -7146 -356 0
7147 -7146 356 0
7147 7146 -356 0
-7148 7147 357 0
-7148 -7147 -357 0
7148 -7147 357 0
7148 7147 -357 0
-7149 7148 359 0
-7149 -7148 -359 0
7149 -7148 359 0
7149 7148 -359 0
-7150 7149 360 0
-7150 -7149 -360 0
7150 -7149 360 0
7150 7149 -360 0
-303 -7150 0
-7151 367 368 0
-7151 -367 -368 0
7151 -367 368 0
7151 367 -368 0
-7152 7151 369 0
-7152 -7151 -369 0
7152 -7151 369 0
7152 7151 -369 0
-7153 7152 370 0
-7153 -7152 -370 0
7153 -7152 370 0
7153 7152 -370 0
-7154 7153 371 0
-7154 -7153 -371 0
7154 -7153 371 0
7154 7153 -371 0
-7155 7154 372 0
-7155 -7154 -372 0
7155 -7154 372 0
7155 7154 -372 0
-7156 7155 374 0
-7156 -7155 -374 0
7156 -7155 374 0
7156 7155 -374 0
-7157 7156 375 0
-7157 -7156 -375 0
7157 -7156 375 0
7157 7156 -375 0
-303 -7157 0
-7158 322 324 0
-7158 -322 -324 0
7158 -322 324 0
7158 322 -324 0
-7159 7158 325 0
-7159 -7158 -325 0
7159 -7158 325 0
7159 7158 -325 0
-7160 7159 327 0
-7160 -7159 -327 0
7160 -7159 327 0
7160 7159 -327 0
-7161 7160 328 0
-7161 -7160 -328 0
7161 -7160 328 0
7161 7160 -328 0
-7162 7161 329 0
-7162 -7161 -329 0
7162 -7161 329 0
7162 7161 -329 0
-7163 7162 330 0
-7163 -7162 -330 0
7163 -7162 330 0
7163 7162 -330 0
-304 -7163 0
-7164 337 339 0
-7164 -337 -339 0
7164 -337 339 0
7164 337 -339 0
-7165 7164 340 0
-7165 -7164 -340 0
7165 -7164 340 0
7165 7164 -340 0
-7166 7165 342 0
-7166 -7165 -342 0
7166 -7165 342 0
7166 7165 -342 0
-7167 7166 343 0
-7167 -7166 -343 0
7167 -7166 343 0
7167 7166 -343 0
-7168 7167 344 0
-7168 -7167 -344 0
7168 -7167 344 0
7168 7167 -344 0
-7169 7168 345 0
-7169 -7168 -345 0
7169 -7168 345 0
7169 7168 -345 0
-304 -7169 0
-7170 352 354 0
-7170 -352 -354 0
7170 -352 354 0
7170 352 -354 0
-7171 7170 355 0
-7171 -7170 -355 0
7171 -7170 355 0
7171 7170 -355 0
-7172 7171 357 0
-7172 -7171 -357 0
7172 -7171 357 0
7172 7171 -357 0
-7173 7172 358 0
-7173 -7172 -358 0
7173 -7172 358 0
7173 7172 -358 0
-7174 7173 359 0
-7174 -7173 -359 0
7174 -7173 359 0
7174 7173 -359 0
-7175 7174 360 0
-7175 -7174 -360 0
7175 -7174 360 0
7175 7174 -360 0
-304 -7175 0
-7176 367 369 0
-7176 -367 -369 0
7176 -367 369 0
7176 367 -369 0
-7177 7176 370 0
-7177 -7176 -370 0
7177 -7176 370 0
7177 7176 -370 0
-7178 7177 372 0
-7178 -7177 -372 0
7178 -7177 372 0
7178 7177 -372 0
-7179 7178 373 0
-7179 -7178 -373 0
7179 -7178 373 0
7179 7178 -373 0
-7180 7179 374 0
-7180 -7179 -374 0
7180 -7179 374 0
7180 7179 -374 0
-7181 7180 375 0
-7181 -7180 -375 0
7181 -7180 375 0
7181 7180 -375 0
-304 -7181 0
-7182 321 323 0
-7182 -321 -323 0
7182 -321 323 0
7182 321 -323 0
-7183 7182 324 0
-7183 -7182 -324 0
7183 -7182 324 0
7183 7182 -324 0
-7184 7183 325 0
-7184 -7183 -325 0
7184 -7183 325 0
7184 7183 -325 0
-7185 7184 327 0
-7185 -7184 -327 0
7185 -7184 327 0
7185 7184 -327 0
-7186 7185 328 0
-7186 -7185 -328 0
7186 -7185 328 0
7186 7185 -328 0
-7187 7186 329 0
-7187 -7186 -329 0
7187 -7186 329 0
7187 7186 -329 0
-7188 7187 330 0
-7188 -7187 -330 0
7188 -7187 330 0
7188 7187 -330 0
-305 -7188 0
-7189 336 338 0
-7189 -336 -338 0
7189 -336 338 0
7189 336 -338 0
-7190 7189 339 0
-7190 -7189 -339 0
7190 -7189 339 0
7190 7189 -339 0
-7191 7190 340 0
-7191 -7190 -340 0
7191 -7190 340 0
7191 7190 -340 0
-7192 7191 342 0
-7192 -7191 -342 0
7192 -7191 342 0
7192 7191 -342 0
-7193 7192 343 0
-7193 -7192 -343 0
7193 -7192 343 0
7193 7192 -343 0
-7194 7193 344 0
-7194 -7193 -344 0
7194 -7193 344 0
7194 7193 -344 0
-7195 7194 345 0
-7195 -7194 -345 0
7195 -7194 345 0
7195 7194 -345 0
-305 -7195 0
-7196 351 353 0
-7196 -351 -353 0
7196 -351 353 0
7196 351 -353 0
-7197 7196 354 0
-7197 -7196 -354 0
7197 -7196 354 0
7197 7196 -354 0
-7198 7197 355 0
-7198 -7197 -355 0
7198 -7197 355 0
7198 7197 -355 0
-7199 7198 357 0
-7199 -7198 -357 0
7199 -7198 357 0
7199 7198 -357 0
-7200 7199 358 0
-7200 -7199 -358 0
7200 -7199 358 0
7200 7199 -358 0
-7201 7200 359 0
-7201 -7200 -359 0
7201 -7200 359 0
7201 7200 -359 0
-7202 7201 360 0
-7202 -7201 -360 0
7202 -7201 360 0
7202 7201 -360 0
-305 -7202 0
-7203 366 368 0
-7203 -366 -368 0
7203 -366 368 0
7203 366 -368 0
-7204 7203 369 0
-7204 -7203 -369 0
7204 -7203 369 0
7204 7203 -369 0
-7205 7204 370 0
-7205 -7204 -370 0
7205 -7204 370 0
7205 7204 -370 0
-7206 7205 372 0
-7206 -7205 -372 0
7206 -7205 372 0
7206 7205 -372 0
-7207 7206 373 0
-7207 -7206 -373 0
7207 -7206 373 0
7207 7206 -373 0
-7208 7207 374 0
-7208 -7207 -374 0
7208 -7207 374 0
7208 7207 -374 0
-7209 7208 375 0
-7209 -7208 -375 0
7209 -7208 375 0
7209 7208 -375 0
-305 -7209 0
-7210 316 317 0
-7210 -316 -317 0
7210 -316 317 0
7210 316 -317 0
-7211 7210 318 0
-7211 -7210 -318 0
7211 -7210 318 0
7211 7210 -318 0
-7212 7211 319 0
-7212 -7211 -319 0
7212 -7211 319 0
7212 7211 -319 0
-7213 7212 321 0
-7213 -7212 -321 0
7213 -7212 321 0
7213 7212 -321 0
-7214 7213 322 0
-7214 -7213 -322 0
7214 -7213 322 0
7214 7213 -322 0
-7215 7214 324 0
-7215 -7214 -324 0
7215 -7214 324 0
7215 7214 -324 0
-7216 7215 326 0
-7216 -7215 -326 0
7216 -7215 326 0
7216 7215 -326 0
-7217 7216 327 0
-7217 -7216 -327 0
7217 -7216 327 0
7217 7216 -327 0
-7218 7217 328 0
-7218 -7217 -328 0
7218 -7217 328 0
7218 7217 -328 0
-7219 7218 329 0
-7219 -7218 -329 0
7219 -7218 329 0
7219 7218 -329 0
-7220 7219 330 0
-7220 -7219 -330 0
7220 -7219 330 0
7220 7219 -330 0
-306 -7220 0
-7221 331 332 0
-7221 -331 -332 0
7221 -331 332 0
7221 331 -332 0
-7222 7221 333 0
-7222 -7221 -333 0
7222 -7221 333 0
7222 7221 -333 0
-7223 7222 334 0
-7223 -7222 -334 0
7223 -7222 334 0
7223 7222 -334 0
-7224 7223 336 0
-7224 -7223 -336 0
7224 -7223 336 0
7224 7223 -336 0
-7225 7224 337 0
-7225 -7224 -337 0
7225 -7224 337 0
7225 7224 -337 0
-7226 7225 339 0
-7226 -7225 -339 0
7226 -7225 339 0
7226 7225 -339 0
-7227 7226 341 0
-7227 -7226 -341 0
7227 -7226 341 0
7227 7226 -341 0
-7228 7227 342 0
-7228 -7227 -342 0
7228 -7227 342 0
7228 7227 -342 0
-7229 7228 343 0
-7229 -7228 -343 0
7229 -7228 343 0
7229 7228 -343 0
-7230 7229 344 0
-7230 -7229 -344 0
7230 -7229 344 0
7230 7229 -344 0
-7231 7230 345 0
-7231 -7230 -345 0
7231 -7230 345 0
7231 7230 -345 0
-306 -7231 0
-7232 346 347 0
-7232 -346 -347 0
7232 -346 347 0
7232 346 -347 0
-7233 7232 348 0
-7233 -7232 -348 0
7233 -7232 348 0
7233 7232 -348 0
-7234 7233 349 0
-7234 -7233 -349 0
7234 -7233 349 0
7234 7233 -349 0
-7235 7234 351 0
-7235 -7234 -351 0
7235 -7234 351 0
7235 7234 -351 0
-7236 7235 352 0
-7236 -7235 -352 0
7236 -7235 352 0
7236 7235 -352 0
-7237 7236 354 0
-7237 -7236 -354 0
7237 -7236 354 0
7237 7236 -354 0
-7238 7237 356 0
-7238 -7237 -356 0
7238 -7237 356 0
7238 7237 -356 0
-7239 7238 357 0
-7239 -7238 -357 0
7239 -7238 357 0
7239 7238 -357 0
-7240 7239 358 0
-7240 -7239 -358 0
7240 -7239 358 0
7240 7239 -358 0
-7241 7240 359 0
-7241 -7240 -359 0
7241 -7240 359 0
7241 7240 -359 0
-7242 7241 360 0
-7242 -7241 -360 0
7242 -7241 360 0
7242 7241 -360 0
-306 -7242 0
-7243 361 362 0
-7243 -361 -362 0
7243 -361 362 0
7243 361 -362 0
-7244 7243 363 0
-7244 -7243 -363 0
7244 -7243 363 0
7244 7243 -363 0
-7245 7244 364 0
-7245 -7244 -364 0
7245 -7244 364 0
7245 7244 -364 0
-7246 7245 366 0
-7246 -7245 -366 0
7246 -7245 366 0
7246 7245 -366 0
-7247 7246 367 0
-7247 -7246 -367 0
7247 -7246 367 0
7247 7246 -367 0
-7248 7247 369 0
-7248 -7247 -369 0
7248 -7247 369 0
7248 7247 -369 0
-7249 7248 371 0
-7249 -7248 -371 0
7249 -7248 371 0
7249 7248 -371 0
-7250 7249 372 0
-7250 -7249 -372 0
7250 -7249 372 0
7250 7249 -372 0
-7251 7250 373 0
-7251 -7250 -373 0
7251 -7250 373 0
7251 7250 -373 0
-7252 7251 374 0
-7252 -7251 -374 0
7252 -7251 374 0
7252 7251 -374 0
-7253 7252 375 0
-7253 -7252 -375 0
7253 -7252 375 0
7253 7252 -375 0
-306 -7253 0
-7254 316 317 0
-7254 -316 -317 0
7254 -316 317 0
7254 316 -317 0
-7255 7254 318 0
-7255 -7254 -318 0
7255 -7254 318 0
7255 7254 -318 0
-7256 7255 319 0
-7256 -7255 -319 0
7256 -7255 319 0
7256 7255 -319 0
-7257 7256 323 0
-7257 -7256 -323 0
7257 -7256 323 0
7257 7256 -323 0
-7258 7257 324 0
-7258 -7257 -324 0
7258 -7257 324 0
7258 7257 -324 0
-7259 7258 326 0
-7259 -7258 -326 0
7259 -7258 326 0
7259 7258 -326 0
-7260 7259 327 0
-7260 -7259 -327 0
7260 -7259 327 0
7260 7259 -327 0
-7261 7260 328 0
-7261 -7260 -328 0
7261 -7260 328 0
7261 7260 -328 0
-7262 7261 329 0
-7262 -7261 -329 0
7262 -7261 329 0
7262 7261 -329 0
-7263 7262 330 0
-7263 -7262 -330 0
7263 -7262 330 0
7263 7262 -330 0
-307 -7263 0
-7264 331 332 0
-7264 -331 -332 0
7264 -331 332 0
7264 331 -332 0
-7265 7264 333 0
-7265 -7264 -333 0
7265 -7264 333 0
7265 7264 -333 0
-7266 7265 334 0
-7266 -7265 -334 0
7266 -7265 334 0
7266 7265 -334 0
-7267 7266 338 0
-7267 -7266 -338 0
7267 -7266 338 0
7267 7266 -338 0
-7268 7267 339 0
-7268 -7267 -339 0
7268 -7267 339 0
7268 7267 -339 0
-7269 7268 341 0
-7269 -7268 -341 0
7269 -7268 341 0
7269 7268 -341 0
-7270 7269 342 0
-7270 -7269 -342 0
7270 -7269 342 0
7270 7269 -342 0
-7271 7270 343 0
-7271 -7270 -343 0
7271 -7270 343 0
7271 7270 -343 0
-7272 7271 344 0
-7272 -7271 -344 0
7272 -7271 344 0
7272 7271 -344 0
-7273 7272 345 0
-7273 -7272 -345 0
7273 -7272 345 0
7273 7272 -345 0
-307 -7273 0
-7274 346 347 0
-7274 -346 -347 0
7274 -346 347 0
7274 346 -347 0
-7275 7274 348 0
-7275 -7274 -348 0
7275 -7274 348 0
7275 7274 -348 0
-7276 7275 349 0
-7276 -7275 -349 0
7276 -7275 349 0
7276 7275 -349 0
-7277 7276 353 0
-7277 -7276 -353 0
7277 -7276 353 0
7277 7276 -353 0
-7278 7277 354 0
-7278 -7277 -354 0
7278 -7277 354 0
7278 7277 -354 0
-7279 7278 356 0
-7279 -7278 -356 0
7279 -7278 356 0
7279 7278 -356 0
-7280 7279 357 0
-7280 -7279 -357 0
7280 -7279 357 0
7280 7279 -357 0
-7281 7280 358 0
-7281 -7280 -358 0
7281 -7280 358 0
7281 7280 -358 0
-7282 7281 359 0
-7282 -7281 -359 0
7282 -7281 359 0
7282 7281 -359 0
-7283 7282 360 0
-7283 -7282 -360 0
7283 -7282 360 0
7283 7282 -360 0
-307 -7283 0
-7284 361 362 0
-7284 -361 -362 0
7284 -361 362 0
7284 361 -362 0
-7285 7284 363 0
-7285 -7284 -363 0
7285 -7284 363 0
7285 7284 -363 0
-7286 7285 364 0
-7286 -7285 -364 0
7286 -7285 364 0
7286 7285 -364 0
-7287 7286 368 0
-7287 -7286 -368 0
7287 -7286 368 0
7287 7286 -368 0
-7288 7287 369 0
-7288 -7287 -369 0
7288 -7287 369 0
7288 7287 -369 0
-7289 7288 371 0
-7289 -7288 -371 0
7289 -7288 371 0
7289 7288 -371 0
-7290 7289 372 0
-7290 -7289 -372 0
7290 -7289 372 0
7290 7289 -372 0
-7291 7290 373 0
-7291 -7290 -373 0
7291 -7290 373 0
7291 7290 -373 0
-7292 7291 374 0
-7292 -7291 -374 0
7292 -7291 374 0
7292 7291 -374 0
-7293 7292 375 0
-7293 -7292 -375 0
7293 -7292 375 0
7293 7292 -375 0
-307 -7293 0
-7294 316 317 0
-7294 -316 -317 0
7294 -316 317 0
7294 316 -317 0
-7295 7294 318 0
-7295 -7294 -318 0
7295 -7294 318 0
7295 7294 -318 0
-7296 7295 319 0
-7296 -7295 -319 0
7296 -7295 319 0
7296 7295 -319 0
-7297 7296 320 0
-7297 -7296 -320 0
7297 -7296 320 0
7297 7296 -320 0
-7298 7297 324 0
-7298 -7297 -324 0
7298 -7297 324 0
7298 7297 -324 0
-7299 7298 327 0
-7299 -7298 -327 0
7299 -7298 327 0
7299 7298 -327 0
-7300 7299 329 0
-7300 -7299 -329 0
7300 -7299 329 0
7300 7299 -329 0
-7301 7300 330 0
-7301 -7300 -330 0
7301 -7300 330 0
7301 7300 -330 0
-308 -7301 0
-7302 331 332 0
-7302 -331 -332 0
7302 -331 332 0
7302 331 -332 0
-7303 7302 333 0
-7303 -7302 -333 0
7303 -7302 333 0
7303 7302 -333 0
-7304 7303 334 0
-7304 -7303 -334 0
7304 -7303 334 0
7304 7303 -334 0
-7305 7304 335 0
-7305 -7304 -335 0
7305 -7304 335 0
7305 7304 -335 0
-7306 7305 339 0
-7306 -7305 -339 0
7306 -7305 339 0
7306 7305 -339 0
-7307 7306 342 0
-7307 -7306 -342 0
7307 -7306 342 0
7307 7306 -342 0
-7308 7307 344 0
-7308 -7307 -344 0
7308 -7307 344 0
7308 7307 -344 0
-7309 7308 345 0
-7309 -7308 -345 0
7309 -7308 345 0
7309 7308 -345 0
-308 -7309 0
-7310 346 347 0
-7310 -346 -347 0
7310 -346 347 0
7310 346 -347 0
-7311 7310 348 0
-7311 -7310 -348 0
7311 -7310 348 0
7311 7310 -348 0
-7312 7311 349 0
-7312 -7311 -349 0
7312 -7311 349 0
7312 7311 -349 0
-7313 7312 350 0
-7313 -7312 -350 0
7313 -7312 350 0
7313 7312 -350 0
-7314 7313 354 0
-7314 -7313 -354 0
7314 -7313 354 0
7314 7313 -354 0
-7315 7314 357 0
-7315 -7314 -357 0
7315 -7314 357 0
7315 7314 -357 0
-7316 7315 359 0
-7316 -7315 -359 0
7316 -7315 359 0
7316 7315 -359 0
-7317 7316 360 0
-7317 -7316 -360 0
7317 -7316 360 0
7317 7316 -360 0
-308 -7317 0
-7318 361 362 0
-7318 -361 -362 0
7318 -361 362 0
7318 361 -362 0
-7319 7318 363 0
-7319 -7318 -363 0
7319 -7318 363 0
7319 7318 -363 0
-7320 7319 364 0
-7320 -7319 -364 0
7320 -7319 364 0
7320 7319 -364 0
-7321 7320 365 0
-7321 -7320 -365 0
7321 -7320 365 0
7321 7320 -365 0
-7322 7321 369 0
-7322 -7321 -369 0
7322 -7321 369 0
7322 7321 -369 0
-7323 7322 372 0
-7323 -7322 -372 0
7323 -7322 372 0
7323 7322 -372 0
-7324 7323 374 0
-7324 -7323 -374 0
7324 -7323 374 0
7324 7323 -374 0
-7325 7324 375 0
-7325 -7324 -375 0
7325 -7324 375 0
7325 7324 -375 0
-308 -7325 0
-7326 316 320 0
-7326 -316 -320 0
7326 -316 320 0
7326 316 -320 0
-7327 7326 321 0
-7327 -7326 -321 0
7327 -7326 321 0
7327 7326 -321 0
-7328 7327 322 0
-7328 -7327 -322 0
7328 -7327 322 0
7328 7327 -322 0
-7329 7328 323 0
-7329 -7328 -323 0
7329 -7328 323 0
7329 7328 -323 0
-7330 7329 324 0
-7330 -7329 -324 0
7330 -7329 324 0
7330 7329 -324 0
-7331 7330 327 0
-7331 -7330 -327 0
7331 -7330 327 0
7331 7330 -327 0
-7332 7331 329 0
-7332 -7331 -329 0
7332 -7331 329 0
7332 7331 -329 0
-7333 7332 330 0
-7333 -7332 -330 0
7333 -7332 330 0
7333 7332 -330 0
-309 -7333 0
-7334 331 335 0
-7334 -331 -335 0
7334 -331 335 0
7334 331 -335 0
-7335 7334 336 0
-7335 -7334 -336 0
7335 -7334 336 0
7335 7334 -336 0
-7336 7335 337 0
-7336 -7335 -337 0
7336 -7335 337 0
7336 7335 -337 0
-7337 7336 338 0
-7337 -7336 -338 0
7337 -7336 338 0
7337 7336 -338 0
-7338 7337 339 0
-7338 -7337 -339 0
7338 -7337 339 0
7338 7337 -339 0
-7339 7338 342 0
-7339 -7338 -342 0
7339 -7338 342 0
7339 7338 -342 0
-7340 7339 344 0
-7340 -7339 -344 0
7340 -7339 344 0
7340 7339 -344 0
-7341 7340 345 0
-7341 -7340 -345 0
7341 -7340 345 0
7341 7340 -345 0
-309 -7341 0
-7342 346 350 0
-7342 -346 -350 0
7342 -346 350 0
7342 346 -350 0
-7343 7342 351 0
-7343 -7342 -351 0
7343 -7342 351 0
7343 7342 -351 0
-7344 7343 352 0
-7344 -7343 -352 0
7344 -7343 352 0
7344 7343 -352 0
-7345 7344 353 0
-7345 -7344 -353 0
7345 -7344 353 0
7345 7344 -353 0
-7346 7345 354 0
-7346 -7345 -354 0
7346 -7345 354 0
7346 7345 -354 0
-7347 7346 357 0
-7347 -7346 -357 0
7347 -7346 357 0
7347 7346 -357 0
-7348 7347 359 0
-7348 -7347 -359 0
7348 -7347 359 0
7348 7347 -359 0
-7349 7348 360 0
-7349 -7348 -360 0
7349 -7348 360 0
7349 7348 -360 0
-309 -7349 0
-7350 361 365 0
-7350 -361 -365 0
7350 -361 365 0
7350 361 -365 0
-7351 7350 366 0
-7351 -7350 -366 0
7351 -7350 366 0
7351 7350 -366 0
-7352 7351 367 0
-7352 -7351 -367 0
7352 -7351 367 0
7352 7351 -367 0
-7353 7352 368 0
-7353 -7352 -368 0
7353 -7352 368 0
7353 7352 -368 0
-7354 7353 369 0
-7354 -7353 -369 0
7354 -7353 369 0
7354 7353 -369 0
-7355 7354 372 0
-7355 -7354 -372 0
7355 -7354 372 0
7355 7354 -372 0
-7356 7355 374 0
-7356 -7355 -374 0
7356 -7355 374 0
7356 7355 -374 0
-7357 7356 375 0
-7357 -7356 -375 0
7357 -7356 375 0
7357 7356 -375 0
-309 -7357 0
-7358 317 320 0
-7358 -317 -320 0
7358 -317 320 0
7358 317 -320 0
-7359 7358 321 0
-7359 -7358 -321 0
7359 -7358 321 0
7359 7358 -321 0
-7360 7359 324 0
-7360 -7359 -324 0
7360 -7359 324 0
7360 7359 -324 0
-7361 7360 325 0
-7361 -7360 -325 0
7361 -7360 325 0
7361 7360 -325 0
-7362 7361 326 0
-7362 -7361 -326 0
7362 -7361 326 0
7362 7361 -326 0
-7363 7362 327 0
-7363 -7362 -327 0
7363 -7362 327 0
7363 7362 -327 0
-7364 7363 329 0
-7364 -7363 -329 0
7364 -7363 329 0
7364 7363 -329 0
-7365 7364 330 0
-7365 -7364 -330 0
7365 -7364 330 0
7365 7364 -330 0
-310 -7365 0
-7366 332 335 0
-7366 -332 -335 0
7366 -332 335 0
7366 332 -335 0
-7367 7366 336 0
-7367 -7366 -336 0
7367 -7366 336 0
7367 7366 -336 0
-7368 7367 339 0
-7368 -7367 -339 0
7368 -7367 339 0
7368 7367 -339 0
-7369 7368 340 0
-7369 -7368 -340 0
7369 -7368 340 0
7369 7368 -340 0
-7370 7369 341 0
-7370 -7369 -341 0
7370 -7369 341 0
7370 7369 -341 0
-7371 7370 342 0
-7371 -7370 -342 0
7371 -7370 342 0
7371 7370 -342 0
-7372 7371 344 0
-7372 -7371 -344 0
7372 -7371 344 0
7372 7371 -344 0
-7373 7372 345 0
-7373 -7372 -345 0
7373 -7372 345 0
7373 7372 -345 0
-310 -7373 0
-7374 347 350 0
-7374 -347 -350 0
7374 -347 350 0
7374 347 -350 0
-7375 7374 351 0
-7375 -7374 -351 0
7375 -7374 351 0
7375 7374 -351 0
-7376 7375 354 0
-7376 -7375 -354 0
7376 -7375 354 0
7376 7375 -354 0
-7377 7376 355 0
-7377 -7376 -355 0
7377 -7376 355 0
7377 7376 -355 0
-7378 7377 356 0
-7378 -7377 -356 0
7378 -7377 356 0
7378 7377 -356 0
-7379 7378 357 0
-7379 -7378 -357 0
7379 -7378 357 0
7379 7378 -357 0
-7380 7379 359 0
-7380 -7379 -359 0
7380 -7379 359 0
7380 7379 -359 0
-7381 7380 360 0
-7381 -7380 -360 0
7381 -7380 360 0
7381 7380 -360 0
-310 -7381 0
-7382 362 365 0
-7382 -362 -365 0
7382 -362 365 0
7382 362 -365 0
-7383 7382 366 0
-7383 -7382 -366 0
7383 -7382 366 0
7383 7382 -366 0
-7384 7383 369 0
-7384 -7383 -369 0
7384 -7383 369 0
7384 7383 -369 0
-7385 7384 370 0
-7385 -7384 -370 0
7385 -7384 370 0
7385 7384 -370 0
-7386 7385 371 0
-7386 -7385 -371 0
7386 -7385 371 0
7386 7385 -371 0
-7387 7386 372 0
-7387 -7386 -372 0
7387 -7386 372 0
7387 7386 -372 0
-7388 7387 374 0
-7388 -7387 -374 0
7388 -7387 374 0
7388 7387 -374 0
-7389 7388 375 0
-7389 -7388 -375 0
7389 -7388 375 0
7389 7388 -375 0
-310 -7389 0
-7390 318 319 0
-7390 -318 -319 0
7390 -318 319 0
7390 318 -319 0
-7391 7390 320 0
-7391 -7390 -320 0
7391 -7390 320 0
7391 7390 -320 0
-7392 7391 322 0
-7392 -7391 -322 0
7392 -7391 322 0
7392 7391 -322 0
-7393 7392 323 0
-7393 -7392 -323 0
7393 -7392 323 0
7393 7392 -323 0
-7394 7393 324 0
-7394 -7393 -324 0
7394 -7393 324 0
7394 7393 -324 0
-7395 7394 325 0
-7395 -7394 -325 0
7395 -7394 325 0
7395 7394 -325 0
-7396 7395 326 0
-7396 -7395 -326 0
7396 -7395 326 0
7396 7395 -326 0
-7397 7396 327 0
-7397 -7396 -327 0
7397 -7396 327 0
7397 7396 -327 0
-7398 7397 329 0
-7398 -7397 -329 0
7398 -7397 329 0
7398 7397 -329 0
-7399 7398 330 0
-7399 -7398 -330 0
7399 -7398 330 0
7399 7398 -330 0
-311 -7399 0
-7400 333 334 0
-7400 -333 -334 0
7400 -333 334 0
7400 333 -334 0
-7401 7400 335 0
-7401 -7400 -335 0
7401 -7400 335 0
7401 7400 -335 0
-7402 7401 337 0
-7402 -7401 -337 0
7402 -7401 337 0
7402 7401 -337 0
-7403 7402 338 0
-7403 -7402 -338 0
7403 -7402 338 0
7403 7402 -338 0
-7404 7403 339 0
-7404 -7403 -339 0
7404 -7403 339 0
7404 7403 -339 0
-7405 7404 340 0
-7405 -7404 -340 0
7405 -7404 340 0
7405 7404 -340 0
-7406 7405 341 0
-7406 -7405 -341 0
7406 -7405 341 0
7406 7405 -341 0
-7407 7406 342 0
-7407 -7406 -342 0
7407 -7406 342 0
7407 7406 -342 0
-7408 7407 344 0
-7408 -7407 -344 0
7408 -7407 344 0
7408 7407 -344 0
-7409 7408 345 0
-7409 -7408 -345 0
7409 -7408 345 0
7409 7408 -345 0
-311 -7409 0
-7410 348 349 0
-7410 -348 -349 0
7410 -348 349 0
7410 348 -349 0
-7411 7410 350 0
-7411 -7410 -350 0
7411 -7410 350 0
7411 7410 -350 0
-7412 7411 352 0
-7412 -7411 -352 0
7412 -7411 352 0
7412 7411 -352 0
-7413 7412 353 0
-7413 -7412 -353 0
7413 -7412 353 0
7413 7412 -353 0
-7414 7413 354 0
-7414 -7413 -354 0
7414 -7413 354 0
7414 7413 -354 0
-7415 7414 355 0
-7415 -7414 -355 0
7415 -7414 355 0
7415 7414 -355 0
-7416 7415 356 0
-7416 -7415 -356 0
7416 -7415 356 0
7416 7415 -356 0
-7417 7416 357 0
-7417 -7416 -357 0
7417 -7416 357 0
7417 7416 -357 0
-7418 7417 359 0
-7418 -7417 -359 0
7418 -7417 359 0
7418 7417 -359 0
-7419 7418 360 0
-7419 -7418 -360 0
7419 -7418 360 0
7419 7418 -360 0
-311 -7419 0
-7420 363 364 0
-7420 -363 -364 0
7420 -363 364 0
7420 363 -364 0
-7421 7420 365 0
-7421 -7420 -365 0
7421 -7420 365 0
7421 7420 -365 0
-7422 7421 367 0
-7422 -7421 -367 0
7422 -7421 367 0
7422 7421 -367 0
-7423 7422 368 0
-7423 -7422 -368 0
7423 -7422 368 0
7423 7422 -368 0
-7424 7423 369 0
-7424 -7423 -369 0
7424 -7423 369 0
7424 7423 -369 0
-7425 7424 370 0
-7425 -7424 -370 0
7425 -7424 370 0
7425 7424 -370 0
-7426 7425 371 0
-7426 -7425 -371 0
7426 -7425 371 0
7426 7425 -371 0
-7427 7426 372 0
-7427 -7426 -372 0
7427 -7426 372 0
7427 7426 -372 0
-7428 7427 374 0
-7428 -7427 -374 0
7428 -7427 374 0
7428 7427 -374 0
-7429 7428 375 0
-7429 -7428 -375 0
7429 -7428 375 0
7429 7428 -375 0
-311 -7429 0
-7430 318 320 0
-7430 -318 -320 0
7430 -318 320 0
7430 318 -320 0
-7431 7430 322 0
-7431 -7430 -322 0
7431 -7430 322 0
7431 7430 -322 0
-7432 7431 324 0
-7432 -7431 -324 0
7432 -7431 324 0
7432 7431 -324 0
-7433 7432 325 0
-7433 -7432 -325 0
7433 -7432 325 0
7433 7432 -325 0
-7434 7433 327 0
-7434 -7433 -327 0
7434 -7433 327 0
7434 7433 -327 0
-7435 7434 328 0
-7435 -7434 -328 0
7435 -7434 328 0
7435 7434 -328 0
-7436 7435 329 0
-7436 -7435 -329 0
7436 -7435 329 0
7436 7435 -329 0
-7437 7436 330 0
-7437 -7436 -330 0
7437 -7436 330 0
7437 7436 -330 0
-312 -7437 0
-7438 333 335 0
-7438 -333 -335 0
7438 -333 335 0
7438 333 -335 0
-7439 7438 337 0
-7439 -7438 -337 0
7439 -7438 337 0
7439 7438 -337 0
-7440 7439 339 0
-7440 -7439 -339 0
7440 -7439 339 0
7440 7439 -339 0
-7441 7440 340 0
-7441 -7440 -340 0
7441 -7440 340 0
7441 7440 -340 0
-7442 7441 342 0
-7442 -7441 -342 0
7442 -7441 342 0
7442 7441 -342 0
-7443 7442 343 0
-7443 -7442 -343 0
7443 -7442 343 0
7443 7442 -343 0
-7444 7443 344 0
-7444 -7443 -344 0
7444 -7443 344 0
7444 7443 -344 0
-7445 7444 345 0
-7445 -7444 -345 0
7445 -7444 345 0
7445 7444 -345 0
-312 -7445 0
-7446 348 350 0
-7446 -348 -350 0
7446 -348 350 0
7446 348 -350 0
-7447 7446 352 0
-7447 -7446 -352 0
7447 -7446 352 0
7447 7446 -352 0
-7448 7447 354 0
-7448 -7447 -354 0
7448 -7447 354 0
7448 7447 -354 0
-7449 7448 355 0
-7449 -7448 -355 0
7449 -7448 355 0
7449 7448 -355 0
-7450 7449 357 0
-7450 -7449 -357 0
7450 -7449 357 0
7450 7449 -357 0
-7451 7450 358 0
-7451 -7450 -358 0
7451 -7450 358 0
7451 7450 -358 0
-7452 7451 359 0
-7452 -7451 -359 0
7452 -7451 359 0
7452 7451 -359 0
-7453 7452 360 0
-7453 -7452 -360 0
7453 -7452 360 0
7453 7452 -360 0
-312 -7453 0
-7454 363 365 0
-7454 -363 -365 0
7454 -363 365 0
7454 363 -365 0
-7455 7454 367 0
-7455 -7454 -367 0
7455 -7454 367 0
7455 7454 -367 0
-7456 7455 369 0
-7456 -7455 -369 0
7456 -7455 369 0
7456 7455 -369 0
-7457 7456 370 0
-7457 -7456 -370 0
7457 -7456 370 0
7457 7456 -370 0
-7458 7457 372 0
-7458 -7457 -372 0
7458 -7457 372 0
7458 7457 -372 0
-7459 7458 373 0
-7459 -7458 -373 0
7459 -7458 373 0
7459 7458 -373 0
-7460 7459 374 0
-7460 -7459 -374 0
7460 -7459 374 0
7460 7459 -374 0
-7461 7460 375 0
-7461 -7460 -375 0
7461 -7460 375 0
7461 7460 -375 0
-312 -7461 0
-7462 317 319 0
-7462 -317 -319 0
7462 -317 319 0
7462 317 -319 0
-7463 7462 320 0
-7463 -7462 -320 0
7463 -7462 320 0
7463 7462 -320 0
-7464 7463 321 0
-7464 -7463 -321 0
7464 -7463 321 0
7464 7463 -321 0
-7465 7464 323 0
-7465 -7464 -323 0
7465 -7464 323 0
7465 7464 -323 0
-7466 7465 324 0
-7466 -7465 -324 0
7466 -7465 324 0
7466 7465 -324 0
-7467 7466 325 0
-7467 -7466 -325 0
7467 -7466 325 0
7467 7466 -325 0
-7468 7467 327 0
-7468 -7467 -327 0
7468 -7467 327 0
7468 7467 -327 0
-7469 7468 328 0
-7469 -7468 -328 0
7469 -7468 328 0
7469 7468 -328 0
-7470 7469 329 0
-7470 -7469 -329 0
7470 -7469 329 0
7470 7469 -329 0
-7471 7470 330 0
-7471 -7470 -330 0
7471 -7470 330 0
7471 7470 -330 0
-313 -7471 0
-7472 332 334 0
-7472 -332 -334 0
7472 -332 334 0
7472 332 -334 0
-7473 7472 335 0
-7473 -7472 -335 0
7473 -7472 335 0
7473 7472 -335 0
-7474 7473 336 0
-7474 -7473 -336 0
7474 -7473 336 0
7474 7473 -336 0
-7475 7474 338 0
-7475 -7474 -338 0
7475 -7474 338 0
7475 7474 -338 0
-7476 7475 339 0
-7476 -7475 -339 0
7476 -7475 339 0
7476 7475 -339 0
-7477 7476 340 0
-7477 -7476 -340 0
7477 -7476 340 0
7477 7476 -340 0
-7478 7477 342 0
-7478 -7477 -342 0
7478 -7477 342 0
7478 7477 -342 0
-7479 7478 343 0
-7479 -7478 -343 0
7479 -7478 343 0
7479 7478 -343 0
-7480 7479 344 0
-7480 -7479 -344 0
7480 -7479 344 0
7480 7479 -344 0
-7481 7480 345 0
-7481 -7480 -345 0
7481 -7480 345 0
7481 7480 -345 0
-313 -7481 0
-7482 347 349 0
-7482 -347 -349 0
7482 -347 349 0
7482 347 -349 0
-7483 7482 350 0
-7483 -7482 -350 0
7483 -7482 350 0
7483 7482 -350 0
-7484 7483 351 0
-7484 -7483 -351 0
7484 -7483 351 0
7484 7483 -351 0
-7485 7484 353 0
-7485 -7484 -353 0
7485 -7484 353 0
7485 7484 -353 0
-7486 7485 354 0
-7486 -7485 -354 0
7486 -7485 354 0
7486 7485 -354 0
-7487 7486 355 0
-7487 -7486 -355 0
7487 -7486 355 0
7487 7486 -355 0
-7488 7487 357 0
-7488 -7487 -357 0
7488 -7487 357 0
7488 7487 -357 0
-7489 7488 358 0
-7489 -7488 -358 0
7489 -7488 358 0
7489 7488 -358 0
-7490 7489 359 0
-7490 -7489 -359 0
7490 -7489 359 0
7490 7489 -359 0
-7491 7490 360 0
-7491 -7490 -360 0
7491 -7490 360 0
7491 7490 -360 0
-313 -7491 0
-7492 362 364 0
-7492 -362 -364 0
7492 -362 364 0
7492 362 -364 0
-7493 7492 365 0
-7493 -7492 -365 0
7493 -7492 365 0
7493 7492 -365 0
-7494 7493 366 0
-7494 -7493 -366 0
7494 -7493 366 0
7494 7493 -366 0
-7495 7494 368 0
-7495 -7494 -368 0
7495 -7494 368 0
7495 7494 -368 0
-7496 7495 369 0
-7496 -7495 -369 0
7496 -7495 369 0
7496 7495 -369 0
-7497 7496 370 0
-7497 -7496 -370 0
7497 -7496 370 0
7497 7496 -370 0
-7498 7497 372 0
-7498 -7497 -372 0
7498 -7497 372 0
7498 7497 -372 0
-7499 7498 373 0
-7499 -7498 -373 0
7499 -7498 373 0
7499 7498 -373 0
-7500 7499 374 0
-7500 -7499 -374 0
7500 -7499 374 0
7500 7499 -374 0
-7501 7500 375 0
-7501 -7500 -375 0
7501 -7500 375 0
7501 7500 -375 0
-313 -7501 0
-7502 316 319 0
-7502 -316 -319 0
7502 -316 319 0
7502 316 -319 0
-7503 7502 320 0
-7503 -7502 -320 0
7503 -7502 320 0
7503 7502 -320 0
-7504 7503 321 0
-7504 -7503 -321 0
7504 -7503 321 0
7504 7503 -321 0
-7505 7504 322 0
-7505 -7504 -322 0
7505 -7504 322 0
7505 7504 -322 0
-7506 7505 324 0
-7506 -7505 -324 0
7506 -7505 324 0
7506 7505 -324 0
-7507 7506 326 0
-7507 -7506 -326 0
7507 -7506 326 0
7507 7506 -326 0
-7508 7507 327 0
-7508 -7507 -327 0
7508 -7507 327 0
7508 7507 -327 0
-7509 7508 328 0
-7509 -7508 -328 0
7509 -7508 328 0
7509 7508 -328 0
-7510 7509 329 0
-7510 -7509 -329 0
7510 -7509 329 0
7510 7509 -329 0
-7511 7510 330 0
-7511 -7510 -330 0
7511 -7510 330 0
7511 7510 -330 0
-314 -7511 0
-7512 331 334 0
-7512 -331 -334 0
7512 -331 334 0
7512 331 -334 0
-7513 7512 335 0
-7513 -7512 -335 0
7513 -7512 335 0
7513 7512 -335 0
-7514 7513 336 0
-7514 -7513 -336 0
7514 -7513 336 0
7514 7513 -336 0
-7515 7514 337 0
-7515 -7514 -337 0
7515 -7514 337 0
7515 7514 -337 0
-7516 7515 339 0
-7516 -7515 -339 0
7516 -7515 339 0
7516 7515 -339 0
-7517 7516 341 0
-7517 -7516 -341 0
7517 -7516 341 0
7517 7516 -341 0
-7518 7517 342 0
-7518 -7517 -342 0
7518 -7517 342 0
7518 7517 -342 0
-7519 7518 343 0
-7519 -7518 -343 0
7519 -7518 343 0
7519 7518 -343 0
-7520 7519 344 0
-7520 -7519 -344 0
7520 -7519 344 0
7520 7519 -344 0
-7521 7520 345 0
-7521 -7520 -345 0
7521 -7520 345 0
7521 7520 -345 0
-314 -7521 0
-7522 346 349 0
-7522 -346 -349 0
7522 -346 349 0
7522 346 -349 0
-7523 7522 350 0
-7523 -7522 -350 0
7523 -7522 350 0
7523 7522 -350 0
-7524 7523 351 0
-7524 -7523 -351 0
7524 -7523 351 0
7524 7523 -351 0
-7525 7524 352 0
-7525 -7524 -352 0
7525 -7524 352 0
7525 7524 -352 0
-7526 7525 354 0
-7526 -7525 -354 0
7526 -7525 354 0
7526 7525 -354 0
-7527 7526 356 0
-7527 -7526 -356 0
7527 -7526 356 0
7527 7526 -356 0
-7528 7527 357 0
-7528 -7527 -357 0
7528 -7527 357 0
7528 7527 -357 0
-7529 7528 358 0
-7529 -7528 -358 0
7529 -7528 358 0
7529 7528 -358 0
-7530 7529 359 0
-7530 -7529 -359 0
7530 -7529 359 0
7530 7529 -359 0
-7531 7530 360 0
-7531 -7530 -360 0
7531 -7530 360 0
7531 7530 -360 0
-314 -7531 0
-7532 361 364 0
-7532 -361 -364 0
7532 -361 364 0
7532 361 -364 0
-7533 7532 365 0
-7533 -7532 -365 0
7533 -7532 365 0
7533 7532 -365 0
-7534 7533 366 0
-7534 -7533 -366 0
7534 -7533 366 0
7534 7533 -366 0
-7535 7534 367 0
-7535 -7534 -367 0
7535 -7534 367 0
7535 7534 -367 0
-7536 7535 369 0
-7536 -7535 -369 0
7536 -7535 369 0
7536 7535 -369 0
-7537 7536 371 0
-7537 -7536 -371 0
7537 -7536 371 0
7537 7536 -371 0
-7538 7537 372 0
-7538 -7537 -372 0
7538 -7537 372 0
7538 7537 -372 0
-7539 7538 373 0
-7539 -7538 -373 0
7539 -7538 373 0
7539 7538 -373 0
-7540 7539 374 0
-7540 -7539 -374 0
7540 -7539 374 0
7540 7539 -374 0
-7541 7540 375 0
-7541 -7540 -375 0
7541 -7540 375 0
7541 7540 -375 0
-314 -7541 0
-7542 316 317 0
-7542 -316 -317 0
7542 -316 317 0
7542 316 -317 0
-7543 7542 318 0
-7543 -7542 -318 0
7543 -7542 318 0
7543 7542 -318 0
-7544 7543 320 0
-7544 -7543 -320 0
7544 -7543 320 0
7544 7543 -320 0
-7545 7544 323 0
-7545 -7544 -323 0
7545 -7544 323 0
7545 7544 -323 0
-7546 7545 324 0
-7546 -7545 -324 0
7546 -7545 324 0
7546 7545 -324 0
-7547 7546 326 0
-7547 -7546 -326 0
7547 -7546 326 0
7547 7546 -326 0
-7548 7547 327 0
-7548 -7547 -327 0
7548 -7547 327 0
7548 7547 -327 0
-7549 7548 328 0
-7549 -7548 -328 0
7549 -7548 328 0
7549 7548 -328 0
-7550 7549 329 0
-7550 -7549 -329 0
7550 -7549 329 0
7550 7549 -329 0
-7551 7550 330 0
-7551 -7550 -330 0
7551 -7550 330 0
7551 7550 -330 0
-315 -7551 0
-7552 331 332 0
-7552 -331 -332 0
7552 -331 332 0
7552 331 -332 0
-7553 7552 333 0
-7553 -7552 -333 0
7553 -7552 333 0
7553 7552 -333 0
-7554 7553 335 0
-7554 -7553 -335 0
7554 -7553 335 0
7554 7553 -335 0
-7555 7554 338 0
-7555 -7554 -338 0
7555 -7554 338 0
7555 7554 -338 0
-7556 7555 339 0
-7556 -7555 -339 0
7556 -7555 339 0
7556 7555 -339 0
-7557 7556 341 0
-7557 -7556 -341 0
7557 -7556 341 0
7557 7556 -341 0
-7558 7557 342 0
-7558 -7557 -342 0
7558 -7557 342 0
7558 7557 -342 0
-7559 7558 343 0
-7559 -7558 -343 0
7559 -7558 343 0
7559 7558 -343 0
-7560 7559 344 0
-7560 -7559 -344 0
7560 -7559 344 0
7560 7559 -344 0
-7561 7560 345 0
-7561 -7560 -345 0
7561 -7560 345 0
7561 7560 -345 0
-315 -7561 0
-7562 346 347 0
-7562 -346 -347 0
7562 -346 347 0
7562 346 -347 0
-7563 7562 348 0
-7563 -7562 -348 0
7563 -7562 348 0
7563 7562 -348 0
-7564 7563 350 0
-7564 -7563 -350 0
7564 -7563 350 0
7564 7563 -350 0
-7565 7564 353 0
-7565 -7564 -353 0
7565 -7564 353 0
7565 7564 -353 0
-7566 7565 354 0
-7566 -7565 -354 0
7566 -7565 354 0
7566 7565 -354 0
-7567 7566 356 0
-7567 -7566 -356 0
7567 -7566 356 0
7567 7566 -356 0
-7568 7567 357 0
-7568 -7567 -357 0
7568 -7567 357 0
7568 7567 -357 0
-7569 7568 358 0
-7569 -7568 -358 0
7569 -7568 358 0
7569 7568 -358 0
-7570 7569 359 0
-7570 -7569 -359 0
7570 -7569 359 0
7570 7569 -359 0
-7571 7570 360 0
-7571 -7570 -360 0
7571 -7570 360 0
7571 7570 -360 0
-315 -7571 0
-7572 361 362 0
-7572 -361 -362 0
7572 -361 362 0
7572 361 -362 0
-7573 7572 363 0
-7573 -7572 -363 0
7573 -7572 363 0
7573 7572 -363 0
-7574 7573 365 0
-7574 -7573 -365 0
7574 -7573 365 0
7574 7573 -365 0
-7575 7574 368 0
-7575 -7574 -368 0
7575 -7574 368 0
7575 7574 -368 0
-7576 7575 369 0
-7576 -7575 -369 0
7576 -7575 369 0
7576 7575 -369 0
-7577 7576 371 0
-7577 -7576 -371 0
7577 -7576 371 0
7577 7576 -371 0
-7578 7577 372 0
-7578 -7577 -372 0
7578 -7577 372 0
7578 7577 -372 0
-7579 7578 373 0
-7579 -7578 -373 0
7579 -7578 373 0
7579 7578 -373 0
-7580 7579 374 0
-7580 -7579 -374 0
7580 -7579 374 0
7580 7579 -374 0
-7581 7580 375 0
-7581 -7580 -375 0
7581 -7580 375 0
7581 7580 -375 0
-315 -7581 0
316 317 318 319 320 321 322 323 324 325 326 327 328 329 330 0
-316 317 318 319 320 321 322 323 324 -325 326 327 328 329 -330 0
331 332 333 334 335 336 337 338 339 340 341 342 343 344 345 0
-331 332 333 334 335 336 337 338 339 -340 341 342 343 344 -345 0
-7582 316 331 0
-7582 -316 -331 0
7582 -316 331 0
7582 316 -331 0
-7583 317 332 0
-7583 -317 -332 0
7583 -317 332 0
7583 317 -332 0
-7584 318 333 0
-7584 -318 -333 0
7584 -318 333 0
7584 318 -333 0
-7585 319 334 0
-7585 -319 -334 0
7585 -319 334 0
7585 319 -334 0
-7586 320 335 0
-7586 -320 -335 0
7586 -320 335 0
7586 320 -335 0
-7587 321 336 0
-7587 -321 -336 0
7587 -321 336 0
7587 321 -336 0
-7588 322 337 0
-7588 -322 -337 0
7588 -322 337 0
7588 322 -337 0
-7589 323 338 0
-7589 -323 -338 0
7589 -323 338 0
7589 323 -338 0
-7590 324 339 0
-7590 -324 -339 0
7590 -324 339 0
7590 324 -339 0
-7591 325 340 0
-7591 -325 -340 0
7591 -325 340 0
7591 325 -340 0
-7592 326 341 0
-7592 -326 -341 0
7592 -326 341 0
7592 326 -341 0
-7593 327 342 0
-7593 -327 -342 0
7593 -327 342 0
7593 327 -342 0
-7594 328 343 0
-7594 -328 -343 0
7594 -328 343 0
7594 328 -343 0
-7595 329 344 0
-7595 -329 -344 0
7595 -329 344 0
7595 329 -344 0
-7596 330 345 0
-7596 -330 -345 0
7596 -330 345 0
7596 330 -345 0
7582 7583 7584 7585 7586 7587 7588 7589 7590 7591 7592 7593 7594 7595 7596 0
-7597 316 331 0
-7597 -316 -331 0
7597 -316 331 0
7597 316 -331 0
-7598 317 332 0
-7598 -317 -332 0
7598 -317 332 0
7598 317 -332 0
-7599 318 333 0
-7599 -318 -333 0
7599 -318 333 0
7599 318 -333 0
-7600 319 334 0
-7600 -319 -334 0
7600 -319 334 0
7600 319 -334 0
-7601 320 335 0
-7601 -320 -335 0
7601 -320 335 0
7601 320 -335 0
-7602 321 336 0
-7602 -321 -336 0
7602 -321 336 0
7602 321 -336 0
-7603 322 337 0
-7603 -322 -337 0
7603 -322 337 0
7603 322 -337 0
-7604 323 338 0
-7604 -323 -338 0
7604 -323 338 0
7604 323 -338 0
-7605 324 339 0
-7605 -324 -339 0
7605 -324 339 0
7605 324 -339 0
-7606 325 340 0
-7606 -325 -340 0
7606 -325 340 0
7606 325 -340 0
-7607 326 341 0
-7607 -326 -341 0
7607 -326 341 0
7607 326 -341 0
-7608 327 342 0
-7608 -327 -342 0
7608 -327 342 0
7608 327 -342 0
-7609 328 343 0
-7609 -328 -343 0
7609 -328 343 0
7609 328 -343 0
-7610 329 344 0
-7610 -329 -344 0
7610 -329 344 0
7610 329 -344 0
-7611 330 345 0
-7611 -330 -345 0
7611 -330 345 0
7611 330 -345 0
-7597 7598 7599 7600 7601 7602 7603 7604 7605 -7606 7607 7608 7609 7610 -7611 0
346 347 348 349 350 351 352 353 354 355 356 357 358 359 360 0
-346 347 348 349 350 351 352 353 354 -355 356 357 358 359 -360 0
-7612 316 346 0
-7612 -316 -346 0
7612 -316 346 0
7612 316 -346 0
-7613 317 347 0
-7613 -317 -347 0
7613 -317 347 0
7613 317 -347 0
-7614 318 348 0
-7614 -318 -348 0
7614 -318 348 0
7614 318 -348 0
-7615 319 349 0
-7615 -319 -349 0
7615 -319 349 0
7615 319 -349 0
-7616 320 350 0
-7616 -320 -350 0
7616 -320 350 0
7616 320 -350 0
-7617 321 351 0
-7617 -321 -351 0
7617 -321 351 0
7617 321 -351 0
-7618 322 352 0
-7618 -322 -352 0
7618 -322 352 0
7618 322 -352 0
-7619 323 353 0
-7619 -323 -353 0
7619 -323 353 0
7619 323 -353 0
-7620 324 354 0
-7620 -324 -354 0
7620 -324 354 0
7620 324 -354 0
-7621 325 355 0
-7621 -325 -355 0
7621 -325 355 0
7621 325 -355 0
-7622 326 356 0
-7622 -326 -356 0
7622 -326 356 0
7622 326 -356 0
-7623 327 357 0
-7623 -327 -357 0
7623 -327 357 0
7623 327 -357 0
-7624 328 358 0
-7624 -328 -358 0
7624 -328 358 0
7624 328 -358 0
-7625 329 359 0
-7625 -329 -359 0
7625 -329 359 0
7625 329 -359 0
-7626 330 360 0
-7626 -330 -360 0
7626 -330 360 0
7626 330 -360 0
7612 7613 7614 7615 7616 7617 7618 7619 7620 7621 7622 7623 7624 7625 7626 0
-7627 316 346 0
-7627 -316 -346 0
7627 -316 346 0
7627 316 -346 0
-7628 317 347 0
-7628 -317 -347 0
7628 -317 347 0
7628 317 -347 0
-7629 318 348 0
-7629 -318 -348 0
7629 -318 348 0
7629 318 -348 0
-7630 319 349 0
-7630 -319 -349 0
7630 -319 349 0
7630 319 -349 0
-7631 320 350 0
-7631 -320 -350 0
7631 -320 350 0
7631 320 -350 0
-7632 321 351 0
-7632 -321 -351 0
7632 -321 351 0
7632 321 -351 0
-7633 322 352 0
-7633 -322 -352 0
7633 -322 352 0
7633 322 -352 0
-7634 323 353 0
-7634 -323 -353 0
7634 -323 353 0
7634 323 -353 0
-7635 324 354 0
-7635 -324 -354 0
7635 -324 354 0
7635 324 -354 0
-7636 325 355 0
-7636 -325 -355 0
7636 -325 355 0
7636 325 -355 0
-7637 326 356 0
-7637 -326 -356 0
7637 -326 356 0
7637 326 -356 0
-7638 327 357 0
-7638 -327 -357 0
7638 -327 357 0
7638 327 -357 0
-7639 328 358 0
-7639 -328 -358 0
7639 -328 358 0
7639 328 -358 0
-7640 329 359 0
-7640 -329 -359 0
7640 -329 359 0
7640 329 -359 0
-7641 330 360 0
-7641 -330 -360 0
7641 -330 360 0
7641 330 -360 0
-7627 7628 7629 7630 7631 7632 7633 7634 7635 -7636 7637 7638 7639 7640 -7641 0
-7642 331 346 0
-7642 -331 -346 0
7642 -331 346 0
7642 331 -346 0
-7643 332 347 0
-7643 -332 -347 0
7643 -332 347 0
7643 332 -347 0
-7644 333 348 0
-7644 -333 -348 0
7644 -333 348 0
7644 333 -348 0
-7645 334 349 0
-7645 -334 -349 0
7645 -334 349 0
7645 334 -349 0
-7646 335 350 0
-7646 -335 -350 0
7646 -335 350 0
7646 335 -350 0
-7647 336 351 0
-7647 -336 -351 0
7647 -336 351 0
7647 336 -351 0
-7648 337 352 0
-7648 -337 -352 0
7648 -337 352 0
7648 337 -352 0
-7649 338 353 0
-7649 -338 -353 0
7649 -338 353 0
7649 338 -353 0
-7650 339 354 0
-7650 -339 -354 0
7650 -339 354 0
7650 339 -354 0
-7651 340 355 0
-7651 -340 -355 0
7651 -340 355 0
7651 340 -355 0
-7652 341 356 0
-7652 -341 -356 0
7652 -341 356 0
7652 341 -356 0
-7653 342 357 0
-7653 -342 -357 0
7653 -342 357 0
7653 342 -357 0
-7654 343 358 0
-7654 -343 -358 0
7654 -343 358 0
7654 343 -358 0
-7655 344 359 0
-7655 -344 -359 0
7655 -344 359 0
7655 344 -359 0
-7656 345 360 0
-7656 -345 -360 0
7656 -345 360 0
7656 345 -360 0
7642 7643 7644 7645 7646 7647 7648 7649 7650 7651 7652 7653 7654 7655 7656 0
-7657 331 346 0
-7657 -331 -346 0
7657 -331 346 0
7657 331 -346 0
-7658 332 347 0
-7658 -332 -347 0
7658 -332 347 0
7658 332 -347 0
-7659 333 348 0
-7659 -333 -348 0
7659 -333 348 0
7659 333 -348 0
-7660 334 349 0
-7660 -334 -349 0
7660 -334 349 0
7660 334 -349 0
-7661 335 350 0
-7661 -335 -350 0
7661 -335 350 0
7661 335 -350 0
-7662 336 351 0
-7662 -336 -351 0
7662 -336 351 0
7662 336 -351 0
-7663 337 352 0
-7663 -337 -352 0
7663 -337 352 0
7663 337 -352 0
-7664 338 353 0
-7664 -338 -353 0
7664 -338 353 0
7664 338 -353 0
-7665 339 354 0
-7665 -339 -354 0
7665 -339 354 0
7665 339 -354 0
-7666 340 355 0
-7666 -340 -355 0
7666 -340 355 0
7666 340 -355 0
-7667 341 356 0
-7667 -341 -356 0
7667 -341 356 0
7667 341 -356 0
-7668 342 357 0
-7668 -342 -357 0
7668 -342 357 0
7668 342 -357 0
-7669 343 358 0
-7669 -343 -358 0
7669 -343 358 0
7669 343 -358 0
-7670 344 359 0
-7670 -344 -359 0
7670 -344 359 0
7670 344 -359 0
-7671 345 360 0
-7671 -345 -360 0
7671 -345 360 0
7671 345 -360 0
-7657 7658 7659 7660 7661 7662 7663 7664 7665 -7666 7667 7668 7669 7670 -7671 0
-7672 316 331 0
-7672 -316 -331 0
7672 -316 331 0
7672 316 -331 0
-7673 7672 346 0
-7673 -7672 -346 0
7673 -7672 346 0
7673 7672 -346 0
-7674 317 332 0
-7674 -317 -332 0
7674 -317 332 0
7674 317 -332 0
-7675 7674 347 0
-7675 -7674 -347 0
7675 -7674 347 0
7675 7674 -347 0
-7676 318 333 0
-7676 -318 -333 0
7676 -318 333 0
7676 318 -333 0
-7677 7676 348 0
-7677 -7676 -348 0
7677 -7676 348 0
7677 7676 -348 0
-7678 319 334 0
-7678 -319 -334 0
7678 -319 334 0
7678 319 -334 0
-7679 7678 349 0
-7679 -7678 -349 0
7679 -7678 349 0
7679 7678 -349 0
-7680 320 335 0
-7680 -320 -335 0
7680 -320 335 0
7680 320 -335 0
-7681 7680 350 0
-7681 -7680 -350 0
7681 -7680 350 0
7681 7680 -350 0
-7682 321 336 0
-7682 -321 -336 0
7682 -321 336 0
7682 321 -336 0
-7683 7682 351 0
-7683 -7682 -351 0
7683 -7682 351 0
7683 7682 -351 0
-7684 322 337 0
-7684 -322 -337 0
7684 -322 337 0
7684 322 -337 0
-7685 7684 352 0
-7685 -7684 -352 0
7685 -7684 352 0
7685 7684 -352 0
-7686 323 338 0
-7686 -323 -338 0
7686 -323 338 0
7686 323 -338 0
-7687 7686 353 0
-7687 -7686 -353 0
7687 -7686 353 0
7687 7686 -353 0
-7688 324 339 0
-7688 -324 -339 0
7688 -324 339 0
7688 324 -339 0
-7689 7688 354 0
-7689 -7688 -354 0
7689 -7688 354 0
7689 7688 -354 0
-7690 325 340 0
-7690 -325 -340 0
7690 -325 340 0
7690 325 -340 0
-7691 7690 355 0
-7691 -7690 -355 0
7691 -7690 355 0
7691 7690 -355 0
-7692 326 341 0
-7692 -326 -341 0
7692 -326 341 0
7692 326 -341 0
-7693 7692 356 0
-7693 -7692 -356 0
7693 -7692 356 0
7693 7692 -356 0
-7694 327 342 0
-7694 -327 -342 0
7694 -327 342 0
7694 327 -342 0
-7695 7694 357 0
-7695 -7694 -357 0
7695 -7694 357 0
7695 7694 -357 0
-7696 328 343 0
-7696 -328 -343 0
7696 -328 343 0
7696 328 -343 0
-7697 7696 358 0
-7697 -7696 -358 0
7697 -7696 358 0
7697 7696 -358 0
-7698 329 344 0
-7698 -329 -344 0
7698 -329 344 0
7698 329 -344 0
-7699 7698 359 0
-7699 -7698 -359 0
7699 -7698 359 0
7699 7698 -359 0
-7700 330 345 0
-7700 -330 -345 0
7700 -330 345 0
7700 330 -345 0
-7701 7700 360 0
-7701 -7700 -360 0
7701 -7700 360 0
7701 7700 -360 0
7673 7675 7677 7679 7681 7683 7685 7687 7689 7691 7693 7695 7697 7699 7701 0
-7702 316 331 0
-7702 -316 -331 0
7702 -316 331 0
7702 316 -331 0
-7703 7702 346 0
-7703 -7702 -346 0
7703 -7702 346 0
7703 7702 -346 0
-7704 317 332 0
-7704 -317 -332 0
7704 -317 332 0
7704 317 -332 0
-7705 7704 347 0
-7705 -7704 -347 0
7705 -7704 347 0
7705 7704 -347 0
-7706 318 333 0
-7706 -318 -333 0
7706 -318 333 0
7706 318 -333 0
-7707 7706 348 0
-7707 -7706 -348 0
7707 -7706 348 0
7707 7706 -348 0
-7708 319 334 0
-7708 -319 -334 0
7708 -319 334 0
7708 319 -334 0
-7709 7708 349 0
-7709 -7708 -349 0
7709 -7708 349 0
7709 7708 -349 0
-7710 320 335 0
-7710 -320 -335 0
7710 -320 335 0
7710 320 -335 0
-7711 7710 350 0
-7711 -7710 -350 0
7711 -7710 350 0
7711 7710 -350 0
-7712 321 336 0
-7712 -321 -336 0
7712 -321 336 0
7712 321 -336 0
-7713 7712 351 0
-7713 -7712 -351 0
7713 -7712 351 0
7713 7712 -351 0
-7714 322 337 0
-7714 -322 -337 0
7714 -322 337 0
7714 322 -337 0
-7715 7714 352 0
-7715 -7714 -352 0
7715 -7714 352 0
7715 7714 -352 0
-7716 323 338 0
-7716 -323 -338 0
7716 -323 338 0
7716 323 -338 0
-7717 7716 353 0
-7717 -7716 -353 0
7717 -7716 353 0
7717 7716 -353 0
-7718 324 339 0
-7718 -324 -339 0
7718 -324 339 0
7718 324 -339 0
-7719 7718 354 0
-7719 -7718 -354 0
7719 -7718 354 0
7719 7718 -354 0
-7720 325 340 0
-7720 -325 -340 0
7720 -325 340 0
7720 325 -340 0
-7721 7720 355 0
-7721 -7720 -355 0
7721 -7720 355 0
7721 7720 -355 0
-7722 326 341 0
-7722 -326 -341 0
7722 -326 341 0
7722 326 -341 0
-7723 7722 356 0
-7723 -7722 -356 0
7723 -7722 356 0
7723 7722 -356 0
-7724 327 342 0
-7724 -327 -342 0
7724 -327 342 0
7724 327 -342 0
-7725 7724 357 0
-7725 -7724 -357 0
7725 -7724 357 0
7725 7724 -357 0
-7726 328 343 0
-7726 -328 -343 0
7726 -328 343 0
7726 328 -343 0
-7727 7726 358 0
-7727 -7726 -358 0
7727 -7726 358 0
7727 7726 -358 0
-7728 329 344 0
-7728 -329 -344 0
7728 -329 344 0
7728 329 -344 0
-7729 7728 359 0
-7729 -7728 -359 0
7729 -7728 359 0
7729 7728 -359 0
-7730 330 345 0
-7730 -330 -345 0
7730 -330 345 0
7730 330 -345 0
-7731 7730 360 0
-7731 -7730 -360 0
7731 -7730 360 0
7731 7730 -360 0
-7703 7705 7707 7709 7711 7713 7715 7717 7719 -7721 7723 7725 7727 7729 -7731 0
361 362 363 364 365 366 367 368 369 370 371 372 373 374 375 0
-361 362 363 364 365 366 367 368 369 -370 371 372 373 374 -375 0
-7732 316 361 0
-7732 -316 -361 0
7732 -316 361 0
7732 316 -361 0
-7733 317 362 0
-7733 -317 -362 0
7733 -317 362 0
7733 317 -362 0
-7734 318 363 0
-7734 -318 -363 0
7734 -318 363 0
7734 318 -363 0
-7735 319 364 0
-7735 -319 -364 0
7735 -319 364 0
7735 319 -364 0
-7736 320 365 0
-7736 -320 -365 0
7736 -320 365 0
7736 320 -365 0
-7737 321 366 0
-7737 -321 -366 0
7737 -321 366 0
7737 321 -366 0
-7738 322 367 0
-7738 -322 -367 0
7738 -322 367 0
7738 322 -367 0
-7739 323 368 0
-7739 -323 -368 0
7739 -323 368 0
7739 323 -368 0
-7740 324 369 0
-7740 -324 -369 0
7740 -324 369 0
7740 324 -369 0
-7741 325 370 0
-7741 -325 -370 0
7741 -325 370 0
7741 325 -370 0
-7742 326 371 0
-7742 -326 -371 0
7742 -326 371 0
7742 326 -371 0
-7743 327 372 0
-7743 -327 -372 0
7743 -327 372 0
7743 327 -372 0
-7744 328 373 0
-7744 -328 -373 0
7744 -328 373 0
7744 328 -373 0
-7745 329 374 0
-7745 -329 -374 0
7745 -329 374 0
7745 329 -374 0
-7746 330 375 0
-7746 -330 -375 0
7746 -330 375 0
7746 330 -375 0
7732 7733 7734 7735 7736 7737 7738 7739 7740 7741 7742 7743 7744 7745 7746 0
-7747 316 361 0
-7747 -316 -361 0
7747 -316 361 0
7747 316 -361 0
-7748 317 362 0
-7748 -317 -362 0
7748 -317 362 0
7748 317 -362 0
-7749 318 363 0
-7749 -318 -363 0
7749 -318 363 0
7749 318 -363 0
-7750 319 364 0
-7750 -319 -364 0
7750 -319 364 0
7750 319 -364 0
-7751 320 365 0
-7751 -320 -365 0
7751 -320 365 0
7751 320 -365 0
-7752 321 366 0
-7752 -321 -366 0
7752 -321 366 0
7752 321 -366 0
-7753 322 367 0
-7753 -322 -367 0
7753 -322 367 0
7753 322 -367 0
-7754 323 368 0
-7754 -323 -368 0
7754 -323 368 0
7754 323 -368 0
-7755 324 369 0
-7755 -324 -369 0
7755 -324 369 0
7755 324 -369 0
-7756 325 370 0
-7756 -325 -370 0
7756 -325 370 0
7756 325 -370 0
-7757 326 371 0
-7757 -326 -371 0
7757 -326 371 0
7757 326 -371 0
-7758 327 372 0
-7758 -327 -372 0
7758 -327 372 0
7758 327 -372 0
-7759 328 373 0
-7759 -328 -373 0
7759 -328 373 0
7759 328 -373 0
-7760 329 374 0
-7760 -329 -374 0
7760 -329 374 0
7760 329 -374 0
-7761 330 375 0
-7761 -330 -375 0
7761 -330 375 0
7761 330 -375 0
-7747 7748 7749 7750 7751 7752 7753 7754 7755 -7756 7757 7758 7759 7760 -7761 0
-7762 331 361 0
-7762 -331 -361 0
7762 -331 361 0
7762 331 -361 0
-7763 332 362 0
-7763 -332 -362 0
7763 -332 362 0
7763 332 -362 0
-7764 333 363 0
-7764 -333 -363 0
7764 -333 363 0
7764 333 -363 0
-7765 334 364 0
-7765 -334 -364 0
7765 -334 364 0
7765 334 -364 0
-7766 335 365 0
-7766 -335 -365 0
7766 -335 365 0
7766 335 -365 0
-7767 336 366 0
-7767 -336 -366 0
7767 -336 366 0
7767 336 -366 0
-7768 337 367 0
-7768 -337 -367 0
7768 -337 367 0
7768 337 -367 0
-7769 338 368 0
-7769 -338 -368 0
7769 -338 368 0
7769 338 -368 0
-7770 339 369 0
-7770 -339 -369 0
7770 -339 369 0
7770 339 -369 0
-7771 340 370 0
-7771 -340 -370 0
7771 -340 370 0
7771 340 -370 0
-7772 341 371 0
-7772 -341 -371 0
7772 -341 371 0
7772 341 -371 0
-7773 342 372 0
-7773 -342 -372 0
7773 -342 372 0
7773 342 -372 0
-7774 343 373 0
-7774 -343 -373 0
7774 -343 373 0
7774 343 -373 0
-7775 344 374 0
-7775 -344 -374 0
7775 -344 374 0
7775 344 -374 0
-7776 345 375 0
-7776 -345 -375 0
7776 -345 375 0
7776 345 -375 0
7762 7763 7764 7765 7766 7767 7768 7769 7770 7771 7772 7773 7774 7775 7776 0
-7777 331 361 0
-7777 -331 -361 0
7777 -331 361 0
7777 331 -361 0
-7778 332 362 0
-7778 -332 -362 0
7778 -332 362 0
7778 332 -362 0
-7779 333 363 0
-7779 -333 -363 0
7779 -333 363 0
7779 333 -363 0
-7780 334 364 0
-7780 -334 -364 0
7780 -334 364 0
7780 334 -364 0
-7781 335 365 0
-7781 -335 -365 0
7781 -335 365 0
7781 335 -365 0
-7782 336 366 0
-7782 -336 -366 0
7782 -336 366 0
7782 336 -366 0
-7783 337 367 0
-7783 -337 -367 0
7783 -337 367 0
7783 337 -367 0
-7784 338 368 0
-7784 -338 -368 0
7784 -338 368 0
7784 338 -368 0
-7785 339 369 0
-7785 -339 -369 0
7785 -339 369 0
7785 339 -369 0
-7786 340 370 0
-7786 -340 -370 0
7786 -340 370 0
7786 340 -370 0
-7787 341 371 0
-7787 -341 -371 0
7787 -341 371 0
7787 341 -371 0
-7788 342 372 0
-7788 -342 -372 0
7788 -342 372 0
7788 342 -372 0
-7789 343 373 0
-7789 -343 -373 0
7789 -343 373 0
7789 343 -373 0
-7790 344 374 0
-7790 -344 -374 0
7790 -344 374 0
7790 344 -374 0
-7791 345 375 0
-7791 -345 -375 0
7791 -345 375 0
7791 345 -375 0
-7777 7778 7779 7780 7781 7782 7783 7784 7785 -7786 7787 7788 7789 7790 -7791 0
-7792 316 331 0
-7792 -316 -331 0
7792 -316 331 0
7792 316 -331 0
-7793 7792 361 0
-7793 -7792 -361 0
7793 -7792 361 0
7793 7792 -361 0
-7794 317 332 0
-7794 -317 -332 0
7794 -317 332 0
7794 317 -332 0
-7795 7794 362 0
-7795 -7794 -362 0
7795 -7794 362 0
7795 7794 -362 0
-7796 318 333 0
-7796 -318 -333 0
7796 -318 333 0
7796 318 -333 0
-7797 7796 363 0
-7797 -7796 -363 0
7797 -7796 363 0
7797 7796 -363 0
-7798 319 334 0
-7798 -319 -334 0
7798 -319 334 0
7798 319 -334 0
-7799 7798 364 0
-7799 -7798 -364 0
7799 -7798 364 0
7799 7798 -364 0
-7800 320 335 0
-7800 -320 -335 0
7800 -320 335 0
7800 320 -335 0
-7801 7800 365 0
-7801 -7800 -365 0
7801 -7800 365 0
7801 7800 -365 0
-7802 321 336 0
-7802 -321 -336 0
7802 -321 336 0
7802 321 -336 0
-7803 7802 366 0
-7803 -7802 -366 0
7803 -7802 366 0
7803 7802 -366 0
-7804 322 337 0
-7804 -322 -337 0
7804 -322 337 0
7804 322 -337 0
-7805 7804 367 0
-7805 -7804 -367 0
7805 -7804 367 0
7805 7804 -367 0
-7806 323 338 0
-7806 -323 -338 0
7806 -323 338 0
7806 323 -338 0
-7807 7806 368 0
-7807 -7806 -368 0
7807 -7806 368 0
7807 7806 -368 0
-7808 324 339 0
-7808 -324 -339 0
7808 -324 339 0
7808 324 -339 0
-7809 7808 369 0
-7809 -7808 -369 0
7809 -7808 369 0
7809 7808 -369 0
-7810 325 340 0
-7810 -325 -340 0
7810 -325 340 0
7810 325 -340 0
-7811 7810 370 0
-7811 -7810 -370 0
7811 -7810 370 0
7811 7810 -370 0
-7812 326 341 0
-7812 -326 -341 0
7812 -326 341 0
7812 326 -341 0
-7813 7812 371 0
-7813 -7812 -371 0
7813 -7812 371 0
7813 7812 -371 0
-7814 327 342 0
-7814 -327 -342 0
7814 -327 342 0
7814 327 -342 0
-7815 7814 372 0
-7815 -7814 -372 0
7815 -7814 372 0
7815 7814 -372 0
-7816 328 343 0
-7816 -328 -343 0
7816 -328 343 0
7816 328 -343 0
-7817 7816 373 0
-7817 -7816 -373 0
7817 -7816 373 0
7817 7816 -373 0
-7818 329 344 0
-7818 -329 -344 0
7818 -329 344 0
7818 329 -344 0
-7819 7818 374 0
-7819 -7818 -374 0
7819 -7818 374 0
7819 7818 -374 0
-7820 330 345 0
-7820 -330 -345 0
7820 -330 345 0
7820 330 -345 0
-7821 7820 375 0
-7821 -7820 -375 0
7821 -7820 375 0
7821 7820 -375 0
7793 7795 7797 7799 7801 7803 7805 7807 7809 7811 7813 7815 7817 7819 7821 0
-7822 316 331 0
-7822 -316 -331 0
7822 -316 331 0
7822 316 -331 0
-7823 7822 361 0
-7823 -7822 -361 0
7823 -7822 361 0
7823 7822 -361 0
-7824 317 332 0
-7824 -317 -332 0
7824 -317 332 0
7824 317 -332 0
-7825 7824 362 0
-7825 -7824 -362 0
7825 -7824 362 0
7825 7824 -362 0
-7826 318 333 0
-7826 -318 -333 0
7826 -318 333 0
7826 318 -333 0
-7827 7826 363 0
-7827 -7826 -363 0
7827 -7826 363 0
7827 7826 -363 0
-7828 319 334 0
-7828 -319 -334 0
7828 -319 334 0
7828 319 -334 0
-7829 7828 364 0
-7829 -7828 -364 0
7829 -7828 364 0
7829 7828 -364 0
-7830 320 335 0
-7830 -320 -335 0
7830 -320 335 0
7830 320 -335 0
-7831 7830 365 0
-7831 -7830 -365 0
7831 -7830 365 0
7831 7830 -365 0
-7832 321 336 0
-7832 -321 -336 0
7832 -321 336 0
7832 321 -336 0
-7833 7832 366 0
-7833 -7832 -366 0
7833 -7832 366 0
7833 7832 -366 0
-7834 322 337 0
-7834 -322 -337 0
7834 -322 337 0
7834 322 -337 0
-7835 7834 367 0
-7835 -7834 -367 0
7835 -7834 367 0
7835 7834 -367 0
-7836 323 338 0
-7836 -323 -338 0
7836 -323 338 0
7836 323 -338 0
-7837 7836 368 0
-7837 -7836 -368 0
7837 -7836 368 0
7837 7836 -368 0
-7838 324 339 0
-7838 -324 -339 0
7838 -324 339 0
7838 324 -339 0
-7839 7838 369 0
-7839 -7838 -369 0
7839 -7838 369 0
7839 7838 -369 0
-7840 325 340 0
-7840 -325 -340 0
7840 -325 340 0
7840 325 -340 0
-7841 7840 370 0
-7841 -7840 -370 0
7841 -7840 370 0
7841 7840 -370 0
-7842 326 341 0
-7842 -326 -341 0
7842 -326 341 0
7842 326 -341 0
-7843 7842 371 0
-7843 -7842 -371 0
7843 -7842 371 0
7843 7842 -371 0
-7844 327 342 0
-7844 -327 -342 0
7844 -327 342 0
7844 327 -342 0
-7845 7844 372 0
-7845 -7844 -372 0
7845 -7844 372 0
7845 7844 -372 0
-7846 328 343 0
-7846 -328 -343 0
7846 -328 343 0
7846 328 -343 0
-7847 7846 373 0
-7847 -7846 -373 0
7847 -7846 373 0
7847 7846 -373 0
-7848 329 344 0
-7848 -329 -344 0
7848 -329 344 0
7848 329 -344 0
-7849 7848 374 0
-7849 -7848 -374 0
7849 -7848 374 0
7849 7848 -374 0
-7850 330 345 0
-7850 -330 -345 0
7850 -330 345 0
7850 330 -345 0
-7851 7850 375 0
-7851 -7850 -375 0
7851 -7850 375 0
7851 7850 -375 0
-7823 7825 7827 7829 7831 7833 7835 7837 7839 -7841 7843 7845 7847 7849 -7851 0
-7852 346 361 0
-7852 -346 -361 0
7852 -346 361 0
7852 346 -361 0
-7853 347 362 0
-7853 -347 -362 0
7853 -347 362 0
7853 347 -362 0
-7854 348 363 0
-7854 -348 -363 0
7854 -348 363 0
7854 348 -363 0
-7855 349 364 0
-7855 -349 -364 0
7855 -349 364 0
7855 349 -364 0
-7856 350 365 0
-7856 -350 -365 0
7856 -350 365 0
7856 350 -365 0
-7857 351 366 0
-7857 -351 -366 0
7857 -351 366 0
7857 351 -366 0
-7858 352 367 0
-7858 -352 -367 0
7858 -352 367 0
7858 352 -367 0
-7859 353 368 0
-7859 -353 -368 0
7859 -353 368 0
7859 353 -368 0
-7860 354 369 0
-7860 -354 -369 0
7860 -354 369 0
7860 354 -369 0
-7861 355 370 0
-7861 -355 -370 0
7861 -355 370 0
7861 355 -370 0
-7862 356 371 0
-7862 -356 -371 0
7862 -356 371 0
7862 356 -371 0
-7863 357 372 0
-7863 -357 -372 0
7863 -357 372 0
7863 357 -372 0
-7864 358 373 0
-7864 -358 -373 0
7864 -358 373 0
7864 358 -373 0
-7865 359 374 0
-7865 -359 -374 0
7865 -359 374 0
7865 359 -374 0
-7866 360 375 0
-7866 -360 -375 0
7866 -360 375 0
7866 360 -375 0
7852 7853 7854 7855 7856 7857 7858 7859 7860 7861 7862 7863 7864 7865 7866 0
-7867 346 361 0
-7867 -346 -361 0
7867 -346 361 0
7867 346 -361 0
-7868 347 362 0
-7868 -347 -362 0
7868 -347 362 0
7868 347 -362 0
-7869 348 363 0
-7869 -348 -363 0
7869 -348 363 0
7869 348 -363 0
-7870 349 364 0
-7870 -349 -364 0
7870 -349 364 0
7870 349 -364 0
-7871 350 365 0
-7871 -350 -365 0
7871 -350 365 0
7871 350 -365 0
-7872 351 366 0
-7872 -351 -366 0
7872 -351 366 0
7872 351 -366 0
-7873 352 367 0
-7873 -352 -367 0
7873 -352 367 0
7873 352 -367 0
-7874 353 368 0
-7874 -353 -368 0
7874 -353 368 0
7874 353 -368 0
-7875 354 369 0
-7875 -354 -369 0
7875 -354 369 0
7875 354 -369 0
-7876 355 370 0
-7876 -355 -370 0
7876 -355 370 0
7876 355 -370 0
-7877 356 371 0
-7877 -356 -371 0
7877 -356 371 0
7877 356 -371 0
-7878 357 372 0
-7878 -357 -372 0
7878 -357 372 0
7878 357 -372 0
-7879 358 373 0
-7879 -358 -373 0
7879 -358 373 0
7879 358 -373 0
-7880 359 374 0
-7880 -359 -374 0
7880 -359 374 0
7880 359 -374 0
-7881 360 375 0
-7881 -360 -375 0
7881 -360 375 0
7881 360 -375 0
-7867 7868 7869 7870 7871 7872 7873 7874 7875 -7876 7877 7878 7879 7880 -7881 0
-7882 316 346 0
-7882 -316 -346 0
7882 -316 346 0
7882 316 -346 0
-7883 7882 361 0
-7883 -7882 -361 0
7883 -7882 361 0
7883 7882 -361 0
-7884 317 347 0
-7884 -317 -347 0
7884 -317 347 0
7884 317 -347 0
-7885 7884 362 0
-7885 -7884 -362 0
7885 -7884 362 0
7885 7884 -362 0
-7886 318 348 0
-7886 -318 -348 0
7886 -318 348 0
7886 318 -348 0
-7887 7886 363 0
-7887 -7886 -363 0
7887 -7886 363 0
7887 7886 -363 0
-7888 319 349 0
-7888 -319 -349 0
7888 -319 349 0
7888 319 -349 0
-7889 7888 364 0
-7889 -7888 -364 0
7889 -7888 364 0
7889 7888 -364 0
-7890 320 350 0
-7890 -320 -350 0
7890 -320 350 0
7890 320 -350 0
-7891 7890 365 0
-7891 -7890 -365 0
7891 -7890 365 0
7891 7890 -365 0
-7892 321 351 0
-7892 -321 -351 0
7892 -321 351 0
7892 321 -351 0
-7893 7892 366 0
-7893 -7892 -366 0
7893 -7892 366 0
7893 7892 -366 0
-7894 322 352 0
-7894 -322 -352 0
7894 -322 352 0
7894 322 -352 0
-7895 7894 367 0
-7895 -7894 -367 0
7895 -7894 367 0
7895 7894 -367 0
-7896 323 353 0
-7896 -323 -353 0
7896 -323 353 0
7896 323 -353 0
-7897 7896 368 0
-7897 -7896 -368 0
7897 -7896 368 0
7897 7896 -368 0
-7898 324 354 0
-7898 -324 -354 0
7898 -324 354 0
7898 324 -354 0
-7899 7898 369 0
-7899 -7898 -369 0
7899 -7898 369 0
7899 7898 -369 0
-7900 325 355 0
-7900 -325 -355 0
7900 -325 355 0
7900 325 -355 0
-7901 7900 370 0
-7901 -7900 -370 0
7901 -7900 370 0
7901 7900 -370 0
-7902 326 356 0
-7902 -326 -356 0
7902 -326 356 0
7902 326 -356 0
-7903 7902 371 0
-7903 -7902 -371 0
7903 -7902 371 0
7903 7902 -371 0
-7904 327 357 0
-7904 -327 -357 0
7904 -327 357 0
7904 327 -357 0
-7905 7904 372 0
-7905 -7904 -372 0
7905 -7904 372 0
7905 7904 -372 0
-7906 328 358 0
-7906 -328 -358 0
7906 -328 358 0
7906 328 -358 0
-7907 7906 373 0
-7907 -7906 -373 0
7907 -7906 373 0
7907 7906 -373 0
-7908 329 359 0
-7908 -329 -359 0
7908 -329 359 0
7908 329 -359 0
-7909 7908 374 0
-7909 -7908 -374 0
7909 -7908 374 0
7909 7908 -374 0
-7910 330 360 0
-7910 -330 -360 0
7910 -330 360 0
7910 330 -360 0
-7911 7910 375 0
-7911 -7910 -375 0
7911 -7910 375 0
7911 7910 -375 0
7883 7885 7887 7889 7891 7893 7895 7897 7899 7901 7903 7905 7907 7909 7911 0
-7912 316 346 0
-7912 -316 -346 0
7912 -316 346 0
7912 316 -346 0
-7913 7912 361 0
-7913 -7912 -361 0
7913 -7912 361 0
7913 7912 -361 0
-7914 317 347 0
-7914 -317 -347 0
7914 -317 347 0
7914 317 -347 0
-7915 7914 362 0
-7915 -7914 -362 0
7915 -7914 362 0
7915 7914 -362 0
-7916 318 348 0
-7916 -318 -348 0
7916 -318 348 0
7916 318 -348 0
-7917 7916 363 0
-7917 -7916 -363 0
7917 -7916 363 0
7917 7916 -363 0
-7918 319 349 0
-7918 -319 -349 0
7918 -319 349 0
7918 319 -349 0
-7919 7918 364 0
-7919 -7918 -364 0
7919 -7918 364 0
7919 7918 -364 0
-7920 320 350 0
-7920 -320 -350 0
7920 -320 350 0
7920 320 -350 0
-7921 7920 365 0
-7921 -7920 -365 0
7921 -7920 365 0
7921 7920 -365 0
-7922 321 351 0
-7922 -321 -351 0
7922 -321 351 0
7922 321 -351 0
-7923 7922 366 0
-7923 -7922 -366 0
7923 -7922 366 0
7923 7922 -366 0
-7924 322 352 0
-7924 -322 -352 0
7924 -322 352 0
7924 322 -352 0
-7925 7924 367 0
-7925 -7924 -367 0
7925 -7924 367 0
7925 7924 -367 0
-7926 323 353 0
-7926 -323 -353 0
7926 -323 353 0
7926 323 -353 0
-7927 7926 368 0
-7927 -7926 -368 0
7927 -7926 368 0
7927 7926 -368 0
-7928 324 354 0
-7928 -324 -354 0
7928 -324 354 0
7928 324 -354 0
-7929 7928 369 0
-7929 -7928 -369 0
7929 -7928 369 0
7929 7928 -369 0
-7930 325 355 0
-7930 -325 -355 0
7930 -325 355 0
7930 325 -355 0
-7931 7930 370 0
-7931 -7930 -370 0
7931 -7930 370 0
7931 7930 -370 0
-7932 326 356 0
-7932 -326 -356 0
7932 -326 356 0
7932 326 -356 0
-7933 7932 371 0
-7933 -7932 -371 0
7933 -7932 371 0
7933 7932 -371 0
-7934 327 357 0
-7934 -327 -357 0
7934 -327 357 0
7934 327 -357 0
-7935 7934 372 0
-7935 -7934 -372 0
7935 -7934 372 0
7935 7934 -372 0
-7936 328 358 0
-7936 -328 -358 0
7936 -328 358 0
7936 328 -358 0
-7937 7936 373 0
-7937 -7936 -373 0
7937 -7936 373 0
7937 7936 -373 0
-7938 329 359 0
-7938 -329 -359 0
7938 -329 359 0
7938 329 -359 0
-7939 7938 374 0
-7939 -7938 -374 0
7939 -7938 374 0
7939 7938 -374 0
-7940 330 360 0
-7940 -330 -360 0
7940 -330 360 0
7940 330 -360 0
-7941 7940 375 0
-7941 -7940 -375 0
7941 -7940 375 0
7941 7940 -375 0
-7913 7915 7917 7919 7921 7923 7925 7927 7929 -7931 7933 7935 7937 7939 -7941 0
-7942 331 346 0
-7942 -331 -346 0
7942 -331 346 0
7942 331 -346 0
-7943 7942 361 0
-7943 -7942 -361 0
7943 -7942 361 0
7943 7942 -361 0
-7944 332 347 0
-7944 -332 -347 0
7944 -332 347 0
7944 332 -347 0
-7945 7944 362 0
-7945 -7944 -362 0
7945 -7944 362 0
7945 7944 -362 0
-7946 333 348 0
-7946 -333 -348 0
7946 -333 348 0
7946 333 -348 0
-7947 7946 363 0
-7947 -7946 -363 0
7947 -7946 363 0
7947 7946 -363 0
-7948 334 349 0
-7948 -334 -349 0
7948 -334 349 0
7948 334 -349 0
-7949 7948 364 0
-7949 -7948 -364 0
7949 -7948 364 0
7949 7948 -364 0
-7950 335 350 0
-7950 -335 -350 0
7950 -335 350 0
7950 335 -350 0
-7951 7950 365 0
-7951 -7950 -365 0
7951 -7950 365 0
7951 7950 -365 0
-7952 336 351 0
-7952 -336 -351 0
7952 -336 351 0
7952 336 -351 0
-7953 7952 366 0
-7953 -7952 -366 0
7953 -7952 366 0
7953 7952 -366 0
-7954 337 352 0
-7954 -337 -352 0
7954 -337 352 0
7954 337 -352 0
-7955 7954 367 0
-7955 -7954 -367 0
7955 -7954 367 0
7955 7954 -367 0
-7956 338 353 0
-7956 -338 -353 0
7956 -338 353 0
7956 338 -353 0
-7957 7956 368 0
-7957 -7956 -368 0
7957 -7956 368 0
7957 7956 -368 0
-7958 339 354 0
-7958 -339 -354 0
7958 -339 354 0
7958 339 -354 0
-7959 7958 369 0
-7959 -7958 -369 0
7959 -7958 369 0
7959 7958 -369 0
-7960 340 355 0
-7960 -340 -355 0
7960 -340 355 0
7960 340 -355 0
-7961 7960 370 0
-7961 -7960 -370 0
7961 -7960 370 0
7961 7960 -370 0
-7962 341 356 0
-7962 -341 -356 0
7962 -341 356 0
7962 341 -356 0
-7963 7962 371 0
-7963 -7962 -371 0
7963 -7962 371 0
7963 7962 -371 0
-7964 342 357 0
-7964 -342 -357 0
7964 -342 357 0
7964 342 -357 0
-7965 7964 372 0
-7965 -7964 -372 0
7965 -7964 372 0
7965 7964 -372 0
-7966 343 358 0
-7966 -343 -358 0
7966 -343 358 0
7966 343 -358 0
-7967 7966 373 0
-7967 -7966 -373 0
7967 -7966 373 0
7967 7966 -373 0
-7968 344 359 0
-7968 -344 -359 0
7968 -344 359 0
7968 344 -359 0
-7969 7968 374 0
-7969 -7968 -374 0
7969 -7968 374 0
7969 7968 -374 0
-7970 345 360 0
-7970 -345 -360 0
7970 -345 360 0
7970 345 -360 0
-7971 7970 375 0
-7971 -7970 -375 0
7971 -7970 375 0
7971 7970 -375 0
7943 7945 7947 7949 7951 7953 7955 7957 7959 7961 7963 7965 7967 7969 7971 0
-7972 331 346 0
-7972 -331 -346 0
7972 -331 346 0
7972 331 -346 0
-7973 7972 361 0
-7973 -7972 -361 0
7973 -7972 361 0
7973 7972 -361 0
-7974 332 347 0
-7974 -332 -347 0
7974 -332 347 0
7974 332 -347 0
-7975 7974 362 0
-7975 -7974 -362 0
7975 -7974 362 0
7975 7974 -362 0
-7976 333 348 0
-7976 -333 -348 0
7976 -333 348 0
7976 333 -348 0
-7977 7976 363 0
-7977 -7976 -363 0
7977 -7976 363 0
7977 7976 -363 0
-7978 334 349 0
-7978 -334 -349 0
7978 -334 349 0
7978 334 -349 0
-7979 7978 364 0
-7979 -7978 -364 0
7979 -7978 364 0
7979 7978 -364 0
-7980 335 350 0
-7980 -335 -350 0
7980 -335 350 0
7980 335 -350 0
-7981 7980 365 0
-7981 -7980 -365 0
7981 -7980 365 0
7981 7980 -365 0
-7982 336 351 0
-7982 -336 -351 0
7982 -336 351 0
7982 336 -351 0
-7983 7982 366 0
-7983 -7982 -366 0
7983 -7982 366 0
7983 7982 -366 0
-7984 337 352 0
-7984 -337 -352 0
7984 -337 352 0
7984 337 -352 0
-7985 7984 367 0
-7985 -7984 -367 0
7985 -7984 367 0
7985 7984 -367 0
-7986 338 353 0
-7986 -338 -353 0
7986 -338 353 0
7986 338 -353 0
-7987 7986 368 0
-7987 -7986 -368 0
7987 -7986 368 0
7987 7986 -368 0
-7988 339 354 0
-7988 -339 -354 0
7988 -339 354 0
7988 339 -354 0
-7989 7988 369 0
-7989 -7988 -369 0
7989 -7988 369 0
7989 7988 -369 0
-7990 340 355 0
-7990 -340 -355 0
7990 -340 355 0
7990 340 -355 0
-7991 7990 370 0
-7991 -7990 -370 0
7991 -7990 370 0
7991 7990 -370 0
-7992 341 356 0
-7992 -341 -356 0
7992 -341 356 0
7992 341 -356 0
-7993 7992 371 0
-7993 -7992 -371 0
7993 -7992 371 0
7993 7992 -371 0
-7994 342 357 0
-7994 -342 -357 0
7994 -342 357 0
7994 342 -357 0
-7995 7994 372 0
-7995 -7994 -372 0
7995 -7994 372 0
7995 7994 -372 0
-7996 343 358 0
-7996 -343 -358 0
7996 -343 358 0
7996 343 -358 0
-7997 7996 373 0
-7997 -7996 -373 0
7997 -7996 373 0
7997 7996 -373 0
-7998 344 359 0
-7998 -344 -359 0
7998 -344 359 0
7998 344 -359 0
-7999 7998 374 0
-7999 -7998 -374 0
7999 -7998 374 0
7999 7998 -374 0
-8000 345 360 0
-8000 -345 -360 0
8000 -345 360 0
8000 345 -360 0
-8001 8000 375 0
-8001 -8000 -375 0
8001 -8000 375 0
8001 8000 -375 0
-7973 7975 7977 7979 7981 7983 7985 7987 7989 -7991 7993 7995 7997 7999 -8001 0
-8002 316 331 0
-8002 -316 -331 0
8002 -316 331 0
8002 316 -331 0
-8003 8002 346 0
-8003 -8002 -346 0
8003 -8002 346 0
8003 8002 -346 0
-8004 8003 361 0
-8004 -8003 -361 0
8004 -8003 361 0
8004 8003 -361 0
-8005 317 332 0
-8005 -317 -332 0
8005 -317 332 0
8005 317 -332 0
-8006 8005 347 0
-8006 -8005 -347 0
8006 -8005 347 0
8006 8005 -347 0
-8007 8006 362 0
-8007 -8006 -362 0
8007 -8006 362 0
8007 8006 -362 0
-8008 318 333 0
-8008 -318 -333 0
8008 -318 333 0
8008 318 -333 0
-8009 8008 348 0
-8009 -8008 -348 0
8009 -8008 348 0
8009 8008 -348 0
-8010 8009 363 0
-8010 -8009 -363 0
8010 -8009 363 0
8010 8009 -363 0
-8011 319 334 0
-8011 -319 -334 0
8011 -319 334 0
8011 319 -334 0
-8012 8011 349 0
-8012 -8011 -349 0
8012 -8011 349 0
8012 8011 -349 0
-8013 8012 364 0
-8013 -8012 -364 0
8013 -8012 364 0
8013 8012 -364 0
-8014 320 335 0
-8014 -320 -335 0
8014 -320 335 0
8014 320 -335 0
-8015 8014 350 0
-8015 -8014 -350 0
8015 -8014 350 0
8015 8014 -350 0
-8016 8015 365 0
-8016 -8015 -365 0
8016 -8015 365 0
8016 8015 -365 0
-8017 321 336 0
-8017 -321 -336 0
8017 -321 336 0
8017 321 -336 0
-8018 8017 351 0
-8018 -8017 -351 0
8018 -8017 351 0
8018 8017 -351 0
-8019 8018 366 0
-8019 -8018 -366 0
8019 -8018 366 0
8019 8018 -366 0
-8020 322 337 0
-8020 -322 -337 0
8020 -322 337 0
8020 322 -337 0
-8021 8020 352 0
-8021 -8020 -352 0
8021 -8020 352 0
8021 8020 -352 0
-8022 8021 367 0
-8022 -8021 -367 0
8022 -8021 367 0
8022 8021 -367 0
-8023 323 338 0
-8023 -323 -338 0
8023 -323 338 0
8023 323 -338 0
-8024 8023 353 0
-8024 -8023 -353 0
8024 -8023 353 0
8024 8023 -353 0
-8025 8024 368 0
-8025 -8024 -368 0
8025 -8024 368 0
8025 8024 -368 0
-8026 324 339 0
-8026 -324 -339 0
8026 -324 339 0
8026 324 -339 0
-8027 8026 354 0
-8027 -8026 -354 0
8027 -8026 354 0
8027 8026 -354 0
-8028 8027 369 0
-8028 -8027 -369 0
8028 -8027 369 0
8028 8027 -369 0
-8029 325 340 0
-8029 -325 -340 0
8029 -325 340 0
8029 325 -340 0
-8030 8029 355 0
-8030 -8029 -355 0
8030 -8029 355 0
8030 8029 -355 0
-8031 8030 370 0
-8031 -8030 -370 0
8031 -8030 370 0
8031 8030 -370 0
-8032 326 341 0
-8032 -326 -341 0
8032 -326 341 0
8032 326 -341 0
-8033 8032 356 0
-8033 -8032 -356 0
8033 -8032 356 0
8033 8032 -356 0
-8034 8033 371 0
-8034 -8033 -371 0
8034 -8033 371 0
8034 8033 -371 0
-8035 327 342 0
-8035 -327 -342 0
8035 -327 342 0
8035 327 -342 0
-8036 8035 357 0
-8036 -8035 -357 0
8036 -8035 357 0
8036 8035 -357 0
-8037 8036 372 0
-8037 -8036 -372 0
8037 -8036 372 0
8037 8036 -372 0
-8038 328 343 0
-8038 -328 -343 0
8038 -328 343 0
8038 328 -343 0
-8039 8038 358 0
-8039 -8038 -358 0
8039 -8038 358 0
8039 8038 -358 0
-8040 8039 373 0
-8040 -8039 -373 0
8040 -8039 373 0
8040 8039 -373 0
-8041 329 344 0
-8041 -329 -344 0
8041 -329 344 0
8041 329 -344 0
-8042 8041 359 0
-8042 -8041 -359 0
8042 -8041 359 0
8042 8041 -359 0
-8043 8042 374 0
-8043 -8042 -374 0
8043 -8042 374 0
8043 8042 -374 0
-8044 330 345 0
-8044 -330 -345 0
8044 -330 345 0
8044 330 -345 0
-8045 8044 360 0
-8045 -8044 -360 0
8045 -8044 360 0
8045 8044 -360 0
-8046 8045 375 0
-8046 -8045 -375 0
8046 -8045 375 0
8046 8045 -375 0
8004 8007 8010 8013 8016 8019 8022 8025 8028 8031 8034 8037 8040 8043 8046 0
-8047 316 331 0
-8047 -316 -331 0
8047 -316 331 0
8047 316 -331 0
-8048 8047 346 0
-8048 -8047 -346 0
8048 -8047 346 0
8048 8047 -346 0
-8049 8048 361 0
-8049 -8048 -361 0
8049 -8048 361 0
8049 8048 -361 0
-8050 317 332 0
-8050 -317 -332 0
8050 -317 332 0
8050 317 -332 0
-8051 8050 347 0
-8051 -8050 -347 0
8051 -8050 347 0
8051 8050 -347 0
-8052 8051 362 0
-8052 -8051 -362 0
8052 -8051 362 0
8052 8051 -362 0
-8053 318 333 0
-8053 -318 -333 0
8053 -318 333 0
8053 318 -333 0
-8054 8053 348 0
-8054 -8053 -348 0
8054 -8053 348 0
8054 8053 -348 0
-8055 8054 363 0
-8055 -8054 -363 0
8055 -8054 363 0
8055 8054 -363 0
-8056 319 334 0
-8056 -319 -334 0
8056 -319 334 0
8056 319 -334 0
-8057 8056 349 0
-8057 -8056 -349 0
8057 -8056 349 0
8057 8056 -349 0
-8058 8057 364 0
-8058 -8057 -364 0
8058 -8057 364 0
8058 8057 -364 0
-8059 320 335 0
-8059 -320 -335 0
8059 -320 335 0
8059 320 -335 0
-8060 8059 350 0
-8060 -8059 -350 0
8060 -8059 350 0
8060 8059 -350 0
-8061 8060 365 0
-8061 -8060 -365 0
8061 -8060 365 0
8061 8060 -365 0
-8062 321 336 0
-8062 -321 -336 0
8062 -321 336 0
8062 321 -336 0
-8063 8062 351 0
-8063 -8062 -351 0
8063 -8062 351 0
8063 8062 -351 0
-8064 8063 366 0
-8064 -8063 -366 0
8064 -8063 366 0
8064 8063 -366 0
-8065 322 337 0
-8065 -322 -337 0
8065 -322 337 0
8065 322 -337 0
-8066 8065 352 0
-8066 -8065 -352 0
8066 -8065 352 0
8066 8065 -352 0
-8067 8066 367 0
-8067 -8066 -367 0
8067 -8066 367 0
8067 8066 -367 0
-8068 323 338 0
-8068 -323 -338 0
8068 -323 338 0
8068 323 -338 0
-8069 8068 353 0
-8069 -8068 -353 0
8069 -8068 353 0
8069 8068 -353 0
-8070 8069 368 0
-8070 -8069 -368 0
8070 -8069 368 0
8070 8069 -368 0
-8071 324 339 0
-8071 -324 -339 0
8071 -324 339 0
8071 324 -339 0
-8072 8071 354 0
-8072 -8071 -354 0
8072 -8071 354 0
8072 8071 -354 0
-8073 8072 369 0
-8073 -8072 -369 0
8073 -8072 369 0
8073 8072 -369 0
-8074 325 340 0
-8074 -325 -340 0
8074 -325 340 0
8074 325 -340 0
-8075 8074 355 0
-8075 -8074 -355 0
8075 -8074 355 0
8075 8074 -355 0
-8076 8075 370 0
-8076 -8075 -370 0
8076 -8075 370 0
8076 8075 -370 0
-8077 326 341 0
-8077 -326 -341 0
8077 -326 341 0
8077 326 -341 0
-8078 8077 356 0
-8078 -8077 -356 0
8078 -8077 356 0
8078 8077 -356 0
-8079 8078 371 0
-8079 -8078 -371 0
8079 -8078 371 0
8079 8078 -371 0
-8080 327 342 0
-8080 -327 -342 0
8080 -327 342 0
8080 327 -342 0
-8081 8080 357 0
-8081 -8080 -357 0
8081 -8080 357 0
8081 8080 -357 0
-8082 8081 372 0
-8082 -8081 -372 0
8082 -8081 372 0
8082 8081 -372 0
-8083 328 343 0
-8083 -328 -343 0
8083 -328 343 0
8083 328 -343 0
-8084 8083 358 0
-8084 -8083 -358 0
8084 -8083 358 0
8084 8083 -358 0
-8085 8084 373 0
-8085 -8084 -373 0
8085 -8084 373 0
8085 8084 -373 0
-8086 329 344 0
-8086 -329 -344 0
8086 -329 344 0
8086 329 -344 0
-8087 8086 359 0
-8087 -8086 -359 0
8087 -8086 359 0
8087 8086 -359 0
-8088 8087 374 0
-8088 -8087 -374 0
8088 -8087 374 0
8088 8087 -374 0
-8089 330 345 0
-8089 -330 -345 0
8089 -330 345 0
8089 330 -345 0
-8090 8089 360 0
-8090 -8089 -360 0
8090 -8089 360 0
8090 8089 -360 0
-8091 8090 375 0
-8091 -8090 -375 0
8091 -8090 375 0
8091 8090 -375 0
-8049 8052 8055 8058 8061 8064 8067 8070 8073 -8076 8079 8082 8085 8088 -8091 0
