p cnf 2793 9287
1 2 3 4 5 6 7 8 9 10 11 12 13 14 15 0
-1 331 0
-2 332 0
-331 332 0
-2 -331 0
-3 333 0
-332 333 0
-3 -332 0
-4 334 0
-333 334 0
-4 -333 0
-5 335 0
-334 335 0
-5 -334 0
-6 336 0
-335 336 0
-6 -335 0
-7 337 0
-336 337 0
-7 -336 0
-8 338 0
-337 338 0
-8 -337 0
-9 339 0
-338 339 0
-9 -338 0
-10 340 0
-339 340 0
-10 -339 0
-11 341 0
-340 341 0
-11 -340 0
-12 342 0
-341 342 0
-12 -341 0
-13 343 0
-342 343 0
-13 -342 0
-14 344 0
-343 344 0
-14 -343 0
-15 -344 0
16 17 18 19 20 21 22 23 24 25 26 27 28 29 30 0
-16 345 0
-17 346 0
-345 346 0
-17 -345 0
-18 347 0
-346 347 0
-18 -346 0
-19 348 0
-347 348 0
-19 -347 0
-20 349 0
-348 349 0
-20 -348 0
-21 350 0
-349 350 0
-21 -349 0
-22 351 0
-350 351 0
-22 -350 0
-23 352 0
-351 352 0
-23 -351 0
-24 353 0
-352 353 0
-24 -352 0
-25 354 0
-353 354 0
-25 -353 0
-26 355 0
-354 355 0
-26 -354 0
-27 356 0
-355 356 0
-27 -355 0
-28 357 0
-356 357 0
-28 -356 0
-29 358 0
-357 358 0
-29 -357 0
-30 -358 0
31 32 33 34 35 36 37 38 39 40 41 42 43 44 45 0
-31 359 0
-32 360 0
-359 360 0
-32 -359 0
-33 361 0
-360 361 0
-33 -360 0
-34 362 0
-361 362 0
-34 -361 0
-35 363 0
-362 363 0
-35 -362 0
-36 364 0
-363 364 0
-36 -363 0
-37 365 0
-364 365 0
-37 -364 0
-38 366 0
-365 366 0
-38 -365 0
-39 367 0
-366 367 0
-39 -366 0
-40 368 0
-367 368 0
-40 -367 0
-41 369 0
-368 369 0
-41 -368 0
-42 370 0
-369 370 0
-42 -369 0
-43 371 0
-370 371 0
-43 -370 0
-44 372 0
-371 372 0
-44 -371 0
-45 -372 0
1 16 31 46 47 48 49 50 51 52 53 54 55 56 57 0
-1 373 0
-16 374 0
-373 374 0
-16 -373 0
-31 375 0
-374 375 0
-31 -374 0
-46 376 0
-375 376 0
-46 -375 0
-47 377 0
-376 377 0
-47 -376 0
-48 378 0
-377 378 0
-48 -377 0
-49 379 0
-378 379 0
-49 -378 0
-50 380 0
-379 380 0
-50 -379 0
-51 381 0
-380 381 0
-51 -380 0
-52 382 0
-381 382 0
-52 -381 0
-53 383 0
-382 383 0
-53 -382 0
-54 384 0
-383 384 0
-54 -383 0
-55 385 0
-384 385 0
-55 -384 0
-56 386 0
-385 386 0
-56 -385 0
-57 -386 0
1 58 59 60 61 62 63 64 65 66 67 68 69 70 71 0
-1 387 0
-58 388 0
-387 388 0
-58 -387 0
-59 389 0
-388 389 0
-59 -388 0
-60 390 0
-389 390 0
-60 -389 0
-61 391 0
-390 391 0
-61 -390 0
-62 392 0
-391 392 0
-62 -391 0
-63 393 0
-392 393 0
-63 -392 0
-64 394 0
-393 394 0
-64 -393 0
-65 395 0
-394 395 0
-65 -394 0
-66 396 0
-395 396 0
-66 -395 0
-67 397 0
-396 397 0
-67 -396 0
-68 398 0
-397 398 0
-68 -397 0
-69 399 0
-398 399 0
-69 -398 0
-70 400 0
-399 400 0
-70 -399 0
-71 -400 0
16 72 73 74 75 76 77 78 79 80 81 82 83 84 85 0
-16 401 0
-72 402 0
-401 402 0
-72 -401 0
-73 403 0
-402 403 0
-73 -402 0
-74 404 0
-403 404 0
-74 -403 0
-75 405 0
-404 405 0
-75 -404 0
-76 406 0
-405 406 0
-76 -405 0
-77 407 0
-406 407 0
-77 -406 0
-78 408 0
-407 408 0
-78 -407 0
-79 409 0
-408 409 0
-79 -408 0
-80 410 0
-409 410 0
-80 -409 0
-81 411 0
-410 411 0
-81 -410 0
-82 412 0
-411 412 0
-82 -411 0
-83 413 0
-412 413 0
-83 -412 0
-84 414 0
-413 414 0
-84 -413 0
-85 -414 0
31 86 87 88 89 90 91 92 93 94 95 96 97 98 99 0
-31 415 0
-86 416 0
-415 416 0
-86 -415 0
-87 417 0
-416 417 0
-87 -416 0
-88 418 0
-417 418 0
-88 -417 0
-89 419 0
-418 419 0
-89 -418 0
-90 420 0
-419 420 0
-90 -419 0
-91 421 0
-420 421 0
-91 -420 0
-92 422 0
-421 422 0
-92 -421 0
-93 423 0
-422 423 0
-93 -422 0
-94 424 0
-423 424 0
-94 -423 0
-95 425 0
-424 425 0
-95 -424 0
-96 426 0
-425 426 0
-96 -425 0
-97 427 0
-426 427 0
-97 -426 0
-98 428 0
-427 428 0
-98 -427 0
-99 -428 0
2 17 32 100 101 102 103 104 105 106 107 108 109 110 111 0
-2 429 0
-17 430 0
-429 430 0
-17 -429 0
-32 431 0
-430 431 0
-32 -430 0
-100 432 0
-431 432 0
-100 -431 0
-101 433 0
-432 433 0
-101 -432 0
-102 434 0
-433 434 0
-102 -433 0
-103 435 0
-434 435 0
-103 -434 0
-104 436 0
-435 436 0
-104 -435 0
-105 437 0
-436 437 0
-105 -436 0
-106 438 0
-437 438 0
-106 -437 0
-107 439 0
-438 439 0
-107 -438 0
-108 440 0
-439 440 0
-108 -439 0
-109 441 0
-440 441 0
-109 -440 0
-110 442 0
-441 442 0
-110 -441 0
-111 -442 0
2 72 86 112 113 114 115 116 117 118 119 120 121 122 123 0
-2 443 0
-72 444 0
-443 444 0
-72 -443 0
-86 445 0
-444 445 0
-86 -444 0
-112 446 0
-445 446 0
-112 -445 0
-113 447 0
-446 447 0
-113 -446 0
-114 448 0
-447 448 0
-114 -447 0
-115 449 0
-448 449 0
-115 -448 0
-116 450 0
-449 450 0
-116 -449 0
-117 451 0
-450 451 0
-117 -450 0
-118 452 0
-451 452 0
-118 -451 0
-119 453 0
-452 453 0
-119 -452 0
-120 454 0
-453 454 0
-120 -453 0
-121 455 0
-454 455 0
-121 -454 0
-122 456 0
-455 456 0
-122 -455 0
-123 -456 0
17 58 87 124 125 126 127 128 129 130 131 132 133 134 135 0
-17 457 0
-58 458 0
-457 458 0
-58 -457 0
-87 459 0
-458 459 0
-87 -458 0
-124 460 0
-459 460 0
-124 -459 0
-125 461 0
-460 461 0
-125 -460 0
-126 462 0
-461 462 0
-126 -461 0
-127 463 0
-462 463 0
-127 -462 0
-128 464 0
-463 464 0
-128 -463 0
-129 465 0
-464 465 0
-129 -464 0
-130 466 0
-465 466 0
-130 -465 0
-131 467 0
-466 467 0
-131 -466 0
-132 468 0
-467 468 0
-132 -467 0
-133 469 0
-468 469 0
-133 -468 0
-134 470 0
-469 470 0
-134 -469 0
-135 -470 0
32 59 73 136 137 138 139 140 141 142 143 144 145 146 147 0
-32 471 0
-59 472 0
-471 472 0
-59 -471 0
-73 473 0
-472 473 0
-73 -472 0
-136 474 0
-473 474 0
-136 -473 0
-137 475 0
-474 475 0
-137 -474 0
-138 476 0
-475 476 0
-138 -475 0
-139 477 0
-476 477 0
-139 -476 0
-140 478 0
-477 478 0
-140 -477 0
-141 479 0
-478 479 0
-141 -478 0
-142 480 0
-479 480 0
-142 -479 0
-143 481 0
-480 481 0
-143 -480 0
-144 482 0
-481 482 0
-144 -481 0
-145 483 0
-482 483 0
-145 -482 0
-146 484 0
-483 484 0
-146 -483 0
-147 -484 0
3 18 33 148 149 150 151 152 153 154 155 156 157 158 159 0
-3 485 0
-18 486 0
-485 486 0
-18 -485 0
-33 487 0
-486 487 0
-33 -486 0
-148 488 0
-487 488 0
-148 -487 0
-149 489 0
-488 489 0
-149 -488 0
-150 490 0
-489 490 0
-150 -489 0
-151 491 0
-490 491 0
-151 -490 0
-152 492 0
-491 492 0
-152 -491 0
-153 493 0
-492 493 0
-153 -492 0
-154 494 0
-493 494 0
-154 -493 0
-155 495 0
-494 495 0
-155 -494 0
-156 496 0
-495 496 0
-156 -495 0
-157 497 0
-496 497 0
-157 -496 0
-158 498 0
-497 498 0
-158 -497 0
-159 -498 0
3 73 87 160 161 162 163 164 165 166 167 168 169 170 171 0
-3 499 0
-73 500 0
-499 500 0
-73 -499 0
-87 501 0
-500 501 0
-87 -500 0
-160 502 0
-501 502 0
-160 -501 0
-161 503 0
-502 503 0
-161 -502 0
-162 504 0
-503 504 0
-162 -503 0
-163 505 0
-504 505 0
-163 -504 0
-164 506 0
-505 506 0
-164 -505 0
-165 507 0
-506 507 0
-165 -506 0
-166 508 0
-507 508 0
-166 -507 0
-167 509 0
-508 509 0
-167 -508 0
-168 510 0
-509 510 0
-168 -509 0
-169 511 0
-510 511 0
-169 -510 0
-170 512 0
-511 512 0
-170 -511 0
-171 -512 0
18 59 86 172 173 174 175 176 177 178 179 180 181 182 183 0
-18 513 0
-59 514 0
-513 514 0
-59 -513 0
-86 515 0
-514 515 0
-86 -514 0
-172 516 0
-515 516 0
-172 -515 0
-173 517 0
-516 517 0
-173 -516 0
-174 518 0
-517 518 0
-174 -517 0
-175 519 0
-518 519 0
-175 -518 0
-176 520 0
-519 520 0
-176 -519 0
-177 521 0
-520 521 0
-177 -520 0
-178 522 0
-521 522 0
-178 -521 0
-179 523 0
-522 523 0
-179 -522 0
-180 524 0
-523 524 0
-180 -523 0
-181 525 0
-524 525 0
-181 -524 0
-182 526 0
-525 526 0
-182 -525 0
-183 -526 0
33 58 72 184 185 186 187 188 189 190 191 192 193 194 195 0
-33 527 0
-58 528 0
-527 528 0
-58 -527 0
-72 529 0
-528 529 0
-72 -528 0
-184 530 0
-529 530 0
-184 -529 0
-185 531 0
-530 531 0
-185 -530 0
-186 532 0
-531 532 0
-186 -531 0
-187 533 0
-532 533 0
-187 -532 0
-188 534 0
-533 534 0
-188 -533 0
-189 535 0
-534 535 0
-189 -534 0
-190 536 0
-535 536 0
-190 -535 0
-191 537 0
-536 537 0
-191 -536 0
-192 538 0
-537 538 0
-192 -537 0
-193 539 0
-538 539 0
-193 -538 0
-194 540 0
-539 540 0
-194 -539 0
-195 -540 0
4 19 34 46 60 74 88 100 112 124 136 148 160 172 184 0
-4 541 0
-19 542 0
-541 542 0
-19 -541 0
-34 543 0
-542 543 0
-34 -542 0
-46 544 0
-543 544 0
-46 -543 0
-60 545 0
-544 545 0
-60 -544 0
-74 546 0
-545 546 0
-74 -545 0
-88 547 0
-546 547 0
-88 -546 0
-100 548 0
-547 548 0
-100 -547 0
-112 549 0
-548 549 0
-112 -548 0
-124 550 0
-549 550 0
-124 -549 0
-136 551 0
-550 551 0
-136 -550 0
-148 552 0
-551 552 0
-148 -551 0
-160 553 0
-552 553 0
-160 -552 0
-172 554 0
-553 554 0
-172 -553 0
-184 -554 0
4 47 61 101 113 149 161 196 197 198 199 200 201 202 203 0
-4 555 0
-47 556 0
-555 556 0
-47 -555 0
-61 557 0
-556 557 0
-61 -556 0
-101 558 0
-557 558 0
-101 -557 0
-113 559 0
-558 559 0
-113 -558 0
-149 560 0
-559 560 0
-149 -559 0
-161 561 0
-560 561 0
-161 -560 0
-196 562 0
-561 562 0
-196 -561 0
-197 563 0
-562 563 0
-197 -562 0
-198 564 0
-563 564 0
-198 -563 0
-199 565 0
-564 565 0
-199 -564 0
-200 566 0
-565 566 0
-200 -565 0
-201 567 0
-566 567 0
-201 -566 0
-202 568 0
-567 568 0
-202 -567 0
-203 -568 0
19 48 75 102 125 150 173 204 205 206 207 208 209 210 211 0
-19 569 0
-48 570 0
-569 570 0
-48 -569 0
-75 571 0
-570 571 0
-75 -570 0
-102 572 0
-571 572 0
-102 -571 0
-125 573 0
-572 573 0
-125 -572 0
-150 574 0
-573 574 0
-150 -573 0
-173 575 0
-574 575 0
-173 -574 0
-204 576 0
-575 576 0
-204 -575 0
-205 577 0
-576 577 0
-205 -576 0
-206 578 0
-577 578 0
-206 -577 0
-207 579 0
-578 579 0
-207 -578 0
-208 580 0
-579 580 0
-208 -579 0
-209 581 0
-580 581 0
-209 -580 0
-210 582 0
-581 582 0
-210 -581 0
-211 -582 0
34 49 89 103 137 151 185 212 213 214 215 216 217 218 219 0
-34 583 0
-49 584 0
-583 584 0
-49 -583 0
-89 585 0
-584 585 0
-89 -584 0
-103 586 0
-585 586 0
-103 -585 0
-137 587 0
-586 587 0
-137 -586 0
-151 588 0
-587 588 0
-151 -587 0
-185 589 0
-588 589 0
-185 -588 0
-212 590 0
-589 590 0
-212 -589 0
-213 591 0
-590 591 0
-213 -590 0
-214 592 0
-591 592 0
-214 -591 0
-215 593 0
-592 593 0
-215 -592 0
-216 594 0
-593 594 0
-216 -593 0
-217 595 0
-594 595 0
-217 -594 0
-218 596 0
-595 596 0
-218 -595 0
-219 -596 0
5 20 35 46 61 75 89 220 221 222 223 224 225 226 227 0
-5 597 0
-20 598 0
-597 598 0
-20 -597 0
-35 599 0
-598 599 0
-35 -598 0
-46 600 0
-599 600 0
-46 -599 0
-61 601 0
-600 601 0
-61 -600 0
-75 602 0
-601 602 0
-75 -601 0
-89 603 0
-602 603 0
-89 -602 0
-220 604 0
-603 604 0
-220 -603 0
-221 605 0
-604 605 0
-221 -604 0
-222 606 0
-605 606 0
-222 -605 0
-223 607 0
-606 607 0
-223 -606 0
-224 608 0
-607 608 0
-224 -607 0
-225 609 0
-608 609 0
-225 -608 0
-226 610 0
-609 610 0
-226 -609 0
-227 -610 0
5 47 60 126 138 174 186 228 229 230 231 232 233 234 235 0
-5 611 0
-47 612 0
-611 612 0
-47 -611 0
-60 613 0
-612 613 0
-60 -612 0
-126 614 0
-613 614 0
-126 -613 0
-138 615 0
-614 615 0
-138 -614 0
-174 616 0
-615 616 0
-174 -615 0
-186 617 0
-616 617 0
-186 -616 0
-228 618 0
-617 618 0
-228 -617 0
-229 619 0
-618 619 0
-229 -618 0
-230 620 0
-619 620 0
-230 -619 0
-231 621 0
-620 621 0
-231 -620 0
-232 622 0
-621 622 0
-232 -621 0
-233 623 0
-622 623 0
-233 -622 0
-234 624 0
-623 624 0
-234 -623 0
-235 -624 0
20 48 74 114 139 162 187 236 237 238 239 240 241 242 243 0
-20 625 0
-48 626 0
-625 626 0
-48 -625 0
-74 627 0
-626 627 0
-74 -626 0
-114 628 0
-627 628 0
-114 -627 0
-139 629 0
-628 629 0
-139 -628 0
-162 630 0
-629 630 0
-162 -629 0
-187 631 0
-630 631 0
-187 -630 0
-236 632 0
-631 632 0
-236 -631 0
-237 633 0
-632 633 0
-237 -632 0
-238 634 0
-633 634 0
-238 -633 0
-239 635 0
-634 635 0
-239 -634 0
-240 636 0
-635 636 0
-240 -635 0
-241 637 0
-636 637 0
-241 -636 0
-242 638 0
-637 638 0
-242 -637 0
-243 -638 0
35 49 88 115 127 163 175 244 245 246 247 248 249 250 251 0
-35 639 0
-49 640 0
-639 640 0
-49 -639 0
-88 641 0
-640 641 0
-88 -640 0
-115 642 0
-641 642 0
-115 -641 0
-127 643 0
-642 643 0
-127 -642 0
-163 644 0
-643 644 0
-163 -643 0
-175 645 0
-644 645 0
-175 -644 0
-244 646 0
-645 646 0
-244 -645 0
-245 647 0
-646 647 0
-245 -646 0
-246 648 0
-647 648 0
-246 -647 0
-247 649 0
-648 649 0
-247 -648 0
-248 650 0
-649 650 0
-248 -649 0
-249 651 0
-650 651 0
-249 -650 0
-250 652 0
-651 652 0
-250 -651 0
-251 -652 0
6 21 36 100 113 125 137 252 253 254 255 256 257 258 259 0
-6 653 0
-21 654 0
-653 654 0
-21 -653 0
-36 655 0
-654 655 0
-36 -654 0
-100 656 0
-655 656 0
-100 -655 0
-113 657 0
-656 657 0
-113 -656 0
-125 658 0
-657 658 0
-125 -657 0
-137 659 0
-658 659 0
-137 -658 0
-252 660 0
-659 660 0
-252 -659 0
-253 661 0
-660 661 0
-253 -660 0
-254 662 0
-661 662 0
-254 -661 0
-255 663 0
-662 663 0
-255 -662 0
-256 664 0
-663 664 0
-256 -663 0
-257 665 0
-664 665 0
-257 -664 0
-258 666 0
-665 666 0
-258 -665 0
-259 -666 0
6 76 90 101 112 175 187 260 261 262 263 264 265 266 267 0
-6 667 0
-76 668 0
-667 668 0
-76 -667 0
-90 669 0
-668 669 0
-90 -668 0
-101 670 0
-669 670 0
-101 -669 0
-112 671 0
-670 671 0
-112 -670 0
-175 672 0
-671 672 0
-175 -671 0
-187 673 0
-672 673 0
-187 -672 0
-260 674 0
-673 674 0
-260 -673 0
-261 675 0
-674 675 0
-261 -674 0
-262 676 0
-675 676 0
-262 -675 0
-263 677 0
-676 677 0
-263 -676 0
-264 678 0
-677 678 0
-264 -677 0
-265 679 0
-678 679 0
-265 -678 0
-266 680 0
-679 680 0
-266 -679 0
-267 -680 0
21 62 91 102 124 163 186 268 269 270 271 272 273 274 275 0
-21 681 0
-62 682 0
-681 682 0
-62 -681 0
-91 683 0
-682 683 0
-91 -682 0
-102 684 0
-683 684 0
-102 -683 0
-124 685 0
-684 685 0
-124 -684 0
-163 686 0
-685 686 0
-163 -685 0
-186 687 0
-686 687 0
-186 -686 0
-268 688 0
-687 688 0
-268 -687 0
-269 689 0
-688 689 0
-269 -688 0
-270 690 0
-689 690 0
-270 -689 0
-271 691 0
-690 691 0
-271 -690 0
-272 692 0
-691 692 0
-272 -691 0
-273 693 0
-692 693 0
-273 -692 0
-274 694 0
-693 694 0
-274 -693 0
-275 -694 0
36 63 77 103 136 162 174 276 277 278 279 280 281 282 283 0
-36 695 0
-63 696 0
-695 696 0
-63 -695 0
-77 697 0
-696 697 0
-77 -696 0
-103 698 0
-697 698 0
-103 -697 0
-136 699 0
-698 699 0
-136 -698 0
-162 700 0
-699 700 0
-162 -699 0
-174 701 0
-700 701 0
-174 -700 0
-276 702 0
-701 702 0
-276 -701 0
-277 703 0
-702 703 0
-277 -702 0
-278 704 0
-703 704 0
-278 -703 0
-279 705 0
-704 705 0
-279 -704 0
-280 706 0
-705 706 0
-280 -705 0
-281 707 0
-706 707 0
-281 -706 0
-282 708 0
-707 708 0
-282 -707 0
-283 -708 0
7 22 37 148 161 173 185 284 285 286 287 288 289 290 291 0
-7 709 0
-22 710 0
-709 710 0
-22 -709 0
-37 711 0
-710 711 0
-37 -710 0
-148 712 0
-711 712 0
-148 -711 0
-161 713 0
-712 713 0
-161 -712 0
-173 714 0
-713 714 0
-173 -713 0
-185 715 0
-714 715 0
-185 -714 0
-284 716 0
-715 716 0
-284 -715 0
-285 717 0
-716 717 0
-285 -716 0
-286 718 0
-717 718 0
-286 -717 0
-287 719 0
-718 719 0
-287 -718 0
-288 720 0
-719 720 0
-288 -719 0
-289 721 0
-720 721 0
-289 -720 0
-290 722 0
-721 722 0
-290 -721 0
-291 -722 0
7 77 91 127 139 149 160 292 293 294 295 296 297 298 299 0
-7 723 0
-77 724 0
-723 724 0
-77 -723 0
-91 725 0
-724 725 0
-91 -724 0
-127 726 0
-725 726 0
-127 -725 0
-139 727 0
-726 727 0
-139 -726 0
-149 728 0
-727 728 0
-149 -727 0
-160 729 0
-728 729 0
-160 -728 0
-292 730 0
-729 730 0
-292 -729 0
-293 731 0
-730 731 0
-293 -730 0
-294 732 0
-731 732 0
-294 -731 0
-295 733 0
-732 733 0
-295 -732 0
-296 734 0
-733 734 0
-296 -733 0
-297 735 0
-734 735 0
-297 -734 0
-298 736 0
-735 736 0
-298 -735 0
-299 -736 0
22 63 90 115 138 150 172 300 301 302 303 304 305 306 307 0
-22 737 0
-63 738 0
-737 738 0
-63 -737 0
-90 739 0
-738 739 0
-90 -738 0
-115 740 0
-739 740 0
-115 -739 0
-138 741 0
-740 741 0
-138 -740 0
-150 742 0
-741 742 0
-150 -741 0
-172 743 0
-742 743 0
-172 -742 0
-300 744 0
-743 744 0
-300 -743 0
-301 745 0
-744 745 0
-301 -744 0
-302 746 0
-745 746 0
-302 -745 0
-303 747 0
-746 747 0
-303 -746 0
-304 748 0
-747 748 0
-304 -747 0
-305 749 0
-748 749 0
-305 -748 0
-306 750 0
-749 750 0
-306 -749 0
-307 -750 0
37 62 76 114 126 151 184 308 309 310 311 312 313 314 315 0
-37 751 0
-62 752 0
-751 752 0
-62 -751 0
-76 753 0
-752 753 0
-76 -752 0
-114 754 0
-753 754 0
-114 -753 0
-126 755 0
-754 755 0
-126 -754 0
-151 756 0
-755 756 0
-151 -755 0
-184 757 0
-756 757 0
-184 -756 0
-308 758 0
-757 758 0
-308 -757 0
-309 759 0
-758 759 0
-309 -758 0
-310 760 0
-759 760 0
-310 -759 0
-311 761 0
-760 761 0
-311 -760 0
-312 762 0
-761 762 0
-312 -761 0
-313 763 0
-762 763 0
-313 -762 0
-314 764 0
-763 764 0
-314 -763 0
-315 -764 0
8 23 38 50 64 78 92 104 116 128 140 152 164 176 188 0
-8 765 0
-23 766 0
-765 766 0
-23 -765 0
-38 767 0
-766 767 0
-38 -766 0
-50 768 0
-767 768 0
-50 -767 0
-64 769 0
-768 769 0
-64 -768 0
-78 770 0
-769 770 0
-78 -769 0
-92 771 0
-770 771 0
-92 -770 0
-104 772 0
-771 772 0
-104 -771 0
-116 773 0
-772 773 0
-116 -772 0
-128 774 0
-773 774 0
-128 -773 0
-140 775 0
-774 775 0
-140 -774 0
-152 776 0
-775 776 0
-152 -775 0
-164 777 0
-776 777 0
-164 -776 0
-176 778 0
-777 778 0
-176 -777 0
-188 -778 0
8 51 65 105 117 153 165 204 212 236 244 268 276 300 308 0
-8 779 0
-51 780 0
-779 780 0
-51 -779 0
-65 781 0
-780 781 0
-65 -780 0
-105 782 0
-781 782 0
-105 -781 0
-117 783 0
-782 783 0
-117 -782 0
-153 784 0
-783 784 0
-153 -783 0
-165 785 0
-784 785 0
-165 -784 0
-204 786 0
-785 786 0
-204 -785 0
-212 787 0
-786 787 0
-212 -786 0
-236 788 0
-787 788 0
-236 -787 0
-244 789 0
-788 789 0
-244 -788 0
-268 790 0
-789 790 0
-268 -789 0
-276 791 0
-790 791 0
-276 -790 0
-300 792 0
-791 792 0
-300 -791 0
-308 -792 0
23 52 79 106 129 154 177 196 213 228 245 260 277 292 309 0
-23 793 0
-52 794 0
-793 794 0
-52 -793 0
-79 795 0
-794 795 0
-79 -794 0
-106 796 0
-795 796 0
-106 -795 0
-129 797 0
-796 797 0
-129 -796 0
-154 798 0
-797 798 0
-154 -797 0
-177 799 0
-798 799 0
-177 -798 0
-196 800 0
-799 800 0
-196 -799 0
-213 801 0
-800 801 0
-213 -800 0
-228 802 0
-801 802 0
-228 -801 0
-245 803 0
-802 803 0
-245 -802 0
-260 804 0
-803 804 0
-260 -803 0
-277 805 0
-804 805 0
-277 -804 0
-292 806 0
-805 806 0
-292 -805 0
-309 -806 0
38 53 93 107 141 155 189 197 205 229 237 261 269 293 301 0
-38 807 0
-53 808 0
-807 808 0
-53 -807 0
-93 809 0
-808 809 0
-93 -808 0
-107 810 0
-809 810 0
-107 -809 0
-141 811 0
-810 811 0
-141 -810 0
-155 812 0
-811 812 0
-155 -811 0
-189 813 0
-812 813 0
-189 -812 0
-197 814 0
-813 814 0
-197 -813 0
-205 815 0
-814 815 0
-205 -814 0
-229 816 0
-815 816 0
-229 -815 0
-237 817 0
-816 817 0
-237 -816 0
-261 818 0
-817 818 0
-261 -817 0
-269 819 0
-818 819 0
-269 -818 0
-293 820 0
-819 820 0
-293 -819 0
-301 -820 0
9 24 39 50 65 79 93 252 262 270 278 284 294 302 310 0
-9 821 0
-24 822 0
-821 822 0
-24 -821 0
-39 823 0
-822 823 0
-39 -822 0
-50 824 0
-823 824 0
-50 -823 0
-65 825 0
-824 825 0
-65 -824 0
-79 826 0
-825 826 0
-79 -825 0
-93 827 0
-826 827 0
-93 -826 0
-252 828 0
-827 828 0
-252 -827 0
-262 829 0
-828 829 0
-262 -828 0
-270 830 0
-829 830 0
-270 -829 0
-278 831 0
-830 831 0
-278 -830 0
-284 832 0
-831 832 0
-284 -831 0
-294 833 0
-832 833 0
-294 -832 0
-302 834 0
-833 834 0
-302 -833 0
-310 -834 0
9 51 64 130 142 178 190 206 214 238 246 253 263 285 295 0
-9 835 0
-51 836 0
-835 836 0
-51 -835 0
-64 837 0
-836 837 0
-64 -836 0
-130 838 0
-837 838 0
-130 -837 0
-142 839 0
-838 839 0
-142 -838 0
-178 840 0
-839 840 0
-178 -839 0
-190 841 0
-840 841 0
-190 -840 0
-206 842 0
-841 842 0
-206 -841 0
-214 843 0
-842 843 0
-214 -842 0
-238 844 0
-843 844 0
-238 -843 0
-246 845 0
-844 845 0
-246 -844 0
-253 846 0
-845 846 0
-253 -845 0
-263 847 0
-846 847 0
-263 -846 0
-285 848 0
-847 848 0
-285 -847 0
-295 -848 0
24 52 78 118 143 166 191 198 215 230 247 254 271 286 303 0
-24 849 0
-52 850 0
-849 850 0
-52 -849 0
-78 851 0
-850 851 0
-78 -850 0
-118 852 0
-851 852 0
-118 -851 0
-143 853 0
-852 853 0
-143 -852 0
-166 854 0
-853 854 0
-166 -853 0
-191 855 0
-854 855 0
-191 -854 0
-198 856 0
-855 856 0
-198 -855 0
-215 857 0
-856 857 0
-215 -856 0
-230 858 0
-857 858 0
-230 -857 0
-247 859 0
-858 859 0
-247 -858 0
-254 860 0
-859 860 0
-254 -859 0
-271 861 0
-860 861 0
-271 -860 0
-286 862 0
-861 862 0
-286 -861 0
-303 -862 0
39 53 92 119 131 167 179 199 207 231 239 255 279 287 311 0
-39 863 0
-53 864 0
-863 864 0
-53 -863 0
-92 865 0
-864 865 0
-92 -864 0
-119 866 0
-865 866 0
-119 -865 0
-131 867 0
-866 867 0
-131 -866 0
-167 868 0
-867 868 0
-167 -867 0
-179 869 0
-868 869 0
-179 -868 0
-199 870 0
-869 870 0
-199 -869 0
-207 871 0
-870 871 0
-207 -870 0
-231 872 0
-871 872 0
-231 -871 0
-239 873 0
-872 873 0
-239 -872 0
-255 874 0
-873 874 0
-255 -873 0
-279 875 0
-874 875 0
-279 -874 0
-287 876 0
-875 876 0
-287 -875 0
-311 -876 0
10 25 40 104 117 129 141 220 232 240 248 288 296 304 312 0
-10 877 0
-25 878 0
-877 878 0
-25 -877 0
-40 879 0
-878 879 0
-40 -878 0
-104 880 0
-879 880 0
-104 -879 0
-117 881 0
-880 881 0
-117 -880 0
-129 882 0
-881 882 0
-129 -881 0
-141 883 0
-882 883 0
-141 -882 0
-220 884 0
-883 884 0
-220 -883 0
-232 885 0
-884 885 0
-232 -884 0
-240 886 0
-885 886 0
-240 -885 0
-248 887 0
-886 887 0
-248 -886 0
-288 888 0
-887 888 0
-288 -887 0
-296 889 0
-888 889 0
-296 -888 0
-304 890 0
-889 890 0
-304 -889 0
-312 -890 0
10 80 94 105 116 179 191 208 216 221 233 272 280 289 297 0
-10 891 0
-80 892 0
-891 892 0
-80 -891 0
-94 893 0
-892 893 0
-94 -892 0
-105 894 0
-893 894 0
-105 -893 0
-116 895 0
-894 895 0
-116 -894 0
-179 896 0
-895 896 0
-179 -895 0
-191 897 0
-896 897 0
-191 -896 0
-208 898 0
-897 898 0
-208 -897 0
-216 899 0
-898 899 0
-216 -898 0
-221 900 0
-899 900 0
-221 -899 0
-233 901 0
-900 901 0
-233 -900 0
-272 902 0
-901 902 0
-272 -901 0
-280 903 0
-902 903 0
-280 -902 0
-289 904 0
-903 904 0
-289 -903 0
-297 -904 0
25 66 95 106 128 167 190 200 217 222 241 264 281 290 305 0
-25 905 0
-66 906 0
-905 906 0
-66 -905 0
-95 907 0
-906 907 0
-95 -906 0
-106 908 0
-907 908 0
-106 -907 0
-128 909 0
-908 909 0
-128 -908 0
-167 910 0
-909 910 0
-167 -909 0
-190 911 0
-910 911 0
-190 -910 0
-200 912 0
-911 912 0
-200 -911 0
-217 913 0
-912 913 0
-217 -912 0
-222 914 0
-913 914 0
-222 -913 0
-241 915 0
-914 915 0
-241 -914 0
-264 916 0
-915 916 0
-264 -915 0
-281 917 0
-916 917 0
-281 -916 0
-290 918 0
-917 918 0
-290 -917 0
-305 -918 0
40 67 81 107 140 166 178 201 209 223 249 265 273 291 313 0
-40 919 0
-67 920 0
-919 920 0
-67 -919 0
-81 921 0
-920 921 0
-81 -920 0
-107 922 0
-921 922 0
-107 -921 0
-140 923 0
-922 923 0
-140 -922 0
-166 924 0
-923 924 0
-166 -923 0
-178 925 0
-924 925 0
-178 -924 0
-201 926 0
-925 926 0
-201 -925 0
-209 927 0
-926 927 0
-209 -926 0
-223 928 0
-927 928 0
-223 -927 0
-249 929 0
-928 929 0
-249 -928 0
-265 930 0
-929 930 0
-265 -929 0
-273 931 0
-930 931 0
-273 -930 0
-291 932 0
-931 932 0
-291 -931 0
-313 -932 0
11 26 41 152 165 177 189 224 234 242 250 256 266 274 282 0
-11 933 0
-26 934 0
-933 934 0
-26 -933 0
-41 935 0
-934 935 0
-41 -934 0
-152 936 0
-935 936 0
-152 -935 0
-165 937 0
-936 937 0
-165 -936 0
-177 938 0
-937 938 0
-177 -937 0
-189 939 0
-938 939 0
-189 -938 0
-224 940 0
-939 940 0
-224 -939 0
-234 941 0
-940 941 0
-234 -940 0
-242 942 0
-941 942 0
-242 -941 0
-250 943 0
-942 943 0
-250 -942 0
-256 944 0
-943 944 0
-256 -943 0
-266 945 0
-944 945 0
-266 -944 0
-274 946 0
-945 946 0
-274 -945 0
-282 -946 0
11 81 95 131 143 153 164 210 218 225 235 257 267 306 314 0
-11 947 0
-81 948 0
-947 948 0
-81 -947 0
-95 949 0
-948 949 0
-95 -948 0
-131 950 0
-949 950 0
-131 -949 0
-143 951 0
-950 951 0
-143 -950 0
-153 952 0
-951 952 0
-153 -951 0
-164 953 0
-952 953 0
-164 -952 0
-210 954 0
-953 954 0
-210 -953 0
-218 955 0
-954 955 0
-218 -954 0
-225 956 0
-955 956 0
-225 -955 0
-235 957 0
-956 957 0
-235 -956 0
-257 958 0
-957 958 0
-257 -957 0
-267 959 0
-958 959 0
-267 -958 0
-306 960 0
-959 960 0
-306 -959 0
-314 -960 0
26 67 94 119 142 154 176 202 219 226 243 258 275 298 315 0
-26 961 0
-67 962 0
-961 962 0
-67 -961 0
-94 963 0
-962 963 0
-94 -962 0
-119 964 0
-963 964 0
-119 -963 0
-142 965 0
-964 965 0
-142 -964 0
-154 966 0
-965 966 0
-154 -965 0
-176 967 0
-966 967 0
-176 -966 0
-202 968 0
-967 968 0
-202 -967 0
-219 969 0
-968 969 0
-219 -968 0
-226 970 0
-969 970 0
-226 -969 0
-243 971 0
-970 971 0
-243 -970 0
-258 972 0
-971 972 0
-258 -971 0
-275 973 0
-972 973 0
-275 -972 0
-298 974 0
-973 974 0
-298 -973 0
-315 -974 0
41 66 80 118 130 155 188 203 211 227 251 259 283 299 307 0
-41 975 0
-66 976 0
-975 976 0
-66 -975 0
-80 977 0
-976 977 0
-80 -976 0
-118 978 0
-977 978 0
-118 -977 0
-130 979 0
-978 979 0
-130 -978 0
-155 980 0
-979 980 0
-155 -979 0
-188 981 0
-980 981 0
-188 -980 0
-203 982 0
-981 982 0
-203 -981 0
-211 983 0
-982 983 0
-211 -982 0
-227 984 0
-983 984 0
-227 -983 0
-251 985 0
-984 985 0
-251 -984 0
-259 986 0
-985 986 0
-259 -985 0
-283 987 0
-986 987 0
-283 -986 0
-299 988 0
-987 988 0
-299 -987 0
-307 -988 0
12 27 42 54 68 82 96 108 120 132 144 156 168 180 192 0
-12 989 0
-27 990 0
-989 990 0
-27 -989 0
-42 991 0
-990 991 0
-42 -990 0
-54 992 0
-991 992 0
-54 -991 0
-68 993 0
-992 993 0
-68 -992 0
-82 994 0
-993 994 0
-82 -993 0
-96 995 0
-994 995 0
-96 -994 0
-108 996 0
-995 996 0
-108 -995 0
-120 997 0
-996 997 0
-120 -996 0
-132 998 0
-997 998 0
-132 -997 0
-144 999 0
-998 999 0
-144 -998 0
-156 1000 0
-999 1000 0
-156 -999 0
-168 1001 0
-1000 1001 0
-168 -1000 0
-180 1002 0
-1001 1002 0
-180 -1001 0
-192 -1002 0
12 55 69 109 121 157 169 205 213 239 247 273 281 307 315 0
-12 1003 0
-55 1004 0
-1003 1004 0
-55 -1003 0
-69 1005 0
-1004 1005 0
-69 -1004 0
-109 1006 0
-1005 1006 0
-109 -1005 0
-121 1007 0
-1006 1007 0
-121 -1006 0
-157 1008 0
-1007 1008 0
-157 -1007 0
-169 1009 0
-1008 1009 0
-169 -1008 0
-205 1010 0
-1009 1010 0
-205 -1009 0
-213 1011 0
-1010 1011 0
-213 -1010 0
-239 1012 0
-1011 1012 0
-239 -1011 0
-247 1013 0
-1012 1013 0
-247 -1012 0
-273 1014 0
-1013 1014 0
-273 -1013 0
-281 1015 0
-1014 1015 0
-281 -1014 0
-307 1016 0
-1015 1016 0
-307 -1015 0
-315 -1016 0
27 56 83 110 133 158 181 197 212 231 246 265 280 299 314 0
-27 1017 0
-56 1018 0
-1017 1018 0
-56 -1017 0
-83 1019 0
-1018 1019 0
-83 -1018 0
-110 1020 0
-1019 1020 0
-110 -1019 0
-133 1021 0
-1020 1021 0
-133 -1020 0
-158 1022 0
-1021 1022 0
-158 -1021 0
-181 1023 0
-1022 1023 0
-181 -1022 0
-197 1024 0
-1023 1024 0
-197 -1023 0
-212 1025 0
-1024 1025 0
-212 -1024 0
-231 1026 0
-1025 1026 0
-231 -1025 0
-246 1027 0
-1026 1027 0
-246 -1026 0
-265 1028 0
-1027 1028 0
-265 -1027 0
-280 1029 0
-1028 1029 0
-280 -1028 0
-299 1030 0
-1029 1030 0
-299 -1029 0
-314 -1030 0
42 57 97 111 145 159 193 196 204 230 238 264 272 298 306 0
-42 1031 0
-57 1032 0
-1031 1032 0
-57 -1031 0
-97 1033 0
-1032 1033 0
-97 -1032 0
-111 1034 0
-1033 1034 0
-111 -1033 0
-145 1035 0
-1034 1035 0
-145 -1034 0
-159 1036 0
-1035 1036 0
-159 -1035 0
-193 1037 0
-1036 1037 0
-193 -1036 0
-196 1038 0
-1037 1038 0
-196 -1037 0
-204 1039 0
-1038 1039 0
-204 -1038 0
-230 1040 0
-1039 1040 0
-230 -1039 0
-238 1041 0
-1040 1041 0
-238 -1040 0
-264 1042 0
-1041 1042 0
-264 -1041 0
-272 1043 0
-1042 1043 0
-272 -1042 0
-298 1044 0
-1043 1044 0
-298 -1043 0
-306 -1044 0
13 28 43 54 69 83 97 256 267 275 283 288 297 305 313 0
-13 1045 0
-28 1046 0
-1045 1046 0
-28 -1045 0
-43 1047 0
-1046 1047 0
-43 -1046 0
-54 1048 0
-1047 1048 0
-54 -1047 0
-69 1049 0
-1048 1049 0
-69 -1048 0
-83 1050 0
-1049 1050 0
-83 -1049 0
-97 1051 0
-1050 1051 0
-97 -1050 0
-256 1052 0
-1051 1052 0
-256 -1051 0
-267 1053 0
-1052 1053 0
-267 -1052 0
-275 1054 0
-1053 1054 0
-275 -1053 0
-283 1055 0
-1054 1055 0
-283 -1054 0
-288 1056 0
-1055 1056 0
-288 -1055 0
-297 1057 0
-1056 1057 0
-297 -1056 0
-305 1058 0
-1057 1058 0
-305 -1057 0
-313 -1058 0
13 55 68 134 146 182 194 207 215 237 245 257 266 289 296 0
-13 1059 0
-55 1060 0
-1059 1060 0
-55 -1059 0
-68 1061 0
-1060 1061 0
-68 -1060 0
-134 1062 0
-1061 1062 0
-134 -1061 0
-146 1063 0
-1062 1063 0
-146 -1062 0
-182 1064 0
-1063 1064 0
-182 -1063 0
-194 1065 0
-1064 1065 0
-194 -1064 0
-207 1066 0
-1065 1066 0
-207 -1065 0
-215 1067 0
-1066 1067 0
-215 -1066 0
-237 1068 0
-1067 1068 0
-237 -1067 0
-245 1069 0
-1068 1069 0
-245 -1068 0
-257 1070 0
-1069 1070 0
-257 -1069 0
-266 1071 0
-1070 1071 0
-266 -1070 0
-289 1072 0
-1071 1072 0
-289 -1071 0
-296 -1072 0
28 56 82 122 147 170 195 199 214 229 244 258 274 290 304 0
-28 1073 0
-56 1074 0
-1073 1074 0
-56 -1073 0
-82 1075 0
-1074 1075 0
-82 -1074 0
-122 1076 0
-1075 1076 0
-122 -1075 0
-147 1077 0
-1076 1077 0
-147 -1076 0
-170 1078 0
-1077 1078 0
-170 -1077 0
-195 1079 0
-1078 1079 0
-195 -1078 0
-199 1080 0
-1079 1080 0
-199 -1079 0
-214 1081 0
-1080 1081 0
-214 -1080 0
-229 1082 0
-1081 1082 0
-229 -1081 0
-244 1083 0
-1082 1083 0
-244 -1082 0
-258 1084 0
-1083 1084 0
-258 -1083 0
-274 1085 0
-1084 1085 0
-274 -1084 0
-290 1086 0
-1085 1086 0
-290 -1085 0
-304 -1086 0
43 57 96 123 135 171 183 198 206 228 236 259 282 291 312 0
-43 1087 0
-57 1088 0
-1087 1088 0
-57 -1087 0
-96 1089 0
-1088 1089 0
-96 -1088 0
-123 1090 0
-1089 1090 0
-123 -1089 0
-135 1091 0
-1090 1091 0
-135 -1090 0
-171 1092 0
-1091 1092 0
-171 -1091 0
-183 1093 0
-1092 1093 0
-183 -1092 0
-198 1094 0
-1093 1094 0
-198 -1093 0
-206 1095 0
-1094 1095 0
-206 -1094 0
-228 1096 0
-1095 1096 0
-228 -1095 0
-236 1097 0
-1096 1097 0
-236 -1096 0
-259 1098 0
-1097 1098 0
-259 -1097 0
-282 1099 0
-1098 1099 0
-282 -1098 0
-291 1100 0
-1099 1100 0
-291 -1099 0
-312 -1100 0
14 29 44 108 121 133 145 224 235 243 251 284 295 303 311 0
-14 1101 0
-29 1102 0
-1101 1102 0
-29 -1101 0
-44 1103 0
-1102 1103 0
-44 -1102 0
-108 1104 0
-1103 1104 0
-108 -1103 0
-121 1105 0
-1104 1105 0
-121 -1104 0
-133 1106 0
-1105 1106 0
-133 -1105 0
-145 1107 0
-1106 1107 0
-145 -1106 0
-224 1108 0
-1107 1108 0
-224 -1107 0
-235 1109 0
-1108 1109 0
-235 -1108 0
-243 1110 0
-1109 1110 0
-243 -1109 0
-251 1111 0
-1110 1111 0
-251 -1110 0
-284 1112 0
-1111 1112 0
-284 -1111 0
-295 1113 0
-1112 1113 0
-295 -1112 0
-303 1114 0
-1113 1114 0
-303 -1113 0
-311 -1114 0
14 84 98 109 120 183 195 209 217 225 234 269 277 285 294 0
-14 1115 0
-84 1116 0
-1115 1116 0
-84 -1115 0
-98 1117 0
-1116 1117 0
-98 -1116 0
-109 1118 0
-1117 1118 0
-109 -1117 0
-120 1119 0
-1118 1119 0
-120 -1118 0
-183 1120 0
-1119 1120 0
-183 -1119 0
-195 1121 0
-1120 1121 0
-195 -1120 0
-209 1122 0
-1121 1122 0
-209 -1121 0
-217 1123 0
-1122 1123 0
-217 -1122 0
-225 1124 0
-1123 1124 0
-225 -1123 0
-234 1125 0
-1124 1125 0
-234 -1124 0
-269 1126 0
-1125 1126 0
-269 -1125 0
-277 1127 0
-1126 1127 0
-277 -1126 0
-285 1128 0
-1127 1128 0
-285 -1127 0
-294 -1128 0
29 70 99 110 132 171 194 201 216 226 242 261 276 286 302 0
-29 1129 0
-70 1130 0
-1129 1130 0
-70 -1129 0
-99 1131 0
-1130 1131 0
-99 -1130 0
-110 1132 0
-1131 1132 0
-110 -1131 0
-132 1133 0
-1132 1133 0
-132 -1132 0
-171 1134 0
-1133 1134 0
-171 -1133 0
-194 1135 0
-1134 1135 0
-194 -1134 0
-201 1136 0
-1135 1136 0
-201 -1135 0
-216 1137 0
-1136 1137 0
-216 -1136 0
-226 1138 0
-1137 1138 0
-226 -1137 0
-242 1139 0
-1138 1139 0
-242 -1138 0
-261 1140 0
-1139 1140 0
-261 -1139 0
-276 1141 0
-1140 1141 0
-276 -1140 0
-286 1142 0
-1141 1142 0
-286 -1141 0
-302 -1142 0
44 71 85 111 144 170 182 200 208 227 250 260 268 287 310 0
-44 1143 0
-71 1144 0
-1143 1144 0
-71 -1143 0
-85 1145 0
-1144 1145 0
-85 -1144 0
-111 1146 0
-1145 1146 0
-111 -1145 0
-144 1147 0
-1146 1147 0
-144 -1146 0
-170 1148 0
-1147 1148 0
-170 -1147 0
-182 1149 0
-1148 1149 0
-182 -1148 0
-200 1150 0
-1149 1150 0
-200 -1149 0
-208 1151 0
-1150 1151 0
-208 -1150 0
-227 1152 0
-1151 1152 0
-227 -1151 0
-250 1153 0
-1152 1153 0
-250 -1152 0
-260 1154 0
-1153 1154 0
-260 -1153 0
-268 1155 0
-1154 1155 0
-268 -1154 0
-287 1156 0
-1155 1156 0
-287 -1155 0
-310 -1156 0
15 30 45 156 169 181 193 220 233 241 249 252 263 271 279 0
-15 1157 0
-30 1158 0
-1157 1158 0
-30 -1157 0
-45 1159 0
-1158 1159 0
-45 -1158 0
-156 1160 0
-1159 1160 0
-156 -1159 0
-169 1161 0
-1160 1161 0
-169 -1160 0
-181 1162 0
-1161 1162 0
-181 -1161 0
-193 1163 0
-1162 1163 0
-193 -1162 0
-220 1164 0
-1163 1164 0
-220 -1163 0
-233 1165 0
-1164 1165 0
-233 -1164 0
-241 1166 0
-1165 1166 0
-241 -1165 0
-249 1167 0
-1166 1167 0
-249 -1166 0
-252 1168 0
-1167 1168 0
-252 -1167 0
-263 1169 0
-1168 1169 0
-263 -1168 0
-271 1170 0
-1169 1170 0
-271 -1169 0
-279 -1170 0
15 85 99 135 147 157 168 211 219 221 232 253 262 301 309 0
-15 1171 0
-85 1172 0
-1171 1172 0
-85 -1171 0
-99 1173 0
-1172 1173 0
-99 -1172 0
-135 1174 0
-1173 1174 0
-135 -1173 0
-147 1175 0
-1174 1175 0
-147 -1174 0
-157 1176 0
-1175 1176 0
-157 -1175 0
-168 1177 0
-1176 1177 0
-168 -1176 0
-211 1178 0
-1177 1178 0
-211 -1177 0
-219 1179 0
-1178 1179 0
-219 -1178 0
-221 1180 0
-1179 1180 0
-221 -1179 0
-232 1181 0
-1180 1181 0
-232 -1180 0
-253 1182 0
-1181 1182 0
-253 -1181 0
-262 1183 0
-1182 1183 0
-262 -1182 0
-301 1184 0
-1183 1184 0
-301 -1183 0
-309 -1184 0
30 71 98 123 146 158 180 203 218 222 240 254 270 293 308 0
-30 1185 0
-71 1186 0
-1185 1186 0
-71 -1185 0
-98 1187 0
-1186 1187 0
-98 -1186 0
-123 1188 0
-1187 1188 0
-123 -1187 0
-146 1189 0
-1188 1189 0
-146 -1188 0
-158 1190 0
-1189 1190 0
-158 -1189 0
-180 1191 0
-1190 1191 0
-180 -1190 0
-203 1192 0
-1191 1192 0
-203 -1191 0
-218 1193 0
-1192 1193 0
-218 -1192 0
-222 1194 0
-1193 1194 0
-222 -1193 0
-240 1195 0
-1194 1195 0
-240 -1194 0
-254 1196 0
-1195 1196 0
-254 -1195 0
-270 1197 0
-1196 1197 0
-270 -1196 0
-293 1198 0
-1197 1198 0
-293 -1197 0
-308 -1198 0
45 70 84 122 134 159 192 202 210 223 248 255 278 292 300 0
-45 1199 0
-70 1200 0
-1199 1200 0
-70 -1199 0
-84 1201 0
-1200 1201 0
-84 -1200 0
-122 1202 0
-1201 1202 0
-122 -1201 0
-134 1203 0
-1202 1203 0
-134 -1202 0
-159 1204 0
-1203 1204 0
-159 -1203 0
-192 1205 0
-1204 1205 0
-192 -1204 0
-202 1206 0
-1205 1206 0
-202 -1205 0
-210 1207 0
-1206 1207 0
-210 -1206 0
-223 1208 0
-1207 1208 0
-223 -1207 0
-248 1209 0
-1208 1209 0
-248 -1208 0
-255 1210 0
-1209 1210 0
-255 -1209 0
-278 1211 0
-1210 1211 0
-278 -1210 0
-292 1212 0
-1211 1212 0
-292 -1211 0
-300 -1212 0
-1 -317 0
-2 -318 0
-1213 317 318 0
-1213 -317 -318 0
1213 -317 318 0
1213 317 -318 0
-3 -1213 0
-4 -319 0
-1214 317 319 0
-1214 -317 -319 0
1214 -317 319 0
1214 317 -319 0
-5 -1214 0
-1215 318 319 0
-1215 -318 -319 0
1215 -318 319 0
1215 318 -319 0
-6 -1215 0
-1216 317 318 0
-1216 -317 -318 0
1216 -317 318 0
1216 317 -318 0
-1217 1216 319 0
-1217 -1216 -319 0
1217 -1216 319 0
1217 1216 -319 0
-7 -1217 0
-8 -320 0
-1218 317 320 0
-1218 -317 -320 0
1218 -317 320 0
1218 317 -320 0
-9 -1218 0
-1219 318 320 0
-1219 -318 -320 0
1219 -318 320 0
1219 318 -320 0
-10 -1219 0
-1220 317 318 0
-1220 -317 -318 0
1220 -317 318 0
1220 317 -318 0
-1221 1220 320 0
-1221 -1220 -320 0
1221 -1220 320 0
1221 1220 -320 0
-11 -1221 0
-1222 319 320 0
-1222 -319 -320 0
1222 -319 320 0
1222 319 -320 0
-12 -1222 0
-1223 317 319 0
-1223 -317 -319 0
1223 -317 319 0
1223 317 -319 0
-1224 1223 320 0
-1224 -1223 -320 0
1224 -1223 320 0
1224 1223 -320 0
-13 -1224 0
-1225 318 319 0
-1225 -318 -319 0
1225 -318 319 0
1225 318 -319 0
-1226 1225 320 0
-1226 -1225 -320 0
1226 -1225 320 0
1226 1225 -320 0
-14 -1226 0
-1227 317 318 0
-1227 -317 -318 0
1227 -317 318 0
1227 317 -318 0
-1228 1227 319 0
-1228 -1227 -319 0
1228 -1227 319 0
1228 1227 -319 0
-1229 1228 320 0
-1229 -1228 -320 0
1229 -1228 320 0
1229 1228 -320 0
-15 -1229 0
-16 -321 0
-17 -322 0
-1230 321 322 0
-1230 -321 -322 0
1230 -321 322 0
1230 321 -322 0
-18 -1230 0
-19 -323 0
-1231 321 323 0
-1231 -321 -323 0
1231 -321 323 0
1231 321 -323 0
-20 -1231 0
-1232 322 323 0
-1232 -322 -323 0
1232 -322 323 0
1232 322 -323 0
-21 -1232 0
-1233 321 322 0
-1233 -321 -322 0
1233 -321 322 0
1233 321 -322 0
-1234 1233 323 0
-1234 -1233 -323 0
1234 -1233 323 0
1234 1233 -323 0
-22 -1234 0
-23 -324 0
-1235 321 324 0
-1235 -321 -324 0
1235 -321 324 0
1235 321 -324 0
-24 -1235 0
-1236 322 324 0
-1236 -322 -324 0
1236 -322 324 0
1236 322 -324 0
-25 -1236 0
-1237 321 322 0
-1237 -321 -322 0
1237 -321 322 0
1237 321 -322 0
-1238 1237 324 0
-1238 -1237 -324 0
1238 -1237 324 0
1238 1237 -324 0
-26 -1238 0
-1239 323 324 0
-1239 -323 -324 0
1239 -323 324 0
1239 323 -324 0
-27 -1239 0
-1240 321 323 0
-1240 -321 -323 0
1240 -321 323 0
1240 321 -323 0
-1241 1240 324 0
-1241 -1240 -324 0
1241 -1240 324 0
1241 1240 -324 0
-28 -1241 0
-1242 322 323 0
-1242 -322 -323 0
1242 -322 323 0
1242 322 -323 0
-1243 1242 324 0
-1243 -1242 -324 0
1243 -1242 324 0
1243 1242 -324 0
-29 -1243 0
-1244 321 322 0
-1244 -321 -322 0
1244 -321 322 0
1244 321 -322 0
-1245 1244 323 0
-1245 -1244 -323 0
1245 -1244 323 0
1245 1244 -323 0
-1246 1245 324 0
-1246 -1245 -324 0
1246 -1245 324 0
1246 1245 -324 0
-30 -1246 0
-1247 317 321 0
-1247 -317 -321 0
1247 -317 321 0
1247 317 -321 0
-31 -1247 0
-1248 318 322 0
-1248 -318 -322 0
1248 -318 322 0
1248 318 -322 0
-32 -1248 0
-1249 317 318 0
-1249 -317 -318 0
1249 -317 318 0
1249 317 -318 0
-1250 1249 321 0
-1250 -1249 -321 0
1250 -1249 321 0
1250 1249 -321 0
-1251 1250 322 0
-1251 -1250 -322 0
1251 -1250 322 0
1251 1250 -322 0
-33 -1251 0
-1252 319 323 0
-1252 -319 -323 0
1252 -319 323 0
1252 319 -323 0
-34 -1252 0
-1253 317 319 0
-1253 -317 -319 0
1253 -317 319 0
1253 317 -319 0
-1254 1253 321 0
-1254 -1253 -321 0
1254 -1253 321 0
1254 1253 -321 0
-1255 1254 323 0
-1255 -1254 -323 0
1255 -1254 323 0
1255 1254 -323 0
-35 -1255 0
-1256 318 319 0
-1256 -318 -319 0
1256 -318 319 0
1256 318 -319 0
-1257 1256 322 0
-1257 -1256 -322 0
1257 -1256 322 0
1257 1256 -322 0
-1258 1257 323 0
-1258 -1257 -323 0
1258 -1257 323 0
1258 1257 -323 0
-36 -1258 0
-1259 317 318 0
-1259 -317 -318 0
1259 -317 318 0
1259 317 -318 0
-1260 1259 319 0
-1260 -1259 -319 0
1260 -1259 319 0
1260 1259 -319 0
-1261 1260 321 0
-1261 -1260 -321 0
1261 -1260 321 0
1261 1260 -321 0
-1262 1261 322 0
-1262 -1261 -322 0
1262 -1261 322 0
1262 1261 -322 0
-1263 1262 323 0
-1263 -1262 -323 0
1263 -1262 323 0
1263 1262 -323 0
-37 -1263 0
-1264 320 324 0
-1264 -320 -324 0
1264 -320 324 0
1264 320 -324 0
-38 -1264 0
-1265 317 320 0
-1265 -317 -320 0
1265 -317 320 0
1265 317 -320 0
-1266 1265 321 0
-1266 -1265 -321 0
1266 -1265 321 0
1266 1265 -321 0
-1267 1266 324 0
-1267 -1266 -324 0
1267 -1266 324 0
1267 1266 -324 0
-39 -1267 0
-1268 318 320 0
-1268 -318 -320 0
1268 -318 320 0
1268 318 -320 0
-1269 1268 322 0
-1269 -1268 -322 0
1269 -1268 322 0
1269 1268 -322 0
-1270 1269 324 0
-1270 -1269 -324 0
1270 -1269 324 0
1270 1269 -324 0
-40 -1270 0
-1271 317 318 0
-1271 -317 -318 0
1271 -317 318 0
1271 317 -318 0
-1272 1271 320 0
-1272 -1271 -320 0
1272 -1271 320 0
1272 1271 -320 0
-1273 1272 321 0
-1273 -1272 -321 0
1273 -1272 321 0
1273 1272 -321 0
-1274 1273 322 0
-1274 -1273 -322 0
1274 -1273 322 0
1274 1273 -322 0
-1275 1274 324 0
-1275 -1274 -324 0
1275 -1274 324 0
1275 1274 -324 0
-41 -1275 0
-1276 319 320 0
-1276 -319 -320 0
1276 -319 320 0
1276 319 -320 0
-1277 1276 323 0
-1277 -1276 -323 0
1277 -1276 323 0
1277 1276 -323 0
-1278 1277 324 0
-1278 -1277 -324 0
1278 -1277 324 0
1278 1277 -324 0
-42 -1278 0
-1279 317 319 0
-1279 -317 -319 0
1279 -317 319 0
1279 317 -319 0
-1280 1279 320 0
-1280 -1279 -320 0
1280 -1279 320 0
1280 1279 -320 0
-1281 1280 321 0
-1281 -1280 -321 0
1281 -1280 321 0
1281 1280 -321 0
-1282 1281 323 0
-1282 -1281 -323 0
1282 -1281 323 0
1282 1281 -323 0
-1283 1282 324 0
-1283 -1282 -324 0
1283 -1282 324 0
1283 1282 -324 0
-43 -1283 0
-1284 318 319 0
-1284 -318 -319 0
1284 -318 319 0
1284 318 -319 0
-1285 1284 320 0
-1285 -1284 -320 0
1285 -1284 320 0
1285 1284 -320 0
-1286 1285 322 0
-1286 -1285 -322 0
1286 -1285 322 0
1286 1285 -322 0
-1287 1286 323 0
-1287 -1286 -323 0
1287 -1286 323 0
1287 1286 -323 0
-1288 1287 324 0
-1288 -1287 -324 0
1288 -1287 324 0
1288 1287 -324 0
-44 -1288 0
-1289 317 318 0
-1289 -317 -318 0
1289 -317 318 0
1289 317 -318 0
-1290 1289 319 0
-1290 -1289 -319 0
1290 -1289 319 0
1290 1289 -319 0
-1291 1290 320 0
-1291 -1290 -320 0
1291 -1290 320 0
1291 1290 -320 0
-1292 1291 321 0
-1292 -1291 -321 0
1292 -1291 321 0
1292 1291 -321 0
-1293 1292 322 0
-1293 -1292 -322 0
1293 -1292 322 0
1293 1292 -322 0
-1294 1293 323 0
-1294 -1293 -323 0
1294 -1293 323 0
1294 1293 -323 0
-1295 1294 324 0
-1295 -1294 -324 0
1295 -1294 324 0
1295 1294 -324 0
-45 -1295 0
-46 -326 0
-1296 317 326 0
-1296 -317 -326 0
1296 -317 326 0
1296 317 -326 0
-47 -1296 0
-1297 321 326 0
-1297 -321 -326 0
1297 -321 326 0
1297 321 -326 0
-48 -1297 0
-1298 317 321 0
-1298 -317 -321 0
1298 -317 321 0
1298 317 -321 0
-1299 1298 326 0
-1299 -1298 -326 0
1299 -1298 326 0
1299 1298 -326 0
-49 -1299 0
-50 -327 0
-1300 317 327 0
-1300 -317 -327 0
1300 -317 327 0
1300 317 -327 0
-51 -1300 0
-1301 321 327 0
-1301 -321 -327 0
1301 -321 327 0
1301 321 -327 0
-52 -1301 0
-1302 317 321 0
-1302 -317 -321 0
1302 -317 321 0
1302 317 -321 0
-1303 1302 327 0
-1303 -1302 -327 0
1303 -1302 327 0
1303 1302 -327 0
-53 -1303 0
-1304 326 327 0
-1304 -326 -327 0
1304 -326 327 0
1304 326 -327 0
-54 -1304 0
-1305 317 326 0
-1305 -317 -326 0
1305 -317 326 0
1305 317 -326 0
-1306 1305 327 0
-1306 -1305 -327 0
1306 -1305 327 0
1306 1305 -327 0
-55 -1306 0
-1307 321 326 0
-1307 -321 -326 0
1307 -321 326 0
1307 321 -326 0
-1308 1307 327 0
-1308 -1307 -327 0
1308 -1307 327 0
1308 1307 -327 0
-56 -1308 0
-1309 317 321 0
-1309 -317 -321 0
1309 -317 321 0
1309 317 -321 0
-1310 1309 326 0
-1310 -1309 -326 0
1310 -1309 326 0
1310 1309 -326 0
-1311 1310 327 0
-1311 -1310 -327 0
1311 -1310 327 0
1311 1310 -327 0
-57 -1311 0
-1312 316 318 0
-1312 -316 -318 0
1312 -316 318 0
1312 316 -318 0
-1313 1312 321 0
-1313 -1312 -321 0
1313 -1312 321 0
1313 1312 -321 0
-1314 1313 325 0
-1314 -1313 -325 0
1314 -1313 325 0
1314 1313 -325 0
-58 -1314 0
-1315 316 317 0
-1315 -316 -317 0
1315 -316 317 0
1315 316 -317 0
-1316 1315 318 0
-1316 -1315 -318 0
1316 -1315 318 0
1316 1315 -318 0
-1317 1316 321 0
-1317 -1316 -321 0
1317 -1316 321 0
1317 1316 -321 0
-1318 1317 325 0
-1318 -1317 -325 0
1318 -1317 325 0
1318 1317 -325 0
-59 -1318 0
-1319 319 326 0
-1319 -319 -326 0
1319 -319 326 0
1319 319 -326 0
-60 -1319 0
-1320 317 319 0
-1320 -317 -319 0
1320 -317 319 0
1320 317 -319 0
-1321 1320 326 0
-1321 -1320 -326 0
1321 -1320 326 0
1321 1320 -326 0
-61 -1321 0
-1322 316 318 0
-1322 -316 -318 0
1322 -316 318 0
1322 316 -318 0
-1323 1322 319 0
-1323 -1322 -319 0
1323 -1322 319 0
1323 1322 -319 0
-1324 1323 321 0
-1324 -1323 -321 0
1324 -1323 321 0
1324 1323 -321 0
-1325 1324 325 0
-1325 -1324 -325 0
1325 -1324 325 0
1325 1324 -325 0
-1326 1325 326 0
-1326 -1325 -326 0
1326 -1325 326 0
1326 1325 -326 0
-62 -1326 0
-1327 316 317 0
-1327 -316 -317 0
1327 -316 317 0
1327 316 -317 0
-1328 1327 318 0
-1328 -1327 -318 0
1328 -1327 318 0
1328 1327 -318 0
-1329 1328 319 0
-1329 -1328 -319 0
1329 -1328 319 0
1329 1328 -319 0
-1330 1329 321 0
-1330 -1329 -321 0
1330 -1329 321 0
1330 1329 -321 0
-1331 1330 325 0
-1331 -1330 -325 0
1331 -1330 325 0
1331 1330 -325 0
-1332 1331 326 0
-1332 -1331 -326 0
1332 -1331 326 0
1332 1331 -326 0
-63 -1332 0
-1333 320 327 0
-1333 -320 -327 0
1333 -320 327 0
1333 320 -327 0
-64 -1333 0
-1334 317 320 0
-1334 -317 -320 0
1334 -317 320 0
1334 317 -320 0
-1335 1334 327 0
-1335 -1334 -327 0
1335 -1334 327 0
1335 1334 -327 0
-65 -1335 0
-1336 316 318 0
-1336 -316 -318 0
1336 -316 318 0
1336 316 -318 0
-1337 1336 320 0
-1337 -1336 -320 0
1337 -1336 320 0
1337 1336 -320 0
-1338 1337 321 0
-1338 -1337 -321 0
1338 -1337 321 0
1338 1337 -321 0
-1339 1338 325 0
-1339 -1338 -325 0
1339 -1338 325 0
1339 1338 -325 0
-1340 1339 327 0
-1340 -1339 -327 0
1340 -1339 327 0
1340 1339 -327 0
-66 -1340 0
-1341 316 317 0
-1341 -316 -317 0
1341 -316 317 0
1341 316 -317 0
-1342 1341 318 0
-1342 -1341 -318 0
1342 -1341 318 0
1342 1341 -318 0
-1343 1342 320 0
-1343 -1342 -320 0
1343 -1342 320 0
1343 1342 -320 0
-1344 1343 321 0
-1344 -1343 -321 0
1344 -1343 321 0
1344 1343 -321 0
-1345 1344 325 0
-1345 -1344 -325 0
1345 -1344 325 0
1345 1344 -325 0
-1346 1345 327 0
-1346 -1345 -327 0
1346 -1345 327 0
1346 1345 -327 0
-67 -1346 0
-1347 319 320 0
-1347 -319 -320 0
1347 -319 320 0
1347 319 -320 0
-1348 1347 326 0
-1348 -1347 -326 0
1348 -1347 326 0
1348 1347 -326 0
-1349 1348 327 0
-1349 -1348 -327 0
1349 -1348 327 0
1349 1348 -327 0
-68 -1349 0
-1350 317 319 0
-1350 -317 -319 0
1350 -317 319 0
1350 317 -319 0
-1351 1350 320 0
-1351 -1350 -320 0
1351 -1350 320 0
1351 1350 -320 0
-1352 1351 326 0
-1352 -1351 -326 0
1352 -1351 326 0
1352 1351 -326 0
-1353 1352 327 0
-1353 -1352 -327 0
1353 -1352 327 0
1353 1352 -327 0
-69 -1353 0
-1354 316 318 0
-1354 -316 -318 0
1354 -316 318 0
1354 316 -318 0
-1355 1354 319 0
-1355 -1354 -319 0
1355 -1354 319 0
1355 1354 -319 0
-1356 1355 320 0
-1356 -1355 -320 0
1356 -1355 320 0
1356 1355 -320 0
-1357 1356 321 0
-1357 -1356 -321 0
1357 -1356 321 0
1357 1356 -321 0
-1358 1357 325 0
-1358 -1357 -325 0
1358 -1357 325 0
1358 1357 -325 0
-1359 1358 326 0
-1359 -1358 -326 0
1359 -1358 326 0
1359 1358 -326 0
-1360 1359 327 0
-1360 -1359 -327 0
1360 -1359 327 0
1360 1359 -327 0
-70 -1360 0
-1361 316 317 0
-1361 -316 -317 0
1361 -316 317 0
1361 316 -317 0
-1362 1361 318 0
-1362 -1361 -318 0
1362 -1361 318 0
1362 1361 -318 0
-1363 1362 319 0
-1363 -1362 -319 0
1363 -1362 319 0
1363 1362 -319 0
-1364 1363 320 0
-1364 -1363 -320 0
1364 -1363 320 0
1364 1363 -320 0
-1365 1364 321 0
-1365 -1364 -321 0
1365 -1364 321 0
1365 1364 -321 0
-1366 1365 325 0
-1366 -1365 -325 0
1366 -1365 325 0
1366 1365 -325 0
-1367 1366 326 0
-1367 -1366 -326 0
1367 -1366 326 0
1367 1366 -326 0
-1368 1367 327 0
-1368 -1367 -327 0
1368 -1367 327 0
1368 1367 -327 0
-71 -1368 0
-1369 316 317 0
-1369 -316 -317 0
1369 -316 317 0
1369 316 -317 0
-1370 1369 322 0
-1370 -1369 -322 0
1370 -1369 322 0
1370 1369 -322 0
-1371 1370 325 0
-1371 -1370 -325 0
1371 -1370 325 0
1371 1370 -325 0
-72 -1371 0
-1372 316 317 0
-1372 -316 -317 0
1372 -316 317 0
1372 316 -317 0
-1373 1372 321 0
-1373 -1372 -321 0
1373 -1372 321 0
1373 1372 -321 0
-1374 1373 322 0
-1374 -1373 -322 0
1374 -1373 322 0
1374 1373 -322 0
-1375 1374 325 0
-1375 -1374 -325 0
1375 -1374 325 0
1375 1374 -325 0
-73 -1375 0
-1376 323 326 0
-1376 -323 -326 0
1376 -323 326 0
1376 323 -326 0
-74 -1376 0
-1377 321 323 0
-1377 -321 -323 0
1377 -321 323 0
1377 321 -323 0
-1378 1377 326 0
-1378 -1377 -326 0
1378 -1377 326 0
1378 1377 -326 0
-75 -1378 0
-1379 316 317 0
-1379 -316 -317 0
1379 -316 317 0
1379 316 -317 0
-1380 1379 322 0
-1380 -1379 -322 0
1380 -1379 322 0
1380 1379 -322 0
-1381 1380 323 0
-1381 -1380 -323 0
1381 -1380 323 0
1381 1380 -323 0
-1382 1381 325 0
-1382 -1381 -325 0
1382 -1381 325 0
1382 1381 -325 0
-1383 1382 326 0
-1383 -1382 -326 0
1383 -1382 326 0
1383 1382 -326 0
-76 -1383 0
-1384 316 317 0
-1384 -316 -317 0
1384 -316 317 0
1384 316 -317 0
-1385 1384 321 0
-1385 -1384 -321 0
1385 -1384 321 0
1385 1384 -321 0
-1386 1385 322 0
-1386 -1385 -322 0
1386 -1385 322 0
1386 1385 -322 0
-1387 1386 323 0
-1387 -1386 -323 0
1387 -1386 323 0
1387 1386 -323 0
-1388 1387 325 0
-1388 -1387 -325 0
1388 -1387 325 0
1388 1387 -325 0
-1389 1388 326 0
-1389 -1388 -326 0
1389 -1388 326 0
1389 1388 -326 0
-77 -1389 0
-1390 324 327 0
-1390 -324 -327 0
1390 -324 327 0
1390 324 -327 0
-78 -1390 0
-1391 321 324 0
-1391 -321 -324 0
1391 -321 324 0
1391 321 -324 0
-1392 1391 327 0
-1392 -1391 -327 0
1392 -1391 327 0
1392 1391 -327 0
-79 -1392 0
-1393 316 317 0
-1393 -316 -317 0
1393 -316 317 0
1393 316 -317 0
-1394 1393 322 0
-1394 -1393 -322 0
1394 -1393 322 0
1394 1393 -322 0
-1395 1394 324 0
-1395 -1394 -324 0
1395 -1394 324 0
1395 1394 -324 0
-1396 1395 325 0
-1396 -1395 -325 0
1396 -1395 325 0
1396 1395 -325 0
-1397 1396 327 0
-1397 -1396 -327 0
1397 -1396 327 0
1397 1396 -327 0
-80 -1397 0
-1398 316 317 0
-1398 -316 -317 0
1398 -316 317 0
1398 316 -317 0
-1399 1398 321 0
-1399 -1398 -321 0
1399 -1398 321 0
1399 1398 -321 0
-1400 1399 322 0
-1400 -1399 -322 0
1400 -1399 322 0
1400 1399 -322 0
-1401 1400 324 0
-1401 -1400 -324 0
1401 -1400 324 0
1401 1400 -324 0
-1402 1401 325 0
-1402 -1401 -325 0
1402 -1401 325 0
1402 1401 -325 0
-1403 1402 327 0
-1403 -1402 -327 0
1403 -1402 327 0
1403 1402 -327 0
-81 -1403 0
-1404 323 324 0
-1404 -323 -324 0
1404 -323 324 0
1404 323 -324 0
-1405 1404 326 0
-1405 -1404 -326 0
1405 -1404 326 0
1405 1404 -326 0
-1406 1405 327 0
-1406 -1405 -327 0
1406 -1405 327 0
1406 1405 -327 0
-82 -1406 0
-1407 321 323 0
-1407 -321 -323 0
1407 -321 323 0
1407 321 -323 0
-1408 1407 324 0
-1408 -1407 -324 0
1408 -1407 324 0
1408 1407 -324 0
-1409 1408 326 0
-1409 -1408 -326 0
1409 -1408 326 0
1409 1408 -326 0
-1410 1409 327 0
-1410 -1409 -327 0
1410 -1409 327 0
1410 1409 -327 0
-83 -1410 0
-1411 316 317 0
-1411 -316 -317 0
1411 -316 317 0
1411 316 -317 0
-1412 1411 322 0
-1412 -1411 -322 0
1412 -1411 322 0
1412 1411 -322 0
-1413 1412 323 0
-1413 -1412 -323 0
1413 -1412 323 0
1413 1412 -323 0
-1414 1413 324 0
-1414 -1413 -324 0
1414 -1413 324 0
1414 1413 -324 0
-1415 1414 325 0
-1415 -1414 -325 0
1415 -1414 325 0
1415 1414 -325 0
-1416 1415 326 0
-1416 -1415 -326 0
1416 -1415 326 0
1416 1415 -326 0
-1417 1416 327 0
-1417 -1416 -327 0
1417 -1416 327 0
1417 1416 -327 0
-84 -1417 0
-1418 316 317 0
-1418 -316 -317 0
1418 -316 317 0
1418 316 -317 0
-1419 1418 321 0
-1419 -1418 -321 0
1419 -1418 321 0
1419 1418 -321 0
-1420 1419 322 0
-1420 -1419 -322 0
1420 -1419 322 0
1420 1419 -322 0
-1421 1420 323 0
-1421 -1420 -323 0
1421 -1420 323 0
1421 1420 -323 0
-1422 1421 324 0
-1422 -1421 -324 0
1422 -1421 324 0
1422 1421 -324 0
-1423 1422 325 0
-1423 -1422 -325 0
1423 -1422 325 0
1423 1422 -325 0
-1424 1423 326 0
-1424 -1423 -326 0
1424 -1423 326 0
1424 1423 -326 0
-1425 1424 327 0
-1425 -1424 -327 0
1425 -1424 327 0
1425 1424 -327 0
-85 -1425 0
-1426 316 317 0
-1426 -316 -317 0
1426 -316 317 0
1426 316 -317 0
-1427 1426 318 0
-1427 -1426 -318 0
1427 -1426 318 0
1427 1426 -318 0
-1428 1427 322 0
-1428 -1427 -322 0
1428 -1427 322 0
1428 1427 -322 0
-1429 1428 325 0
-1429 -1428 -325 0
1429 -1428 325 0
1429 1428 -325 0
-86 -1429 0
-1430 316 318 0
-1430 -316 -318 0
1430 -316 318 0
1430 316 -318 0
-1431 1430 321 0
-1431 -1430 -321 0
1431 -1430 321 0
1431 1430 -321 0
-1432 1431 322 0
-1432 -1431 -322 0
1432 -1431 322 0
1432 1431 -322 0
-1433 1432 325 0
-1433 -1432 -325 0
1433 -1432 325 0
1433 1432 -325 0
-87 -1433 0
-1434 319 323 0
-1434 -319 -323 0
1434 -319 323 0
1434 319 -323 0
-1435 1434 326 0
-1435 -1434 -326 0
1435 -1434 326 0
1435 1434 -326 0
-88 -1435 0
-1436 317 319 0
-1436 -317 -319 0
1436 -317 319 0
1436 317 -319 0
-1437 1436 321 0
-1437 -1436 -321 0
1437 -1436 321 0
1437 1436 -321 0
-1438 1437 323 0
-1438 -1437 -323 0
1438 -1437 323 0
1438 1437 -323 0
-1439 1438 326 0
-1439 -1438 -326 0
1439 -1438 326 0
1439 1438 -326 0
-89 -1439 0
-1440 316 317 0
-1440 -316 -317 0
1440 -316 317 0
1440 316 -317 0
-1441 1440 318 0
-1441 -1440 -318 0
1441 -1440 318 0
1441 1440 -318 0
-1442 1441 319 0
-1442 -1441 -319 0
1442 -1441 319 0
1442 1441 -319 0
-1443 1442 322 0
-1443 -1442 -322 0
1443 -1442 322 0
1443 1442 -322 0
-1444 1443 323 0
-1444 -1443 -323 0
1444 -1443 323 0
1444 1443 -323 0
-1445 1444 325 0
-1445 -1444 -325 0
1445 -1444 325 0
1445 1444 -325 0
-1446 1445 326 0
-1446 -1445 -326 0
1446 -1445 326 0
1446 1445 -326 0
-90 -1446 0
-1447 316 318 0
-1447 -316 -318 0
1447 -316 318 0
1447 316 -318 0
-1448 1447 319 0
-1448 -1447 -319 0
1448 -1447 319 0
1448 1447 -319 0
-1449 1448 321 0
-1449 -1448 -321 0
1449 -1448 321 0
1449 1448 -321 0
-1450 1449 322 0
-1450 -1449 -322 0
1450 -1449 322 0
1450 1449 -322 0
-1451 1450 323 0
-1451 -1450 -323 0
1451 -1450 323 0
1451 1450 -323 0
-1452 1451 325 0
-1452 -1451 -325 0
1452 -1451 325 0
1452 1451 -325 0
-1453 1452 326 0
-1453 -1452 -326 0
1453 -1452 326 0
1453 1452 -326 0
-91 -1453 0
-1454 320 324 0
-1454 -320 -324 0
1454 -320 324 0
1454 320 -324 0
-1455 1454 327 0
-1455 -1454 -327 0
1455 -1454 327 0
1455 1454 -327 0
-92 -1455 0
-1456 317 320 0
-1456 -317 -320 0
1456 -317 320 0
1456 317 -320 0
-1457 1456 321 0
-1457 -1456 -321 0
1457 -1456 321 0
1457 1456 -321 0
-1458 1457 324 0
-1458 -1457 -324 0
1458 -1457 324 0
1458 1457 -324 0
-1459 1458 327 0
-1459 -1458 -327 0
1459 -1458 327 0
1459 1458 -327 0
-93 -1459 0
-1460 316 317 0
-1460 -316 -317 0
1460 -316 317 0
1460 316 -317 0
-1461 1460 318 0
-1461 -1460 -318 0
1461 -1460 318 0
1461 1460 -318 0
-1462 1461 320 0
-1462 -1461 -320 0
1462 -1461 320 0
1462 1461 -320 0
-1463 1462 322 0
-1463 -1462 -322 0
1463 -1462 322 0
1463 1462 -322 0
-1464 1463 324 0
-1464 -1463 -324 0
1464 -1463 324 0
1464 1463 -324 0
-1465 1464 325 0
-1465 -1464 -325 0
1465 -1464 325 0
1465 1464 -325 0
-1466 1465 327 0
-1466 -1465 -327 0
1466 -1465 327 0
1466 1465 -327 0
-94 -1466 0
-1467 316 318 0
-1467 -316 -318 0
1467 -316 318 0
1467 316 -318 0
-1468 1467 320 0
-1468 -1467 -320 0
1468 -1467 320 0
1468 1467 -320 0
-1469 1468 321 0
-1469 -1468 -321 0
1469 -1468 321 0
1469 1468 -321 0
-1470 1469 322 0
-1470 -1469 -322 0
1470 -1469 322 0
1470 1469 -322 0
-1471 1470 324 0
-1471 -1470 -324 0
1471 -1470 324 0
1471 1470 -324 0
-1472 1471 325 0
-1472 -1471 -325 0
1472 -1471 325 0
1472 1471 -325 0
-1473 1472 327 0
-1473 -1472 -327 0
1473 -1472 327 0
1473 1472 -327 0
-95 -1473 0
-1474 319 320 0
-1474 -319 -320 0
1474 -319 320 0
1474 319 -320 0
-1475 1474 323 0
-1475 -1474 -323 0
1475 -1474 323 0
1475 1474 -323 0
-1476 1475 324 0
-1476 -1475 -324 0
1476 -1475 324 0
1476 1475 -324 0
-1477 1476 326 0
-1477 -1476 -326 0
1477 -1476 326 0
1477 1476 -326 0
-1478 1477 327 0
-1478 -1477 -327 0
1478 -1477 327 0
1478 1477 -327 0
-96 -1478 0
-1479 317 319 0
-1479 -317 -319 0
1479 -317 319 0
1479 317 -319 0
-1480 1479 320 0
-1480 -1479 -320 0
1480 -1479 320 0
1480 1479 -320 0
-1481 1480 321 0
-1481 -1480 -321 0
1481 -1480 321 0
1481 1480 -321 0
-1482 1481 323 0
-1482 -1481 -323 0
1482 -1481 323 0
1482 1481 -323 0
-1483 1482 324 0
-1483 -1482 -324 0
1483 -1482 324 0
1483 1482 -324 0
-1484 1483 326 0
-1484 -1483 -326 0
1484 -1483 326 0
1484 1483 -326 0
-1485 1484 327 0
-1485 -1484 -327 0
1485 -1484 327 0
1485 1484 -327 0
-97 -1485 0
-1486 316 317 0
-1486 -316 -317 0
1486 -316 317 0
1486 316 -317 0
-1487 1486 318 0
-1487 -1486 -318 0
1487 -1486 318 0
1487 1486 -318 0
-1488 1487 319 0
-1488 -1487 -319 0
1488 -1487 319 0
1488 1487 -319 0
-1489 1488 320 0
-1489 -1488 -320 0
1489 -1488 320 0
1489 1488 -320 0
-1490 1489 322 0
-1490 -1489 -322 0
1490 -1489 322 0
1490 1489 -322 0
-1491 1490 323 0
-1491 -1490 -323 0
1491 -1490 323 0
1491 1490 -323 0
-1492 1491 324 0
-1492 -1491 -324 0
1492 -1491 324 0
1492 1491 -324 0
-1493 1492 325 0
-1493 -1492 -325 0
1493 -1492 325 0
1493 1492 -325 0
-1494 1493 326 0
-1494 -1493 -326 0
1494 -1493 326 0
1494 1493 -326 0
-1495 1494 327 0
-1495 -1494 -327 0
1495 -1494 327 0
1495 1494 -327 0
-98 -1495 0
-1496 316 318 0
-1496 -316 -318 0
1496 -316 318 0
1496 316 -318 0
-1497 1496 319 0
-1497 -1496 -319 0
1497 -1496 319 0
1497 1496 -319 0
-1498 1497 320 0
-1498 -1497 -320 0
1498 -1497 320 0
1498 1497 -320 0
-1499 1498 321 0
-1499 -1498 -321 0
1499 -1498 321 0
1499 1498 -321 0
-1500 1499 322 0
-1500 -1499 -322 0
1500 -1499 322 0
1500 1499 -322 0
-1501 1500 323 0
-1501 -1500 -323 0
1501 -1500 323 0
1501 1500 -323 0
-1502 1501 324 0
-1502 -1501 -324 0
1502 -1501 324 0
1502 1501 -324 0
-1503 1502 325 0
-1503 -1502 -325 0
1503 -1502 325 0
1503 1502 -325 0
-1504 1503 326 0
-1504 -1503 -326 0
1504 -1503 326 0
1504 1503 -326 0
-1505 1504 327 0
-1505 -1504 -327 0
1505 -1504 327 0
1505 1504 -327 0
-99 -1505 0
-100 -328 0
-1506 318 328 0
-1506 -318 -328 0
1506 -318 328 0
1506 318 -328 0
-101 -1506 0
-1507 322 328 0
-1507 -322 -328 0
1507 -322 328 0
1507 322 -328 0
-102 -1507 0
-1508 318 322 0
-1508 -318 -322 0
1508 -318 322 0
1508 318 -322 0
-1509 1508 328 0
-1509 -1508 -328 0
1509 -1508 328 0
1509 1508 -328 0
-103 -1509 0
-104 -329 0
-1510 318 329 0
-1510 -318 -329 0
1510 -318 329 0
1510 318 -329 0
-105 -1510 0
-1511 322 329 0
-1511 -322 -329 0
1511 -322 329 0
1511 322 -329 0
-106 -1511 0
-1512 318 322 0
-1512 -318 -322 0
1512 -318 322 0
1512 318 -322 0
-1513 1512 329 0
-1513 -1512 -329 0
1513 -1512 329 0
1513 1512 -329 0
-107 -1513 0
-1514 328 329 0
-1514 -328 -329 0
1514 -328 329 0
1514 328 -329 0
-108 -1514 0
-1515 318 328 0
-1515 -318 -328 0
1515 -318 328 0
1515 318 -328 0
-1516 1515 329 0
-1516 -1515 -329 0
1516 -1515 329 0
1516 1515 -329 0
-109 -1516 0
-1517 322 328 0
-1517 -322 -328 0
1517 -322 328 0
1517 322 -328 0
-1518 1517 329 0
-1518 -1517 -329 0
1518 -1517 329 0
1518 1517 -329 0
-110 -1518 0
-1519 318 322 0
-1519 -318 -322 0
1519 -318 322 0
1519 318 -322 0
-1520 1519 328 0
-1520 -1519 -328 0
1520 -1519 328 0
1520 1519 -328 0
-1521 1520 329 0
-1521 -1520 -329 0
1521 -1520 329 0
1521 1520 -329 0
-111 -1521 0
-1522 319 328 0
-1522 -319 -328 0
1522 -319 328 0
1522 319 -328 0
-112 -1522 0
-1523 318 319 0
-1523 -318 -319 0
1523 -318 319 0
1523 318 -319 0
-1524 1523 328 0
-1524 -1523 -328 0
1524 -1523 328 0
1524 1523 -328 0
-113 -1524 0
-1525 316 317 0
-1525 -316 -317 0
1525 -316 317 0
1525 316 -317 0
-1526 1525 319 0
-1526 -1525 -319 0
1526 -1525 319 0
1526 1525 -319 0
-1527 1526 322 0
-1527 -1526 -322 0
1527 -1526 322 0
1527 1526 -322 0
-1528 1527 325 0
-1528 -1527 -325 0
1528 -1527 325 0
1528 1527 -325 0
-1529 1528 328 0
-1529 -1528 -328 0
1529 -1528 328 0
1529 1528 -328 0
-114 -1529 0
-1530 316 317 0
-1530 -316 -317 0
1530 -316 317 0
1530 316 -317 0
-1531 1530 318 0
-1531 -1530 -318 0
1531 -1530 318 0
1531 1530 -318 0
-1532 1531 319 0
-1532 -1531 -319 0
1532 -1531 319 0
1532 1531 -319 0
-1533 1532 322 0
-1533 -1532 -322 0
1533 -1532 322 0
1533 1532 -322 0
-1534 1533 325 0
-1534 -1533 -325 0
1534 -1533 325 0
1534 1533 -325 0
-1535 1534 328 0
-1535 -1534 -328 0
1535 -1534 328 0
1535 1534 -328 0
-115 -1535 0
-1536 320 329 0
-1536 -320 -329 0
1536 -320 329 0
1536 320 -329 0
-116 -1536 0
-1537 318 320 0
-1537 -318 -320 0
1537 -318 320 0
1537 318 -320 0
-1538 1537 329 0
-1538 -1537 -329 0
1538 -1537 329 0
1538 1537 -329 0
-117 -1538 0
-1539 316 317 0
-1539 -316 -317 0
1539 -316 317 0
1539 316 -317 0
-1540 1539 320 0
-1540 -1539 -320 0
1540 -1539 320 0
1540 1539 -320 0
-1541 1540 322 0
-1541 -1540 -322 0
1541 -1540 322 0
1541 1540 -322 0
-1542 1541 325 0
-1542 -1541 -325 0
1542 -1541 325 0
1542 1541 -325 0
-1543 1542 329 0
-1543 -1542 -329 0
1543 -1542 329 0
1543 1542 -329 0
-118 -1543 0
-1544 316 317 0
-1544 -316 -317 0
1544 -316 317 0
1544 316 -317 0
-1545 1544 318 0
-1545 -1544 -318 0
1545 -1544 318 0
1545 1544 -318 0
-1546 1545 320 0
-1546 -1545 -320 0
1546 -1545 320 0
1546 1545 -320 0
-1547 1546 322 0
-1547 -1546 -322 0
1547 -1546 322 0
1547 1546 -322 0
-1548 1547 325 0
-1548 -1547 -325 0
1548 -1547 325 0
1548 1547 -325 0
-1549 1548 329 0
-1549 -1548 -329 0
1549 -1548 329 0
1549 1548 -329 0
-119 -1549 0
-1550 319 320 0
-1550 -319 -320 0
1550 -319 320 0
1550 319 -320 0
-1551 1550 328 0
-1551 -1550 -328 0
1551 -1550 328 0
1551 1550 -328 0
-1552 1551 329 0
-1552 -1551 -329 0
1552 -1551 329 0
1552 1551 -329 0
-120 -1552 0
-1553 318 319 0
-1553 -318 -319 0
1553 -318 319 0
1553 318 -319 0
-1554 1553 320 0
-1554 -1553 -320 0
1554 -1553 320 0
1554 1553 -320 0
-1555 1554 328 0
-1555 -1554 -328 0
1555 -1554 328 0
1555 1554 -328 0
-1556 1555 329 0
-1556 -1555 -329 0
1556 -1555 329 0
1556 1555 -329 0
-121 -1556 0
-1557 316 317 0
-1557 -316 -317 0
1557 -316 317 0
1557 316 -317 0
-1558 1557 319 0
-1558 -1557 -319 0
1558 -1557 319 0
1558 1557 -319 0
-1559 1558 320 0
-1559 -1558 -320 0
1559 -1558 320 0
1559 1558 -320 0
-1560 1559 322 0
-1560 -1559 -322 0
1560 -1559 322 0
1560 1559 -322 0
-1561 1560 325 0
-1561 -1560 -325 0
1561 -1560 325 0
1561 1560 -325 0
-1562 1561 328 0
-1562 -1561 -328 0
1562 -1561 328 0
1562 1561 -328 0
-1563 1562 329 0
-1563 -1562 -329 0
1563 -1562 329 0
1563 1562 -329 0
-122 -1563 0
-1564 316 317 0
-1564 -316 -317 0
1564 -316 317 0
1564 316 -317 0
-1565 1564 318 0
-1565 -1564 -318 0
1565 -1564 318 0
1565 1564 -318 0
-1566 1565 319 0
-1566 -1565 -319 0
1566 -1565 319 0
1566 1565 -319 0
-1567 1566 320 0
-1567 -1566 -320 0
1567 -1566 320 0
1567 1566 -320 0
-1568 1567 322 0
-1568 -1567 -322 0
1568 -1567 322 0
1568 1567 -322 0
-1569 1568 325 0
-1569 -1568 -325 0
1569 -1568 325 0
1569 1568 -325 0
-1570 1569 328 0
-1570 -1569 -328 0
1570 -1569 328 0
1570 1569 -328 0
-1571 1570 329 0
-1571 -1570 -329 0
1571 -1570 329 0
1571 1570 -329 0
-123 -1571 0
-1572 323 328 0
-1572 -323 -328 0
1572 -323 328 0
1572 323 -328 0
-124 -1572 0
-1573 322 323 0
-1573 -322 -323 0
1573 -322 323 0
1573 322 -323 0
-1574 1573 328 0
-1574 -1573 -328 0
1574 -1573 328 0
1574 1573 -328 0
-125 -1574 0
-1575 316 318 0
-1575 -316 -318 0
1575 -316 318 0
1575 316 -318 0
-1576 1575 321 0
-1576 -1575 -321 0
1576 -1575 321 0
1576 1575 -321 0
-1577 1576 323 0
-1577 -1576 -323 0
1577 -1576 323 0
1577 1576 -323 0
-1578 1577 325 0
-1578 -1577 -325 0
1578 -1577 325 0
1578 1577 -325 0
-1579 1578 328 0
-1579 -1578 -328 0
1579 -1578 328 0
1579 1578 -328 0
-126 -1579 0
-1580 316 318 0
-1580 -316 -318 0
1580 -316 318 0
1580 316 -318 0
-1581 1580 321 0
-1581 -1580 -321 0
1581 -1580 321 0
1581 1580 -321 0
-1582 1581 322 0
-1582 -1581 -322 0
1582 -1581 322 0
1582 1581 -322 0
-1583 1582 323 0
-1583 -1582 -323 0
1583 -1582 323 0
1583 1582 -323 0
-1584 1583 325 0
-1584 -1583 -325 0
1584 -1583 325 0
1584 1583 -325 0
-1585 1584 328 0
-1585 -1584 -328 0
1585 -1584 328 0
1585 1584 -328 0
-127 -1585 0
-1586 324 329 0
-1586 -324 -329 0
1586 -324 329 0
1586 324 -329 0
-128 -1586 0
-1587 322 324 0
-1587 -322 -324 0
1587 -322 324 0
1587 322 -324 0
-1588 1587 329 0
-1588 -1587 -329 0
1588 -1587 329 0
1588 1587 -329 0
-129 -1588 0
-1589 316 318 0
-1589 -316 -318 0
1589 -316 318 0
1589 316 -318 0
-1590 1589 321 0
-1590 -1589 -321 0
1590 -1589 321 0
1590 1589 -321 0
-1591 1590 324 0
-1591 -1590 -324 0
1591 -1590 324 0
1591 1590 -324 0
-1592 1591 325 0
-1592 -1591 -325 0
1592 -1591 325 0
1592 1591 -325 0
-1593 1592 329 0
-1593 -1592 -329 0
1593 -1592 329 0
1593 1592 -329 0
-130 -1593 0
-1594 316 318 0
-1594 -316 -318 0
1594 -316 318 0
1594 316 -318 0
-1595 1594 321 0
-1595 -1594 -321 0
1595 -1594 321 0
1595 1594 -321 0
-1596 1595 322 0
-1596 -1595 -322 0
1596 -1595 322 0
1596 1595 -322 0
-1597 1596 324 0
-1597 -1596 -324 0
1597 -1596 324 0
1597 1596 -324 0
-1598 1597 325 0
-1598 -1597 -325 0
1598 -1597 325 0
1598 1597 -325 0
-1599 1598 329 0
-1599 -1598 -329 0
1599 -1598 329 0
1599 1598 -329 0
-131 -1599 0
-1600 323 324 0
-1600 -323 -324 0
1600 -323 324 0
1600 323 -324 0
-1601 1600 328 0
-1601 -1600 -328 0
1601 -1600 328 0
1601 1600 -328 0
-1602 1601 329 0
-1602 -1601 -329 0
1602 -1601 329 0
1602 1601 -329 0
-132 -1602 0
-1603 322 323 0
-1603 -322 -323 0
1603 -322 323 0
1603 322 -323 0
-1604 1603 324 0
-1604 -1603 -324 0
1604 -1603 324 0
1604 1603 -324 0
-1605 1604 328 0
-1605 -1604 -328 0
1605 -1604 328 0
1605 1604 -328 0
-1606 1605 329 0
-1606 -1605 -329 0
1606 -1605 329 0
1606 1605 -329 0
-133 -1606 0
-1607 316 318 0
-1607 -316 -318 0
1607 -316 318 0
1607 316 -318 0
-1608 1607 321 0
-1608 -1607 -321 0
1608 -1607 321 0
1608 1607 -321 0
-1609 1608 323 0
-1609 -1608 -323 0
1609 -1608 323 0
1609 1608 -323 0
-1610 1609 324 0
-1610 -1609 -324 0
1610 -1609 324 0
1610 1609 -324 0
-1611 1610 325 0
-1611 -1610 -325 0
1611 -1610 325 0
1611 1610 -325 0
-1612 1611 328 0
-1612 -1611 -328 0
1612 -1611 328 0
1612 1611 -328 0
-1613 1612 329 0
-1613 -1612 -329 0
1613 -1612 329 0
1613 1612 -329 0
-134 -1613 0
-1614 316 318 0
-1614 -316 -318 0
1614 -316 318 0
1614 316 -318 0
-1615 1614 321 0
-1615 -1614 -321 0
1615 -1614 321 0
1615 1614 -321 0
-1616 1615 322 0
-1616 -1615 -322 0
1616 -1615 322 0
1616 1615 -322 0
-1617 1616 323 0
-1617 -1616 -323 0
1617 -1616 323 0
1617 1616 -323 0
-1618 1617 324 0
-1618 -1617 -324 0
1618 -1617 324 0
1618 1617 -324 0
-1619 1618 325 0
-1619 -1618 -325 0
1619 -1618 325 0
1619 1618 -325 0
-1620 1619 328 0
-1620 -1619 -328 0
1620 -1619 328 0
1620 1619 -328 0
-1621 1620 329 0
-1621 -1620 -329 0
1621 -1620 329 0
1621 1620 -329 0
-135 -1621 0
-1622 319 323 0
-1622 -319 -323 0
1622 -319 323 0
1622 319 -323 0
-1623 1622 328 0
-1623 -1622 -328 0
1623 -1622 328 0
1623 1622 -328 0
-136 -1623 0
-1624 318 319 0
-1624 -318 -319 0
1624 -318 319 0
1624 318 -319 0
-1625 1624 322 0
-1625 -1624 -322 0
1625 -1624 322 0
1625 1624 -322 0
-1626 1625 323 0
-1626 -1625 -323 0
1626 -1625 323 0
1626 1625 -323 0
-1627 1626 328 0
-1627 -1626 -328 0
1627 -1626 328 0
1627 1626 -328 0
-137 -1627 0
-1628 316 317 0
-1628 -316 -317 0
1628 -316 317 0
1628 316 -317 0
-1629 1628 318 0
-1629 -1628 -318 0
1629 -1628 318 0
1629 1628 -318 0
-1630 1629 319 0
-1630 -1629 -319 0
1630 -1629 319 0
1630 1629 -319 0
-1631 1630 321 0
-1631 -1630 -321 0
1631 -1630 321 0
1631 1630 -321 0
-1632 1631 323 0
-1632 -1631 -323 0
1632 -1631 323 0
1632 1631 -323 0
-1633 1632 325 0
-1633 -1632 -325 0
1633 -1632 325 0
1633 1632 -325 0
-1634 1633 328 0
-1634 -1633 -328 0
1634 -1633 328 0
1634 1633 -328 0
-138 -1634 0
-1635 316 317 0
-1635 -316 -317 0
1635 -316 317 0
1635 316 -317 0
-1636 1635 319 0
-1636 -1635 -319 0
1636 -1635 319 0
1636 1635 -319 0
-1637 1636 321 0
-1637 -1636 -321 0
1637 -1636 321 0
1637 1636 -321 0
-1638 1637 322 0
-1638 -1637 -322 0
1638 -1637 322 0
1638 1637 -322 0
-1639 1638 323 0
-1639 -1638 -323 0
1639 -1638 323 0
1639 1638 -323 0
-1640 1639 325 0
-1640 -1639 -325 0
1640 -1639 325 0
1640 1639 -325 0
-1641 1640 328 0
-1641 -1640 -328 0
1641 -1640 328 0
1641 1640 -328 0
-139 -1641 0
-1642 320 324 0
-1642 -320 -324 0
1642 -320 324 0
1642 320 -324 0
-1643 1642 329 0
-1643 -1642 -329 0
1643 -1642 329 0
1643 1642 -329 0
-140 -1643 0
-1644 318 320 0
-1644 -318 -320 0
1644 -318 320 0
1644 318 -320 0
-1645 1644 322 0
-1645 -1644 -322 0
1645 -1644 322 0
1645 1644 -322 0
-1646 1645 324 0
-1646 -1645 -324 0
1646 -1645 324 0
1646 1645 -324 0
-1647 1646 329 0
-1647 -1646 -329 0
1647 -1646 329 0
1647 1646 -329 0
-141 -1647 0
-1648 316 317 0
-1648 -316 -317 0
1648 -316 317 0
1648 316 -317 0
-1649 1648 318 0
-1649 -1648 -318 0
1649 -1648 318 0
1649 1648 -318 0
-1650 1649 320 0
-1650 -1649 -320 0
1650 -1649 320 0
1650 1649 -320 0
-1651 1650 321 0
-1651 -1650 -321 0
1651 -1650 321 0
1651 1650 -321 0
-1652 1651 324 0
-1652 -1651 -324 0
1652 -1651 324 0
1652 1651 -324 0
-1653 1652 325 0
-1653 -1652 -325 0
1653 -1652 325 0
1653 1652 -325 0
-1654 1653 329 0
-1654 -1653 -329 0
1654 -1653 329 0
1654 1653 -329 0
-142 -1654 0
-1655 316 317 0
-1655 -316 -317 0
1655 -316 317 0
1655 316 -317 0
-1656 1655 320 0
-1656 -1655 -320 0
1656 -1655 320 0
1656 1655 -320 0
-1657 1656 321 0
-1657 -1656 -321 0
1657 -1656 321 0
1657 1656 -321 0
-1658 1657 322 0
-1658 -1657 -322 0
1658 -1657 322 0
1658 1657 -322 0
-1659 1658 324 0
-1659 -1658 -324 0
1659 -1658 324 0
1659 1658 -324 0
-1660 1659 325 0
-1660 -1659 -325 0
1660 -1659 325 0
1660 1659 -325 0
-1661 1660 329 0
-1661 -1660 -329 0
1661 -1660 329 0
1661 1660 -329 0
-143 -1661 0
-1662 319 320 0
-1662 -319 -320 0
1662 -319 320 0
1662 319 -320 0
-1663 1662 323 0
-1663 -1662 -323 0
1663 -1662 323 0
1663 1662 -323 0
-1664 1663 324 0
-1664 -1663 -324 0
1664 -1663 324 0
1664 1663 -324 0
-1665 1664 328 0
-1665 -1664 -328 0
1665 -1664 328 0
1665 1664 -328 0
-1666 1665 329 0
-1666 -1665 -329 0
1666 -1665 329 0
1666 1665 -329 0
-144 -1666 0
-1667 318 319 0
-1667 -318 -319 0
1667 -318 319 0
1667 318 -319 0
-1668 1667 320 0
-1668 -1667 -320 0
1668 -1667 320 0
1668 1667 -320 0
-1669 1668 322 0
-1669 -1668 -322 0
1669 -1668 322 0
1669 1668 -322 0
-1670 1669 323 0
-1670 -1669 -323 0
1670 -1669 323 0
1670 1669 -323 0
-1671 1670 324 0
-1671 -1670 -324 0
1671 -1670 324 0
1671 1670 -324 0
-1672 1671 328 0
-1672 -1671 -328 0
1672 -1671 328 0
1672 1671 -328 0
-1673 1672 329 0
-1673 -1672 -329 0
1673 -1672 329 0
1673 1672 -329 0
-145 -1673 0
-1674 316 317 0
-1674 -316 -317 0
1674 -316 317 0
1674 316 -317 0
-1675 1674 318 0
-1675 -1674 -318 0
1675 -1674 318 0
1675 1674 -318 0
-1676 1675 319 0
-1676 -1675 -319 0
1676 -1675 319 0
1676 1675 -319 0
-1677 1676 320 0
-1677 -1676 -320 0
1677 -1676 320 0
1677 1676 -320 0
-1678 1677 321 0
-1678 -1677 -321 0
1678 -1677 321 0
1678 1677 -321 0
-1679 1678 323 0
-1679 -1678 -323 0
1679 -1678 323 0
1679 1678 -323 0
-1680 1679 324 0
-1680 -1679 -324 0
1680 -1679 324 0
1680 1679 -324 0
-1681 1680 325 0
-1681 -1680 -325 0
1681 -1680 325 0
1681 1680 -325 0
-1682 1681 328 0
-1682 -1681 -328 0
1682 -1681 328 0
1682 1681 -328 0
-1683 1682 329 0
-1683 -1682 -329 0
1683 -1682 329 0
1683 1682 -329 0
-146 -1683 0
-1684 316 317 0
-1684 -316 -317 0
1684 -316 317 0
1684 316 -317 0
-1685 1684 319 0
-1685 -1684 -319 0
1685 -1684 319 0
1685 1684 -319 0
-1686 1685 320 0
-1686 -1685 -320 0
1686 -1685 320 0
1686 1685 -320 0
-1687 1686 321 0
-1687 -1686 -321 0
1687 -1686 321 0
1687 1686 -321 0
-1688 1687 322 0
-1688 -1687 -322 0
1688 -1687 322 0
1688 1687 -322 0
-1689 1688 323 0
-1689 -1688 -323 0
1689 -1688 323 0
1689 1688 -323 0
-1690 1689 324 0
-1690 -1689 -324 0
1690 -1689 324 0
1690 1689 -324 0
-1691 1690 325 0
-1691 -1690 -325 0
1691 -1690 325 0
1691 1690 -325 0
-1692 1691 328 0
-1692 -1691 -328 0
1692 -1691 328 0
1692 1691 -328 0
-1693 1692 329 0
-1693 -1692 -329 0
1693 -1692 329 0
1693 1692 -329 0
-147 -1693 0
-1694 326 328 0
-1694 -326 -328 0
1694 -326 328 0
1694 326 -328 0
-148 -1694 0
-1695 317 318 0
-1695 -317 -318 0
1695 -317 318 0
1695 317 -318 0
-1696 1695 326 0
-1696 -1695 -326 0
1696 -1695 326 0
1696 1695 -326 0
-1697 1696 328 0
-1697 -1696 -328 0
1697 -1696 328 0
1697 1696 -328 0
-149 -1697 0
-1698 321 322 0
-1698 -321 -322 0
1698 -321 322 0
1698 321 -322 0
-1699 1698 326 0
-1699 -1698 -326 0
1699 -1698 326 0
1699 1698 -326 0
-1700 1699 328 0
-1700 -1699 -328 0
1700 -1699 328 0
1700 1699 -328 0
-150 -1700 0
-1701 317 318 0
-1701 -317 -318 0
1701 -317 318 0
1701 317 -318 0
-1702 1701 321 0
-1702 -1701 -321 0
1702 -1701 321 0
1702 1701 -321 0
-1703 1702 322 0
-1703 -1702 -322 0
1703 -1702 322 0
1703 1702 -322 0
-1704 1703 326 0
-1704 -1703 -326 0
1704 -1703 326 0
1704 1703 -326 0
-1705 1704 328 0
-1705 -1704 -328 0
1705 -1704 328 0
1705 1704 -328 0
-151 -1705 0
-1706 327 329 0
-1706 -327 -329 0
1706 -327 329 0
1706 327 -329 0
-152 -1706 0
-1707 317 318 0
-1707 -317 -318 0
1707 -317 318 0
1707 317 -318 0
-1708 1707 327 0
-1708 -1707 -327 0
1708 -1707 327 0
1708 1707 -327 0
-1709 1708 329 0
-1709 -1708 -329 0
1709 -1708 329 0
1709 1708 -329 0
-153 -1709 0
-1710 321 322 0
-1710 -321 -322 0
1710 -321 322 0
1710 321 -322 0
-1711 1710 327 0
-1711 -1710 -327 0
1711 -1710 327 0
1711 1710 -327 0
-1712 1711 329 0
-1712 -1711 -329 0
1712 -1711 329 0
1712 1711 -329 0
-154 -1712 0
-1713 317 318 0
-1713 -317 -318 0
1713 -317 318 0
1713 317 -318 0
-1714 1713 321 0
-1714 -1713 -321 0
1714 -1713 321 0
1714 1713 -321 0
-1715 1714 322 0
-1715 -1714 -322 0
1715 -1714 322 0
1715 1714 -322 0
-1716 1715 327 0
-1716 -1715 -327 0
1716 -1715 327 0
1716 1715 -327 0
-1717 1716 329 0
-1717 -1716 -329 0
1717 -1716 329 0
1717 1716 -329 0
-155 -1717 0
-1718 326 327 0
-1718 -326 -327 0
1718 -326 327 0
1718 326 -327 0
-1719 1718 328 0
-1719 -1718 -328 0
1719 -1718 328 0
1719 1718 -328 0
-1720 1719 329 0
-1720 -1719 -329 0
1720 -1719 329 0
1720 1719 -329 0
-156 -1720 0
-1721 317 318 0
-1721 -317 -318 0
1721 -317 318 0
1721 317 -318 0
-1722 1721 326 0
-1722 -1721 -326 0
1722 -1721 326 0
1722 1721 -326 0
-1723 1722 327 0
-1723 -1722 -327 0
1723 -1722 327 0
1723 1722 -327 0
-1724 1723 328 0
-1724 -1723 -328 0
1724 -1723 328 0
1724 1723 -328 0
-1725 1724 329 0
-1725 -1724 -329 0
1725 -1724 329 0
1725 1724 -329 0
-157 -1725 0
-1726 321 322 0
-1726 -321 -322 0
1726 -321 322 0
1726 321 -322 0
-1727 1726 326 0
-1727 -1726 -326 0
1727 -1726 326 0
1727 1726 -326 0
-1728 1727 327 0
-1728 -1727 -327 0
1728 -1727 327 0
1728 1727 -327 0
-1729 1728 328 0
-1729 -1728 -328 0
1729 -1728 328 0
1729 1728 -328 0
-1730 1729 329 0
-1730 -1729 -329 0
1730 -1729 329 0
1730 1729 -329 0
-158 -1730 0
-1731 317 318 0
-1731 -317 -318 0
1731 -317 318 0
1731 317 -318 0
-1732 1731 321 0
-1732 -1731 -321 0
1732 -1731 321 0
1732 1731 -321 0
-1733 1732 322 0
-1733 -1732 -322 0
1733 -1732 322 0
1733 1732 -322 0
-1734 1733 326 0
-1734 -1733 -326 0
1734 -1733 326 0
1734 1733 -326 0
-1735 1734 327 0
-1735 -1734 -327 0
1735 -1734 327 0
1735 1734 -327 0
-1736 1735 328 0
-1736 -1735 -328 0
1736 -1735 328 0
1736 1735 -328 0
-1737 1736 329 0
-1737 -1736 -329 0
1737 -1736 329 0
1737 1736 -329 0
-159 -1737 0
-1738 319 326 0
-1738 -319 -326 0
1738 -319 326 0
1738 319 -326 0
-1739 1738 328 0
-1739 -1738 -328 0
1739 -1738 328 0
1739 1738 -328 0
-160 -1739 0
-1740 317 318 0
-1740 -317 -318 0
1740 -317 318 0
1740 317 -318 0
-1741 1740 319 0
-1741 -1740 -319 0
1741 -1740 319 0
1741 1740 -319 0
-1742 1741 326 0
-1742 -1741 -326 0
1742 -1741 326 0
1742 1741 -326 0
-1743 1742 328 0
-1743 -1742 -328 0
1743 -1742 328 0
1743 1742 -328 0
-161 -1743 0
-1744 316 317 0
-1744 -316 -317 0
1744 -316 317 0
1744 316 -317 0
-1745 1744 319 0
-1745 -1744 -319 0
1745 -1744 319 0
1745 1744 -319 0
-1746 1745 321 0
-1746 -1745 -321 0
1746 -1745 321 0
1746 1745 -321 0
-1747 1746 322 0
-1747 -1746 -322 0
1747 -1746 322 0
1747 1746 -322 0
-1748 1747 325 0
-1748 -1747 -325 0
1748 -1747 325 0
1748 1747 -325 0
-1749 1748 326 0
-1749 -1748 -326 0
1749 -1748 326 0
1749 1748 -326 0
-1750 1749 328 0
-1750 -1749 -328 0
1750 -1749 328 0
1750 1749 -328 0
-162 -1750 0
-1751 316 318 0
-1751 -316 -318 0
1751 -316 318 0
1751 316 -318 0
-1752 1751 319 0
-1752 -1751 -319 0
1752 -1751 319 0
1752 1751 -319 0
-1753 1752 321 0
-1753 -1752 -321 0
1753 -1752 321 0
1753 1752 -321 0
-1754 1753 322 0
-1754 -1753 -322 0
1754 -1753 322 0
1754 1753 -322 0
-1755 1754 325 0
-1755 -1754 -325 0
1755 -1754 325 0
1755 1754 -325 0
-1756 1755 326 0
-1756 -1755 -326 0
1756 -1755 326 0
1756 1755 -326 0
-1757 1756 328 0
-1757 -1756 -328 0
1757 -1756 328 0
1757 1756 -328 0
-163 -1757 0
-1758 320 327 0
-1758 -320 -327 0
1758 -320 327 0
1758 320 -327 0
-1759 1758 329 0
-1759 -1758 -329 0
1759 -1758 329 0
1759 1758 -329 0
-164 -1759 0
-1760 317 318 0
-1760 -317 -318 0
1760 -317 318 0
1760 317 -318 0
-1761 1760 320 0
-1761 -1760 -320 0
1761 -1760 320 0
1761 1760 -320 0
-1762 1761 327 0
-1762 -1761 -327 0
1762 -1761 327 0
1762 1761 -327 0
-1763 1762 329 0
-1763 -1762 -329 0
1763 -1762 329 0
1763 1762 -329 0
-165 -1763 0
-1764 316 317 0
-1764 -316 -317 0
1764 -316 317 0
1764 316 -317 0
-1765 1764 320 0
-1765 -1764 -320 0
1765 -1764 320 0
1765 1764 -320 0
-1766 1765 321 0
-1766 -1765 -321 0
1766 -1765 321 0
1766 1765 -321 0
-1767 1766 322 0
-1767 -1766 -322 0
1767 -1766 322 0
1767 1766 -322 0
-1768 1767 325 0
-1768 -1767 -325 0
1768 -1767 325 0
1768 1767 -325 0
-1769 1768 327 0
-1769 -1768 -327 0
1769 -1768 327 0
1769 1768 -327 0
-1770 1769 329 0
-1770 -1769 -329 0
1770 -1769 329 0
1770 1769 -329 0
-166 -1770 0
-1771 316 318 0
-1771 -316 -318 0
1771 -316 318 0
1771 316 -318 0
-1772 1771 320 0
-1772 -1771 -320 0
1772 -1771 320 0
1772 1771 -320 0
-1773 1772 321 0
-1773 -1772 -321 0
1773 -1772 321 0
1773 1772 -321 0
-1774 1773 322 0
-1774 -1773 -322 0
1774 -1773 322 0
1774 1773 -322 0
-1775 1774 325 0
-1775 -1774 -325 0
1775 -1774 325 0
1775 1774 -325 0
-1776 1775 327 0
-1776 -1775 -327 0
1776 -1775 327 0
1776 1775 -327 0
-1777 1776 329 0
-1777 -1776 -329 0
1777 -1776 329 0
1777 1776 -329 0
-167 -1777 0
-1778 319 320 0
-1778 -319 -320 0
1778 -319 320 0
1778 319 -320 0
-1779 1778 326 0
-1779 -1778 -326 0
1779 -1778 326 0
1779 1778 -326 0
-1780 1779 327 0
-1780 -1779 -327 0
1780 -1779 327 0
1780 1779 -327 0
-1781 1780 328 0
-1781 -1780 -328 0
1781 -1780 328 0
1781 1780 -328 0
-1782 1781 329 0
-1782 -1781 -329 0
1782 -1781 329 0
1782 1781 -329 0
-168 -1782 0
-1783 317 318 0
-1783 -317 -318 0
1783 -317 318 0
1783 317 -318 0
-1784 1783 319 0
-1784 -1783 -319 0
1784 -1783 319 0
1784 1783 -319 0
-1785 1784 320 0
-1785 -1784 -320 0
1785 -1784 320 0
1785 1784 -320 0
-1786 1785 326 0
-1786 -1785 -326 0
1786 -1785 326 0
1786 1785 -326 0
-1787 1786 327 0
-1787 -1786 -327 0
1787 -1786 327 0
1787 1786 -327 0
-1788 1787 328 0
-1788 -1787 -328 0
1788 -1787 328 0
1788 1787 -328 0
-1789 1788 329 0
-1789 -1788 -329 0
1789 -1788 329 0
1789 1788 -329 0
-169 -1789 0
-1790 316 317 0
-1790 -316 -317 0
1790 -316 317 0
1790 316 -317 0
-1791 1790 319 0
-1791 -1790 -319 0
1791 -1790 319 0
1791 1790 -319 0
-1792 1791 320 0
-1792 -1791 -320 0
1792 -1791 320 0
1792 1791 -320 0
-1793 1792 321 0
-1793 -1792 -321 0
1793 -1792 321 0
1793 1792 -321 0
-1794 1793 322 0
-1794 -1793 -322 0
1794 -1793 322 0
1794 1793 -322 0
-1795 1794 325 0
-1795 -1794 -325 0
1795 -1794 325 0
1795 1794 -325 0
-1796 1795 326 0
-1796 -1795 -326 0
1796 -1795 326 0
1796 1795 -326 0
-1797 1796 327 0
-1797 -1796 -327 0
1797 -1796 327 0
1797 1796 -327 0
-1798 1797 328 0
-1798 -1797 -328 0
1798 -1797 328 0
1798 1797 -328 0
-1799 1798 329 0
-1799 -1798 -329 0
1799 -1798 329 0
1799 1798 -329 0
-170 -1799 0
-1800 316 318 0
-1800 -316 -318 0
1800 -316 318 0
1800 316 -318 0
-1801 1800 319 0
-1801 -1800 -319 0
1801 -1800 319 0
1801 1800 -319 0
-1802 1801 320 0
-1802 -1801 -320 0
1802 -1801 320 0
1802 1801 -320 0
-1803 1802 321 0
-1803 -1802 -321 0
1803 -1802 321 0
1803 1802 -321 0
-1804 1803 322 0
-1804 -1803 -322 0
1804 -1803 322 0
1804 1803 -322 0
-1805 1804 325 0
-1805 -1804 -325 0
1805 -1804 325 0
1805 1804 -325 0
-1806 1805 326 0
-1806 -1805 -326 0
1806 -1805 326 0
1806 1805 -326 0
-1807 1806 327 0
-1807 -1806 -327 0
1807 -1806 327 0
1807 1806 -327 0
-1808 1807 328 0
-1808 -1807 -328 0
1808 -1807 328 0
1808 1807 -328 0
-1809 1808 329 0
-1809 -1808 -329 0
1809 -1808 329 0
1809 1808 -329 0
-171 -1809 0
-1810 323 326 0
-1810 -323 -326 0
1810 -323 326 0
1810 323 -326 0
-1811 1810 328 0
-1811 -1810 -328 0
1811 -1810 328 0
1811 1810 -328 0
-172 -1811 0
-1812 321 322 0
-1812 -321 -322 0
1812 -321 322 0
1812 321 -322 0
-1813 1812 323 0
-1813 -1812 -323 0
1813 -1812 323 0
1813 1812 -323 0
-1814 1813 326 0
-1814 -1813 -326 0
1814 -1813 326 0
1814 1813 -326 0
-1815 1814 328 0
-1815 -1814 -328 0
1815 -1814 328 0
1815 1814 -328 0
-173 -1815 0
-1816 316 317 0
-1816 -316 -317 0
1816 -316 317 0
1816 316 -317 0
-1817 1816 318 0
-1817 -1816 -318 0
1817 -1816 318 0
1817 1816 -318 0
-1818 1817 321 0
-1818 -1817 -321 0
1818 -1817 321 0
1818 1817 -321 0
-1819 1818 323 0
-1819 -1818 -323 0
1819 -1818 323 0
1819 1818 -323 0
-1820 1819 325 0
-1820 -1819 -325 0
1820 -1819 325 0
1820 1819 -325 0
-1821 1820 326 0
-1821 -1820 -326 0
1821 -1820 326 0
1821 1820 -326 0
-1822 1821 328 0
-1822 -1821 -328 0
1822 -1821 328 0
1822 1821 -328 0
-174 -1822 0
-1823 316 317 0
-1823 -316 -317 0
1823 -316 317 0
1823 316 -317 0
-1824 1823 318 0
-1824 -1823 -318 0
1824 -1823 318 0
1824 1823 -318 0
-1825 1824 322 0
-1825 -1824 -322 0
1825 -1824 322 0
1825 1824 -322 0
-1826 1825 323 0
-1826 -1825 -323 0
1826 -1825 323 0
1826 1825 -323 0
-1827 1826 325 0
-1827 -1826 -325 0
1827 -1826 325 0
1827 1826 -325 0
-1828 1827 326 0
-1828 -1827 -326 0
1828 -1827 326 0
1828 1827 -326 0
-1829 1828 328 0
-1829 -1828 -328 0
1829 -1828 328 0
1829 1828 -328 0
-175 -1829 0
-1830 324 327 0
-1830 -324 -327 0
1830 -324 327 0
1830 324 -327 0
-1831 1830 329 0
-1831 -1830 -329 0
1831 -1830 329 0
1831 1830 -329 0
-176 -1831 0
-1832 321 322 0
-1832 -321 -322 0
1832 -321 322 0
1832 321 -322 0
-1833 1832 324 0
-1833 -1832 -324 0
1833 -1832 324 0
1833 1832 -324 0
-1834 1833 327 0
-1834 -1833 -327 0
1834 -1833 327 0
1834 1833 -327 0
-1835 1834 329 0
-1835 -1834 -329 0
1835 -1834 329 0
1835 1834 -329 0
-177 -1835 0
-1836 316 317 0
-1836 -316 -317 0
1836 -316 317 0
1836 316 -317 0
-1837 1836 318 0
-1837 -1836 -318 0
1837 -1836 318 0
1837 1836 -318 0
-1838 1837 321 0
-1838 -1837 -321 0
1838 -1837 321 0
1838 1837 -321 0
-1839 1838 324 0
-1839 -1838 -324 0
1839 -1838 324 0
1839 1838 -324 0
-1840 1839 325 0
-1840 -1839 -325 0
1840 -1839 325 0
1840 1839 -325 0
-1841 1840 327 0
-1841 -1840 -327 0
1841 -1840 327 0
1841 1840 -327 0
-1842 1841 329 0
-1842 -1841 -329 0
1842 -1841 329 0
1842 1841 -329 0
-178 -1842 0
-1843 316 317 0
-1843 -316 -317 0
1843 -316 317 0
1843 316 -317 0
-1844 1843 318 0
-1844 -1843 -318 0
1844 -1843 318 0
1844 1843 -318 0
-1845 1844 322 0
-1845 -1844 -322 0
1845 -1844 322 0
1845 1844 -322 0
-1846 1845 324 0
-1846 -1845 -324 0
1846 -1845 324 0
1846 1845 -324 0
-1847 1846 325 0
-1847 -1846 -325 0
1847 -1846 325 0
1847 1846 -325 0
-1848 1847 327 0
-1848 -1847 -327 0
1848 -1847 327 0
1848 1847 -327 0
-1849 1848 329 0
-1849 -1848 -329 0
1849 -1848 329 0
1849 1848 -329 0
-179 -1849 0
-1850 323 324 0
-1850 -323 -324 0
1850 -323 324 0
1850 323 -324 0
-1851 1850 326 0
-1851 -1850 -326 0
1851 -1850 326 0
1851 1850 -326 0
-1852 1851 327 0
-1852 -1851 -327 0
1852 -1851 327 0
1852 1851 -327 0
-1853 1852 328 0
-1853 -1852 -328 0
1853 -1852 328 0
1853 1852 -328 0
-1854 1853 329 0
-1854 -1853 -329 0
1854 -1853 329 0
1854 1853 -329 0
-180 -1854 0
-1855 321 322 0
-1855 -321 -322 0
1855 -321 322 0
1855 321 -322 0
-1856 1855 323 0
-1856 -1855 -323 0
1856 -1855 323 0
1856 1855 -323 0
-1857 1856 324 0
-1857 -1856 -324 0
1857 -1856 324 0
1857 1856 -324 0
-1858 1857 326 0
-1858 -1857 -326 0
1858 -1857 326 0
1858 1857 -326 0
-1859 1858 327 0
-1859 -1858 -327 0
1859 -1858 327 0
1859 1858 -327 0
-1860 1859 328 0
-1860 -1859 -328 0
1860 -1859 328 0
1860 1859 -328 0
-1861 1860 329 0
-1861 -1860 -329 0
1861 -1860 329 0
1861 1860 -329 0
-181 -1861 0
-1862 316 317 0
-1862 -316 -317 0
1862 -316 317 0
1862 316 -317 0
-1863 1862 318 0
-1863 -1862 -318 0
1863 -1862 318 0
1863 1862 -318 0
-1864 1863 321 0
-1864 -1863 -321 0
1864 -1863 321 0
1864 1863 -321 0
-1865 1864 323 0
-1865 -1864 -323 0
1865 -1864 323 0
1865 1864 -323 0
-1866 1865 324 0
-1866 -1865 -324 0
1866 -1865 324 0
1866 1865 -324 0
-1867 1866 325 0
-1867 -1866 -325 0
1867 -1866 325 0
1867 1866 -325 0
-1868 1867 326 0
-1868 -1867 -326 0
1868 -1867 326 0
1868 1867 -326 0
-1869 1868 327 0
-1869 -1868 -327 0
1869 -1868 327 0
1869 1868 -327 0
-1870 1869 328 0
-1870 -1869 -328 0
1870 -1869 328 0
1870 1869 -328 0
-1871 1870 329 0
-1871 -1870 -329 0
1871 -1870 329 0
1871 1870 -329 0
-182 -1871 0
-1872 316 317 0
-1872 -316 -317 0
1872 -316 317 0
1872 316 -317 0
-1873 1872 318 0
-1873 -1872 -318 0
1873 -1872 318 0
1873 1872 -318 0
-1874 1873 322 0
-1874 -1873 -322 0
1874 -1873 322 0
1874 1873 -322 0
-1875 1874 323 0
-1875 -1874 -323 0
1875 -1874 323 0
1875 1874 -323 0
-1876 1875 324 0
-1876 -1875 -324 0
1876 -1875 324 0
1876 1875 -324 0
-1877 1876 325 0
-1877 -1876 -325 0
1877 -1876 325 0
1877 1876 -325 0
-1878 1877 326 0
-1878 -1877 -326 0
1878 -1877 326 0
1878 1877 -326 0
-1879 1878 327 0
-1879 -1878 -327 0
1879 -1878 327 0
1879 1878 -327 0
-1880 1879 328 0
-1880 -1879 -328 0
1880 -1879 328 0
1880 1879 -328 0
-1881 1880 329 0
-1881 -1880 -329 0
1881 -1880 329 0
1881 1880 -329 0
-183 -1881 0
-1882 319 323 0
-1882 -319 -323 0
1882 -319 323 0
1882 319 -323 0
-1883 1882 326 0
-1883 -1882 -326 0
1883 -1882 326 0
1883 1882 -326 0
-1884 1883 328 0
-1884 -1883 -328 0
1884 -1883 328 0
1884 1883 -328 0
-184 -1884 0
-1885 317 318 0
-1885 -317 -318 0
1885 -317 318 0
1885 317 -318 0
-1886 1885 319 0
-1886 -1885 -319 0
1886 -1885 319 0
1886 1885 -319 0
-1887 1886 321 0
-1887 -1886 -321 0
1887 -1886 321 0
1887 1886 -321 0
-1888 1887 322 0
-1888 -1887 -322 0
1888 -1887 322 0
1888 1887 -322 0
-1889 1888 323 0
-1889 -1888 -323 0
1889 -1888 323 0
1889 1888 -323 0
-1890 1889 326 0
-1890 -1889 -326 0
1890 -1889 326 0
1890 1889 -326 0
-1891 1890 328 0
-1891 -1890 -328 0
1891 -1890 328 0
1891 1890 -328 0
-185 -1891 0
-1892 316 318 0
-1892 -316 -318 0
1892 -316 318 0
1892 316 -318 0
-1893 1892 319 0
-1893 -1892 -319 0
1893 -1892 319 0
1893 1892 -319 0
-1894 1893 321 0
-1894 -1893 -321 0
1894 -1893 321 0
1894 1893 -321 0
-1895 1894 323 0
-1895 -1894 -323 0
1895 -1894 323 0
1895 1894 -323 0
-1896 1895 325 0
-1896 -1895 -325 0
1896 -1895 325 0
1896 1895 -325 0
-1897 1896 326 0
-1897 -1896 -326 0
1897 -1896 326 0
1897 1896 -326 0
-1898 1897 328 0
-1898 -1897 -328 0
1898 -1897 328 0
1898 1897 -328 0
-186 -1898 0
-1899 316 317 0
-1899 -316 -317 0
1899 -316 317 0
1899 316 -317 0
-1900 1899 319 0
-1900 -1899 -319 0
1900 -1899 319 0
1900 1899 -319 0
-1901 1900 322 0
-1901 -1900 -322 0
1901 -1900 322 0
1901 1900 -322 0
-1902 1901 323 0
-1902 -1901 -323 0
1902 -1901 323 0
1902 1901 -323 0
-1903 1902 325 0
-1903 -1902 -325 0
1903 -1902 325 0
1903 1902 -325 0
-1904 1903 326 0
-1904 -1903 -326 0
1904 -1903 326 0
1904 1903 -326 0
-1905 1904 328 0
-1905 -1904 -328 0
1905 -1904 328 0
1905 1904 -328 0
-187 -1905 0
-1906 320 324 0
-1906 -320 -324 0
1906 -320 324 0
1906 320 -324 0
-1907 1906 327 0
-1907 -1906 -327 0
1907 -1906 327 0
1907 1906 -327 0
-1908 1907 329 0
-1908 -1907 -329 0
1908 -1907 329 0
1908 1907 -329 0
-188 -1908 0
-1909 317 318 0
-1909 -317 -318 0
1909 -317 318 0
1909 317 -318 0
-1910 1909 320 0
-1910 -1909 -320 0
1910 -1909 320 0
1910 1909 -320 0
-1911 1910 321 0
-1911 -1910 -321 0
1911 -1910 321 0
1911 1910 -321 0
-1912 1911 322 0
-1912 -1911 -322 0
1912 -1911 322 0
1912 1911 -322 0
-1913 1912 324 0
-1913 -1912 -324 0
1913 -1912 324 0
1913 1912 -324 0
-1914 1913 327 0
-1914 -1913 -327 0
1914 -1913 327 0
1914 1913 -327 0
-1915 1914 329 0
-1915 -1914 -329 0
1915 -1914 329 0
1915 1914 -329 0
-189 -1915 0
-1916 316 318 0
-1916 -316 -318 0
1916 -316 318 0
1916 316 -318 0
-1917 1916 320 0
-1917 -1916 -320 0
1917 -1916 320 0
1917 1916 -320 0
-1918 1917 321 0
-1918 -1917 -321 0
1918 -1917 321 0
1918 1917 -321 0
-1919 1918 324 0
-1919 -1918 -324 0
1919 -1918 324 0
1919 1918 -324 0
-1920 1919 325 0
-1920 -1919 -325 0
1920 -1919 325 0
1920 1919 -325 0
-1921 1920 327 0
-1921 -1920 -327 0
1921 -1920 327 0
1921 1920 -327 0
-1922 1921 329 0
-1922 -1921 -329 0
1922 -1921 329 0
1922 1921 -329 0
-190 -1922 0
-1923 316 317 0
-1923 -316 -317 0
1923 -316 317 0
1923 316 -317 0
-1924 1923 320 0
-1924 -1923 -320 0
1924 -1923 320 0
1924 1923 -320 0
-1925 1924 322 0
-1925 -1924 -322 0
1925 -1924 322 0
1925 1924 -322 0
-1926 1925 324 0
-1926 -1925 -324 0
1926 -1925 324 0
1926 1925 -324 0
-1927 1926 325 0
-1927 -1926 -325 0
1927 -1926 325 0
1927 1926 -325 0
-1928 1927 327 0
-1928 -1927 -327 0
1928 -1927 327 0
1928 1927 -327 0
-1929 1928 329 0
-1929 -1928 -329 0
1929 -1928 329 0
1929 1928 -329 0
-191 -1929 0
-1930 319 320 0
-1930 -319 -320 0
1930 -319 320 0
1930 319 -320 0
-1931 1930 323 0
-1931 -1930 -323 0
1931 -1930 323 0
1931 1930 -323 0
-1932 1931 324 0
-1932 -1931 -324 0
1932 -1931 324 0
1932 1931 -324 0
-1933 1932 326 0
-1933 -1932 -326 0
1933 -1932 326 0
1933 1932 -326 0
-1934 1933 327 0
-1934 -1933 -327 0
1934 -1933 327 0
1934 1933 -327 0
-1935 1934 328 0
-1935 -1934 -328 0
1935 -1934 328 0
1935 1934 -328 0
-1936 1935 329 0
-1936 -1935 -329 0
1936 -1935 329 0
1936 1935 -329 0
-192 -1936 0
-1937 317 318 0
-1937 -317 -318 0
1937 -317 318 0
1937 317 -318 0
-1938 1937 319 0
-1938 -1937 -319 0
1938 -1937 319 0
1938 1937 -319 0
-1939 1938 320 0
-1939 -1938 -320 0
1939 -1938 320 0
1939 1938 -320 0
-1940 1939 321 0
-1940 -1939 -321 0
1940 -1939 321 0
1940 1939 -321 0
-1941 1940 322 0
-1941 -1940 -322 0
1941 -1940 322 0
1941 1940 -322 0
-1942 1941 323 0
-1942 -1941 -323 0
1942 -1941 323 0
1942 1941 -323 0
-1943 1942 324 0
-1943 -1942 -324 0
1943 -1942 324 0
1943 1942 -324 0
-1944 1943 326 0
-1944 -1943 -326 0
1944 -1943 326 0
1944 1943 -326 0
-1945 1944 327 0
-1945 -1944 -327 0
1945 -1944 327 0
1945 1944 -327 0
-1946 1945 328 0
-1946 -1945 -328 0
1946 -1945 328 0
1946 1945 -328 0
-1947 1946 329 0
-1947 -1946 -329 0
1947 -1946 329 0
1947 1946 -329 0
-193 -1947 0
-1948 316 318 0
-1948 -316 -318 0
1948 -316 318 0
1948 316 -318 0
-1949 1948 319 0
-1949 -1948 -319 0
1949 -1948 319 0
1949 1948 -319 0
-1950 1949 320 0
-1950 -1949 -320 0
1950 -1949 320 0
1950 1949 -320 0
-1951 1950 321 0
-1951 -1950 -321 0
1951 -1950 321 0
1951 1950 -321 0
-1952 1951 323 0
-1952 -1951 -323 0
1952 -1951 323 0
1952 1951 -323 0
-1953 1952 324 0
-1953 -1952 -324 0
1953 -1952 324 0
1953 1952 -324 0
-1954 1953 325 0
-1954 -1953 -325 0
1954 -1953 325 0
1954 1953 -325 0
-1955 1954 326 0
-1955 -1954 -326 0
1955 -1954 326 0
1955 1954 -326 0
-1956 1955 327 0
-1956 -1955 -327 0
1956 -1955 327 0
1956 1955 -327 0
-1957 1956 328 0
-1957 -1956 -328 0
1957 -1956 328 0
1957 1956 -328 0
-1958 1957 329 0
-1958 -1957 -329 0
1958 -1957 329 0
1958 1957 -329 0
-194 -1958 0
-1959 316 317 0
-1959 -316 -317 0
1959 -316 317 0
1959 316 -317 0
-1960 1959 319 0
-1960 -1959 -319 0
1960 -1959 319 0
1960 1959 -319 0
-1961 1960 320 0
-1961 -1960 -320 0
1961 -1960 320 0
1961 1960 -320 0
-1962 1961 322 0
-1962 -1961 -322 0
1962 -1961 322 0
1962 1961 -322 0
-1963 1962 323 0
-1963 -1962 -323 0
1963 -1962 323 0
1963 1962 -323 0
-1964 1963 324 0
-1964 -1963 -324 0
1964 -1963 324 0
1964 1963 -324 0
-1965 1964 325 0
-1965 -1964 -325 0
1965 -1964 325 0
1965 1964 -325 0
-1966 1965 326 0
-1966 -1965 -326 0
1966 -1965 326 0
1966 1965 -326 0
-1967 1966 327 0
-1967 -1966 -327 0
1967 -1966 327 0
1967 1966 -327 0
-1968 1967 328 0
-1968 -1967 -328 0
1968 -1967 328 0
1968 1967 -328 0
-1969 1968 329 0
-1969 -1968 -329 0
1969 -1968 329 0
1969 1968 -329 0
-195 -1969 0
-1970 316 320 0
-1970 -316 -320 0
1970 -316 320 0
1970 316 -320 0
-1971 1970 323 0
-1971 -1970 -323 0
1971 -1970 323 0
1971 1970 -323 0
-1972 1971 330 0
-1972 -1971 -330 0
1972 -1971 330 0
1972 1971 -330 0
-196 -1972 0
-1973 316 319 0
-1973 -316 -319 0
1973 -316 319 0
1973 316 -319 0
-1974 1973 320 0
-1974 -1973 -320 0
1974 -1973 320 0
1974 1973 -320 0
-1975 1974 323 0
-1975 -1974 -323 0
1975 -1974 323 0
1975 1974 -323 0
-1976 1975 330 0
-1976 -1975 -330 0
1976 -1975 330 0
1976 1975 -330 0
-197 -1976 0
-1977 316 317 0
-1977 -316 -317 0
1977 -316 317 0
1977 316 -317 0
-1978 1977 320 0
-1978 -1977 -320 0
1978 -1977 320 0
1978 1977 -320 0
-1979 1978 323 0
-1979 -1978 -323 0
1979 -1978 323 0
1979 1978 -323 0
-1980 1979 326 0
-1980 -1979 -326 0
1980 -1979 326 0
1980 1979 -326 0
-1981 1980 330 0
-1981 -1980 -330 0
1981 -1980 330 0
1981 1980 -330 0
-198 -1981 0
-1982 316 317 0
-1982 -316 -317 0
1982 -316 317 0
1982 316 -317 0
-1983 1982 319 0
-1983 -1982 -319 0
1983 -1982 319 0
1983 1982 -319 0
-1984 1983 320 0
-1984 -1983 -320 0
1984 -1983 320 0
1984 1983 -320 0
-1985 1984 323 0
-1985 -1984 -323 0
1985 -1984 323 0
1985 1984 -323 0
-1986 1985 326 0
-1986 -1985 -326 0
1986 -1985 326 0
1986 1985 -326 0
-1987 1986 330 0
-1987 -1986 -330 0
1987 -1986 330 0
1987 1986 -330 0
-199 -1987 0
-1988 316 318 0
-1988 -316 -318 0
1988 -316 318 0
1988 316 -318 0
-1989 1988 320 0
-1989 -1988 -320 0
1989 -1988 320 0
1989 1988 -320 0
-1990 1989 323 0
-1990 -1989 -323 0
1990 -1989 323 0
1990 1989 -323 0
-1991 1990 328 0
-1991 -1990 -328 0
1991 -1990 328 0
1991 1990 -328 0
-1992 1991 330 0
-1992 -1991 -330 0
1992 -1991 330 0
1992 1991 -330 0
-200 -1992 0
-1993 316 318 0
-1993 -316 -318 0
1993 -316 318 0
1993 316 -318 0
-1994 1993 319 0
-1994 -1993 -319 0
1994 -1993 319 0
1994 1993 -319 0
-1995 1994 320 0
-1995 -1994 -320 0
1995 -1994 320 0
1995 1994 -320 0
-1996 1995 323 0
-1996 -1995 -323 0
1996 -1995 323 0
1996 1995 -323 0
-1997 1996 328 0
-1997 -1996 -328 0
1997 -1996 328 0
1997 1996 -328 0
-1998 1997 330 0
-1998 -1997 -330 0
1998 -1997 330 0
1998 1997 -330 0
-201 -1998 0
-1999 316 317 0
-1999 -316 -317 0
1999 -316 317 0
1999 316 -317 0
-2000 1999 318 0
-2000 -1999 -318 0
2000 -1999 318 0
2000 1999 -318 0
-2001 2000 320 0
-2001 -2000 -320 0
2001 -2000 320 0
2001 2000 -320 0
-2002 2001 323 0
-2002 -2001 -323 0
2002 -2001 323 0
2002 2001 -323 0
-2003 2002 326 0
-2003 -2002 -326 0
2003 -2002 326 0
2003 2002 -326 0
-2004 2003 328 0
-2004 -2003 -328 0
2004 -2003 328 0
2004 2003 -328 0
-2005 2004 330 0
-2005 -2004 -330 0
2005 -2004 330 0
2005 2004 -330 0
-202 -2005 0
-2006 316 317 0
-2006 -316 -317 0
2006 -316 317 0
2006 316 -317 0
-2007 2006 318 0
-2007 -2006 -318 0
2007 -2006 318 0
2007 2006 -318 0
-2008 2007 319 0
-2008 -2007 -319 0
2008 -2007 319 0
2008 2007 -319 0
-2009 2008 320 0
-2009 -2008 -320 0
2009 -2008 320 0
2009 2008 -320 0
-2010 2009 323 0
-2010 -2009 -323 0
2010 -2009 323 0
2010 2009 -323 0
-2011 2010 326 0
-2011 -2010 -326 0
2011 -2010 326 0
2011 2010 -326 0
-2012 2011 328 0
-2012 -2011 -328 0
2012 -2011 328 0
2012 2011 -328 0
-2013 2012 330 0
-2013 -2012 -330 0
2013 -2012 330 0
2013 2012 -330 0
-203 -2013 0
-2014 316 319 0
-2014 -316 -319 0
2014 -316 319 0
2014 316 -319 0
-2015 2014 324 0
-2015 -2014 -324 0
2015 -2014 324 0
2015 2014 -324 0
-2016 2015 330 0
-2016 -2015 -330 0
2016 -2015 330 0
2016 2015 -330 0
-204 -2016 0
-2017 316 319 0
-2017 -316 -319 0
2017 -316 319 0
2017 316 -319 0
-2018 2017 323 0
-2018 -2017 -323 0
2018 -2017 323 0
2018 2017 -323 0
-2019 2018 324 0
-2019 -2018 -324 0
2019 -2018 324 0
2019 2018 -324 0
-2020 2019 330 0
-2020 -2019 -330 0
2020 -2019 330 0
2020 2019 -330 0
-205 -2020 0
-2021 316 319 0
-2021 -316 -319 0
2021 -316 319 0
2021 316 -319 0
-2022 2021 321 0
-2022 -2021 -321 0
2022 -2021 321 0
2022 2021 -321 0
-2023 2022 324 0
-2023 -2022 -324 0
2023 -2022 324 0
2023 2022 -324 0
-2024 2023 326 0
-2024 -2023 -326 0
2024 -2023 326 0
2024 2023 -326 0
-2025 2024 330 0
-2025 -2024 -330 0
2025 -2024 330 0
2025 2024 -330 0
-206 -2025 0
-2026 316 319 0
-2026 -316 -319 0
2026 -316 319 0
2026 316 -319 0
-2027 2026 321 0
-2027 -2026 -321 0
2027 -2026 321 0
2027 2026 -321 0
-2028 2027 323 0
-2028 -2027 -323 0
2028 -2027 323 0
2028 2027 -323 0
-2029 2028 324 0
-2029 -2028 -324 0
2029 -2028 324 0
2029 2028 -324 0
-2030 2029 326 0
-2030 -2029 -326 0
2030 -2029 326 0
2030 2029 -326 0
-2031 2030 330 0
-2031 -2030 -330 0
2031 -2030 330 0
2031 2030 -330 0
-207 -2031 0
-2032 316 319 0
-2032 -316 -319 0
2032 -316 319 0
2032 316 -319 0
-2033 2032 322 0
-2033 -2032 -322 0
2033 -2032 322 0
2033 2032 -322 0
-2034 2033 324 0
-2034 -2033 -324 0
2034 -2033 324 0
2034 2033 -324 0
-2035 2034 328 0
-2035 -2034 -328 0
2035 -2034 328 0
2035 2034 -328 0
-2036 2035 330 0
-2036 -2035 -330 0
2036 -2035 330 0
2036 2035 -330 0
-208 -2036 0
-2037 316 319 0
-2037 -316 -319 0
2037 -316 319 0
2037 316 -319 0
-2038 2037 322 0
-2038 -2037 -322 0
2038 -2037 322 0
2038 2037 -322 0
-2039 2038 323 0
-2039 -2038 -323 0
2039 -2038 323 0
2039 2038 -323 0
-2040 2039 324 0
-2040 -2039 -324 0
2040 -2039 324 0
2040 2039 -324 0
-2041 2040 328 0
-2041 -2040 -328 0
2041 -2040 328 0
2041 2040 -328 0
-2042 2041 330 0
-2042 -2041 -330 0
2042 -2041 330 0
2042 2041 -330 0
-209 -2042 0
-2043 316 319 0
-2043 -316 -319 0
2043 -316 319 0
2043 316 -319 0
-2044 2043 321 0
-2044 -2043 -321 0
2044 -2043 321 0
2044 2043 -321 0
-2045 2044 322 0
-2045 -2044 -322 0
2045 -2044 322 0
2045 2044 -322 0
-2046 2045 324 0
-2046 -2045 -324 0
2046 -2045 324 0
2046 2045 -324 0
-2047 2046 326 0
-2047 -2046 -326 0
2047 -2046 326 0
2047 2046 -326 0
-2048 2047 328 0
-2048 -2047 -328 0
2048 -2047 328 0
2048 2047 -328 0
-2049 2048 330 0
-2049 -2048 -330 0
2049 -2048 330 0
2049 2048 -330 0
-210 -2049 0
-2050 316 319 0
-2050 -316 -319 0
2050 -316 319 0
2050 316 -319 0
-2051 2050 321 0
-2051 -2050 -321 0
2051 -2050 321 0
2051 2050 -321 0
-2052 2051 322 0
-2052 -2051 -322 0
2052 -2051 322 0
2052 2051 -322 0
-2053 2052 323 0
-2053 -2052 -323 0
2053 -2052 323 0
2053 2052 -323 0
-2054 2053 324 0
-2054 -2053 -324 0
2054 -2053 324 0
2054 2053 -324 0
-2055 2054 326 0
-2055 -2054 -326 0
2055 -2054 326 0
2055 2054 -326 0
-2056 2055 328 0
-2056 -2055 -328 0
2056 -2055 328 0
2056 2055 -328 0
-2057 2056 330 0
-2057 -2056 -330 0
2057 -2056 330 0
2057 2056 -330 0
-211 -2057 0
-2058 316 319 0
-2058 -316 -319 0
2058 -316 319 0
2058 316 -319 0
-2059 2058 320 0
-2059 -2058 -320 0
2059 -2058 320 0
2059 2058 -320 0
-2060 2059 324 0
-2060 -2059 -324 0
2060 -2059 324 0
2060 2059 -324 0
-2061 2060 330 0
-2061 -2060 -330 0
2061 -2060 330 0
2061 2060 -330 0
-212 -2061 0
-2062 316 320 0
-2062 -316 -320 0
2062 -316 320 0
2062 316 -320 0
-2063 2062 323 0
-2063 -2062 -323 0
2063 -2062 323 0
2063 2062 -323 0
-2064 2063 324 0
-2064 -2063 -324 0
2064 -2063 324 0
2064 2063 -324 0
-2065 2064 330 0
-2065 -2064 -330 0
2065 -2064 330 0
2065 2064 -330 0
-213 -2065 0
-2066 316 317 0
-2066 -316 -317 0
2066 -316 317 0
2066 316 -317 0
-2067 2066 319 0
-2067 -2066 -319 0
2067 -2066 319 0
2067 2066 -319 0
-2068 2067 320 0
-2068 -2067 -320 0
2068 -2067 320 0
2068 2067 -320 0
-2069 2068 321 0
-2069 -2068 -321 0
2069 -2068 321 0
2069 2068 -321 0
-2070 2069 324 0
-2070 -2069 -324 0
2070 -2069 324 0
2070 2069 -324 0
-2071 2070 326 0
-2071 -2070 -326 0
2071 -2070 326 0
2071 2070 -326 0
-2072 2071 330 0
-2072 -2071 -330 0
2072 -2071 330 0
2072 2071 -330 0
-214 -2072 0
-2073 316 317 0
-2073 -316 -317 0
2073 -316 317 0
2073 316 -317 0
-2074 2073 320 0
-2074 -2073 -320 0
2074 -2073 320 0
2074 2073 -320 0
-2075 2074 321 0
-2075 -2074 -321 0
2075 -2074 321 0
2075 2074 -321 0
-2076 2075 323 0
-2076 -2075 -323 0
2076 -2075 323 0
2076 2075 -323 0
-2077 2076 324 0
-2077 -2076 -324 0
2077 -2076 324 0
2077 2076 -324 0
-2078 2077 326 0
-2078 -2077 -326 0
2078 -2077 326 0
2078 2077 -326 0
-2079 2078 330 0
-2079 -2078 -330 0
2079 -2078 330 0
2079 2078 -330 0
-215 -2079 0
-2080 316 318 0
-2080 -316 -318 0
2080 -316 318 0
2080 316 -318 0
-2081 2080 319 0
-2081 -2080 -319 0
2081 -2080 319 0
2081 2080 -319 0
-2082 2081 320 0
-2082 -2081 -320 0
2082 -2081 320 0
2082 2081 -320 0
-2083 2082 322 0
-2083 -2082 -322 0
2083 -2082 322 0
2083 2082 -322 0
-2084 2083 324 0
-2084 -2083 -324 0
2084 -2083 324 0
2084 2083 -324 0
-2085 2084 328 0
-2085 -2084 -328 0
2085 -2084 328 0
2085 2084 -328 0
-2086 2085 330 0
-2086 -2085 -330 0
2086 -2085 330 0
2086 2085 -330 0
-216 -2086 0
-2087 316 318 0
-2087 -316 -318 0
2087 -316 318 0
2087 316 -318 0
-2088 2087 320 0
-2088 -2087 -320 0
2088 -2087 320 0
2088 2087 -320 0
-2089 2088 322 0
-2089 -2088 -322 0
2089 -2088 322 0
2089 2088 -322 0
-2090 2089 323 0
-2090 -2089 -323 0
2090 -2089 323 0
2090 2089 -323 0
-2091 2090 324 0
-2091 -2090 -324 0
2091 -2090 324 0
2091 2090 -324 0
-2092 2091 328 0
-2092 -2091 -328 0
2092 -2091 328 0
2092 2091 -328 0
-2093 2092 330 0
-2093 -2092 -330 0
2093 -2092 330 0
2093 2092 -330 0
-217 -2093 0
-2094 316 317 0
-2094 -316 -317 0
2094 -316 317 0
2094 316 -317 0
-2095 2094 318 0
-2095 -2094 -318 0
2095 -2094 318 0
2095 2094 -318 0
-2096 2095 319 0
-2096 -2095 -319 0
2096 -2095 319 0
2096 2095 -319 0
-2097 2096 320 0
-2097 -2096 -320 0
2097 -2096 320 0
2097 2096 -320 0
-2098 2097 321 0
-2098 -2097 -321 0
2098 -2097 321 0
2098 2097 -321 0
-2099 2098 322 0
-2099 -2098 -322 0
2099 -2098 322 0
2099 2098 -322 0
-2100 2099 324 0
-2100 -2099 -324 0
2100 -2099 324 0
2100 2099 -324 0
-2101 2100 326 0
-2101 -2100 -326 0
2101 -2100 326 0
2101 2100 -326 0
-2102 2101 328 0
-2102 -2101 -328 0
2102 -2101 328 0
2102 2101 -328 0
-2103 2102 330 0
-2103 -2102 -330 0
2103 -2102 330 0
2103 2102 -330 0
-218 -2103 0
-2104 316 317 0
-2104 -316 -317 0
2104 -316 317 0
2104 316 -317 0
-2105 2104 318 0
-2105 -2104 -318 0
2105 -2104 318 0
2105 2104 -318 0
-2106 2105 320 0
-2106 -2105 -320 0
2106 -2105 320 0
2106 2105 -320 0
-2107 2106 321 0
-2107 -2106 -321 0
2107 -2106 321 0
2107 2106 -321 0
-2108 2107 322 0
-2108 -2107 -322 0
2108 -2107 322 0
2108 2107 -322 0
-2109 2108 323 0
-2109 -2108 -323 0
2109 -2108 323 0
2109 2108 -323 0
-2110 2109 324 0
-2110 -2109 -324 0
2110 -2109 324 0
2110 2109 -324 0
-2111 2110 326 0
-2111 -2110 -326 0
2111 -2110 326 0
2111 2110 -326 0
-2112 2111 328 0
-2112 -2111 -328 0
2112 -2111 328 0
2112 2111 -328 0
-2113 2112 330 0
-2113 -2112 -330 0
2113 -2112 330 0
2113 2112 -330 0
-219 -2113 0
-2114 325 327 0
-2114 -325 -327 0
2114 -325 327 0
2114 325 -327 0
-2115 2114 328 0
-2115 -2114 -328 0
2115 -2114 328 0
2115 2114 -328 0
-2116 2115 330 0
-2116 -2115 -330 0
2116 -2115 330 0
2116 2115 -330 0
-220 -2116 0
-2117 317 319 0
-2117 -317 -319 0
2117 -317 319 0
2117 317 -319 0
-2118 2117 325 0
-2118 -2117 -325 0
2118 -2117 325 0
2118 2117 -325 0
-2119 2118 327 0
-2119 -2118 -327 0
2119 -2118 327 0
2119 2118 -327 0
-2120 2119 328 0
-2120 -2119 -328 0
2120 -2119 328 0
2120 2119 -328 0
-2121 2120 330 0
-2121 -2120 -330 0
2121 -2120 330 0
2121 2120 -330 0
-221 -2121 0
-2122 321 323 0
-2122 -321 -323 0
2122 -321 323 0
2122 321 -323 0
-2123 2122 325 0
-2123 -2122 -325 0
2123 -2122 325 0
2123 2122 -325 0
-2124 2123 327 0
-2124 -2123 -327 0
2124 -2123 327 0
2124 2123 -327 0
-2125 2124 328 0
-2125 -2124 -328 0
2125 -2124 328 0
2125 2124 -328 0
-2126 2125 330 0
-2126 -2125 -330 0
2126 -2125 330 0
2126 2125 -330 0
-222 -2126 0
-2127 317 319 0
-2127 -317 -319 0
2127 -317 319 0
2127 317 -319 0
-2128 2127 321 0
-2128 -2127 -321 0
2128 -2127 321 0
2128 2127 -321 0
-2129 2128 323 0
-2129 -2128 -323 0
2129 -2128 323 0
2129 2128 -323 0
-2130 2129 325 0
-2130 -2129 -325 0
2130 -2129 325 0
2130 2129 -325 0
-2131 2130 327 0
-2131 -2130 -327 0
2131 -2130 327 0
2131 2130 -327 0
-2132 2131 328 0
-2132 -2131 -328 0
2132 -2131 328 0
2132 2131 -328 0
-2133 2132 330 0
-2133 -2132 -330 0
2133 -2132 330 0
2133 2132 -330 0
-223 -2133 0
-2134 325 326 0
-2134 -325 -326 0
2134 -325 326 0
2134 325 -326 0
-2135 2134 327 0
-2135 -2134 -327 0
2135 -2134 327 0
2135 2134 -327 0
-2136 2135 328 0
-2136 -2135 -328 0
2136 -2135 328 0
2136 2135 -328 0
-2137 2136 330 0
-2137 -2136 -330 0
2137 -2136 330 0
2137 2136 -330 0
-224 -2137 0
-2138 317 319 0
-2138 -317 -319 0
2138 -317 319 0
2138 317 -319 0
-2139 2138 325 0
-2139 -2138 -325 0
2139 -2138 325 0
2139 2138 -325 0
-2140 2139 326 0
-2140 -2139 -326 0
2140 -2139 326 0
2140 2139 -326 0
-2141 2140 327 0
-2141 -2140 -327 0
2141 -2140 327 0
2141 2140 -327 0
-2142 2141 328 0
-2142 -2141 -328 0
2142 -2141 328 0
2142 2141 -328 0
-2143 2142 330 0
-2143 -2142 -330 0
2143 -2142 330 0
2143 2142 -330 0
-225 -2143 0
-2144 321 323 0
-2144 -321 -323 0
2144 -321 323 0
2144 321 -323 0
-2145 2144 325 0
-2145 -2144 -325 0
2145 -2144 325 0
2145 2144 -325 0
-2146 2145 326 0
-2146 -2145 -326 0
2146 -2145 326 0
2146 2145 -326 0
-2147 2146 327 0
-2147 -2146 -327 0
2147 -2146 327 0
2147 2146 -327 0
-2148 2147 328 0
-2148 -2147 -328 0
2148 -2147 328 0
2148 2147 -328 0
-2149 2148 330 0
-2149 -2148 -330 0
2149 -2148 330 0
2149 2148 -330 0
-226 -2149 0
-2150 317 319 0
-2150 -317 -319 0
2150 -317 319 0
2150 317 -319 0
-2151 2150 321 0
-2151 -2150 -321 0
2151 -2150 321 0
2151 2150 -321 0
-2152 2151 323 0
-2152 -2151 -323 0
2152 -2151 323 0
2152 2151 -323 0
-2153 2152 325 0
-2153 -2152 -325 0
2153 -2152 325 0
2153 2152 -325 0
-2154 2153 326 0
-2154 -2153 -326 0
2154 -2153 326 0
2154 2153 -326 0
-2155 2154 327 0
-2155 -2154 -327 0
2155 -2154 327 0
2155 2154 -327 0
-2156 2155 328 0
-2156 -2155 -328 0
2156 -2155 328 0
2156 2155 -328 0
-2157 2156 330 0
-2157 -2156 -330 0
2157 -2156 330 0
2157 2156 -330 0
-227 -2157 0
-2158 316 320 0
-2158 -316 -320 0
2158 -316 320 0
2158 316 -320 0
-2159 2158 321 0
-2159 -2158 -321 0
2159 -2158 321 0
2159 2158 -321 0
-2160 2159 323 0
-2160 -2159 -323 0
2160 -2159 323 0
2160 2159 -323 0
-2161 2160 327 0
-2161 -2160 -327 0
2161 -2160 327 0
2161 2160 -327 0
-2162 2161 330 0
-2162 -2161 -330 0
2162 -2161 330 0
2162 2161 -330 0
-228 -2162 0
-2163 316 317 0
-2163 -316 -317 0
2163 -316 317 0
2163 316 -317 0
-2164 2163 319 0
-2164 -2163 -319 0
2164 -2163 319 0
2164 2163 -319 0
-2165 2164 320 0
-2165 -2164 -320 0
2165 -2164 320 0
2165 2164 -320 0
-2166 2165 321 0
-2166 -2165 -321 0
2166 -2165 321 0
2166 2165 -321 0
-2167 2166 323 0
-2167 -2166 -323 0
2167 -2166 323 0
2167 2166 -323 0
-2168 2167 327 0
-2168 -2167 -327 0
2168 -2167 327 0
2168 2167 -327 0
-2169 2168 330 0
-2169 -2168 -330 0
2169 -2168 330 0
2169 2168 -330 0
-229 -2169 0
-2170 316 317 0
-2170 -316 -317 0
2170 -316 317 0
2170 316 -317 0
-2171 2170 320 0
-2171 -2170 -320 0
2171 -2170 320 0
2171 2170 -320 0
-2172 2171 321 0
-2172 -2171 -321 0
2172 -2171 321 0
2172 2171 -321 0
-2173 2172 323 0
-2173 -2172 -323 0
2173 -2172 323 0
2173 2172 -323 0
-2174 2173 326 0
-2174 -2173 -326 0
2174 -2173 326 0
2174 2173 -326 0
-2175 2174 327 0
-2175 -2174 -327 0
2175 -2174 327 0
2175 2174 -327 0
-2176 2175 330 0
-2176 -2175 -330 0
2176 -2175 330 0
2176 2175 -330 0
-230 -2176 0
-2177 316 319 0
-2177 -316 -319 0
2177 -316 319 0
2177 316 -319 0
-2178 2177 320 0
-2178 -2177 -320 0
2178 -2177 320 0
2178 2177 -320 0
-2179 2178 321 0
-2179 -2178 -321 0
2179 -2178 321 0
2179 2178 -321 0
-2180 2179 323 0
-2180 -2179 -323 0
2180 -2179 323 0
2180 2179 -323 0
-2181 2180 326 0
-2181 -2180 -326 0
2181 -2180 326 0
2181 2180 -326 0
-2182 2181 327 0
-2182 -2181 -327 0
2182 -2181 327 0
2182 2181 -327 0
-2183 2182 330 0
-2183 -2182 -330 0
2183 -2182 330 0
2183 2182 -330 0
-231 -2183 0
-2184 318 320 0
-2184 -318 -320 0
2184 -318 320 0
2184 318 -320 0
-2185 2184 325 0
-2185 -2184 -325 0
2185 -2184 325 0
2185 2184 -325 0
-2186 2185 327 0
-2186 -2185 -327 0
2186 -2185 327 0
2186 2185 -327 0
-2187 2186 328 0
-2187 -2186 -328 0
2187 -2186 328 0
2187 2186 -328 0
-2188 2187 330 0
-2188 -2187 -330 0
2188 -2187 330 0
2188 2187 -330 0
-232 -2188 0
-2189 317 318 0
-2189 -317 -318 0
2189 -317 318 0
2189 317 -318 0
-2190 2189 319 0
-2190 -2189 -319 0
2190 -2189 319 0
2190 2189 -319 0
-2191 2190 320 0
-2191 -2190 -320 0
2191 -2190 320 0
2191 2190 -320 0
-2192 2191 325 0
-2192 -2191 -325 0
2192 -2191 325 0
2192 2191 -325 0
-2193 2192 327 0
-2193 -2192 -327 0
2193 -2192 327 0
2193 2192 -327 0
-2194 2193 328 0
-2194 -2193 -328 0
2194 -2193 328 0
2194 2193 -328 0
-2195 2194 330 0
-2195 -2194 -330 0
2195 -2194 330 0
2195 2194 -330 0
-233 -2195 0
-2196 317 318 0
-2196 -317 -318 0
2196 -317 318 0
2196 317 -318 0
-2197 2196 320 0
-2197 -2196 -320 0
2197 -2196 320 0
2197 2196 -320 0
-2198 2197 325 0
-2198 -2197 -325 0
2198 -2197 325 0
2198 2197 -325 0
-2199 2198 326 0
-2199 -2198 -326 0
2199 -2198 326 0
2199 2198 -326 0
-2200 2199 327 0
-2200 -2199 -327 0
2200 -2199 327 0
2200 2199 -327 0
-2201 2200 328 0
-2201 -2200 -328 0
2201 -2200 328 0
2201 2200 -328 0
-2202 2201 330 0
-2202 -2201 -330 0
2202 -2201 330 0
2202 2201 -330 0
-234 -2202 0
-2203 318 319 0
-2203 -318 -319 0
2203 -318 319 0
2203 318 -319 0
-2204 2203 320 0
-2204 -2203 -320 0
2204 -2203 320 0
2204 2203 -320 0
-2205 2204 325 0
-2205 -2204 -325 0
2205 -2204 325 0
2205 2204 -325 0
-2206 2205 326 0
-2206 -2205 -326 0
2206 -2205 326 0
2206 2205 -326 0
-2207 2206 327 0
-2207 -2206 -327 0
2207 -2206 327 0
2207 2206 -327 0
-2208 2207 328 0
-2208 -2207 -328 0
2208 -2207 328 0
2208 2207 -328 0
-2209 2208 330 0
-2209 -2208 -330 0
2209 -2208 330 0
2209 2208 -330 0
-235 -2209 0
-2210 316 317 0
-2210 -316 -317 0
2210 -316 317 0
2210 316 -317 0
-2211 2210 319 0
-2211 -2210 -319 0
2211 -2210 319 0
2211 2210 -319 0
-2212 2211 324 0
-2212 -2211 -324 0
2212 -2211 324 0
2212 2211 -324 0
-2213 2212 327 0
-2213 -2212 -327 0
2213 -2212 327 0
2213 2212 -327 0
-2214 2213 330 0
-2214 -2213 -330 0
2214 -2213 330 0
2214 2213 -330 0
-236 -2214 0
-2215 316 317 0
-2215 -316 -317 0
2215 -316 317 0
2215 316 -317 0
-2216 2215 319 0
-2216 -2215 -319 0
2216 -2215 319 0
2216 2215 -319 0
-2217 2216 321 0
-2217 -2216 -321 0
2217 -2216 321 0
2217 2216 -321 0
-2218 2217 323 0
-2218 -2217 -323 0
2218 -2217 323 0
2218 2217 -323 0
-2219 2218 324 0
-2219 -2218 -324 0
2219 -2218 324 0
2219 2218 -324 0
-2220 2219 327 0
-2220 -2219 -327 0
2220 -2219 327 0
2220 2219 -327 0
-2221 2220 330 0
-2221 -2220 -330 0
2221 -2220 330 0
2221 2220 -330 0
-237 -2221 0
-2222 316 317 0
-2222 -316 -317 0
2222 -316 317 0
2222 316 -317 0
-2223 2222 319 0
-2223 -2222 -319 0
2223 -2222 319 0
2223 2222 -319 0
-2224 2223 321 0
-2224 -2223 -321 0
2224 -2223 321 0
2224 2223 -321 0
-2225 2224 324 0
-2225 -2224 -324 0
2225 -2224 324 0
2225 2224 -324 0
-2226 2225 326 0
-2226 -2225 -326 0
2226 -2225 326 0
2226 2225 -326 0
-2227 2226 327 0
-2227 -2226 -327 0
2227 -2226 327 0
2227 2226 -327 0
-2228 2227 330 0
-2228 -2227 -330 0
2228 -2227 330 0
2228 2227 -330 0
-238 -2228 0
-2229 316 317 0
-2229 -316 -317 0
2229 -316 317 0
2229 316 -317 0
-2230 2229 319 0
-2230 -2229 -319 0
2230 -2229 319 0
2230 2229 -319 0
-2231 2230 323 0
-2231 -2230 -323 0
2231 -2230 323 0
2231 2230 -323 0
-2232 2231 324 0
-2232 -2231 -324 0
2232 -2231 324 0
2232 2231 -324 0
-2233 2232 326 0
-2233 -2232 -326 0
2233 -2232 326 0
2233 2232 -326 0
-2234 2233 327 0
-2234 -2233 -327 0
2234 -2233 327 0
2234 2233 -327 0
-2235 2234 330 0
-2235 -2234 -330 0
2235 -2234 330 0
2235 2234 -330 0
-239 -2235 0
-2236 322 324 0
-2236 -322 -324 0
2236 -322 324 0
2236 322 -324 0
-2237 2236 325 0
-2237 -2236 -325 0
2237 -2236 325 0
2237 2236 -325 0
-2238 2237 327 0
-2238 -2237 -327 0
2238 -2237 327 0
2238 2237 -327 0
-2239 2238 328 0
-2239 -2238 -328 0
2239 -2238 328 0
2239 2238 -328 0
-2240 2239 330 0
-2240 -2239 -330 0
2240 -2239 330 0
2240 2239 -330 0
-240 -2240 0
-2241 321 322 0
-2241 -321 -322 0
2241 -321 322 0
2241 321 -322 0
-2242 2241 323 0
-2242 -2241 -323 0
2242 -2241 323 0
2242 2241 -323 0
-2243 2242 324 0
-2243 -2242 -324 0
2243 -2242 324 0
2243 2242 -324 0
-2244 2243 325 0
-2244 -2243 -325 0
2244 -2243 325 0
2244 2243 -325 0
-2245 2244 327 0
-2245 -2244 -327 0
2245 -2244 327 0
2245 2244 -327 0
-2246 2245 328 0
-2246 -2245 -328 0
2246 -2245 328 0
2246 2245 -328 0
-2247 2246 330 0
-2247 -2246 -330 0
2247 -2246 330 0
2247 2246 -330 0
-241 -2247 0
-2248 321 322 0
-2248 -321 -322 0
2248 -321 322 0
2248 321 -322 0
-2249 2248 324 0
-2249 -2248 -324 0
2249 -2248 324 0
2249 2248 -324 0
-2250 2249 325 0
-2250 -2249 -325 0
2250 -2249 325 0
2250 2249 -325 0
-2251 2250 326 0
-2251 -2250 -326 0
2251 -2250 326 0
2251 2250 -326 0
-2252 2251 327 0
-2252 -2251 -327 0
2252 -2251 327 0
2252 2251 -327 0
-2253 2252 328 0
-2253 -2252 -328 0
2253 -2252 328 0
2253 2252 -328 0
-2254 2253 330 0
-2254 -2253 -330 0
2254 -2253 330 0
2254 2253 -330 0
-242 -2254 0
-2255 322 323 0
-2255 -322 -323 0
2255 -322 323 0
2255 322 -323 0
-2256 2255 324 0
-2256 -2255 -324 0
2256 -2255 324 0
2256 2255 -324 0
-2257 2256 325 0
-2257 -2256 -325 0
2257 -2256 325 0
2257 2256 -325 0
-2258 2257 326 0
-2258 -2257 -326 0
2258 -2257 326 0
2258 2257 -326 0
-2259 2258 327 0
-2259 -2258 -327 0
2259 -2258 327 0
2259 2258 -327 0
-2260 2259 328 0
-2260 -2259 -328 0
2260 -2259 328 0
2260 2259 -328 0
-2261 2260 330 0
-2261 -2260 -330 0
2261 -2260 330 0
2261 2260 -330 0
-243 -2261 0
-2262 316 317 0
-2262 -316 -317 0
2262 -316 317 0
2262 316 -317 0
-2263 2262 319 0
-2263 -2262 -319 0
2263 -2262 319 0
2263 2262 -319 0
-2264 2263 320 0
-2264 -2263 -320 0
2264 -2263 320 0
2264 2263 -320 0
-2265 2264 324 0
-2265 -2264 -324 0
2265 -2264 324 0
2265 2264 -324 0
-2266 2265 327 0
-2266 -2265 -327 0
2266 -2265 327 0
2266 2265 -327 0
-2267 2266 330 0
-2267 -2266 -330 0
2267 -2266 330 0
2267 2266 -330 0
-244 -2267 0
-2268 316 320 0
-2268 -316 -320 0
2268 -316 320 0
2268 316 -320 0
-2269 2268 321 0
-2269 -2268 -321 0
2269 -2268 321 0
2269 2268 -321 0
-2270 2269 323 0
-2270 -2269 -323 0
2270 -2269 323 0
2270 2269 -323 0
-2271 2270 324 0
-2271 -2270 -324 0
2271 -2270 324 0
2271 2270 -324 0
-2272 2271 327 0
-2272 -2271 -327 0
2272 -2271 327 0
2272 2271 -327 0
-2273 2272 330 0
-2273 -2272 -330 0
2273 -2272 330 0
2273 2272 -330 0
-245 -2273 0
-2274 316 319 0
-2274 -316 -319 0
2274 -316 319 0
2274 316 -319 0
-2275 2274 320 0
-2275 -2274 -320 0
2275 -2274 320 0
2275 2274 -320 0
-2276 2275 321 0
-2276 -2275 -321 0
2276 -2275 321 0
2276 2275 -321 0
-2277 2276 324 0
-2277 -2276 -324 0
2277 -2276 324 0
2277 2276 -324 0
-2278 2277 326 0
-2278 -2277 -326 0
2278 -2277 326 0
2278 2277 -326 0
-2279 2278 327 0
-2279 -2278 -327 0
2279 -2278 327 0
2279 2278 -327 0
-2280 2279 330 0
-2280 -2279 -330 0
2280 -2279 330 0
2280 2279 -330 0
-246 -2280 0
-2281 316 317 0
-2281 -316 -317 0
2281 -316 317 0
2281 316 -317 0
-2282 2281 320 0
-2282 -2281 -320 0
2282 -2281 320 0
2282 2281 -320 0
-2283 2282 323 0
-2283 -2282 -323 0
2283 -2282 323 0
2283 2282 -323 0
-2284 2283 324 0
-2284 -2283 -324 0
2284 -2283 324 0
2284 2283 -324 0
-2285 2284 326 0
-2285 -2284 -326 0
2285 -2284 326 0
2285 2284 -326 0
-2286 2285 327 0
-2286 -2285 -327 0
2286 -2285 327 0
2286 2285 -327 0
-2287 2286 330 0
-2287 -2286 -330 0
2287 -2286 330 0
2287 2286 -330 0
-247 -2287 0
-2288 318 320 0
-2288 -318 -320 0
2288 -318 320 0
2288 318 -320 0
-2289 2288 322 0
-2289 -2288 -322 0
2289 -2288 322 0
2289 2288 -322 0
-2290 2289 324 0
-2290 -2289 -324 0
2290 -2289 324 0
2290 2289 -324 0
-2291 2290 325 0
-2291 -2290 -325 0
2291 -2290 325 0
2291 2290 -325 0
-2292 2291 327 0
-2292 -2291 -327 0
2292 -2291 327 0
2292 2291 -327 0
-2293 2292 328 0
-2293 -2292 -328 0
2293 -2292 328 0
2293 2292 -328 0
-2294 2293 330 0
-2294 -2293 -330 0
2294 -2293 330 0
2294 2293 -330 0
-248 -2294 0
-2295 317 318 0
-2295 -317 -318 0
2295 -317 318 0
2295 317 -318 0
-2296 2295 319 0
-2296 -2295 -319 0
2296 -2295 319 0
2296 2295 -319 0
-2297 2296 320 0
-2297 -2296 -320 0
2297 -2296 320 0
2297 2296 -320 0
-2298 2297 321 0
-2298 -2297 -321 0
2298 -2297 321 0
2298 2297 -321 0
-2299 2298 322 0
-2299 -2298 -322 0
2299 -2298 322 0
2299 2298 -322 0
-2300 2299 323 0
-2300 -2299 -323 0
2300 -2299 323 0
2300 2299 -323 0
-2301 2300 324 0
-2301 -2300 -324 0
2301 -2300 324 0
2301 2300 -324 0
-2302 2301 325 0
-2302 -2301 -325 0
2302 -2301 325 0
2302 2301 -325 0
-2303 2302 327 0
-2303 -2302 -327 0
2303 -2302 327 0
2303 2302 -327 0
-2304 2303 328 0
-2304 -2303 -328 0
2304 -2303 328 0
2304 2303 -328 0
-2305 2304 330 0
-2305 -2304 -330 0
2305 -2304 330 0
2305 2304 -330 0
-249 -2305 0
-2306 317 318 0
-2306 -317 -318 0
2306 -317 318 0
2306 317 -318 0
-2307 2306 320 0
-2307 -2306 -320 0
2307 -2306 320 0
2307 2306 -320 0
-2308 2307 321 0
-2308 -2307 -321 0
2308 -2307 321 0
2308 2307 -321 0
-2309 2308 322 0
-2309 -2308 -322 0
2309 -2308 322 0
2309 2308 -322 0
-2310 2309 324 0
-2310 -2309 -324 0
2310 -2309 324 0
2310 2309 -324 0
-2311 2310 325 0
-2311 -2310 -325 0
2311 -2310 325 0
2311 2310 -325 0
-2312 2311 326 0
-2312 -2311 -326 0
2312 -2311 326 0
2312 2311 -326 0
-2313 2312 327 0
-2313 -2312 -327 0
2313 -2312 327 0
2313 2312 -327 0
-2314 2313 328 0
-2314 -2313 -328 0
2314 -2313 328 0
2314 2313 -328 0
-2315 2314 330 0
-2315 -2314 -330 0
2315 -2314 330 0
2315 2314 -330 0
-250 -2315 0
-2316 318 319 0
-2316 -318 -319 0
2316 -318 319 0
2316 318 -319 0
-2317 2316 320 0
-2317 -2316 -320 0
2317 -2316 320 0
2317 2316 -320 0
-2318 2317 322 0
-2318 -2317 -322 0
2318 -2317 322 0
2318 2317 -322 0
-2319 2318 323 0
-2319 -2318 -323 0
2319 -2318 323 0
2319 2318 -323 0
-2320 2319 324 0
-2320 -2319 -324 0
2320 -2319 324 0
2320 2319 -324 0
-2321 2320 325 0
-2321 -2320 -325 0
2321 -2320 325 0
2321 2320 -325 0
-2322 2321 326 0
-2322 -2321 -326 0
2322 -2321 326 0
2322 2321 -326 0
-2323 2322 327 0
-2323 -2322 -327 0
2323 -2322 327 0
2323 2322 -327 0
-2324 2323 328 0
-2324 -2323 -328 0
2324 -2323 328 0
2324 2323 -328 0
-2325 2324 330 0
-2325 -2324 -330 0
2325 -2324 330 0
2325 2324 -330 0
-251 -2325 0
-2326 325 326 0
-2326 -325 -326 0
2326 -325 326 0
2326 325 -326 0
-2327 2326 329 0
-2327 -2326 -329 0
2327 -2326 329 0
2327 2326 -329 0
-2328 2327 330 0
-2328 -2327 -330 0
2328 -2327 330 0
2328 2327 -330 0
-252 -2328 0
-2329 318 319 0
-2329 -318 -319 0
2329 -318 319 0
2329 318 -319 0
-2330 2329 325 0
-2330 -2329 -325 0
2330 -2329 325 0
2330 2329 -325 0
-2331 2330 326 0
-2331 -2330 -326 0
2331 -2330 326 0
2331 2330 -326 0
-2332 2331 329 0
-2332 -2331 -329 0
2332 -2331 329 0
2332 2331 -329 0
-2333 2332 330 0
-2333 -2332 -330 0
2333 -2332 330 0
2333 2332 -330 0
-253 -2333 0
-2334 322 323 0
-2334 -322 -323 0
2334 -322 323 0
2334 322 -323 0
-2335 2334 325 0
-2335 -2334 -325 0
2335 -2334 325 0
2335 2334 -325 0
-2336 2335 326 0
-2336 -2335 -326 0
2336 -2335 326 0
2336 2335 -326 0
-2337 2336 329 0
-2337 -2336 -329 0
2337 -2336 329 0
2337 2336 -329 0
-2338 2337 330 0
-2338 -2337 -330 0
2338 -2337 330 0
2338 2337 -330 0
-254 -2338 0
-2339 318 319 0
-2339 -318 -319 0
2339 -318 319 0
2339 318 -319 0
-2340 2339 322 0
-2340 -2339 -322 0
2340 -2339 322 0
2340 2339 -322 0
-2341 2340 323 0
-2341 -2340 -323 0
2341 -2340 323 0
2341 2340 -323 0
-2342 2341 325 0
-2342 -2341 -325 0
2342 -2341 325 0
2342 2341 -325 0
-2343 2342 326 0
-2343 -2342 -326 0
2343 -2342 326 0
2343 2342 -326 0
-2344 2343 329 0
-2344 -2343 -329 0
2344 -2343 329 0
2344 2343 -329 0
-2345 2344 330 0
-2345 -2344 -330 0
2345 -2344 330 0
2345 2344 -330 0
-255 -2345 0
-2346 325 326 0
-2346 -325 -326 0
2346 -325 326 0
2346 325 -326 0
-2347 2346 328 0
-2347 -2346 -328 0
2347 -2346 328 0
2347 2346 -328 0
-2348 2347 329 0
-2348 -2347 -329 0
2348 -2347 329 0
2348 2347 -329 0
-2349 2348 330 0
-2349 -2348 -330 0
2349 -2348 330 0
2349 2348 -330 0
-256 -2349 0
-2350 318 319 0
-2350 -318 -319 0
2350 -318 319 0
2350 318 -319 0
-2351 2350 325 0
-2351 -2350 -325 0
2351 -2350 325 0
2351 2350 -325 0
-2352 2351 326 0
-2352 -2351 -326 0
2352 -2351 326 0
2352 2351 -326 0
-2353 2352 328 0
-2353 -2352 -328 0
2353 -2352 328 0
2353 2352 -328 0
-2354 2353 329 0
-2354 -2353 -329 0
2354 -2353 329 0
2354 2353 -329 0
-2355 2354 330 0
-2355 -2354 -330 0
2355 -2354 330 0
2355 2354 -330 0
-257 -2355 0
-2356 322 323 0
-2356 -322 -323 0
2356 -322 323 0
2356 322 -323 0
-2357 2356 325 0
-2357 -2356 -325 0
2357 -2356 325 0
2357 2356 -325 0
-2358 2357 326 0
-2358 -2357 -326 0
2358 -2357 326 0
2358 2357 -326 0
-2359 2358 328 0
-2359 -2358 -328 0
2359 -2358 328 0
2359 2358 -328 0
-2360 2359 329 0
-2360 -2359 -329 0
2360 -2359 329 0
2360 2359 -329 0
-2361 2360 330 0
-2361 -2360 -330 0
2361 -2360 330 0
2361 2360 -330 0
-258 -2361 0
-2362 318 319 0
-2362 -318 -319 0
2362 -318 319 0
2362 318 -319 0
-2363 2362 322 0
-2363 -2362 -322 0
2363 -2362 322 0
2363 2362 -322 0
-2364 2363 323 0
-2364 -2363 -323 0
2364 -2363 323 0
2364 2363 -323 0
-2365 2364 325 0
-2365 -2364 -325 0
2365 -2364 325 0
2365 2364 -325 0
-2366 2365 326 0
-2366 -2365 -326 0
2366 -2365 326 0
2366 2365 -326 0
-2367 2366 328 0
-2367 -2366 -328 0
2367 -2366 328 0
2367 2366 -328 0
-2368 2367 329 0
-2368 -2367 -329 0
2368 -2367 329 0
2368 2367 -329 0
-2369 2368 330 0
-2369 -2368 -330 0
2369 -2368 330 0
2369 2368 -330 0
-259 -2369 0
-2370 316 320 0
-2370 -316 -320 0
2370 -316 320 0
2370 316 -320 0
-2371 2370 322 0
-2371 -2370 -322 0
2371 -2370 322 0
2371 2370 -322 0
-2372 2371 323 0
-2372 -2371 -323 0
2372 -2371 323 0
2372 2371 -323 0
-2373 2372 329 0
-2373 -2372 -329 0
2373 -2372 329 0
2373 2372 -329 0
-2374 2373 330 0
-2374 -2373 -330 0
2374 -2373 330 0
2374 2373 -330 0
-260 -2374 0
-2375 316 318 0
-2375 -316 -318 0
2375 -316 318 0
2375 316 -318 0
-2376 2375 319 0
-2376 -2375 -319 0
2376 -2375 319 0
2376 2375 -319 0
-2377 2376 320 0
-2377 -2376 -320 0
2377 -2376 320 0
2377 2376 -320 0
-2378 2377 322 0
-2378 -2377 -322 0
2378 -2377 322 0
2378 2377 -322 0
-2379 2378 323 0
-2379 -2378 -323 0
2379 -2378 323 0
2379 2378 -323 0
-2380 2379 329 0
-2380 -2379 -329 0
2380 -2379 329 0
2380 2379 -329 0
-2381 2380 330 0
-2381 -2380 -330 0
2381 -2380 330 0
2381 2380 -330 0
-261 -2381 0
-2382 317 320 0
-2382 -317 -320 0
2382 -317 320 0
2382 317 -320 0
-2383 2382 325 0
-2383 -2382 -325 0
2383 -2382 325 0
2383 2382 -325 0
-2384 2383 326 0
-2384 -2383 -326 0
2384 -2383 326 0
2384 2383 -326 0
-2385 2384 329 0
-2385 -2384 -329 0
2385 -2384 329 0
2385 2384 -329 0
-2386 2385 330 0
-2386 -2385 -330 0
2386 -2385 330 0
2386 2385 -330 0
-262 -2386 0
-2387 317 318 0
-2387 -317 -318 0
2387 -317 318 0
2387 317 -318 0
-2388 2387 319 0
-2388 -2387 -319 0
2388 -2387 319 0
2388 2387 -319 0
-2389 2388 320 0
-2389 -2388 -320 0
2389 -2388 320 0
2389 2388 -320 0
-2390 2389 325 0
-2390 -2389 -325 0
2390 -2389 325 0
2390 2389 -325 0
-2391 2390 326 0
-2391 -2390 -326 0
2391 -2390 326 0
2391 2390 -326 0
-2392 2391 329 0
-2392 -2391 -329 0
2392 -2391 329 0
2392 2391 -329 0
-2393 2392 330 0
-2393 -2392 -330 0
2393 -2392 330 0
2393 2392 -330 0
-263 -2393 0
-2394 316 318 0
-2394 -316 -318 0
2394 -316 318 0
2394 316 -318 0
-2395 2394 320 0
-2395 -2394 -320 0
2395 -2394 320 0
2395 2394 -320 0
-2396 2395 322 0
-2396 -2395 -322 0
2396 -2395 322 0
2396 2395 -322 0
-2397 2396 323 0
-2397 -2396 -323 0
2397 -2396 323 0
2397 2396 -323 0
-2398 2397 328 0
-2398 -2397 -328 0
2398 -2397 328 0
2398 2397 -328 0
-2399 2398 329 0
-2399 -2398 -329 0
2399 -2398 329 0
2399 2398 -329 0
-2400 2399 330 0
-2400 -2399 -330 0
2400 -2399 330 0
2400 2399 -330 0
-264 -2400 0
-2401 316 319 0
-2401 -316 -319 0
2401 -316 319 0
2401 316 -319 0
-2402 2401 320 0
-2402 -2401 -320 0
2402 -2401 320 0
2402 2401 -320 0
-2403 2402 322 0
-2403 -2402 -322 0
2403 -2402 322 0
2403 2402 -322 0
-2404 2403 323 0
-2404 -2403 -323 0
2404 -2403 323 0
2404 2403 -323 0
-2405 2404 328 0
-2405 -2404 -328 0
2405 -2404 328 0
2405 2404 -328 0
-2406 2405 329 0
-2406 -2405 -329 0
2406 -2405 329 0
2406 2405 -329 0
-2407 2406 330 0
-2407 -2406 -330 0
2407 -2406 330 0
2407 2406 -330 0
-265 -2407 0
-2408 317 318 0
-2408 -317 -318 0
2408 -317 318 0
2408 317 -318 0
-2409 2408 320 0
-2409 -2408 -320 0
2409 -2408 320 0
2409 2408 -320 0
-2410 2409 325 0
-2410 -2409 -325 0
2410 -2409 325 0
2410 2409 -325 0
-2411 2410 326 0
-2411 -2410 -326 0
2411 -2410 326 0
2411 2410 -326 0
-2412 2411 328 0
-2412 -2411 -328 0
2412 -2411 328 0
2412 2411 -328 0
-2413 2412 329 0
-2413 -2412 -329 0
2413 -2412 329 0
2413 2412 -329 0
-2414 2413 330 0
-2414 -2413 -330 0
2414 -2413 330 0
2414 2413 -330 0
-266 -2414 0
-2415 317 319 0
-2415 -317 -319 0
2415 -317 319 0
2415 317 -319 0
-2416 2415 320 0
-2416 -2415 -320 0
2416 -2415 320 0
2416 2415 -320 0
-2417 2416 325 0
-2417 -2416 -325 0
2417 -2416 325 0
2417 2416 -325 0
-2418 2417 326 0
-2418 -2417 -326 0
2418 -2417 326 0
2418 2417 -326 0
-2419 2418 328 0
-2419 -2418 -328 0
2419 -2418 328 0
2419 2418 -328 0
-2420 2419 329 0
-2420 -2419 -329 0
2420 -2419 329 0
2420 2419 -329 0
-2421 2420 330 0
-2421 -2420 -330 0
2421 -2420 330 0
2421 2420 -330 0
-267 -2421 0
-2422 316 318 0
-2422 -316 -318 0
2422 -316 318 0
2422 316 -318 0
-2423 2422 319 0
-2423 -2422 -319 0
2423 -2422 319 0
2423 2422 -319 0
-2424 2423 324 0
-2424 -2423 -324 0
2424 -2423 324 0
2424 2423 -324 0
-2425 2424 329 0
-2425 -2424 -329 0
2425 -2424 329 0
2425 2424 -329 0
-2426 2425 330 0
-2426 -2425 -330 0
2426 -2425 330 0
2426 2425 -330 0
-268 -2426 0
-2427 316 318 0
-2427 -316 -318 0
2427 -316 318 0
2427 316 -318 0
-2428 2427 319 0
-2428 -2427 -319 0
2428 -2427 319 0
2428 2427 -319 0
-2429 2428 322 0
-2429 -2428 -322 0
2429 -2428 322 0
2429 2428 -322 0
-2430 2429 323 0
-2430 -2429 -323 0
2430 -2429 323 0
2430 2429 -323 0
-2431 2430 324 0
-2431 -2430 -324 0
2431 -2430 324 0
2431 2430 -324 0
-2432 2431 329 0
-2432 -2431 -329 0
2432 -2431 329 0
2432 2431 -329 0
-2433 2432 330 0
-2433 -2432 -330 0
2433 -2432 330 0
2433 2432 -330 0
-269 -2433 0
-2434 321 324 0
-2434 -321 -324 0
2434 -321 324 0
2434 321 -324 0
-2435 2434 325 0
-2435 -2434 -325 0
2435 -2434 325 0
2435 2434 -325 0
-2436 2435 326 0
-2436 -2435 -326 0
2436 -2435 326 0
2436 2435 -326 0
-2437 2436 329 0
-2437 -2436 -329 0
2437 -2436 329 0
2437 2436 -329 0
-2438 2437 330 0
-2438 -2437 -330 0
2438 -2437 330 0
2438 2437 -330 0
-270 -2438 0
-2439 321 322 0
-2439 -321 -322 0
2439 -321 322 0
2439 321 -322 0
-2440 2439 323 0
-2440 -2439 -323 0
2440 -2439 323 0
2440 2439 -323 0
-2441 2440 324 0
-2441 -2440 -324 0
2441 -2440 324 0
2441 2440 -324 0
-2442 2441 325 0
-2442 -2441 -325 0
2442 -2441 325 0
2442 2441 -325 0
-2443 2442 326 0
-2443 -2442 -326 0
2443 -2442 326 0
2443 2442 -326 0
-2444 2443 329 0
-2444 -2443 -329 0
2444 -2443 329 0
2444 2443 -329 0
-2445 2444 330 0
-2445 -2444 -330 0
2445 -2444 330 0
2445 2444 -330 0
-271 -2445 0
-2446 316 318 0
-2446 -316 -318 0
2446 -316 318 0
2446 316 -318 0
-2447 2446 319 0
-2447 -2446 -319 0
2447 -2446 319 0
2447 2446 -319 0
-2448 2447 322 0
-2448 -2447 -322 0
2448 -2447 322 0
2448 2447 -322 0
-2449 2448 324 0
-2449 -2448 -324 0
2449 -2448 324 0
2449 2448 -324 0
-2450 2449 328 0
-2450 -2449 -328 0
2450 -2449 328 0
2450 2449 -328 0
-2451 2450 329 0
-2451 -2450 -329 0
2451 -2450 329 0
2451 2450 -329 0
-2452 2451 330 0
-2452 -2451 -330 0
2452 -2451 330 0
2452 2451 -330 0
-272 -2452 0
-2453 316 318 0
-2453 -316 -318 0
2453 -316 318 0
2453 316 -318 0
-2454 2453 319 0
-2454 -2453 -319 0
2454 -2453 319 0
2454 2453 -319 0
-2455 2454 323 0
-2455 -2454 -323 0
2455 -2454 323 0
2455 2454 -323 0
-2456 2455 324 0
-2456 -2455 -324 0
2456 -2455 324 0
2456 2455 -324 0
-2457 2456 328 0
-2457 -2456 -328 0
2457 -2456 328 0
2457 2456 -328 0
-2458 2457 329 0
-2458 -2457 -329 0
2458 -2457 329 0
2458 2457 -329 0
-2459 2458 330 0
-2459 -2458 -330 0
2459 -2458 330 0
2459 2458 -330 0
-273 -2459 0
-2460 321 322 0
-2460 -321 -322 0
2460 -321 322 0
2460 321 -322 0
-2461 2460 324 0
-2461 -2460 -324 0
2461 -2460 324 0
2461 2460 -324 0
-2462 2461 325 0
-2462 -2461 -325 0
2462 -2461 325 0
2462 2461 -325 0
-2463 2462 326 0
-2463 -2462 -326 0
2463 -2462 326 0
2463 2462 -326 0
-2464 2463 328 0
-2464 -2463 -328 0
2464 -2463 328 0
2464 2463 -328 0
-2465 2464 329 0
-2465 -2464 -329 0
2465 -2464 329 0
2465 2464 -329 0
-2466 2465 330 0
-2466 -2465 -330 0
2466 -2465 330 0
2466 2465 -330 0
-274 -2466 0
-2467 321 323 0
-2467 -321 -323 0
2467 -321 323 0
2467 321 -323 0
-2468 2467 324 0
-2468 -2467 -324 0
2468 -2467 324 0
2468 2467 -324 0
-2469 2468 325 0
-2469 -2468 -325 0
2469 -2468 325 0
2469 2468 -325 0
-2470 2469 326 0
-2470 -2469 -326 0
2470 -2469 326 0
2470 2469 -326 0
-2471 2470 328 0
-2471 -2470 -328 0
2471 -2470 328 0
2471 2470 -328 0
-2472 2471 329 0
-2472 -2471 -329 0
2472 -2471 329 0
2472 2471 -329 0
-2473 2472 330 0
-2473 -2472 -330 0
2473 -2472 330 0
2473 2472 -330 0
-275 -2473 0
-2474 316 318 0
-2474 -316 -318 0
2474 -316 318 0
2474 316 -318 0
-2475 2474 319 0
-2475 -2474 -319 0
2475 -2474 319 0
2475 2474 -319 0
-2476 2475 320 0
-2476 -2475 -320 0
2476 -2475 320 0
2476 2475 -320 0
-2477 2476 324 0
-2477 -2476 -324 0
2477 -2476 324 0
2477 2476 -324 0
-2478 2477 329 0
-2478 -2477 -329 0
2478 -2477 329 0
2478 2477 -329 0
-2479 2478 330 0
-2479 -2478 -330 0
2479 -2478 330 0
2479 2478 -330 0
-276 -2479 0
-2480 316 320 0
-2480 -316 -320 0
2480 -316 320 0
2480 316 -320 0
-2481 2480 322 0
-2481 -2480 -322 0
2481 -2480 322 0
2481 2480 -322 0
-2482 2481 323 0
-2482 -2481 -323 0
2482 -2481 323 0
2482 2481 -323 0
-2483 2482 324 0
-2483 -2482 -324 0
2483 -2482 324 0
2483 2482 -324 0
-2484 2483 329 0
-2484 -2483 -329 0
2484 -2483 329 0
2484 2483 -329 0
-2485 2484 330 0
-2485 -2484 -330 0
2485 -2484 330 0
2485 2484 -330 0
-277 -2485 0
-2486 317 320 0
-2486 -317 -320 0
2486 -317 320 0
2486 317 -320 0
-2487 2486 321 0
-2487 -2486 -321 0
2487 -2486 321 0
2487 2486 -321 0
-2488 2487 324 0
-2488 -2487 -324 0
2488 -2487 324 0
2488 2487 -324 0
-2489 2488 325 0
-2489 -2488 -325 0
2489 -2488 325 0
2489 2488 -325 0
-2490 2489 326 0
-2490 -2489 -326 0
2490 -2489 326 0
2490 2489 -326 0
-2491 2490 329 0
-2491 -2490 -329 0
2491 -2490 329 0
2491 2490 -329 0
-2492 2491 330 0
-2492 -2491 -330 0
2492 -2491 330 0
2492 2491 -330 0
-278 -2492 0
-2493 317 318 0
-2493 -317 -318 0
2493 -317 318 0
2493 317 -318 0
-2494 2493 319 0
-2494 -2493 -319 0
2494 -2493 319 0
2494 2493 -319 0
-2495 2494 320 0
-2495 -2494 -320 0
2495 -2494 320 0
2495 2494 -320 0
-2496 2495 321 0
-2496 -2495 -321 0
2496 -2495 321 0
2496 2495 -321 0
-2497 2496 322 0
-2497 -2496 -322 0
2497 -2496 322 0
2497 2496 -322 0
-2498 2497 323 0
-2498 -2497 -323 0
2498 -2497 323 0
2498 2497 -323 0
-2499 2498 324 0
-2499 -2498 -324 0
2499 -2498 324 0
2499 2498 -324 0
-2500 2499 325 0
-2500 -2499 -325 0
2500 -2499 325 0
2500 2499 -325 0
-2501 2500 326 0
-2501 -2500 -326 0
2501 -2500 326 0
2501 2500 -326 0
-2502 2501 329 0
-2502 -2501 -329 0
2502 -2501 329 0
2502 2501 -329 0
-2503 2502 330 0
-2503 -2502 -330 0
2503 -2502 330 0
2503 2502 -330 0
-279 -2503 0
-2504 316 319 0
-2504 -316 -319 0
2504 -316 319 0
2504 316 -319 0
-2505 2504 320 0
-2505 -2504 -320 0
2505 -2504 320 0
2505 2504 -320 0
-2506 2505 322 0
-2506 -2505 -322 0
2506 -2505 322 0
2506 2505 -322 0
-2507 2506 324 0
-2507 -2506 -324 0
2507 -2506 324 0
2507 2506 -324 0
-2508 2507 328 0
-2508 -2507 -328 0
2508 -2507 328 0
2508 2507 -328 0
-2509 2508 329 0
-2509 -2508 -329 0
2509 -2508 329 0
2509 2508 -329 0
-2510 2509 330 0
-2510 -2509 -330 0
2510 -2509 330 0
2510 2509 -330 0
-280 -2510 0
-2511 316 318 0
-2511 -316 -318 0
2511 -316 318 0
2511 316 -318 0
-2512 2511 320 0
-2512 -2511 -320 0
2512 -2511 320 0
2512 2511 -320 0
-2513 2512 323 0
-2513 -2512 -323 0
2513 -2512 323 0
2513 2512 -323 0
-2514 2513 324 0
-2514 -2513 -324 0
2514 -2513 324 0
2514 2513 -324 0
-2515 2514 328 0
-2515 -2514 -328 0
2515 -2514 328 0
2515 2514 -328 0
-2516 2515 329 0
-2516 -2515 -329 0
2516 -2515 329 0
2516 2515 -329 0
-2517 2516 330 0
-2517 -2516 -330 0
2517 -2516 330 0
2517 2516 -330 0
-281 -2517 0
-2518 317 318 0
-2518 -317 -318 0
2518 -317 318 0
2518 317 -318 0
-2519 2518 320 0
-2519 -2518 -320 0
2519 -2518 320 0
2519 2518 -320 0
-2520 2519 321 0
-2520 -2519 -321 0
2520 -2519 321 0
2520 2519 -321 0
-2521 2520 322 0
-2521 -2520 -322 0
2521 -2520 322 0
2521 2520 -322 0
-2522 2521 324 0
-2522 -2521 -324 0
2522 -2521 324 0
2522 2521 -324 0
-2523 2522 325 0
-2523 -2522 -325 0
2523 -2522 325 0
2523 2522 -325 0
-2524 2523 326 0
-2524 -2523 -326 0
2524 -2523 326 0
2524 2523 -326 0
-2525 2524 328 0
-2525 -2524 -328 0
2525 -2524 328 0
2525 2524 -328 0
-2526 2525 329 0
-2526 -2525 -329 0
2526 -2525 329 0
2526 2525 -329 0
-2527 2526 330 0
-2527 -2526 -330 0
2527 -2526 330 0
2527 2526 -330 0
-282 -2527 0
-2528 317 319 0
-2528 -317 -319 0
2528 -317 319 0
2528 317 -319 0
-2529 2528 320 0
-2529 -2528 -320 0
2529 -2528 320 0
2529 2528 -320 0
-2530 2529 321 0
-2530 -2529 -321 0
2530 -2529 321 0
2530 2529 -321 0
-2531 2530 323 0
-2531 -2530 -323 0
2531 -2530 323 0
2531 2530 -323 0
-2532 2531 324 0
-2532 -2531 -324 0
2532 -2531 324 0
2532 2531 -324 0
-2533 2532 325 0
-2533 -2532 -325 0
2533 -2532 325 0
2533 2532 -325 0
-2534 2533 326 0
-2534 -2533 -326 0
2534 -2533 326 0
2534 2533 -326 0
-2535 2534 328 0
-2535 -2534 -328 0
2535 -2534 328 0
2535 2534 -328 0
-2536 2535 329 0
-2536 -2535 -329 0
2536 -2535 329 0
2536 2535 -329 0
-2537 2536 330 0
-2537 -2536 -330 0
2537 -2536 330 0
2537 2536 -330 0
-283 -2537 0
-2538 325 326 0
-2538 -325 -326 0
2538 -325 326 0
2538 325 -326 0
-2539 2538 327 0
-2539 -2538 -327 0
2539 -2538 327 0
2539 2538 -327 0
-2540 2539 329 0
-2540 -2539 -329 0
2540 -2539 329 0
2540 2539 -329 0
-2541 2540 330 0
-2541 -2540 -330 0
2541 -2540 330 0
2541 2540 -330 0
-284 -2541 0
-2542 317 318 0
-2542 -317 -318 0
2542 -317 318 0
2542 317 -318 0
-2543 2542 319 0
-2543 -2542 -319 0
2543 -2542 319 0
2543 2542 -319 0
-2544 2543 325 0
-2544 -2543 -325 0
2544 -2543 325 0
2544 2543 -325 0
-2545 2544 326 0
-2545 -2544 -326 0
2545 -2544 326 0
2545 2544 -326 0
-2546 2545 327 0
-2546 -2545 -327 0
2546 -2545 327 0
2546 2545 -327 0
-2547 2546 329 0
-2547 -2546 -329 0
2547 -2546 329 0
2547 2546 -329 0
-2548 2547 330 0
-2548 -2547 -330 0
2548 -2547 330 0
2548 2547 -330 0
-285 -2548 0
-2549 321 322 0
-2549 -321 -322 0
2549 -321 322 0
2549 321 -322 0
-2550 2549 323 0
-2550 -2549 -323 0
2550 -2549 323 0
2550 2549 -323 0
-2551 2550 325 0
-2551 -2550 -325 0
2551 -2550 325 0
2551 2550 -325 0
-2552 2551 326 0
-2552 -2551 -326 0
2552 -2551 326 0
2552 2551 -326 0
-2553 2552 327 0
-2553 -2552 -327 0
2553 -2552 327 0
2553 2552 -327 0
-2554 2553 329 0
-2554 -2553 -329 0
2554 -2553 329 0
2554 2553 -329 0
-2555 2554 330 0
-2555 -2554 -330 0
2555 -2554 330 0
2555 2554 -330 0
-286 -2555 0
-2556 317 318 0
-2556 -317 -318 0
2556 -317 318 0
2556 317 -318 0
-2557 2556 319 0
-2557 -2556 -319 0
2557 -2556 319 0
2557 2556 -319 0
-2558 2557 321 0
-2558 -2557 -321 0
2558 -2557 321 0
2558 2557 -321 0
-2559 2558 322 0
-2559 -2558 -322 0
2559 -2558 322 0
2559 2558 -322 0
-2560 2559 323 0
-2560 -2559 -323 0
2560 -2559 323 0
2560 2559 -323 0
-2561 2560 325 0
-2561 -2560 -325 0
2561 -2560 325 0
2561 2560 -325 0
-2562 2561 326 0
-2562 -2561 -326 0
2562 -2561 326 0
2562 2561 -326 0
-2563 2562 327 0
-2563 -2562 -327 0
2563 -2562 327 0
2563 2562 -327 0
-2564 2563 329 0
-2564 -2563 -329 0
2564 -2563 329 0
2564 2563 -329 0
-2565 2564 330 0
-2565 -2564 -330 0
2565 -2564 330 0
2565 2564 -330 0
-287 -2565 0
-2566 325 327 0
-2566 -325 -327 0
2566 -325 327 0
2566 325 -327 0
-2567 2566 328 0
-2567 -2566 -328 0
2567 -2566 328 0
2567 2566 -328 0
-2568 2567 329 0
-2568 -2567 -329 0
2568 -2567 329 0
2568 2567 -329 0
-2569 2568 330 0
-2569 -2568 -330 0
2569 -2568 330 0
2569 2568 -330 0
-288 -2569 0
-2570 317 318 0
-2570 -317 -318 0
2570 -317 318 0
2570 317 -318 0
-2571 2570 319 0
-2571 -2570 -319 0
2571 -2570 319 0
2571 2570 -319 0
-2572 2571 325 0
-2572 -2571 -325 0
2572 -2571 325 0
2572 2571 -325 0
-2573 2572 327 0
-2573 -2572 -327 0
2573 -2572 327 0
2573 2572 -327 0
-2574 2573 328 0
-2574 -2573 -328 0
2574 -2573 328 0
2574 2573 -328 0
-2575 2574 329 0
-2575 -2574 -329 0
2575 -2574 329 0
2575 2574 -329 0
-2576 2575 330 0
-2576 -2575 -330 0
2576 -2575 330 0
2576 2575 -330 0
-289 -2576 0
-2577 321 322 0
-2577 -321 -322 0
2577 -321 322 0
2577 321 -322 0
-2578 2577 323 0
-2578 -2577 -323 0
2578 -2577 323 0
2578 2577 -323 0
-2579 2578 325 0
-2579 -2578 -325 0
2579 -2578 325 0
2579 2578 -325 0
-2580 2579 327 0
-2580 -2579 -327 0
2580 -2579 327 0
2580 2579 -327 0
-2581 2580 328 0
-2581 -2580 -328 0
2581 -2580 328 0
2581 2580 -328 0
-2582 2581 329 0
-2582 -2581 -329 0
2582 -2581 329 0
2582 2581 -329 0
-2583 2582 330 0
-2583 -2582 -330 0
2583 -2582 330 0
2583 2582 -330 0
-290 -2583 0
-2584 317 318 0
-2584 -317 -318 0
2584 -317 318 0
2584 317 -318 0
-2585 2584 319 0
-2585 -2584 -319 0
2585 -2584 319 0
2585 2584 -319 0
-2586 2585 321 0
-2586 -2585 -321 0
2586 -2585 321 0
2586 2585 -321 0
-2587 2586 322 0
-2587 -2586 -322 0
2587 -2586 322 0
2587 2586 -322 0
-2588 2587 323 0
-2588 -2587 -323 0
2588 -2587 323 0
2588 2587 -323 0
-2589 2588 325 0
-2589 -2588 -325 0
2589 -2588 325 0
2589 2588 -325 0
-2590 2589 327 0
-2590 -2589 -327 0
2590 -2589 327 0
2590 2589 -327 0
-2591 2590 328 0
-2591 -2590 -328 0
2591 -2590 328 0
2591 2590 -328 0
-2592 2591 329 0
-2592 -2591 -329 0
2592 -2591 329 0
2592 2591 -329 0
-2593 2592 330 0
-2593 -2592 -330 0
2593 -2592 330 0
2593 2592 -330 0
-291 -2593 0
-2594 316 320 0
-2594 -316 -320 0
2594 -316 320 0
2594 316 -320 0
-2595 2594 321 0
-2595 -2594 -321 0
2595 -2594 321 0
2595 2594 -321 0
-2596 2595 322 0
-2596 -2595 -322 0
2596 -2595 322 0
2596 2595 -322 0
-2597 2596 323 0
-2597 -2596 -323 0
2597 -2596 323 0
2597 2596 -323 0
-2598 2597 327 0
-2598 -2597 -327 0
2598 -2597 327 0
2598 2597 -327 0
-2599 2598 329 0
-2599 -2598 -329 0
2599 -2598 329 0
2599 2598 -329 0
-2600 2599 330 0
-2600 -2599 -330 0
2600 -2599 330 0
2600 2599 -330 0
-292 -2600 0
-2601 316 317 0
-2601 -316 -317 0
2601 -316 317 0
2601 316 -317 0
-2602 2601 318 0
-2602 -2601 -318 0
2602 -2601 318 0
2602 2601 -318 0
-2603 2602 319 0
-2603 -2602 -319 0
2603 -2602 319 0
2603 2602 -319 0
-2604 2603 320 0
-2604 -2603 -320 0
2604 -2603 320 0
2604 2603 -320 0
-2605 2604 321 0
-2605 -2604 -321 0
2605 -2604 321 0
2605 2604 -321 0
-2606 2605 322 0
-2606 -2605 -322 0
2606 -2605 322 0
2606 2605 -322 0
-2607 2606 323 0
-2607 -2606 -323 0
2607 -2606 323 0
2607 2606 -323 0
-2608 2607 327 0
-2608 -2607 -327 0
2608 -2607 327 0
2608 2607 -327 0
-2609 2608 329 0
-2609 -2608 -329 0
2609 -2608 329 0
2609 2608 -329 0
-2610 2609 330 0
-2610 -2609 -330 0
2610 -2609 330 0
2610 2609 -330 0
-293 -2610 0
-2611 317 320 0
-2611 -317 -320 0
2611 -317 320 0
2611 317 -320 0
-2612 2611 325 0
-2612 -2611 -325 0
2612 -2611 325 0
2612 2611 -325 0
-2613 2612 326 0
-2613 -2612 -326 0
2613 -2612 326 0
2613 2612 -326 0
-2614 2613 327 0
-2614 -2613 -327 0
2614 -2613 327 0
2614 2613 -327 0
-2615 2614 329 0
-2615 -2614 -329 0
2615 -2614 329 0
2615 2614 -329 0
-2616 2615 330 0
-2616 -2615 -330 0
2616 -2615 330 0
2616 2615 -330 0
-294 -2616 0
-2617 318 319 0
-2617 -318 -319 0
2617 -318 319 0
2617 318 -319 0
-2618 2617 320 0
-2618 -2617 -320 0
2618 -2617 320 0
2618 2617 -320 0
-2619 2618 325 0
-2619 -2618 -325 0
2619 -2618 325 0
2619 2618 -325 0
-2620 2619 326 0
-2620 -2619 -326 0
2620 -2619 326 0
2620 2619 -326 0
-2621 2620 327 0
-2621 -2620 -327 0
2621 -2620 327 0
2621 2620 -327 0
-2622 2621 329 0
-2622 -2621 -329 0
2622 -2621 329 0
2622 2621 -329 0
-2623 2622 330 0
-2623 -2622 -330 0
2623 -2622 330 0
2623 2622 -330 0
-295 -2623 0
-2624 318 320 0
-2624 -318 -320 0
2624 -318 320 0
2624 318 -320 0
-2625 2624 325 0
-2625 -2624 -325 0
2625 -2624 325 0
2625 2624 -325 0
-2626 2625 327 0
-2626 -2625 -327 0
2626 -2625 327 0
2626 2625 -327 0
-2627 2626 328 0
-2627 -2626 -328 0
2627 -2626 328 0
2627 2626 -328 0
-2628 2627 329 0
-2628 -2627 -329 0
2628 -2627 329 0
2628 2627 -329 0
-2629 2628 330 0
-2629 -2628 -330 0
2629 -2628 330 0
2629 2628 -330 0
-296 -2629 0
-2630 317 319 0
-2630 -317 -319 0
2630 -317 319 0
2630 317 -319 0
-2631 2630 320 0
-2631 -2630 -320 0
2631 -2630 320 0
2631 2630 -320 0
-2632 2631 325 0
-2632 -2631 -325 0
2632 -2631 325 0
2632 2631 -325 0
-2633 2632 327 0
-2633 -2632 -327 0
2633 -2632 327 0
2633 2632 -327 0
-2634 2633 328 0
-2634 -2633 -328 0
2634 -2633 328 0
2634 2633 -328 0
-2635 2634 329 0
-2635 -2634 -329 0
2635 -2634 329 0
2635 2634 -329 0
-2636 2635 330 0
-2636 -2635 -330 0
2636 -2635 330 0
2636 2635 -330 0
-297 -2636 0
-2637 316 317 0
-2637 -316 -317 0
2637 -316 317 0
2637 316 -317 0
-2638 2637 318 0
-2638 -2637 -318 0
2638 -2637 318 0
2638 2637 -318 0
-2639 2638 320 0
-2639 -2638 -320 0
2639 -2638 320 0
2639 2638 -320 0
-2640 2639 321 0
-2640 -2639 -321 0
2640 -2639 321 0
2640 2639 -321 0
-2641 2640 322 0
-2641 -2640 -322 0
2641 -2640 322 0
2641 2640 -322 0
-2642 2641 323 0
-2642 -2641 -323 0
2642 -2641 323 0
2642 2641 -323 0
-2643 2642 326 0
-2643 -2642 -326 0
2643 -2642 326 0
2643 2642 -326 0
-2644 2643 327 0
-2644 -2643 -327 0
2644 -2643 327 0
2644 2643 -327 0
-2645 2644 328 0
-2645 -2644 -328 0
2645 -2644 328 0
2645 2644 -328 0
-2646 2645 329 0
-2646 -2645 -329 0
2646 -2645 329 0
2646 2645 -329 0
-2647 2646 330 0
-2647 -2646 -330 0
2647 -2646 330 0
2647 2646 -330 0
-298 -2647 0
-2648 316 319 0
-2648 -316 -319 0
2648 -316 319 0
2648 316 -319 0
-2649 2648 320 0
-2649 -2648 -320 0
2649 -2648 320 0
2649 2648 -320 0
-2650 2649 321 0
-2650 -2649 -321 0
2650 -2649 321 0
2650 2649 -321 0
-2651 2650 322 0
-2651 -2650 -322 0
2651 -2650 322 0
2651 2650 -322 0
-2652 2651 323 0
-2652 -2651 -323 0
2652 -2651 323 0
2652 2651 -323 0
-2653 2652 326 0
-2653 -2652 -326 0
2653 -2652 326 0
2653 2652 -326 0
-2654 2653 327 0
-2654 -2653 -327 0
2654 -2653 327 0
2654 2653 -327 0
-2655 2654 328 0
-2655 -2654 -328 0
2655 -2654 328 0
2655 2654 -328 0
-2656 2655 329 0
-2656 -2655 -329 0
2656 -2655 329 0
2656 2655 -329 0
-2657 2656 330 0
-2657 -2656 -330 0
2657 -2656 330 0
2657 2656 -330 0
-299 -2657 0
-2658 316 317 0
-2658 -316 -317 0
2658 -316 317 0
2658 316 -317 0
-2659 2658 318 0
-2659 -2658 -318 0
2659 -2658 318 0
2659 2658 -318 0
-2660 2659 319 0
-2660 -2659 -319 0
2660 -2659 319 0
2660 2659 -319 0
-2661 2660 324 0
-2661 -2660 -324 0
2661 -2660 324 0
2661 2660 -324 0
-2662 2661 327 0
-2662 -2661 -327 0
2662 -2661 327 0
2662 2661 -327 0
-2663 2662 329 0
-2663 -2662 -329 0
2663 -2662 329 0
2663 2662 -329 0
-2664 2663 330 0
-2664 -2663 -330 0
2664 -2663 330 0
2664 2663 -330 0
-300 -2664 0
-2665 316 317 0
-2665 -316 -317 0
2665 -316 317 0
2665 316 -317 0
-2666 2665 318 0
-2666 -2665 -318 0
2666 -2665 318 0
2666 2665 -318 0
-2667 2666 319 0
-2667 -2666 -319 0
2667 -2666 319 0
2667 2666 -319 0
-2668 2667 321 0
-2668 -2667 -321 0
2668 -2667 321 0
2668 2667 -321 0
-2669 2668 322 0
-2669 -2668 -322 0
2669 -2668 322 0
2669 2668 -322 0
-2670 2669 323 0
-2670 -2669 -323 0
2670 -2669 323 0
2670 2669 -323 0
-2671 2670 324 0
-2671 -2670 -324 0
2671 -2670 324 0
2671 2670 -324 0
-2672 2671 327 0
-2672 -2671 -327 0
2672 -2671 327 0
2672 2671 -327 0
-2673 2672 329 0
-2673 -2672 -329 0
2673 -2672 329 0
2673 2672 -329 0
-2674 2673 330 0
-2674 -2673 -330 0
2674 -2673 330 0
2674 2673 -330 0
-301 -2674 0
-2675 321 324 0
-2675 -321 -324 0
2675 -321 324 0
2675 321 -324 0
-2676 2675 325 0
-2676 -2675 -325 0
2676 -2675 325 0
2676 2675 -325 0
-2677 2676 326 0
-2677 -2676 -326 0
2677 -2676 326 0
2677 2676 -326 0
-2678 2677 327 0
-2678 -2677 -327 0
2678 -2677 327 0
2678 2677 -327 0
-2679 2678 329 0
-2679 -2678 -329 0
2679 -2678 329 0
2679 2678 -329 0
-2680 2679 330 0
-2680 -2679 -330 0
2680 -2679 330 0
2680 2679 -330 0
-302 -2680 0
-2681 322 323 0
-2681 -322 -323 0
2681 -322 323 0
2681 322 -323 0
-2682 2681 324 0
-2682 -2681 -324 0
2682 -2681 324 0
2682 2681 -324 0
-2683 2682 325 0
-2683 -2682 -325 0
2683 -2682 325 0
2683 2682 -325 0
-2684 2683 326 0
-2684 -2683 -326 0
2684 -2683 326 0
2684 2683 -326 0
-2685 2684 327 0
-2685 -2684 -327 0
2685 -2684 327 0
2685 2684 -327 0
-2686 2685 329 0
-2686 -2685 -329 0
2686 -2685 329 0
2686 2685 -329 0
-2687 2686 330 0
-2687 -2686 -330 0
2687 -2686 330 0
2687 2686 -330 0
-303 -2687 0
-2688 322 324 0
-2688 -322 -324 0
2688 -322 324 0
2688 322 -324 0
-2689 2688 325 0
-2689 -2688 -325 0
2689 -2688 325 0
2689 2688 -325 0
-2690 2689 327 0
-2690 -2689 -327 0
2690 -2689 327 0
2690 2689 -327 0
-2691 2690 328 0
-2691 -2690 -328 0
2691 -2690 328 0
2691 2690 -328 0
-2692 2691 329 0
-2692 -2691 -329 0
2692 -2691 329 0
2692 2691 -329 0
-2693 2692 330 0
-2693 -2692 -330 0
2693 -2692 330 0
2693 2692 -330 0
-304 -2693 0
-2694 321 323 0
-2694 -321 -323 0
2694 -321 323 0
2694 321 -323 0
-2695 2694 324 0
-2695 -2694 -324 0
2695 -2694 324 0
2695 2694 -324 0
-2696 2695 325 0
-2696 -2695 -325 0
2696 -2695 325 0
2696 2695 -325 0
-2697 2696 327 0
-2697 -2696 -327 0
2697 -2696 327 0
2697 2696 -327 0
-2698 2697 328 0
-2698 -2697 -328 0
2698 -2697 328 0
2698 2697 -328 0
-2699 2698 329 0
-2699 -2698 -329 0
2699 -2698 329 0
2699 2698 -329 0
-2700 2699 330 0
-2700 -2699 -330 0
2700 -2699 330 0
2700 2699 -330 0
-305 -2700 0
-2701 316 317 0
-2701 -316 -317 0
2701 -316 317 0
2701 316 -317 0
-2702 2701 318 0
-2702 -2701 -318 0
2702 -2701 318 0
2702 2701 -318 0
-2703 2702 319 0
-2703 -2702 -319 0
2703 -2702 319 0
2703 2702 -319 0
-2704 2703 321 0
-2704 -2703 -321 0
2704 -2703 321 0
2704 2703 -321 0
-2705 2704 322 0
-2705 -2704 -322 0
2705 -2704 322 0
2705 2704 -322 0
-2706 2705 324 0
-2706 -2705 -324 0
2706 -2705 324 0
2706 2705 -324 0
-2707 2706 326 0
-2707 -2706 -326 0
2707 -2706 326 0
2707 2706 -326 0
-2708 2707 327 0
-2708 -2707 -327 0
2708 -2707 327 0
2708 2707 -327 0
-2709 2708 328 0
-2709 -2708 -328 0
2709 -2708 328 0
2709 2708 -328 0
-2710 2709 329 0
-2710 -2709 -329 0
2710 -2709 329 0
2710 2709 -329 0
-2711 2710 330 0
-2711 -2710 -330 0
2711 -2710 330 0
2711 2710 -330 0
-306 -2711 0
-2712 316 317 0
-2712 -316 -317 0
2712 -316 317 0
2712 316 -317 0
-2713 2712 318 0
-2713 -2712 -318 0
2713 -2712 318 0
2713 2712 -318 0
-2714 2713 319 0
-2714 -2713 -319 0
2714 -2713 319 0
2714 2713 -319 0
-2715 2714 323 0
-2715 -2714 -323 0
2715 -2714 323 0
2715 2714 -323 0
-2716 2715 324 0
-2716 -2715 -324 0
2716 -2715 324 0
2716 2715 -324 0
-2717 2716 326 0
-2717 -2716 -326 0
2717 -2716 326 0
2717 2716 -326 0
-2718 2717 327 0
-2718 -2717 -327 0
2718 -2717 327 0
2718 2717 -327 0
-2719 2718 328 0
-2719 -2718 -328 0
2719 -2718 328 0
2719 2718 -328 0
-2720 2719 329 0
-2720 -2719 -329 0
2720 -2719 329 0
2720 2719 -329 0
-2721 2720 330 0
-2721 -2720 -330 0
2721 -2720 330 0
2721 2720 -330 0
-307 -2721 0
-2722 316 317 0
-2722 -316 -317 0
2722 -316 317 0
2722 316 -317 0
-2723 2722 318 0
-2723 -2722 -318 0
2723 -2722 318 0
2723 2722 -318 0
-2724 2723 319 0
-2724 -2723 -319 0
2724 -2723 319 0
2724 2723 -319 0
-2725 2724 320 0
-2725 -2724 -320 0
2725 -2724 320 0
2725 2724 -320 0
-2726 2725 324 0
-2726 -2725 -324 0
2726 -2725 324 0
2726 2725 -324 0
-2727 2726 327 0
-2727 -2726 -327 0
2727 -2726 327 0
2727 2726 -327 0
-2728 2727 329 0
-2728 -2727 -329 0
2728 -2727 329 0
2728 2727 -329 0
-2729 2728 330 0
-2729 -2728 -330 0
2729 -2728 330 0
2729 2728 -330 0
-308 -2729 0
-2730 316 320 0
-2730 -316 -320 0
2730 -316 320 0
2730 316 -320 0
-2731 2730 321 0
-2731 -2730 -321 0
2731 -2730 321 0
2731 2730 -321 0
-2732 2731 322 0
-2732 -2731 -322 0
2732 -2731 322 0
2732 2731 -322 0
-2733 2732 323 0
-2733 -2732 -323 0
2733 -2732 323 0
2733 2732 -323 0
-2734 2733 324 0
-2734 -2733 -324 0
2734 -2733 324 0
2734 2733 -324 0
-2735 2734 327 0
-2735 -2734 -327 0
2735 -2734 327 0
2735 2734 -327 0
-2736 2735 329 0
-2736 -2735 -329 0
2736 -2735 329 0
2736 2735 -329 0
-2737 2736 330 0
-2737 -2736 -330 0
2737 -2736 330 0
2737 2736 -330 0
-309 -2737 0
-2738 317 320 0
-2738 -317 -320 0
2738 -317 320 0
2738 317 -320 0
-2739 2738 321 0
-2739 -2738 -321 0
2739 -2738 321 0
2739 2738 -321 0
-2740 2739 324 0
-2740 -2739 -324 0
2740 -2739 324 0
2740 2739 -324 0
-2741 2740 325 0
-2741 -2740 -325 0
2741 -2740 325 0
2741 2740 -325 0
-2742 2741 326 0
-2742 -2741 -326 0
2742 -2741 326 0
2742 2741 -326 0
-2743 2742 327 0
-2743 -2742 -327 0
2743 -2742 327 0
2743 2742 -327 0
-2744 2743 329 0
-2744 -2743 -329 0
2744 -2743 329 0
2744 2743 -329 0
-2745 2744 330 0
-2745 -2744 -330 0
2745 -2744 330 0
2745 2744 -330 0
-310 -2745 0
-2746 318 319 0
-2746 -318 -319 0
2746 -318 319 0
2746 318 -319 0
-2747 2746 320 0
-2747 -2746 -320 0
2747 -2746 320 0
2747 2746 -320 0
-2748 2747 322 0
-2748 -2747 -322 0
2748 -2747 322 0
2748 2747 -322 0
-2749 2748 323 0
-2749 -2748 -323 0
2749 -2748 323 0
2749 2748 -323 0
-2750 2749 324 0
-2750 -2749 -324 0
2750 -2749 324 0
2750 2749 -324 0
-2751 2750 325 0
-2751 -2750 -325 0
2751 -2750 325 0
2751 2750 -325 0
-2752 2751 326 0
-2752 -2751 -326 0
2752 -2751 326 0
2752 2751 -326 0
-2753 2752 327 0
-2753 -2752 -327 0
2753 -2752 327 0
2753 2752 -327 0
-2754 2753 329 0
-2754 -2753 -329 0
2754 -2753 329 0
2754 2753 -329 0
-2755 2754 330 0
-2755 -2754 -330 0
2755 -2754 330 0
2755 2754 -330 0
-311 -2755 0
-2756 318 320 0
-2756 -318 -320 0
2756 -318 320 0
2756 318 -320 0
-2757 2756 322 0
-2757 -2756 -322 0
2757 -2756 322 0
2757 2756 -322 0
-2758 2757 324 0
-2758 -2757 -324 0
2758 -2757 324 0
2758 2757 -324 0
-2759 2758 325 0
-2759 -2758 -325 0
2759 -2758 325 0
2759 2758 -325 0
-2760 2759 327 0
-2760 -2759 -327 0
2760 -2759 327 0
2760 2759 -327 0
-2761 2760 328 0
-2761 -2760 -328 0
2761 -2760 328 0
2761 2760 -328 0
-2762 2761 329 0
-2762 -2761 -329 0
2762 -2761 329 0
2762 2761 -329 0
-2763 2762 330 0
-2763 -2762 -330 0
2763 -2762 330 0
2763 2762 -330 0
-312 -2763 0
-2764 317 319 0
-2764 -317 -319 0
2764 -317 319 0
2764 317 -319 0
-2765 2764 320 0
-2765 -2764 -320 0
2765 -2764 320 0
2765 2764 -320 0
-2766 2765 321 0
-2766 -2765 -321 0
2766 -2765 321 0
2766 2765 -321 0
-2767 2766 323 0
-2767 -2766 -323 0
2767 -2766 323 0
2767 2766 -323 0
-2768 2767 324 0
-2768 -2767 -324 0
2768 -2767 324 0
2768 2767 -324 0
-2769 2768 325 0
-2769 -2768 -325 0
2769 -2768 325 0
2769 2768 -325 0
-2770 2769 327 0
-2770 -2769 -327 0
2770 -2769 327 0
2770 2769 -327 0
-2771 2770 328 0
-2771 -2770 -328 0
2771 -2770 328 0
2771 2770 -328 0
-2772 2771 329 0
-2772 -2771 -329 0
2772 -2771 329 0
2772 2771 -329 0
-2773 2772 330 0
-2773 -2772 -330 0
2773 -2772 330 0
2773 2772 -330 0
-313 -2773 0
-2774 316 319 0
-2774 -316 -319 0
2774 -316 319 0
2774 316 -319 0
-2775 2774 320 0
-2775 -2774 -320 0
2775 -2774 320 0
2775 2774 -320 0
-2776 2775 321 0
-2776 -2775 -321 0
2776 -2775 321 0
2776 2775 -321 0
-2777 2776 322 0
-2777 -2776 -322 0
2777 -2776 322 0
2777 2776 -322 0
-2778 2777 324 0
-2778 -2777 -324 0
2778 -2777 324 0
2778 2777 -324 0
-2779 2778 326 0
-2779 -2778 -326 0
2779 -2778 326 0
2779 2778 -326 0
-2780 2779 327 0
-2780 -2779 -327 0
2780 -2779 327 0
2780 2779 -327 0
-2781 2780 328 0
-2781 -2780 -328 0
2781 -2780 328 0
2781 2780 -328 0
-2782 2781 329 0
-2782 -2781 -329 0
2782 -2781 329 0
2782 2781 -329 0
-2783 2782 330 0
-2783 -2782 -330 0
2783 -2782 330 0
2783 2782 -330 0
-314 -2783 0
-2784 316 317 0
-2784 -316 -317 0
2784 -316 317 0
2784 316 -317 0
-2785 2784 318 0
-2785 -2784 -318 0
2785 -2784 318 0
2785 2784 -318 0
-2786 2785 320 0
-2786 -2785 -320 0
2786 -2785 320 0
2786 2785 -320 0
-2787 2786 323 0
-2787 -2786 -323 0
2787 -2786 323 0
2787 2786 -323 0
-2788 2787 324 0
-2788 -2787 -324 0
2788 -2787 324 0
2788 2787 -324 0
-2789 2788 326 0
-2789 -2788 -326 0
2789 -2788 326 0
2789 2788 -326 0
-2790 2789 327 0
-2790 -2789 -327 0
2790 -2789 327 0
2790 2789 -327 0
-2791 2790 328 0
-2791 -2790 -328 0
2791 -2790 328 0
2791 2790 -328 0
-2792 2791 329 0
-2792 -2791 -329 0
2792 -2791 329 0
2792 2791 -329 0
-2793 2792 330 0
-2793 -2792 -330 0
2793 -2792 330 0
2793 2792 -330 0
-315 -2793 0
316 317 318 319 320 321 322 323 324 325 326 327 328 329 330 0
-316 317 318 319 320 321 322 323 324 -325 326 327 328 329 -330 0
