p cnf 6135 23177
1 2 3 4 5 6 7 8 9 10 11 12 13 14 15 0
-1 361 0
-2 362 0
-361 362 0
-2 -361 0
-3 363 0
-362 363 0
-3 -362 0
-4 364 0
-363 364 0
-4 -363 0
-5 365 0
-364 365 0
-5 -364 0
-6 366 0
-365 366 0
-6 -365 0
-7 367 0
-366 367 0
-7 -366 0
-8 368 0
-367 368 0
-8 -367 0
-9 369 0
-368 369 0
-9 -368 0
-10 370 0
-369 370 0
-10 -369 0
-11 371 0
-370 371 0
-11 -370 0
-12 372 0
-371 372 0
-12 -371 0
-13 373 0
-372 373 0
-13 -372 0
-14 374 0
-373 374 0
-14 -373 0
-15 -374 0
16 17 18 19 20 21 22 23 24 25 26 27 28 29 30 0
-16 375 0
-17 376 0
-375 376 0
-17 -375 0
-18 377 0
-376 377 0
-18 -376 0
-19 378 0
-377 378 0
-19 -377 0
-20 379 0
-378 379 0
-20 -378 0
-21 380 0
-379 380 0
-21 -379 0
-22 381 0
-380 381 0
-22 -380 0
-23 382 0
-381 382 0
-23 -381 0
-24 383 0
-382 383 0
-24 -382 0
-25 384 0
-383 384 0
-25 -383 0
-26 385 0
-384 385 0
-26 -384 0
-27 386 0
-385 386 0
-27 -385 0
-28 387 0
-386 387 0
-28 -386 0
-29 388 0
-387 388 0
-29 -387 0
-30 -388 0
31 32 33 34 35 36 37 38 39 40 41 42 43 44 45 0
-31 389 0
-32 390 0
-389 390 0
-32 -389 0
-33 391 0
-390 391 0
-33 -390 0
-34 392 0
-391 392 0
-34 -391 0
-35 393 0
-392 393 0
-35 -392 0
-36 394 0
-393 394 0
-36 -393 0
-37 395 0
-394 395 0
-37 -394 0
-38 396 0
-395 396 0
-38 -395 0
-39 397 0
-396 397 0
-39 -396 0
-40 398 0
-397 398 0
-40 -397 0
-41 399 0
-398 399 0
-41 -398 0
-42 400 0
-399 400 0
-42 -399 0
-43 401 0
-400 401 0
-43 -400 0
-44 402 0
-401 402 0
-44 -401 0
-45 -402 0
1 16 31 46 47 48 49 50 51 52 53 54 55 56 57 0
-1 403 0
-16 404 0
-403 404 0
-16 -403 0
-31 405 0
-404 405 0
-31 -404 0
-46 406 0
-405 406 0
-46 -405 0
-47 407 0
-406 407 0
-47 -406 0
-48 408 0
-407 408 0
-48 -407 0
-49 409 0
-408 409 0
-49 -408 0
-50 410 0
-409 410 0
-50 -409 0
-51 411 0
-410 411 0
-51 -410 0
-52 412 0
-411 412 0
-52 -411 0
-53 413 0
-412 413 0
-53 -412 0
-54 414 0
-413 414 0
-54 -413 0
-55 415 0
-414 415 0
-55 -414 0
-56 416 0
-415 416 0
-56 -415 0
-57 -416 0
1 58 59 60 61 62 63 64 65 66 67 68 69 70 71 0
-1 417 0
-58 418 0
-417 418 0
-58 -417 0
-59 419 0
-418 419 0
-59 -418 0
-60 420 0
-419 420 0
-60 -419 0
-61 421 0
-420 421 0
-61 -420 0
-62 422 0
-421 422 0
-62 -421 0
-63 423 0
-422 423 0
-63 -422 0
-64 424 0
-423 424 0
-64 -423 0
-65 425 0
-424 425 0
-65 -424 0
-66 426 0
-425 426 0
-66 -425 0
-67 427 0
-426 427 0
-67 -426 0
-68 428 0
-427 428 0
-68 -427 0
-69 429 0
-428 429 0
-69 -428 0
-70 430 0
-429 430 0
-70 -429 0
-71 -430 0
16 72 73 74 75 76 77 78 79 80 81 82 83 84 85 0
-16 431 0
-72 432 0
-431 432 0
-72 -431 0
-73 433 0
-432 433 0
-73 -432 0
-74 434 0
-433 434 0
-74 -433 0
-75 435 0
-434 435 0
-75 -434 0
-76 436 0
-435 436 0
-76 -435 0
-77 437 0
-436 437 0
-77 -436 0
-78 438 0
-437 438 0
-78 -437 0
-79 439 0
-438 439 0
-79 -438 0
-80 440 0
-439 440 0
-80 -439 0
-81 441 0
-440 441 0
-81 -440 0
-82 442 0
-441 442 0
-82 -441 0
-83 443 0
-442 443 0
-83 -442 0
-84 444 0
-443 444 0
-84 -443 0
-85 -444 0
31 86 87 88 89 90 91 92 93 94 95 96 97 98 99 0
-31 445 0
-86 446 0
-445 446 0
-86 -445 0
-87 447 0
-446 447 0
-87 -446 0
-88 448 0
-447 448 0
-88 -447 0
-89 449 0
-448 449 0
-89 -448 0
-90 450 0
-449 450 0
-90 -449 0
-91 451 0
-450 451 0
-91 -450 0
-92 452 0
-451 452 0
-92 -451 0
-93 453 0
-452 453 0
-93 -452 0
-94 454 0
-453 454 0
-94 -453 0
-95 455 0
-454 455 0
-95 -454 0
-96 456 0
-455 456 0
-96 -455 0
-97 457 0
-456 457 0
-97 -456 0
-98 458 0
-457 458 0
-98 -457 0
-99 -458 0
2 17 32 100 101 102 103 104 105 106 107 108 109 110 111 0
-2 459 0
-17 460 0
-459 460 0
-17 -459 0
-32 461 0
-460 461 0
-32 -460 0
-100 462 0
-461 462 0
-100 -461 0
-101 463 0
-462 463 0
-101 -462 0
-102 464 0
-463 464 0
-102 -463 0
-103 465 0
-464 465 0
-103 -464 0
-104 466 0
-465 466 0
-104 -465 0
-105 467 0
-466 467 0
-105 -466 0
-106 468 0
-467 468 0
-106 -467 0
-107 469 0
-468 469 0
-107 -468 0
-108 470 0
-469 470 0
-108 -469 0
-109 471 0
-470 471 0
-109 -470 0
-110 472 0
-471 472 0
-110 -471 0
-111 -472 0
2 72 86 112 113 114 115 116 117 118 119 120 121 122 123 0
-2 473 0
-72 474 0
-473 474 0
-72 -473 0
-86 475 0
-474 475 0
-86 -474 0
-112 476 0
-475 476 0
-112 -475 0
-113 477 0
-476 477 0
-113 -476 0
-114 478 0
-477 478 0
-114 -477 0
-115 479 0
-478 479 0
-115 -478 0
-116 480 0
-479 480 0
-116 -479 0
-117 481 0
-480 481 0
-117 -480 0
-118 482 0
-481 482 0
-118 -481 0
-119 483 0
-482 483 0
-119 -482 0
-120 484 0
-483 484 0
-120 -483 0
-121 485 0
-484 485 0
-121 -484 0
-122 486 0
-485 486 0
-122 -485 0
-123 -486 0
17 58 87 124 125 126 127 128 129 130 131 132 133 134 135 0
-17 487 0
-58 488 0
-487 488 0
-58 -487 0
-87 489 0
-488 489 0
-87 -488 0
-124 490 0
-489 490 0
-124 -489 0
-125 491 0
-490 491 0
-125 -490 0
-126 492 0
-491 492 0
-126 -491 0
-127 493 0
-492 493 0
-127 -492 0
-128 494 0
-493 494 0
-128 -493 0
-129 495 0
-494 495 0
-129 -494 0
-130 496 0
-495 496 0
-130 -495 0
-131 497 0
-496 497 0
-131 -496 0
-132 498 0
-497 498 0
-132 -497 0
-133 499 0
-498 499 0
-133 -498 0
-134 500 0
-499 500 0
-134 -499 0
-135 -500 0
32 59 73 136 137 138 139 140 141 142 143 144 145 146 147 0
-32 501 0
-59 502 0
-501 502 0
-59 -501 0
-73 503 0
-502 503 0
-73 -502 0
-136 504 0
-503 504 0
-136 -503 0
-137 505 0
-504 505 0
-137 -504 0
-138 506 0
-505 506 0
-138 -505 0
-139 507 0
-506 507 0
-139 -506 0
-140 508 0
-507 508 0
-140 -507 0
-141 509 0
-508 509 0
-141 -508 0
-142 510 0
-509 510 0
-142 -509 0
-143 511 0
-510 511 0
-143 -510 0
-144 512 0
-511 512 0
-144 -511 0
-145 513 0
-512 513 0
-145 -512 0
-146 514 0
-513 514 0
-146 -513 0
-147 -514 0
3 18 33 148 149 150 151 152 153 154 155 156 157 158 159 0
-3 515 0
-18 516 0
-515 516 0
-18 -515 0
-33 517 0
-516 517 0
-33 -516 0
-148 518 0
-517 518 0
-148 -517 0
-149 519 0
-518 519 0
-149 -518 0
-150 520 0
-519 520 0
-150 -519 0
-151 521 0
-520 521 0
-151 -520 0
-152 522 0
-521 522 0
-152 -521 0
-153 523 0
-522 523 0
-153 -522 0
-154 524 0
-523 524 0
-154 -523 0
-155 525 0
-524 525 0
-155 -524 0
-156 526 0
-525 526 0
-156 -525 0
-157 527 0
-526 527 0
-157 -526 0
-158 528 0
-527 528 0
-158 -527 0
-159 -528 0
3 73 87 160 161 162 163 164 165 166 167 168 169 170 171 0
-3 529 0
-73 530 0
-529 530 0
-73 -529 0
-87 531 0
-530 531 0
-87 -530 0
-160 532 0
-531 532 0
-160 -531 0
-161 533 0
-532 533 0
-161 -532 0
-162 534 0
-533 534 0
-162 -533 0
-163 535 0
-534 535 0
-163 -534 0
-164 536 0
-535 536 0
-164 -535 0
-165 537 0
-536 537 0
-165 -536 0
-166 538 0
-537 538 0
-166 -537 0
-167 539 0
-538 539 0
-167 -538 0
-168 540 0
-539 540 0
-168 -539 0
-169 541 0
-540 541 0
-169 -540 0
-170 542 0
-541 542 0
-170 -541 0
-171 -542 0
18 59 86 172 173 174 175 176 177 178 179 180 181 182 183 0
-18 543 0
-59 544 0
-543 544 0
-59 -543 0
-86 545 0
-544 545 0
-86 -544 0
-172 546 0
-545 546 0
-172 -545 0
-173 547 0
-546 547 0
-173 -546 0
-174 548 0
-547 548 0
-174 -547 0
-175 549 0
-548 549 0
-175 -548 0
-176 550 0
-549 550 0
-176 -549 0
-177 551 0
-550 551 0
-177 -550 0
-178 552 0
-551 552 0
-178 -551 0
-179 553 0
-552 553 0
-179 -552 0
-180 554 0
-553 554 0
-180 -553 0
-181 555 0
-554 555 0
-181 -554 0
-182 556 0
-555 556 0
-182 -555 0
-183 -556 0
33 58 72 184 185 186 187 188 189 190 191 192 193 194 195 0
-33 557 0
-58 558 0
-557 558 0
-58 -557 0
-72 559 0
-558 559 0
-72 -558 0
-184 560 0
-559 560 0
-184 -559 0
-185 561 0
-560 561 0
-185 -560 0
-186 562 0
-561 562 0
-186 -561 0
-187 563 0
-562 563 0
-187 -562 0
-188 564 0
-563 564 0
-188 -563 0
-189 565 0
-564 565 0
-189 -564 0
-190 566 0
-565 566 0
-190 -565 0
-191 567 0
-566 567 0
-191 -566 0
-192 568 0
-567 568 0
-192 -567 0
-193 569 0
-568 569 0
-193 -568 0
-194 570 0
-569 570 0
-194 -569 0
-195 -570 0
4 19 34 46 60 74 88 100 112 124 136 148 160 172 184 0
-4 571 0
-19 572 0
-571 572 0
-19 -571 0
-34 573 0
-572 573 0
-34 -572 0
-46 574 0
-573 574 0
-46 -573 0
-60 575 0
-574 575 0
-60 -574 0
-74 576 0
-575 576 0
-74 -575 0
-88 577 0
-576 577 0
-88 -576 0
-100 578 0
-577 578 0
-100 -577 0
-112 579 0
-578 579 0
-112 -578 0
-124 580 0
-579 580 0
-124 -579 0
-136 581 0
-580 581 0
-136 -580 0
-148 582 0
-581 582 0
-148 -581 0
-160 583 0
-582 583 0
-160 -582 0
-172 584 0
-583 584 0
-172 -583 0
-184 -584 0
4 47 61 101 113 149 161 196 197 198 199 200 201 202 203 0
-4 585 0
-47 586 0
-585 586 0
-47 -585 0
-61 587 0
-586 587 0
-61 -586 0
-101 588 0
-587 588 0
-101 -587 0
-113 589 0
-588 589 0
-113 -588 0
-149 590 0
-589 590 0
-149 -589 0
-161 591 0
-590 591 0
-161 -590 0
-196 592 0
-591 592 0
-196 -591 0
-197 593 0
-592 593 0
-197 -592 0
-198 594 0
-593 594 0
-198 -593 0
-199 595 0
-594 595 0
-199 -594 0
-200 596 0
-595 596 0
-200 -595 0
-201 597 0
-596 597 0
-201 -596 0
-202 598 0
-597 598 0
-202 -597 0
-203 -598 0
19 48 75 102 125 150 173 204 205 206 207 208 209 210 211 0
-19 599 0
-48 600 0
-599 600 0
-48 -599 0
-75 601 0
-600 601 0
-75 -600 0
-102 602 0
-601 602 0
-102 -601 0
-125 603 0
-602 603 0
-125 -602 0
-150 604 0
-603 604 0
-150 -603 0
-173 605 0
-604 605 0
-173 -604 0
-204 606 0
-605 606 0
-204 -605 0
-205 607 0
-606 607 0
-205 -606 0
-206 608 0
-607 608 0
-206 -607 0
-207 609 0
-608 609 0
-207 -608 0
-208 610 0
-609 610 0
-208 -609 0
-209 611 0
-610 611 0
-209 -610 0
-210 612 0
-611 612 0
-210 -611 0
-211 -612 0
34 49 89 103 137 151 185 212 213 214 215 216 217 218 219 0
-34 613 0
-49 614 0
-613 614 0
-49 -613 0
-89 615 0
-614 615 0
-89 -614 0
-103 616 0
-615 616 0
-103 -615 0
-137 617 0
-616 617 0
-137 -616 0
-151 618 0
-617 618 0
-151 -617 0
-185 619 0
-618 619 0
-185 -618 0
-212 620 0
-619 620 0
-212 -619 0
-213 621 0
-620 621 0
-213 -620 0
-214 622 0
-621 622 0
-214 -621 0
-215 623 0
-622 623 0
-215 -622 0
-216 624 0
-623 624 0
-216 -623 0
-217 625 0
-624 625 0
-217 -624 0
-218 626 0
-625 626 0
-218 -625 0
-219 -626 0
5 20 35 46 61 75 89 220 221 222 223 224 225 226 227 0
-5 627 0
-20 628 0
-627 628 0
-20 -627 0
-35 629 0
-628 629 0
-35 -628 0
-46 630 0
-629 630 0
-46 -629 0
-61 631 0
-630 631 0
-61 -630 0
-75 632 0
-631 632 0
-75 -631 0
-89 633 0
-632 633 0
-89 -632 0
-220 634 0
-633 634 0
-220 -633 0
-221 635 0
-634 635 0
-221 -634 0
-222 636 0
-635 636 0
-222 -635 0
-223 637 0
-636 637 0
-223 -636 0
-224 638 0
-637 638 0
-224 -637 0
-225 639 0
-638 639 0
-225 -638 0
-226 640 0
-639 640 0
-226 -639 0
-227 -640 0
5 47 60 126 138 174 186 228 229 230 231 232 233 234 235 0
-5 641 0
-47 642 0
-641 642 0
-47 -641 0
-60 643 0
-642 643 0
-60 -642 0
-126 644 0
-643 644 0
-126 -643 0
-138 645 0
-644 645 0
-138 -644 0
-174 646 0
-645 646 0
-174 -645 0
-186 647 0
-646 647 0
-186 -646 0
-228 648 0
-647 648 0
-228 -647 0
-229 649 0
-648 649 0
-229 -648 0
-230 650 0
-649 650 0
-230 -649 0
-231 651 0
-650 651 0
-231 -650 0
-232 652 0
-651 652 0
-232 -651 0
-233 653 0
-652 653 0
-233 -652 0
-234 654 0
-653 654 0
-234 -653 0
-235 -654 0
20 48 74 114 139 162 187 236 237 238 239 240 241 242 243 0
-20 655 0
-48 656 0
-655 656 0
-48 -655 0
-74 657 0
-656 657 0
-74 -656 0
-114 658 0
-657 658 0
-114 -657 0
-139 659 0
-658 659 0
-139 -658 0
-162 660 0
-659 660 0
-162 -659 0
-187 661 0
-660 661 0
-187 -660 0
-236 662 0
-661 662 0
-236 -661 0
-237 663 0
-662 663 0
-237 -662 0
-238 664 0
-663 664 0
-238 -663 0
-239 665 0
-664 665 0
-239 -664 0
-240 666 0
-665 666 0
-240 -665 0
-241 667 0
-666 667 0
-241 -666 0
-242 668 0
-667 668 0
-242 -667 0
-243 -668 0
35 49 88 115 127 163 175 244 245 246 247 248 249 250 251 0
-35 669 0
-49 670 0
-669 670 0
-49 -669 0
-88 671 0
-670 671 0
-88 -670 0
-115 672 0
-671 672 0
-115 -671 0
-127 673 0
-672 673 0
-127 -672 0
-163 674 0
-673 674 0
-163 -673 0
-175 675 0
-674 675 0
-175 -674 0
-244 676 0
-675 676 0
-244 -675 0
-245 677 0
-676 677 0
-245 -676 0
-246 678 0
-677 678 0
-246 -677 0
-247 679 0
-678 679 0
-247 -678 0
-248 680 0
-679 680 0
-248 -679 0
-249 681 0
-680 681 0
-249 -680 0
-250 682 0
-681 682 0
-250 -681 0
-251 -682 0
6 21 36 100 113 125 137 252 253 254 255 256 257 258 259 0
-6 683 0
-21 684 0
-683 684 0
-21 -683 0
-36 685 0
-684 685 0
-36 -684 0
-100 686 0
-685 686 0
-100 -685 0
-113 687 0
-686 687 0
-113 -686 0
-125 688 0
-687 688 0
-125 -687 0
-137 689 0
-688 689 0
-137 -688 0
-252 690 0
-689 690 0
-252 -689 0
-253 691 0
-690 691 0
-253 -690 0
-254 692 0
-691 692 0
-254 -691 0
-255 693 0
-692 693 0
-255 -692 0
-256 694 0
-693 694 0
-256 -693 0
-257 695 0
-694 695 0
-257 -694 0
-258 696 0
-695 696 0
-258 -695 0
-259 -696 0
6 76 90 101 112 175 187 260 261 262 263 264 265 266 267 0
-6 697 0
-76 698 0
-697 698 0
-76 -697 0
-90 699 0
-698 699 0
-90 -698 0
-101 700 0
-699 700 0
-101 -699 0
-112 701 0
-700 701 0
-112 -700 0
-175 702 0
-701 702 0
-175 -701 0
-187 703 0
-702 703 0
-187 -702 0
-260 704 0
-703 704 0
-260 -703 0
-261 705 0
-704 705 0
-261 -704 0
-262 706 0
-705 706 0
-262 -705 0
-263 707 0
-706 707 0
-263 -706 0
-264 708 0
-707 708 0
-264 -707 0
-265 709 0
-708 709 0
-265 -708 0
-266 710 0
-709 710 0
-266 -709 0
-267 -710 0
21 62 91 102 124 163 186 268 269 270 271 272 273 274 275 0
-21 711 0
-62 712 0
-711 712 0
-62 -711 0
-91 713 0
-712 713 0
-91 -712 0
-102 714 0
-713 714 0
-102 -713 0
-124 715 0
-714 715 0
-124 -714 0
-163 716 0
-715 716 0
-163 -715 0
-186 717 0
-716 717 0
-186 -716 0
-268 718 0
-717 718 0
-268 -717 0
-269 719 0
-718 719 0
-269 -718 0
-270 720 0
-719 720 0
-270 -719 0
-271 721 0
-720 721 0
-271 -720 0
-272 722 0
-721 722 0
-272 -721 0
-273 723 0
-722 723 0
-273 -722 0
-274 724 0
-723 724 0
-274 -723 0
-275 -724 0
36 63 77 103 136 162 174 276 277 278 279 280 281 282 283 0
-36 725 0
-63 726 0
-725 726 0
-63 -725 0
-77 727 0
-726 727 0
-77 -726 0
-103 728 0
-727 728 0
-103 -727 0
-136 729 0
-728 729 0
-136 -728 0
-162 730 0
-729 730 0
-162 -729 0
-174 731 0
-730 731 0
-174 -730 0
-276 732 0
-731 732 0
-276 -731 0
-277 733 0
-732 733 0
-277 -732 0
-278 734 0
-733 734 0
-278 -733 0
-279 735 0
-734 735 0
-279 -734 0
-280 736 0
-735 736 0
-280 -735 0
-281 737 0
-736 737 0
-281 -736 0
-282 738 0
-737 738 0
-282 -737 0
-283 -738 0
7 22 37 148 161 173 185 284 285 286 287 288 289 290 291 0
-7 739 0
-22 740 0
-739 740 0
-22 -739 0
-37 741 0
-740 741 0
-37 -740 0
-148 742 0
-741 742 0
-148 -741 0
-161 743 0
-742 743 0
-161 -742 0
-173 744 0
-743 744 0
-173 -743 0
-185 745 0
-744 745 0
-185 -744 0
-284 746 0
-745 746 0
-284 -745 0
-285 747 0
-746 747 0
-285 -746 0
-286 748 0
-747 748 0
-286 -747 0
-287 749 0
-748 749 0
-287 -748 0
-288 750 0
-749 750 0
-288 -749 0
-289 751 0
-750 751 0
-289 -750 0
-290 752 0
-751 752 0
-290 -751 0
-291 -752 0
7 77 91 127 139 149 160 292 293 294 295 296 297 298 299 0
-7 753 0
-77 754 0
-753 754 0
-77 -753 0
-91 755 0
-754 755 0
-91 -754 0
-127 756 0
-755 756 0
-127 -755 0
-139 757 0
-756 757 0
-139 -756 0
-149 758 0
-757 758 0
-149 -757 0
-160 759 0
-758 759 0
-160 -758 0
-292 760 0
-759 760 0
-292 -759 0
-293 761 0
-760 761 0
-293 -760 0
-294 762 0
-761 762 0
-294 -761 0
-295 763 0
-762 763 0
-295 -762 0
-296 764 0
-763 764 0
-296 -763 0
-297 765 0
-764 765 0
-297 -764 0
-298 766 0
-765 766 0
-298 -765 0
-299 -766 0
22 63 90 115 138 150 172 300 301 302 303 304 305 306 307 0
-22 767 0
-63 768 0
-767 768 0
-63 -767 0
-90 769 0
-768 769 0
-90 -768 0
-115 770 0
-769 770 0
-115 -769 0
-138 771 0
-770 771 0
-138 -770 0
-150 772 0
-771 772 0
-150 -771 0
-172 773 0
-772 773 0
-172 -772 0
-300 774 0
-773 774 0
-300 -773 0
-301 775 0
-774 775 0
-301 -774 0
-302 776 0
-775 776 0
-302 -775 0
-303 777 0
-776 777 0
-303 -776 0
-304 778 0
-777 778 0
-304 -777 0
-305 779 0
-778 779 0
-305 -778 0
-306 780 0
-779 780 0
-306 -779 0
-307 -780 0
37 62 76 114 126 151 184 308 309 310 311 312 313 314 315 0
-37 781 0
-62 782 0
-781 782 0
-62 -781 0
-76 783 0
-782 783 0
-76 -782 0
-114 784 0
-783 784 0
-114 -783 0
-126 785 0
-784 785 0
-126 -784 0
-151 786 0
-785 786 0
-151 -785 0
-184 787 0
-786 787 0
-184 -786 0
-308 788 0
-787 788 0
-308 -787 0
-309 789 0
-788 789 0
-309 -788 0
-310 790 0
-789 790 0
-310 -789 0
-311 791 0
-790 791 0
-311 -790 0
-312 792 0
-791 792 0
-312 -791 0
-313 793 0
-792 793 0
-313 -792 0
-314 794 0
-793 794 0
-314 -793 0
-315 -794 0
8 23 38 50 64 78 92 104 116 128 140 152 164 176 188 0
-8 795 0
-23 796 0
-795 796 0
-23 -795 0
-38 797 0
-796 797 0
-38 -796 0
-50 798 0
-797 798 0
-50 -797 0
-64 799 0
-798 799 0
-64 -798 0
-78 800 0
-799 800 0
-78 -799 0
-92 801 0
-800 801 0
-92 -800 0
-104 802 0
-801 802 0
-104 -801 0
-116 803 0
-802 803 0
-116 -802 0
-128 804 0
-803 804 0
-128 -803 0
-140 805 0
-804 805 0
-140 -804 0
-152 806 0
-805 806 0
-152 -805 0
-164 807 0
-806 807 0
-164 -806 0
-176 808 0
-807 808 0
-176 -807 0
-188 -808 0
8 51 65 105 117 153 165 204 212 236 244 268 276 300 308 0
-8 809 0
-51 810 0
-809 810 0
-51 -809 0
-65 811 0
-810 811 0
-65 -810 0
-105 812 0
-811 812 0
-105 -811 0
-117 813 0
-812 813 0
-117 -812 0
-153 814 0
-813 814 0
-153 -813 0
-165 815 0
-814 815 0
-165 -814 0
-204 816 0
-815 816 0
-204 -815 0
-212 817 0
-816 817 0
-212 -816 0
-236 818 0
-817 818 0
-236 -817 0
-244 819 0
-818 819 0
-244 -818 0
-268 820 0
-819 820 0
-268 -819 0
-276 821 0
-820 821 0
-276 -820 0
-300 822 0
-821 822 0
-300 -821 0
-308 -822 0
23 52 79 106 129 154 177 196 213 228 245 260 277 292 309 0
-23 823 0
-52 824 0
-823 824 0
-52 -823 0
-79 825 0
-824 825 0
-79 -824 0
-106 826 0
-825 826 0
-106 -825 0
-129 827 0
-826 827 0
-129 -826 0
-154 828 0
-827 828 0
-154 -827 0
-177 829 0
-828 829 0
-177 -828 0
-196 830 0
-829 830 0
-196 -829 0
-213 831 0
-830 831 0
-213 -830 0
-228 832 0
-831 832 0
-228 -831 0
-245 833 0
-832 833 0
-245 -832 0
-260 834 0
-833 834 0
-260 -833 0
-277 835 0
-834 835 0
-277 -834 0
-292 836 0
-835 836 0
-292 -835 0
-309 -836 0
38 53 93 107 141 155 189 197 205 229 237 261 269 293 301 0
-38 837 0
-53 838 0
-837 838 0
-53 -837 0
-93 839 0
-838 839 0
-93 -838 0
-107 840 0
-839 840 0
-107 -839 0
-141 841 0
-840 841 0
-141 -840 0
-155 842 0
-841 842 0
-155 -841 0
-189 843 0
-842 843 0
-189 -842 0
-197 844 0
-843 844 0
-197 -843 0
-205 845 0
-844 845 0
-205 -844 0
-229 846 0
-845 846 0
-229 -845 0
-237 847 0
-846 847 0
-237 -846 0
-261 848 0
-847 848 0
-261 -847 0
-269 849 0
-848 849 0
-269 -848 0
-293 850 0
-849 850 0
-293 -849 0
-301 -850 0
9 24 39 50 65 79 93 252 262 270 278 284 294 302 310 0
-9 851 0
-24 852 0
-851 852 0
-24 -851 0
-39 853 0
-852 853 0
-39 -852 0
-50 854 0
-853 854 0
-50 -853 0
-65 855 0
-854 855 0
-65 -854 0
-79 856 0
-855 856 0
-79 -855 0
-93 857 0
-856 857 0
-93 -856 0
-252 858 0
-857 858 0
-252 -857 0
-262 859 0
-858 859 0
-262 -858 0
-270 860 0
-859 860 0
-270 -859 0
-278 861 0
-860 861 0
-278 -860 0
-284 862 0
-861 862 0
-284 -861 0
-294 863 0
-862 863 0
-294 -862 0
-302 864 0
-863 864 0
-302 -863 0
-310 -864 0
9 51 64 130 142 178 190 206 214 238 246 253 263 285 295 0
-9 865 0
-51 866 0
-865 866 0
-51 -865 0
-64 867 0
-866 867 0
-64 -866 0
-130 868 0
-867 868 0
-130 -867 0
-142 869 0
-868 869 0
-142 -868 0
-178 870 0
-869 870 0
-178 -869 0
-190 871 0
-870 871 0
-190 -870 0
-206 872 0
-871 872 0
-206 -871 0
-214 873 0
-872 873 0
-214 -872 0
-238 874 0
-873 874 0
-238 -873 0
-246 875 0
-874 875 0
-246 -874 0
-253 876 0
-875 876 0
-253 -875 0
-263 877 0
-876 877 0
-263 -876 0
-285 878 0
-877 878 0
-285 -877 0
-295 -878 0
24 52 78 118 143 166 191 198 215 230 247 254 271 286 303 0
-24 879 0
-52 880 0
-879 880 0
-52 -879 0
-78 881 0
-880 881 0
-78 -880 0
-118 882 0
-881 882 0
-118 -881 0
-143 883 0
-882 883 0
-143 -882 0
-166 884 0
-883 884 0
-166 -883 0
-191 885 0
-884 885 0
-191 -884 0
-198 886 0
-885 886 0
-198 -885 0
-215 887 0
-886 887 0
-215 -886 0
-230 888 0
-887 888 0
-230 -887 0
-247 889 0
-888 889 0
-247 -888 0
-254 890 0
-889 890 0
-254 -889 0
-271 891 0
-890 891 0
-271 -890 0
-286 892 0
-891 892 0
-286 -891 0
-303 -892 0
39 53 92 119 131 167 179 199 207 231 239 255 279 287 311 0
-39 893 0
-53 894 0
-893 894 0
-53 -893 0
-92 895 0
-894 895 0
-92 -894 0
-119 896 0
-895 896 0
-119 -895 0
-131 897 0
-896 897 0
-131 -896 0
-167 898 0
-897 898 0
-167 -897 0
-179 899 0
-898 899 0
-179 -898 0
-199 900 0
-899 900 0
-199 -899 0
-207 901 0
-900 901 0
-207 -900 0
-231 902 0
-901 902 0
-231 -901 0
-239 903 0
-902 903 0
-239 -902 0
-255 904 0
-903 904 0
-255 -903 0
-279 905 0
-904 905 0
-279 -904 0
-287 906 0
-905 906 0
-287 -905 0
-311 -906 0
10 25 40 104 117 129 141 220 232 240 248 288 296 304 312 0
-10 907 0
-25 908 0
-907 908 0
-25 -907 0
-40 909 0
-908 909 0
-40 -908 0
-104 910 0
-909 910 0
-104 -909 0
-117 911 0
-910 911 0
-117 -910 0
-129 912 0
-911 912 0
-129 -911 0
-141 913 0
-912 913 0
-141 -912 0
-220 914 0
-913 914 0
-220 -913 0
-232 915 0
-914 915 0
-232 -914 0
-240 916 0
-915 916 0
-240 -915 0
-248 917 0
-916 917 0
-248 -916 0
-288 918 0
-917 918 0
-288 -917 0
-296 919 0
-918 919 0
-296 -918 0
-304 920 0
-919 920 0
-304 -919 0
-312 -920 0
10 80 94 105 116 179 191 208 216 221 233 272 280 289 297 0
-10 921 0
-80 922 0
-921 922 0
-80 -921 0
-94 923 0
-922 923 0
-94 -922 0
-105 924 0
-923 924 0
-105 -923 0
-116 925 0
-924 925 0
-116 -924 0
-179 926 0
-925 926 0
-179 -925 0
-191 927 0
-926 927 0
-191 -926 0
-208 928 0
-927 928 0
-208 -927 0
-216 929 0
-928 929 0
-216 -928 0
-221 930 0
-929 930 0
-221 -929 0
-233 931 0
-930 931 0
-233 -930 0
-272 932 0
-931 932 0
-272 -931 0
-280 933 0
-932 933 0
-280 -932 0
-289 934 0
-933 934 0
-289 -933 0
-297 -934 0
25 66 95 106 128 167 190 200 217 222 241 264 281 290 305 0
-25 935 0
-66 936 0
-935 936 0
-66 -935 0
-95 937 0
-936 937 0
-95 -936 0
-106 938 0
-937 938 0
-106 -937 0
-128 939 0
-938 939 0
-128 -938 0
-167 940 0
-939 940 0
-167 -939 0
-190 941 0
-940 941 0
-190 -940 0
-200 942 0
-941 942 0
-200 -941 0
-217 943 0
-942 943 0
-217 -942 0
-222 944 0
-943 944 0
-222 -943 0
-241 945 0
-944 945 0
-241 -944 0
-264 946 0
-945 946 0
-264 -945 0
-281 947 0
-946 947 0
-281 -946 0
-290 948 0
-947 948 0
-290 -947 0
-305 -948 0
40 67 81 107 140 166 178 201 209 223 249 265 273 291 313 0
-40 949 0
-67 950 0
-949 950 0
-67 -949 0
-81 951 0
-950 951 0
-81 -950 0
-107 952 0
-951 952 0
-107 -951 0
-140 953 0
-952 953 0
-140 -952 0
-166 954 0
-953 954 0
-166 -953 0
-178 955 0
-954 955 0
-178 -954 0
-201 956 0
-955 956 0
-201 -955 0
-209 957 0
-956 957 0
-209 -956 0
-223 958 0
-957 958 0
-223 -957 0
-249 959 0
-958 959 0
-249 -958 0
-265 960 0
-959 960 0
-265 -959 0
-273 961 0
-960 961 0
-273 -960 0
-291 962 0
-961 962 0
-291 -961 0
-313 -962 0
11 26 41 152 165 177 189 224 234 242 250 256 266 274 282 0
-11 963 0
-26 964 0
-963 964 0
-26 -963 0
-41 965 0
-964 965 0
-41 -964 0
-152 966 0
-965 966 0
-152 -965 0
-165 967 0
-966 967 0
-165 -966 0
-177 968 0
-967 968 0
-177 -967 0
-189 969 0
-968 969 0
-189 -968 0
-224 970 0
-969 970 0
-224 -969 0
-234 971 0
-970 971 0
-234 -970 0
-242 972 0
-971 972 0
-242 -971 0
-250 973 0
-972 973 0
-250 -972 0
-256 974 0
-973 974 0
-256 -973 0
-266 975 0
-974 975 0
-266 -974 0
-274 976 0
-975 976 0
-274 -975 0
-282 -976 0
11 81 95 131 143 153 164 210 218 225 235 257 267 306 314 0
-11 977 0
-81 978 0
-977 978 0
-81 -977 0
-95 979 0
-978 979 0
-95 -978 0
-131 980 0
-979 980 0
-131 -979 0
-143 981 0
-980 981 0
-143 -980 0
-153 982 0
-981 982 0
-153 -981 0
-164 983 0
-982 983 0
-164 -982 0
-210 984 0
-983 984 0
-210 -983 0
-218 985 0
-984 985 0
-218 -984 0
-225 986 0
-985 986 0
-225 -985 0
-235 987 0
-986 987 0
-235 -986 0
-257 988 0
-987 988 0
-257 -987 0
-267 989 0
-988 989 0
-267 -988 0
-306 990 0
-989 990 0
-306 -989 0
-314 -990 0
26 67 94 119 142 154 176 202 219 226 243 258 275 298 315 0
-26 991 0
-67 992 0
-991 992 0
-67 -991 0
-94 993 0
-992 993 0
-94 -992 0
-119 994 0
-993 994 0
-119 -993 0
-142 995 0
-994 995 0
-142 -994 0
-154 996 0
-995 996 0
-154 -995 0
-176 997 0
-996 997 0
-176 -996 0
-202 998 0
-997 998 0
-202 -997 0
-219 999 0
-998 999 0
-219 -998 0
-226 1000 0
-999 1000 0
-226 -999 0
-243 1001 0
-1000 1001 0
-243 -1000 0
-258 1002 0
-1001 1002 0
-258 -1001 0
-275 1003 0
-1002 1003 0
-275 -1002 0
-298 1004 0
-1003 1004 0
-298 -1003 0
-315 -1004 0
41 66 80 118 130 155 188 203 211 227 251 259 283 299 307 0
-41 1005 0
-66 1006 0
-1005 1006 0
-66 -1005 0
-80 1007 0
-1006 1007 0
-80 -1006 0
-118 1008 0
-1007 1008 0
-118 -1007 0
-130 1009 0
-1008 1009 0
-130 -1008 0
-155 1010 0
-1009 1010 0
-155 -1009 0
-188 1011 0
-1010 1011 0
-188 -1010 0
-203 1012 0
-1011 1012 0
-203 -1011 0
-211 1013 0
-1012 1013 0
-211 -1012 0
-227 1014 0
-1013 1014 0
-227 -1013 0
-251 1015 0
-1014 1015 0
-251 -1014 0
-259 1016 0
-1015 1016 0
-259 -1015 0
-283 1017 0
-1016 1017 0
-283 -1016 0
-299 1018 0
-1017 1018 0
-299 -1017 0
-307 -1018 0
12 27 42 54 68 82 96 108 120 132 144 156 168 180 192 0
-12 1019 0
-27 1020 0
-1019 1020 0
-27 -1019 0
-42 1021 0
-1020 1021 0
-42 -1020 0
-54 1022 0
-1021 1022 0
-54 -1021 0
-68 1023 0
-1022 1023 0
-68 -1022 0
-82 1024 0
-1023 1024 0
-82 -1023 0
-96 1025 0
-1024 1025 0
-96 -1024 0
-108 1026 0
-1025 1026 0
-108 -1025 0
-120 1027 0
-1026 1027 0
-120 -1026 0
-132 1028 0
-1027 1028 0
-132 -1027 0
-144 1029 0
-1028 1029 0
-144 -1028 0
-156 1030 0
-1029 1030 0
-156 -1029 0
-168 1031 0
-1030 1031 0
-168 -1030 0
-180 1032 0
-1031 1032 0
-180 -1031 0
-192 -1032 0
12 55 69 109 121 157 169 205 213 239 247 273 281 307 315 0
-12 1033 0
-55 1034 0
-1033 1034 0
-55 -1033 0
-69 1035 0
-1034 1035 0
-69 -1034 0
-109 1036 0
-1035 1036 0
-109 -1035 0
-121 1037 0
-1036 1037 0
-121 -1036 0
-157 1038 0
-1037 1038 0
-157 -1037 0
-169 1039 0
-1038 1039 0
-169 -1038 0
-205 1040 0
-1039 1040 0
-205 -1039 0
-213 1041 0
-1040 1041 0
-213 -1040 0
-239 1042 0
-1041 1042 0
-239 -1041 0
-247 1043 0
-1042 1043 0
-247 -1042 0
-273 1044 0
-1043 1044 0
-273 -1043 0
-281 1045 0
-1044 1045 0
-281 -1044 0
-307 1046 0
-1045 1046 0
-307 -1045 0
-315 -1046 0
27 56 83 110 133 158 181 197 212 231 246 265 280 299 314 0
-27 1047 0
-56 1048 0
-1047 1048 0
-56 -1047 0
-83 1049 0
-1048 1049 0
-83 -1048 0
-110 1050 0
-1049 1050 0
-110 -1049 0
-133 1051 0
-1050 1051 0
-133 -1050 0
-158 1052 0
-1051 1052 0
-158 -1051 0
-181 1053 0
-1052 1053 0
-181 -1052 0
-197 1054 0
-1053 1054 0
-197 -1053 0
-212 1055 0
-1054 1055 0
-212 -1054 0
-231 1056 0
-1055 1056 0
-231 -1055 0
-246 1057 0
-1056 1057 0
-246 -1056 0
-265 1058 0
-1057 1058 0
-265 -1057 0
-280 1059 0
-1058 1059 0
-280 -1058 0
-299 1060 0
-1059 1060 0
-299 -1059 0
-314 -1060 0
42 57 97 111 145 159 193 196 204 230 238 264 272 298 306 0
-42 1061 0
-57 1062 0
-1061 1062 0
-57 -1061 0
-97 1063 0
-1062 1063 0
-97 -1062 0
-111 1064 0
-1063 1064 0
-111 -1063 0
-145 1065 0
-1064 1065 0
-145 -1064 0
-159 1066 0
-1065 1066 0
-159 -1065 0
-193 1067 0
-1066 1067 0
-193 -1066 0
-196 1068 0
-1067 1068 0
-196 -1067 0
-204 1069 0
-1068 1069 0
-204 -1068 0
-230 1070 0
-1069 1070 0
-230 -1069 0
-238 1071 0
-1070 1071 0
-238 -1070 0
-264 1072 0
-1071 1072 0
-264 -1071 0
-272 1073 0
-1072 1073 0
-272 -1072 0
-298 1074 0
-1073 1074 0
-298 -1073 0
-306 -1074 0
13 28 43 54 69 83 97 256 267 275 283 288 297 305 313 0
-13 1075 0
-28 1076 0
-1075 1076 0
-28 -1075 0
-43 1077 0
-1076 1077 0
-43 -1076 0
-54 1078 0
-1077 1078 0
-54 -1077 0
-69 1079 0
-1078 1079 0
-69 -1078 0
-83 1080 0
-1079 1080 0
-83 -1079 0
-97 1081 0
-1080 1081 0
-97 -1080 0
-256 1082 0
-1081 1082 0
-256 -1081 0
-267 1083 0
-1082 1083 0
-267 -1082 0
-275 1084 0
-1083 1084 0
-275 -1083 0
-283 1085 0
-1084 1085 0
-283 -1084 0
-288 1086 0
-1085 1086 0
-288 -1085 0
-297 1087 0
-1086 1087 0
-297 -1086 0
-305 1088 0
-1087 1088 0
-305 -1087 0
-313 -1088 0
13 55 68 134 146 182 194 207 215 237 245 257 266 289 296 0
-13 1089 0
-55 1090 0
-1089 1090 0
-55 -1089 0
-68 1091 0
-1090 1091 0
-68 -1090 0
-134 1092 0
-1091 1092 0
-134 -1091 0
-146 1093 0
-1092 1093 0
-146 -1092 0
-182 1094 0
-1093 1094 0
-182 -1093 0
-194 1095 0
-1094 1095 0
-194 -1094 0
-207 1096 0
-1095 1096 0
-207 -1095 0
-215 1097 0
-1096 1097 0
-215 -1096 0
-237 1098 0
-1097 1098 0
-237 -1097 0
-245 1099 0
-1098 1099 0
-245 -1098 0
-257 1100 0
-1099 1100 0
-257 -1099 0
-266 1101 0
-1100 1101 0
-266 -1100 0
-289 1102 0
-1101 1102 0
-289 -1101 0
-296 -1102 0
28 56 82 122 147 170 195 199 214 229 244 258 274 290 304 0
-28 1103 0
-56 1104 0
-1103 1104 0
-56 -1103 0
-82 1105 0
-1104 1105 0
-82 -1104 0
-122 1106 0
-1105 1106 0
-122 -1105 0
-147 1107 0
-1106 1107 0
-147 -1106 0
-170 1108 0
-1107 1108 0
-170 -1107 0
-195 1109 0
-1108 1109 0
-195 -1108 0
-199 1110 0
-1109 1110 0
-199 -1109 0
-214 1111 0
-1110 1111 0
-214 -1110 0
-229 1112 0
-1111 1112 0
-229 -1111 0
-244 1113 0
-1112 1113 0
-244 -1112 0
-258 1114 0
-1113 1114 0
-258 -1113 0
-274 1115 0
-1114 1115 0
-274 -1114 0
-290 1116 0
-1115 1116 0
-290 -1115 0
-304 -1116 0
43 57 96 123 135 171 183 198 206 228 236 259 282 291 312 0
-43 1117 0
-57 1118 0
-1117 1118 0
-57 -1117 0
-96 1119 0
-1118 1119 0
-96 -1118 0
-123 1120 0
-1119 1120 0
-123 -1119 0
-135 1121 0
-1120 1121 0
-135 -1120 0
-171 1122 0
-1121 1122 0
-171 -1121 0
-183 1123 0
-1122 1123 0
-183 -1122 0
-198 1124 0
-1123 1124 0
-198 -1123 0
-206 1125 0
-1124 1125 0
-206 -1124 0
-228 1126 0
-1125 1126 0
-228 -1125 0
-236 1127 0
-1126 1127 0
-236 -1126 0
-259 1128 0
-1127 1128 0
-259 -1127 0
-282 1129 0
-1128 1129 0
-282 -1128 0
-291 1130 0
-1129 1130 0
-291 -1129 0
-312 -1130 0
14 29 44 108 121 133 145 224 235 243 251 284 295 303 311 0
-14 1131 0
-29 1132 0
-1131 1132 0
-29 -1131 0
-44 1133 0
-1132 1133 0
-44 -1132 0
-108 1134 0
-1133 1134 0
-108 -1133 0
-121 1135 0
-1134 1135 0
-121 -1134 0
-133 1136 0
-1135 1136 0
-133 -1135 0
-145 1137 0
-1136 1137 0
-145 -1136 0
-224 1138 0
-1137 1138 0
-224 -1137 0
-235 1139 0
-1138 1139 0
-235 -1138 0
-243 1140 0
-1139 1140 0
-243 -1139 0
-251 1141 0
-1140 1141 0
-251 -1140 0
-284 1142 0
-1141 1142 0
-284 -1141 0
-295 1143 0
-1142 1143 0
-295 -1142 0
-303 1144 0
-1143 1144 0
-303 -1143 0
-311 -1144 0
14 84 98 109 120 183 195 209 217 225 234 269 277 285 294 0
-14 1145 0
-84 1146 0
-1145 1146 0
-84 -1145 0
-98 1147 0
-1146 1147 0
-98 -1146 0
-109 1148 0
-1147 1148 0
-109 -1147 0
-120 1149 0
-1148 1149 0
-120 -1148 0
-183 1150 0
-1149 1150 0
-183 -1149 0
-195 1151 0
-1150 1151 0
-195 -1150 0
-209 1152 0
-1151 1152 0
-209 -1151 0
-217 1153 0
-1152 1153 0
-217 -1152 0
-225 1154 0
-1153 1154 0
-225 -1153 0
-234 1155 0
-1154 1155 0
-234 -1154 0
-269 1156 0
-1155 1156 0
-269 -1155 0
-277 1157 0
-1156 1157 0
-277 -1156 0
-285 1158 0
-1157 1158 0
-285 -1157 0
-294 -1158 0
29 70 99 110 132 171 194 201 216 226 242 261 276 286 302 0
-29 1159 0
-70 1160 0
-1159 1160 0
-70 -1159 0
-99 1161 0
-1160 1161 0
-99 -1160 0
-110 1162 0
-1161 1162 0
-110 -1161 0
-132 1163 0
-1162 1163 0
-132 -1162 0
-171 1164 0
-1163 1164 0
-171 -1163 0
-194 1165 0
-1164 1165 0
-194 -1164 0
-201 1166 0
-1165 1166 0
-201 -1165 0
-216 1167 0
-1166 1167 0
-216 -1166 0
-226 1168 0
-1167 1168 0
-226 -1167 0
-242 1169 0
-1168 1169 0
-242 -1168 0
-261 1170 0
-1169 1170 0
-261 -1169 0
-276 1171 0
-1170 1171 0
-276 -1170 0
-286 1172 0
-1171 1172 0
-286 -1171 0
-302 -1172 0
44 71 85 111 144 170 182 200 208 227 250 260 268 287 310 0
-44 1173 0
-71 1174 0
-1173 1174 0
-71 -1173 0
-85 1175 0
-1174 1175 0
-85 -1174 0
-111 1176 0
-1175 1176 0
-111 -1175 0
-144 1177 0
-1176 1177 0
-144 -1176 0
-170 1178 0
-1177 1178 0
-170 -1177 0
-182 1179 0
-1178 1179 0
-182 -1178 0
-200 1180 0
-1179 1180 0
-200 -1179 0
-208 1181 0
-1180 1181 0
-208 -1180 0
-227 1182 0
-1181 1182 0
-227 -1181 0
-250 1183 0
-1182 1183 0
-250 -1182 0
-260 1184 0
-1183 1184 0
-260 -1183 0
-268 1185 0
-1184 1185 0
-268 -1184 0
-287 1186 0
-1185 1186 0
-287 -1185 0
-310 -1186 0
15 30 45 156 169 181 193 220 233 241 249 252 263 271 279 0
-15 1187 0
-30 1188 0
-1187 1188 0
-30 -1187 0
-45 1189 0
-1188 1189 0
-45 -1188 0
-156 1190 0
-1189 1190 0
-156 -1189 0
-169 1191 0
-1190 1191 0
-169 -1190 0
-181 1192 0
-1191 1192 0
-181 -1191 0
-193 1193 0
-1192 1193 0
-193 -1192 0
-220 1194 0
-1193 1194 0
-220 -1193 0
-233 1195 0
-1194 1195 0
-233 -1194 0
-241 1196 0
-1195 1196 0
-241 -1195 0
-249 1197 0
-1196 1197 0
-249 -1196 0
-252 1198 0
-1197 1198 0
-252 -1197 0
-263 1199 0
-1198 1199 0
-263 -1198 0
-271 1200 0
-1199 1200 0
-271 -1199 0
-279 -1200 0
15 85 99 135 147 157 168 211 219 221 232 253 262 301 309 0
-15 1201 0
-85 1202 0
-1201 1202 0
-85 -1201 0
-99 1203 0
-1202 1203 0
-99 -1202 0
-135 1204 0
-1203 1204 0
-135 -1203 0
-147 1205 0
-1204 1205 0
-147 -1204 0
-157 1206 0
-1205 1206 0
-157 -1205 0
-168 1207 0
-1206 1207 0
-168 -1206 0
-211 1208 0
-1207 1208 0
-211 -1207 0
-219 1209 0
-1208 1209 0
-219 -1208 0
-221 1210 0
-1209 1210 0
-221 -1209 0
-232 1211 0
-1210 1211 0
-232 -1210 0
-253 1212 0
-1211 1212 0
-253 -1211 0
-262 1213 0
-1212 1213 0
-262 -1212 0
-301 1214 0
-1213 1214 0
-301 -1213 0
-309 -1214 0
30 71 98 123 146 158 180 203 218 222 240 254 270 293 308 0
-30 1215 0
-71 1216 0
-1215 1216 0
-71 -1215 0
-98 1217 0
-1216 1217 0
-98 -1216 0
-123 1218 0
-1217 1218 0
-123 -1217 0
-146 1219 0
-1218 1219 0
-146 -1218 0
-158 1220 0
-1219 1220 0
-158 -1219 0
-180 1221 0
-1220 1221 0
-180 -1220 0
-203 1222 0
-1221 1222 0
-203 -1221 0
-218 1223 0
-1222 1223 0
-218 -1222 0
-222 1224 0
-1223 1224 0
-222 -1223 0
-240 1225 0
-1224 1225 0
-240 -1224 0
-254 1226 0
-1225 1226 0
-254 -1225 0
-270 1227 0
-1226 1227 0
-270 -1226 0
-293 1228 0
-1227 1228 0
-293 -1227 0
-308 -1228 0
45 70 84 122 134 159 192 202 210 223 248 255 278 292 300 0
-45 1229 0
-70 1230 0
-1229 1230 0
-70 -1229 0
-84 1231 0
-1230 1231 0
-84 -1230 0
-122 1232 0
-1231 1232 0
-122 -1231 0
-134 1233 0
-1232 1233 0
-134 -1232 0
-159 1234 0
-1233 1234 0
-159 -1233 0
-192 1235 0
-1234 1235 0
-192 -1234 0
-202 1236 0
-1235 1236 0
-202 -1235 0
-210 1237 0
-1236 1237 0
-210 -1236 0
-223 1238 0
-1237 1238 0
-223 -1237 0
-248 1239 0
-1238 1239 0
-248 -1238 0
-255 1240 0
-1239 1240 0
-255 -1239 0
-278 1241 0
-1240 1241 0
-278 -1240 0
-292 1242 0
-1241 1242 0
-292 -1241 0
-300 -1242 0
-1 -317 0
-1 -332 0
-1 -347 0
-2 -318 0
-2 -333 0
-2 -348 0
-1243 317 318 0
-1243 -317 -318 0
1243 -317 318 0
1243 317 -318 0
-3 -1243 0
-1244 332 333 0
-1244 -332 -333 0
1244 -332 333 0
1244 332 -333 0
-3 -1244 0
-1245 347 348 0
-1245 -347 -348 0
1245 -347 348 0
1245 347 -348 0
-3 -1245 0
-4 -319 0
-4 -334 0
-4 -349 0
-1246 317 319 0
-1246 -317 -319 0
1246 -317 319 0
1246 317 -319 0
-5 -1246 0
-1247 332 334 0
-1247 -332 -334 0
1247 -332 334 0
1247 332 -334 0
-5 -1247 0
-1248 347 349 0
-1248 -347 -349 0
1248 -347 349 0
1248 347 -349 0
-5 -1248 0
-1249 318 319 0
-1249 -318 -319 0
1249 -318 319 0
1249 318 -319 0
-6 -1249 0
-1250 333 334 0
-1250 -333 -334 0
1250 -333 334 0
1250 333 -334 0
-6 -1250 0
-1251 348 349 0
-1251 -348 -349 0
1251 -348 349 0
1251 348 -349 0
-6 -1251 0
-1252 317 318 0
-1252 -317 -318 0
1252 -317 318 0
1252 317 -318 0
-1253 1252 319 0
-1253 -1252 -319 0
1253 -1252 319 0
1253 1252 -319 0
-7 -1253 0
-1254 332 333 0
-1254 -332 -333 0
1254 -332 333 0
1254 332 -333 0
-1255 1254 334 0
-1255 -1254 -334 0
1255 -1254 334 0
1255 1254 -334 0
-7 -1255 0
-1256 347 348 0
-1256 -347 -348 0
1256 -347 348 0
1256 347 -348 0
-1257 1256 349 0
-1257 -1256 -349 0
1257 -1256 349 0
1257 1256 -349 0
-7 -1257 0
-8 -320 0
-8 -335 0
-8 -350 0
-1258 317 320 0
-1258 -317 -320 0
1258 -317 320 0
1258 317 -320 0
-9 -1258 0
-1259 332 335 0
-1259 -332 -335 0
1259 -332 335 0
1259 332 -335 0
-9 -1259 0
-1260 347 350 0
-1260 -347 -350 0
1260 -347 350 0
1260 347 -350 0
-9 -1260 0
-1261 318 320 0
-1261 -318 -320 0
1261 -318 320 0
1261 318 -320 0
-10 -1261 0
-1262 333 335 0
-1262 -333 -335 0
1262 -333 335 0
1262 333 -335 0
-10 -1262 0
-1263 348 350 0
-1263 -348 -350 0
1263 -348 350 0
1263 348 -350 0
-10 -1263 0
-1264 317 318 0
-1264 -317 -318 0
1264 -317 318 0
1264 317 -318 0
-1265 1264 320 0
-1265 -1264 -320 0
1265 -1264 320 0
1265 1264 -320 0
-11 -1265 0
-1266 332 333 0
-1266 -332 -333 0
1266 -332 333 0
1266 332 -333 0
-1267 1266 335 0
-1267 -1266 -335 0
1267 -1266 335 0
1267 1266 -335 0
-11 -1267 0
-1268 347 348 0
-1268 -347 -348 0
1268 -347 348 0
1268 347 -348 0
-1269 1268 350 0
-1269 -1268 -350 0
1269 -1268 350 0
1269 1268 -350 0
-11 -1269 0
-1270 319 320 0
-1270 -319 -320 0
1270 -319 320 0
1270 319 -320 0
-12 -1270 0
-1271 334 335 0
-1271 -334 -335 0
1271 -334 335 0
1271 334 -335 0
-12 -1271 0
-1272 349 350 0
-1272 -349 -350 0
1272 -349 350 0
1272 349 -350 0
-12 -1272 0
-1273 317 319 0
-1273 -317 -319 0
1273 -317 319 0
1273 317 -319 0
-1274 1273 320 0
-1274 -1273 -320 0
1274 -1273 320 0
1274 1273 -320 0
-13 -1274 0
-1275 332 334 0
-1275 -332 -334 0
1275 -332 334 0
1275 332 -334 0
-1276 1275 335 0
-1276 -1275 -335 0
1276 -1275 335 0
1276 1275 -335 0
-13 -1276 0
-1277 347 349 0
-1277 -347 -349 0
1277 -347 349 0
1277 347 -349 0
-1278 1277 350 0
-1278 -1277 -350 0
1278 -1277 350 0
1278 1277 -350 0
-13 -1278 0
-1279 318 319 0
-1279 -318 -319 0
1279 -318 319 0
1279 318 -319 0
-1280 1279 320 0
-1280 -1279 -320 0
1280 -1279 320 0
1280 1279 -320 0
-14 -1280 0
-1281 333 334 0
-1281 -333 -334 0
1281 -333 334 0
1281 333 -334 0
-1282 1281 335 0
-1282 -1281 -335 0
1282 -1281 335 0
1282 1281 -335 0
-14 -1282 0
-1283 348 349 0
-1283 -348 -349 0
1283 -348 349 0
1283 348 -349 0
-1284 1283 350 0
-1284 -1283 -350 0
1284 -1283 350 0
1284 1283 -350 0
-14 -1284 0
-1285 317 318 0
-1285 -317 -318 0
1285 -317 318 0
1285 317 -318 0
-1286 1285 319 0
-1286 -1285 -319 0
1286 -1285 319 0
1286 1285 -319 0
-1287 1286 320 0
-1287 -1286 -320 0
1287 -1286 320 0
1287 1286 -320 0
-15 -1287 0
-1288 332 333 0
-1288 -332 -333 0
1288 -332 333 0
1288 332 -333 0
-1289 1288 334 0
-1289 -1288 -334 0
1289 -1288 334 0
1289 1288 -334 0
-1290 1289 335 0
-1290 -1289 -335 0
1290 -1289 335 0
1290 1289 -335 0
-15 -1290 0
-1291 347 348 0
-1291 -347 -348 0
1291 -347 348 0
1291 347 -348 0
-1292 1291 349 0
-1292 -1291 -349 0
1292 -1291 349 0
1292 1291 -349 0
-1293 1292 350 0
-1293 -1292 -350 0
1293 -1292 350 0
1293 1292 -350 0
-15 -1293 0
-16 -321 0
-16 -336 0
-16 -351 0
-17 -322 0
-17 -337 0
-17 -352 0
-1294 321 322 0
-1294 -321 -322 0
1294 -321 322 0
1294 321 -322 0
-18 -1294 0
-1295 336 337 0
-1295 -336 -337 0
1295 -336 337 0
1295 336 -337 0
-18 -1295 0
-1296 351 352 0
-1296 -351 -352 0
1296 -351 352 0
1296 351 -352 0
-18 -1296 0
-19 -323 0
-19 -338 0
-19 -353 0
-1297 321 323 0
-1297 -321 -323 0
1297 -321 323 0
1297 321 -323 0
-20 -1297 0
-1298 336 338 0
-1298 -336 -338 0
1298 -336 338 0
1298 336 -338 0
-20 -1298 0
-1299 351 353 0
-1299 -351 -353 0
1299 -351 353 0
1299 351 -353 0
-20 -1299 0
-1300 322 323 0
-1300 -322 -323 0
1300 -322 323 0
1300 322 -323 0
-21 -1300 0
-1301 337 338 0
-1301 -337 -338 0
1301 -337 338 0
1301 337 -338 0
-21 -1301 0
-1302 352 353 0
-1302 -352 -353 0
1302 -352 353 0
1302 352 -353 0
-21 -1302 0
-1303 321 322 0
-1303 -321 -322 0
1303 -321 322 0
1303 321 -322 0
-1304 1303 323 0
-1304 -1303 -323 0
1304 -1303 323 0
1304 1303 -323 0
-22 -1304 0
-1305 336 337 0
-1305 -336 -337 0
1305 -336 337 0
1305 336 -337 0
-1306 1305 338 0
-1306 -1305 -338 0
1306 -1305 338 0
1306 1305 -338 0
-22 -1306 0
-1307 351 352 0
-1307 -351 -352 0
1307 -351 352 0
1307 351 -352 0
-1308 1307 353 0
-1308 -1307 -353 0
1308 -1307 353 0
1308 1307 -353 0
-22 -1308 0
-23 -324 0
-23 -339 0
-23 -354 0
-1309 321 324 0
-1309 -321 -324 0
1309 -321 324 0
1309 321 -324 0
-24 -1309 0
-1310 336 339 0
-1310 -336 -339 0
1310 -336 339 0
1310 336 -339 0
-24 -1310 0
-1311 351 354 0
-1311 -351 -354 0
1311 -351 354 0
1311 351 -354 0
-24 -1311 0
-1312 322 324 0
-1312 -322 -324 0
1312 -322 324 0
1312 322 -324 0
-25 -1312 0
-1313 337 339 0
-1313 -337 -339 0
1313 -337 339 0
1313 337 -339 0
-25 -1313 0
-1314 352 354 0
-1314 -352 -354 0
1314 -352 354 0
1314 352 -354 0
-25 -1314 0
-1315 321 322 0
-1315 -321 -322 0
1315 -321 322 0
1315 321 -322 0
-1316 1315 324 0
-1316 -1315 -324 0
1316 -1315 324 0
1316 1315 -324 0
-26 -1316 0
-1317 336 337 0
-1317 -336 -337 0
1317 -336 337 0
1317 336 -337 0
-1318 1317 339 0
-1318 -1317 -339 0
1318 -1317 339 0
1318 1317 -339 0
-26 -1318 0
-1319 351 352 0
-1319 -351 -352 0
1319 -351 352 0
1319 351 -352 0
-1320 1319 354 0
-1320 -1319 -354 0
1320 -1319 354 0
1320 1319 -354 0
-26 -1320 0
-1321 323 324 0
-1321 -323 -324 0
1321 -323 324 0
1321 323 -324 0
-27 -1321 0
-1322 338 339 0
-1322 -338 -339 0
1322 -338 339 0
1322 338 -339 0
-27 -1322 0
-1323 353 354 0
-1323 -353 -354 0
1323 -353 354 0
1323 353 -354 0
-27 -1323 0
-1324 321 323 0
-1324 -321 -323 0
1324 -321 323 0
1324 321 -323 0
-1325 1324 324 0
-1325 -1324 -324 0
1325 -1324 324 0
1325 1324 -324 0
-28 -1325 0
-1326 336 338 0
-1326 -336 -338 0
1326 -336 338 0
1326 336 -338 0
-1327 1326 339 0
-1327 -1326 -339 0
1327 -1326 339 0
1327 1326 -339 0
-28 -1327 0
-1328 351 353 0
-1328 -351 -353 0
1328 -351 353 0
1328 351 -353 0
-1329 1328 354 0
-1329 -1328 -354 0
1329 -1328 354 0
1329 1328 -354 0
-28 -1329 0
-1330 322 323 0
-1330 -322 -323 0
1330 -322 323 0
1330 322 -323 0
-1331 1330 324 0
-1331 -1330 -324 0
1331 -1330 324 0
1331 1330 -324 0
-29 -1331 0
-1332 337 338 0
-1332 -337 -338 0
1332 -337 338 0
1332 337 -338 0
-1333 1332 339 0
-1333 -1332 -339 0
1333 -1332 339 0
1333 1332 -339 0
-29 -1333 0
-1334 352 353 0
-1334 -352 -353 0
1334 -352 353 0
1334 352 -353 0
-1335 1334 354 0
-1335 -1334 -354 0
1335 -1334 354 0
1335 1334 -354 0
-29 -1335 0
-1336 321 322 0
-1336 -321 -322 0
1336 -321 322 0
1336 321 -322 0
-1337 1336 323 0
-1337 -1336 -323 0
1337 -1336 323 0
1337 1336 -323 0
-1338 1337 324 0
-1338 -1337 -324 0
1338 -1337 324 0
1338 1337 -324 0
-30 -1338 0
-1339 336 337 0
-1339 -336 -337 0
1339 -336 337 0
1339 336 -337 0
-1340 1339 338 0
-1340 -1339 -338 0
1340 -1339 338 0
1340 1339 -338 0
-1341 1340 339 0
-1341 -1340 -339 0
1341 -1340 339 0
1341 1340 -339 0
-30 -1341 0
-1342 351 352 0
-1342 -351 -352 0
1342 -351 352 0
1342 351 -352 0
-1343 1342 353 0
-1343 -1342 -353 0
1343 -1342 353 0
1343 1342 -353 0
-1344 1343 354 0
-1344 -1343 -354 0
1344 -1343 354 0
1344 1343 -354 0
-30 -1344 0
-1345 317 321 0
-1345 -317 -321 0
1345 -317 321 0
1345 317 -321 0
-31 -1345 0
-1346 332 336 0
-1346 -332 -336 0
1346 -332 336 0
1346 332 -336 0
-31 -1346 0
-1347 347 351 0
-1347 -347 -351 0
1347 -347 351 0
1347 347 -351 0
-31 -1347 0
-1348 318 322 0
-1348 -318 -322 0
1348 -318 322 0
1348 318 -322 0
-32 -1348 0
-1349 333 337 0
-1349 -333 -337 0
1349 -333 337 0
1349 333 -337 0
-32 -1349 0
-1350 348 352 0
-1350 -348 -352 0
1350 -348 352 0
1350 348 -352 0
-32 -1350 0
-1351 317 318 0
-1351 -317 -318 0
1351 -317 318 0
1351 317 -318 0
-1352 1351 321 0
-1352 -1351 -321 0
1352 -1351 321 0
1352 1351 -321 0
-1353 1352 322 0
-1353 -1352 -322 0
1353 -1352 322 0
1353 1352 -322 0
-33 -1353 0
-1354 332 333 0
-1354 -332 -333 0
1354 -332 333 0
1354 332 -333 0
-1355 1354 336 0
-1355 -1354 -336 0
1355 -1354 336 0
1355 1354 -336 0
-1356 1355 337 0
-1356 -1355 -337 0
1356 -1355 337 0
1356 1355 -337 0
-33 -1356 0
-1357 347 348 0
-1357 -347 -348 0
1357 -347 348 0
1357 347 -348 0
-1358 1357 351 0
-1358 -1357 -351 0
1358 -1357 351 0
1358 1357 -351 0
-1359 1358 352 0
-1359 -1358 -352 0
1359 -1358 352 0
1359 1358 -352 0
-33 -1359 0
-1360 319 323 0
-1360 -319 -323 0
1360 -319 323 0
1360 319 -323 0
-34 -1360 0
-1361 334 338 0
-1361 -334 -338 0
1361 -334 338 0
1361 334 -338 0
-34 -1361 0
-1362 349 353 0
-1362 -349 -353 0
1362 -349 353 0
1362 349 -353 0
-34 -1362 0
-1363 317 319 0
-1363 -317 -319 0
1363 -317 319 0
1363 317 -319 0
-1364 1363 321 0
-1364 -1363 -321 0
1364 -1363 321 0
1364 1363 -321 0
-1365 1364 323 0
-1365 -1364 -323 0
1365 -1364 323 0
1365 1364 -323 0
-35 -1365 0
-1366 332 334 0
-1366 -332 -334 0
1366 -332 334 0
1366 332 -334 0
-1367 1366 336 0
-1367 -1366 -336 0
1367 -1366 336 0
1367 1366 -336 0
-1368 1367 338 0
-1368 -1367 -338 0
1368 -1367 338 0
1368 1367 -338 0
-35 -1368 0
-1369 347 349 0
-1369 -347 -349 0
1369 -347 349 0
1369 347 -349 0
-1370 1369 351 0
-1370 -1369 -351 0
1370 -1369 351 0
1370 1369 -351 0
-1371 1370 353 0
-1371 -1370 -353 0
1371 -1370 353 0
1371 1370 -353 0
-35 -1371 0
-1372 318 319 0
-1372 -318 -319 0
1372 -318 319 0
1372 318 -319 0
-1373 1372 322 0
-1373 -1372 -322 0
1373 -1372 322 0
1373 1372 -322 0
-1374 1373 323 0
-1374 -1373 -323 0
1374 -1373 323 0
1374 1373 -323 0
-36 -1374 0
-1375 333 334 0
-1375 -333 -334 0
1375 -333 334 0
1375 333 -334 0
-1376 1375 337 0
-1376 -1375 -337 0
1376 -1375 337 0
1376 1375 -337 0
-1377 1376 338 0
-1377 -1376 -338 0
1377 -1376 338 0
1377 1376 -338 0
-36 -1377 0
-1378 348 349 0
-1378 -348 -349 0
1378 -348 349 0
1378 348 -349 0
-1379 1378 352 0
-1379 -1378 -352 0
1379 -1378 352 0
1379 1378 -352 0
-1380 1379 353 0
-1380 -1379 -353 0
1380 -1379 353 0
1380 1379 -353 0
-36 -1380 0
-1381 317 318 0
-1381 -317 -318 0
1381 -317 318 0
1381 317 -318 0
-1382 1381 319 0
-1382 -1381 -319 0
1382 -1381 319 0
1382 1381 -319 0
-1383 1382 321 0
-1383 -1382 -321 0
1383 -1382 321 0
1383 1382 -321 0
-1384 1383 322 0
-1384 -1383 -322 0
1384 -1383 322 0
1384 1383 -322 0
-1385 1384 323 0
-1385 -1384 -323 0
1385 -1384 323 0
1385 1384 -323 0
-37 -1385 0
-1386 332 333 0
-1386 -332 -333 0
1386 -332 333 0
1386 332 -333 0
-1387 1386 334 0
-1387 -1386 -334 0
1387 -1386 334 0
1387 1386 -334 0
-1388 1387 336 0
-1388 -1387 -336 0
1388 -1387 336 0
1388 1387 -336 0
-1389 1388 337 0
-1389 -1388 -337 0
1389 -1388 337 0
1389 1388 -337 0
-1390 1389 338 0
-1390 -1389 -338 0
1390 -1389 338 0
1390 1389 -338 0
-37 -1390 0
-1391 347 348 0
-1391 -347 -348 0
1391 -347 348 0
1391 347 -348 0
-1392 1391 349 0
-1392 -1391 -349 0
1392 -1391 349 0
1392 1391 -349 0
-1393 1392 351 0
-1393 -1392 -351 0
1393 -1392 351 0
1393 1392 -351 0
-1394 1393 352 0
-1394 -1393 -352 0
1394 -1393 352 0
1394 1393 -352 0
-1395 1394 353 0
-1395 -1394 -353 0
1395 -1394 353 0
1395 1394 -353 0
-37 -1395 0
-1396 320 324 0
-1396 -320 -324 0
1396 -320 324 0
1396 320 -324 0
-38 -1396 0
-1397 335 339 0
-1397 -335 -339 0
1397 -335 339 0
1397 335 -339 0
-38 -1397 0
-1398 350 354 0
-1398 -350 -354 0
1398 -350 354 0
1398 350 -354 0
-38 -1398 0
-1399 317 320 0
-1399 -317 -320 0
1399 -317 320 0
1399 317 -320 0
-1400 1399 321 0
-1400 -1399 -321 0
1400 -1399 321 0
1400 1399 -321 0
-1401 1400 324 0
-1401 -1400 -324 0
1401 -1400 324 0
1401 1400 -324 0
-39 -1401 0
-1402 332 335 0
-1402 -332 -335 0
1402 -332 335 0
1402 332 -335 0
-1403 1402 336 0
-1403 -1402 -336 0
1403 -1402 336 0
1403 1402 -336 0
-1404 1403 339 0
-1404 -1403 -339 0
1404 -1403 339 0
1404 1403 -339 0
-39 -1404 0
-1405 347 350 0
-1405 -347 -350 0
1405 -347 350 0
1405 347 -350 0
-1406 1405 351 0
-1406 -1405 -351 0
1406 -1405 351 0
1406 1405 -351 0
-1407 1406 354 0
-1407 -1406 -354 0
1407 -1406 354 0
1407 1406 -354 0
-39 -1407 0
-1408 318 320 0
-1408 -318 -320 0
1408 -318 320 0
1408 318 -320 0
-1409 1408 322 0
-1409 -1408 -322 0
1409 -1408 322 0
1409 1408 -322 0
-1410 1409 324 0
-1410 -1409 -324 0
1410 -1409 324 0
1410 1409 -324 0
-40 -1410 0
-1411 333 335 0
-1411 -333 -335 0
1411 -333 335 0
1411 333 -335 0
-1412 1411 337 0
-1412 -1411 -337 0
1412 -1411 337 0
1412 1411 -337 0
-1413 1412 339 0
-1413 -1412 -339 0
1413 -1412 339 0
1413 1412 -339 0
-40 -1413 0
-1414 348 350 0
-1414 -348 -350 0
1414 -348 350 0
1414 348 -350 0
-1415 1414 352 0
-1415 -1414 -352 0
1415 -1414 352 0
1415 1414 -352 0
-1416 1415 354 0
-1416 -1415 -354 0
1416 -1415 354 0
1416 1415 -354 0
-40 -1416 0
-1417 317 318 0
-1417 -317 -318 0
1417 -317 318 0
1417 317 -318 0
-1418 1417 320 0
-1418 -1417 -320 0
1418 -1417 320 0
1418 1417 -320 0
-1419 1418 321 0
-1419 -1418 -321 0
1419 -1418 321 0
1419 1418 -321 0
-1420 1419 322 0
-1420 -1419 -322 0
1420 -1419 322 0
1420 1419 -322 0
-1421 1420 324 0
-1421 -1420 -324 0
1421 -1420 324 0
1421 1420 -324 0
-41 -1421 0
-1422 332 333 0
-1422 -332 -333 0
1422 -332 333 0
1422 332 -333 0
-1423 1422 335 0
-1423 -1422 -335 0
1423 -1422 335 0
1423 1422 -335 0
-1424 1423 336 0
-1424 -1423 -336 0
1424 -1423 336 0
1424 1423 -336 0
-1425 1424 337 0
-1425 -1424 -337 0
1425 -1424 337 0
1425 1424 -337 0
-1426 1425 339 0
-1426 -1425 -339 0
1426 -1425 339 0
1426 1425 -339 0
-41 -1426 0
-1427 347 348 0
-1427 -347 -348 0
1427 -347 348 0
1427 347 -348 0
-1428 1427 350 0
-1428 -1427 -350 0
1428 -1427 350 0
1428 1427 -350 0
-1429 1428 351 0
-1429 -1428 -351 0
1429 -1428 351 0
1429 1428 -351 0
-1430 1429 352 0
-1430 -1429 -352 0
1430 -1429 352 0
1430 1429 -352 0
-1431 1430 354 0
-1431 -1430 -354 0
1431 -1430 354 0
1431 1430 -354 0
-41 -1431 0
-1432 319 320 0
-1432 -319 -320 0
1432 -319 320 0
1432 319 -320 0
-1433 1432 323 0
-1433 -1432 -323 0
1433 -1432 323 0
1433 1432 -323 0
-1434 1433 324 0
-1434 -1433 -324 0
1434 -1433 324 0
1434 1433 -324 0
-42 -1434 0
-1435 334 335 0
-1435 -334 -335 0
1435 -334 335 0
1435 334 -335 0
-1436 1435 338 0
-1436 -1435 -338 0
1436 -1435 338 0
1436 1435 -338 0
-1437 1436 339 0
-1437 -1436 -339 0
1437 -1436 339 0
1437 1436 -339 0
-42 -1437 0
-1438 349 350 0
-1438 -349 -350 0
1438 -349 350 0
1438 349 -350 0
-1439 1438 353 0
-1439 -1438 -353 0
1439 -1438 353 0
1439 1438 -353 0
-1440 1439 354 0
-1440 -1439 -354 0
1440 -1439 354 0
1440 1439 -354 0
-42 -1440 0
-1441 317 319 0
-1441 -317 -319 0
1441 -317 319 0
1441 317 -319 0
-1442 1441 320 0
-1442 -1441 -320 0
1442 -1441 320 0
1442 1441 -320 0
-1443 1442 321 0
-1443 -1442 -321 0
1443 -1442 321 0
1443 1442 -321 0
-1444 1443 323 0
-1444 -1443 -323 0
1444 -1443 323 0
1444 1443 -323 0
-1445 1444 324 0
-1445 -1444 -324 0
1445 -1444 324 0
1445 1444 -324 0
-43 -1445 0
-1446 332 334 0
-1446 -332 -334 0
1446 -332 334 0
1446 332 -334 0
-1447 1446 335 0
-1447 -1446 -335 0
1447 -1446 335 0
1447 1446 -335 0
-1448 1447 336 0
-1448 -1447 -336 0
1448 -1447 336 0
1448 1447 -336 0
-1449 1448 338 0
-1449 -1448 -338 0
1449 -1448 338 0
1449 1448 -338 0
-1450 1449 339 0
-1450 -1449 -339 0
1450 -1449 339 0
1450 1449 -339 0
-43 -1450 0
-1451 347 349 0
-1451 -347 -349 0
1451 -347 349 0
1451 347 -349 0
-1452 1451 350 0
-1452 -1451 -350 0
1452 -1451 350 0
1452 1451 -350 0
-1453 1452 351 0
-1453 -1452 -351 0
1453 -1452 351 0
1453 1452 -351 0
-1454 1453 353 0
-1454 -1453 -353 0
1454 -1453 353 0
1454 1453 -353 0
-1455 1454 354 0
-1455 -1454 -354 0
1455 -1454 354 0
1455 1454 -354 0
-43 -1455 0
-1456 318 319 0
-1456 -318 -319 0
1456 -318 319 0
1456 318 -319 0
-1457 1456 320 0
-1457 -1456 -320 0
1457 -1456 320 0
1457 1456 -320 0
-1458 1457 322 0
-1458 -1457 -322 0
1458 -1457 322 0
1458 1457 -322 0
-1459 1458 323 0
-1459 -1458 -323 0
1459 -1458 323 0
1459 1458 -323 0
-1460 1459 324 0
-1460 -1459 -324 0
1460 -1459 324 0
1460 1459 -324 0
-44 -1460 0
-1461 333 334 0
-1461 -333 -334 0
1461 -333 334 0
1461 333 -334 0
-1462 1461 335 0
-1462 -1461 -335 0
1462 -1461 335 0
1462 1461 -335 0
-1463 1462 337 0
-1463 -1462 -337 0
1463 -1462 337 0
1463 1462 -337 0
-1464 1463 338 0
-1464 -1463 -338 0
1464 -1463 338 0
1464 1463 -338 0
-1465 1464 339 0
-1465 -1464 -339 0
1465 -1464 339 0
1465 1464 -339 0
-44 -1465 0
-1466 348 349 0
-1466 -348 -349 0
1466 -348 349 0
1466 348 -349 0
-1467 1466 350 0
-1467 -1466 -350 0
1467 -1466 350 0
1467 1466 -350 0
-1468 1467 352 0
-1468 -1467 -352 0
1468 -1467 352 0
1468 1467 -352 0
-1469 1468 353 0
-1469 -1468 -353 0
1469 -1468 353 0
1469 1468 -353 0
-1470 1469 354 0
-1470 -1469 -354 0
1470 -1469 354 0
1470 1469 -354 0
-44 -1470 0
-1471 317 318 0
-1471 -317 -318 0
1471 -317 318 0
1471 317 -318 0
-1472 1471 319 0
-1472 -1471 -319 0
1472 -1471 319 0
1472 1471 -319 0
-1473 1472 320 0
-1473 -1472 -320 0
1473 -1472 320 0
1473 1472 -320 0
-1474 1473 321 0
-1474 -1473 -321 0
1474 -1473 321 0
1474 1473 -321 0
-1475 1474 322 0
-1475 -1474 -322 0
1475 -1474 322 0
1475 1474 -322 0
-1476 1475 323 0
-1476 -1475 -323 0
1476 -1475 323 0
1476 1475 -323 0
-1477 1476 324 0
-1477 -1476 -324 0
1477 -1476 324 0
1477 1476 -324 0
-45 -1477 0
-1478 332 333 0
-1478 -332 -333 0
1478 -332 333 0
1478 332 -333 0
-1479 1478 334 0
-1479 -1478 -334 0
1479 -1478 334 0
1479 1478 -334 0
-1480 1479 335 0
-1480 -1479 -335 0
1480 -1479 335 0
1480 1479 -335 0
-1481 1480 336 0
-1481 -1480 -336 0
1481 -1480 336 0
1481 1480 -336 0
-1482 1481 337 0
-1482 -1481 -337 0
1482 -1481 337 0
1482 1481 -337 0
-1483 1482 338 0
-1483 -1482 -338 0
1483 -1482 338 0
1483 1482 -338 0
-1484 1483 339 0
-1484 -1483 -339 0
1484 -1483 339 0
1484 1483 -339 0
-45 -1484 0
-1485 347 348 0
-1485 -347 -348 0
1485 -347 348 0
1485 347 -348 0
-1486 1485 349 0
-1486 -1485 -349 0
1486 -1485 349 0
1486 1485 -349 0
-1487 1486 350 0
-1487 -1486 -350 0
1487 -1486 350 0
1487 1486 -350 0
-1488 1487 351 0
-1488 -1487 -351 0
1488 -1487 351 0
1488 1487 -351 0
-1489 1488 352 0
-1489 -1488 -352 0
1489 -1488 352 0
1489 1488 -352 0
-1490 1489 353 0
-1490 -1489 -353 0
1490 -1489 353 0
1490 1489 -353 0
-1491 1490 354 0
-1491 -1490 -354 0
1491 -1490 354 0
1491 1490 -354 0
-45 -1491 0
-46 -326 0
-46 -341 0
-46 -356 0
-1492 317 326 0
-1492 -317 -326 0
1492 -317 326 0
1492 317 -326 0
-47 -1492 0
-1493 332 341 0
-1493 -332 -341 0
1493 -332 341 0
1493 332 -341 0
-47 -1493 0
-1494 347 356 0
-1494 -347 -356 0
1494 -347 356 0
1494 347 -356 0
-47 -1494 0
-1495 321 326 0
-1495 -321 -326 0
1495 -321 326 0
1495 321 -326 0
-48 -1495 0
-1496 336 341 0
-1496 -336 -341 0
1496 -336 341 0
1496 336 -341 0
-48 -1496 0
-1497 351 356 0
-1497 -351 -356 0
1497 -351 356 0
1497 351 -356 0
-48 -1497 0
-1498 317 321 0
-1498 -317 -321 0
1498 -317 321 0
1498 317 -321 0
-1499 1498 326 0
-1499 -1498 -326 0
1499 -1498 326 0
1499 1498 -326 0
-49 -1499 0
-1500 332 336 0
-1500 -332 -336 0
1500 -332 336 0
1500 332 -336 0
-1501 1500 341 0
-1501 -1500 -341 0
1501 -1500 341 0
1501 1500 -341 0
-49 -1501 0
-1502 347 351 0
-1502 -347 -351 0
1502 -347 351 0
1502 347 -351 0
-1503 1502 356 0
-1503 -1502 -356 0
1503 -1502 356 0
1503 1502 -356 0
-49 -1503 0
-50 -327 0
-50 -342 0
-50 -357 0
-1504 317 327 0
-1504 -317 -327 0
1504 -317 327 0
1504 317 -327 0
-51 -1504 0
-1505 332 342 0
-1505 -332 -342 0
1505 -332 342 0
1505 332 -342 0
-51 -1505 0
-1506 347 357 0
-1506 -347 -357 0
1506 -347 357 0
1506 347 -357 0
-51 -1506 0
-1507 321 327 0
-1507 -321 -327 0
1507 -321 327 0
1507 321 -327 0
-52 -1507 0
-1508 336 342 0
-1508 -336 -342 0
1508 -336 342 0
1508 336 -342 0
-52 -1508 0
-1509 351 357 0
-1509 -351 -357 0
1509 -351 357 0
1509 351 -357 0
-52 -1509 0
-1510 317 321 0
-1510 -317 -321 0
1510 -317 321 0
1510 317 -321 0
-1511 1510 327 0
-1511 -1510 -327 0
1511 -1510 327 0
1511 1510 -327 0
-53 -1511 0
-1512 332 336 0
-1512 -332 -336 0
1512 -332 336 0
1512 332 -336 0
-1513 1512 342 0
-1513 -1512 -342 0
1513 -1512 342 0
1513 1512 -342 0
-53 -1513 0
-1514 347 351 0
-1514 -347 -351 0
1514 -347 351 0
1514 347 -351 0
-1515 1514 357 0
-1515 -1514 -357 0
1515 -1514 357 0
1515 1514 -357 0
-53 -1515 0
-1516 326 327 0
-1516 -326 -327 0
1516 -326 327 0
1516 326 -327 0
-54 -1516 0
-1517 341 342 0
-1517 -341 -342 0
1517 -341 342 0
1517 341 -342 0
-54 -1517 0
-1518 356 357 0
-1518 -356 -357 0
1518 -356 357 0
1518 356 -357 0
-54 -1518 0
-1519 317 326 0
-1519 -317 -326 0
1519 -317 326 0
1519 317 -326 0
-1520 1519 327 0
-1520 -1519 -327 0
1520 -1519 327 0
1520 1519 -327 0
-55 -1520 0
-1521 332 341 0
-1521 -332 -341 0
1521 -332 341 0
1521 332 -341 0
-1522 1521 342 0
-1522 -1521 -342 0
1522 -1521 342 0
1522 1521 -342 0
-55 -1522 0
-1523 347 356 0
-1523 -347 -356 0
1523 -347 356 0
1523 347 -356 0
-1524 1523 357 0
-1524 -1523 -357 0
1524 -1523 357 0
1524 1523 -357 0
-55 -1524 0
-1525 321 326 0
-1525 -321 -326 0
1525 -321 326 0
1525 321 -326 0
-1526 1525 327 0
-1526 -1525 -327 0
1526 -1525 327 0
1526 1525 -327 0
-56 -1526 0
-1527 336 341 0
-1527 -336 -341 0
1527 -336 341 0
1527 336 -341 0
-1528 1527 342 0
-1528 -1527 -342 0
1528 -1527 342 0
1528 1527 -342 0
-56 -1528 0
-1529 351 356 0
-1529 -351 -356 0
1529 -351 356 0
1529 351 -356 0
-1530 1529 357 0
-1530 -1529 -357 0
1530 -1529 357 0
1530 1529 -357 0
-56 -1530 0
-1531 317 321 0
-1531 -317 -321 0
1531 -317 321 0
1531 317 -321 0
-1532 1531 326 0
-1532 -1531 -326 0
1532 -1531 326 0
1532 1531 -326 0
-1533 1532 327 0
-1533 -1532 -327 0
1533 -1532 327 0
1533 1532 -327 0
-57 -1533 0
-1534 332 336 0
-1534 -332 -336 0
1534 -332 336 0
1534 332 -336 0
-1535 1534 341 0
-1535 -1534 -341 0
1535 -1534 341 0
1535 1534 -341 0
-1536 1535 342 0
-1536 -1535 -342 0
1536 -1535 342 0
1536 1535 -342 0
-57 -1536 0
-1537 347 351 0
-1537 -347 -351 0
1537 -347 351 0
1537 347 -351 0
-1538 1537 356 0
-1538 -1537 -356 0
1538 -1537 356 0
1538 1537 -356 0
-1539 1538 357 0
-1539 -1538 -357 0
1539 -1538 357 0
1539 1538 -357 0
-57 -1539 0
-1540 316 318 0
-1540 -316 -318 0
1540 -316 318 0
1540 316 -318 0
-1541 1540 321 0
-1541 -1540 -321 0
1541 -1540 321 0
1541 1540 -321 0
-1542 1541 325 0
-1542 -1541 -325 0
1542 -1541 325 0
1542 1541 -325 0
-58 -1542 0
-1543 331 333 0
-1543 -331 -333 0
1543 -331 333 0
1543 331 -333 0
-1544 1543 336 0
-1544 -1543 -336 0
1544 -1543 336 0
1544 1543 -336 0
-1545 1544 340 0
-1545 -1544 -340 0
1545 -1544 340 0
1545 1544 -340 0
-58 -1545 0
-1546 346 348 0
-1546 -346 -348 0
1546 -346 348 0
1546 346 -348 0
-1547 1546 351 0
-1547 -1546 -351 0
1547 -1546 351 0
1547 1546 -351 0
-1548 1547 355 0
-1548 -1547 -355 0
1548 -1547 355 0
1548 1547 -355 0
-58 -1548 0
-1549 316 317 0
-1549 -316 -317 0
1549 -316 317 0
1549 316 -317 0
-1550 1549 318 0
-1550 -1549 -318 0
1550 -1549 318 0
1550 1549 -318 0
-1551 1550 321 0
-1551 -1550 -321 0
1551 -1550 321 0
1551 1550 -321 0
-1552 1551 325 0
-1552 -1551 -325 0
1552 -1551 325 0
1552 1551 -325 0
-59 -1552 0
-1553 331 332 0
-1553 -331 -332 0
1553 -331 332 0
1553 331 -332 0
-1554 1553 333 0
-1554 -1553 -333 0
1554 -1553 333 0
1554 1553 -333 0
-1555 1554 336 0
-1555 -1554 -336 0
1555 -1554 336 0
1555 1554 -336 0
-1556 1555 340 0
-1556 -1555 -340 0
1556 -1555 340 0
1556 1555 -340 0
-59 -1556 0
-1557 346 347 0
-1557 -346 -347 0
1557 -346 347 0
1557 346 -347 0
-1558 1557 348 0
-1558 -1557 -348 0
1558 -1557 348 0
1558 1557 -348 0
-1559 1558 351 0
-1559 -1558 -351 0
1559 -1558 351 0
1559 1558 -351 0
-1560 1559 355 0
-1560 -1559 -355 0
1560 -1559 355 0
1560 1559 -355 0
-59 -1560 0
-1561 319 326 0
-1561 -319 -326 0
1561 -319 326 0
1561 319 -326 0
-60 -1561 0
-1562 334 341 0
-1562 -334 -341 0
1562 -334 341 0
1562 334 -341 0
-60 -1562 0
-1563 349 356 0
-1563 -349 -356 0
1563 -349 356 0
1563 349 -356 0
-60 -1563 0
-1564 317 319 0
-1564 -317 -319 0
1564 -317 319 0
1564 317 -319 0
-1565 1564 326 0
-1565 -1564 -326 0
1565 -1564 326 0
1565 1564 -326 0
-61 -1565 0
-1566 332 334 0
-1566 -332 -334 0
1566 -332 334 0
1566 332 -334 0
-1567 1566 341 0
-1567 -1566 -341 0
1567 -1566 341 0
1567 1566 -341 0
-61 -1567 0
-1568 347 349 0
-1568 -347 -349 0
1568 -347 349 0
1568 347 -349 0
-1569 1568 356 0
-1569 -1568 -356 0
1569 -1568 356 0
1569 1568 -356 0
-61 -1569 0
-1570 316 318 0
-1570 -316 -318 0
1570 -316 318 0
1570 316 -318 0
-1571 1570 319 0
-1571 -1570 -319 0
1571 -1570 319 0
1571 1570 -319 0
-1572 1571 321 0
-1572 -1571 -321 0
1572 -1571 321 0
1572 1571 -321 0
-1573 1572 325 0
-1573 -1572 -325 0
1573 -1572 325 0
1573 1572 -325 0
-1574 1573 326 0
-1574 -1573 -326 0
1574 -1573 326 0
1574 1573 -326 0
-62 -1574 0
-1575 331 333 0
-1575 -331 -333 0
1575 -331 333 0
1575 331 -333 0
-1576 1575 334 0
-1576 -1575 -334 0
1576 -1575 334 0
1576 1575 -334 0
-1577 1576 336 0
-1577 -1576 -336 0
1577 -1576 336 0
1577 1576 -336 0
-1578 1577 340 0
-1578 -1577 -340 0
1578 -1577 340 0
1578 1577 -340 0
-1579 1578 341 0
-1579 -1578 -341 0
1579 -1578 341 0
1579 1578 -341 0
-62 -1579 0
-1580 346 348 0
-1580 -346 -348 0
1580 -346 348 0
1580 346 -348 0
-1581 1580 349 0
-1581 -1580 -349 0
1581 -1580 349 0
1581 1580 -349 0
-1582 1581 351 0
-1582 -1581 -351 0
1582 -1581 351 0
1582 1581 -351 0
-1583 1582 355 0
-1583 -1582 -355 0
1583 -1582 355 0
1583 1582 -355 0
-1584 1583 356 0
-1584 -1583 -356 0
1584 -1583 356 0
1584 1583 -356 0
-62 -1584 0
-1585 316 317 0
-1585 -316 -317 0
1585 -316 317 0
1585 316 -317 0
-1586 1585 318 0
-1586 -1585 -318 0
1586 -1585 318 0
1586 1585 -318 0
-1587 1586 319 0
-1587 -1586 -319 0
1587 -1586 319 0
1587 1586 -319 0
-1588 1587 321 0
-1588 -1587 -321 0
1588 -1587 321 0
1588 1587 -321 0
-1589 1588 325 0
-1589 -1588 -325 0
1589 -1588 325 0
1589 1588 -325 0
-1590 1589 326 0
-1590 -1589 -326 0
1590 -1589 326 0
1590 1589 -326 0
-63 -1590 0
-1591 331 332 0
-1591 -331 -332 0
1591 -331 332 0
1591 331 -332 0
-1592 1591 333 0
-1592 -1591 -333 0
1592 -1591 333 0
1592 1591 -333 0
-1593 1592 334 0
-1593 -1592 -334 0
1593 -1592 334 0
1593 1592 -334 0
-1594 1593 336 0
-1594 -1593 -336 0
1594 -1593 336 0
1594 1593 -336 0
-1595 1594 340 0
-1595 -1594 -340 0
1595 -1594 340 0
1595 1594 -340 0
-1596 1595 341 0
-1596 -1595 -341 0
1596 -1595 341 0
1596 1595 -341 0
-63 -1596 0
-1597 346 347 0
-1597 -346 -347 0
1597 -346 347 0
1597 346 -347 0
-1598 1597 348 0
-1598 -1597 -348 0
1598 -1597 348 0
1598 1597 -348 0
-1599 1598 349 0
-1599 -1598 -349 0
1599 -1598 349 0
1599 1598 -349 0
-1600 1599 351 0
-1600 -1599 -351 0
1600 -1599 351 0
1600 1599 -351 0
-1601 1600 355 0
-1601 -1600 -355 0
1601 -1600 355 0
1601 1600 -355 0
-1602 1601 356 0
-1602 -1601 -356 0
1602 -1601 356 0
1602 1601 -356 0
-63 -1602 0
-1603 320 327 0
-1603 -320 -327 0
1603 -320 327 0
1603 320 -327 0
-64 -1603 0
-1604 335 342 0
-1604 -335 -342 0
1604 -335 342 0
1604 335 -342 0
-64 -1604 0
-1605 350 357 0
-1605 -350 -357 0
1605 -350 357 0
1605 350 -357 0
-64 -1605 0
-1606 317 320 0
-1606 -317 -320 0
1606 -317 320 0
1606 317 -320 0
-1607 1606 327 0
-1607 -1606 -327 0
1607 -1606 327 0
1607 1606 -327 0
-65 -1607 0
-1608 332 335 0
-1608 -332 -335 0
1608 -332 335 0
1608 332 -335 0
-1609 1608 342 0
-1609 -1608 -342 0
1609 -1608 342 0
1609 1608 -342 0
-65 -1609 0
-1610 347 350 0
-1610 -347 -350 0
1610 -347 350 0
1610 347 -350 0
-1611 1610 357 0
-1611 -1610 -357 0
1611 -1610 357 0
1611 1610 -357 0
-65 -1611 0
-1612 316 318 0
-1612 -316 -318 0
1612 -316 318 0
1612 316 -318 0
-1613 1612 320 0
-1613 -1612 -320 0
1613 -1612 320 0
1613 1612 -320 0
-1614 1613 321 0
-1614 -1613 -321 0
1614 -1613 321 0
1614 1613 -321 0
-1615 1614 325 0
-1615 -1614 -325 0
1615 -1614 325 0
1615 1614 -325 0
-1616 1615 327 0
-1616 -1615 -327 0
1616 -1615 327 0
1616 1615 -327 0
-66 -1616 0
-1617 331 333 0
-1617 -331 -333 0
1617 -331 333 0
1617 331 -333 0
-1618 1617 335 0
-1618 -1617 -335 0
1618 -1617 335 0
1618 1617 -335 0
-1619 1618 336 0
-1619 -1618 -336 0
1619 -1618 336 0
1619 1618 -336 0
-1620 1619 340 0
-1620 -1619 -340 0
1620 -1619 340 0
1620 1619 -340 0
-1621 1620 342 0
-1621 -1620 -342 0
1621 -1620 342 0
1621 1620 -342 0
-66 -1621 0
-1622 346 348 0
-1622 -346 -348 0
1622 -346 348 0
1622 346 -348 0
-1623 1622 350 0
-1623 -1622 -350 0
1623 -1622 350 0
1623 1622 -350 0
-1624 1623 351 0
-1624 -1623 -351 0
1624 -1623 351 0
1624 1623 -351 0
-1625 1624 355 0
-1625 -1624 -355 0
1625 -1624 355 0
1625 1624 -355 0
-1626 1625 357 0
-1626 -1625 -357 0
1626 -1625 357 0
1626 1625 -357 0
-66 -1626 0
-1627 316 317 0
-1627 -316 -317 0
1627 -316 317 0
1627 316 -317 0
-1628 1627 318 0
-1628 -1627 -318 0
1628 -1627 318 0
1628 1627 -318 0
-1629 1628 320 0
-1629 -1628 -320 0
1629 -1628 320 0
1629 1628 -320 0
-1630 1629 321 0
-1630 -1629 -321 0
1630 -1629 321 0
1630 1629 -321 0
-1631 1630 325 0
-1631 -1630 -325 0
1631 -1630 325 0
1631 1630 -325 0
-1632 1631 327 0
-1632 -1631 -327 0
1632 -1631 327 0
1632 1631 -327 0
-67 -1632 0
-1633 331 332 0
-1633 -331 -332 0
1633 -331 332 0
1633 331 -332 0
-1634 1633 333 0
-1634 -1633 -333 0
1634 -1633 333 0
1634 1633 -333 0
-1635 1634 335 0
-1635 -1634 -335 0
1635 -1634 335 0
1635 1634 -335 0
-1636 1635 336 0
-1636 -1635 -336 0
1636 -1635 336 0
1636 1635 -336 0
-1637 1636 340 0
-1637 -1636 -340 0
1637 -1636 340 0
1637 1636 -340 0
-1638 1637 342 0
-1638 -1637 -342 0
1638 -1637 342 0
1638 1637 -342 0
-67 -1638 0
-1639 346 347 0
-1639 -346 -347 0
1639 -346 347 0
1639 346 -347 0
-1640 1639 348 0
-1640 -1639 -348 0
1640 -1639 348 0
1640 1639 -348 0
-1641 1640 350 0
-1641 -1640 -350 0
1641 -1640 350 0
1641 1640 -350 0
-1642 1641 351 0
-1642 -1641 -351 0
1642 -1641 351 0
1642 1641 -351 0
-1643 1642 355 0
-1643 -1642 -355 0
1643 -1642 355 0
1643 1642 -355 0
-1644 1643 357 0
-1644 -1643 -357 0
1644 -1643 357 0
1644 1643 -357 0
-67 -1644 0
-1645 319 320 0
-1645 -319 -320 0
1645 -319 320 0
1645 319 -320 0
-1646 1645 326 0
-1646 -1645 -326 0
1646 -1645 326 0
1646 1645 -326 0
-1647 1646 327 0
-1647 -1646 -327 0
1647 -1646 327 0
1647 1646 -327 0
-68 -1647 0
-1648 334 335 0
-1648 -334 -335 0
1648 -334 335 0
1648 334 -335 0
-1649 1648 341 0
-1649 -1648 -341 0
1649 -1648 341 0
1649 1648 -341 0
-1650 1649 342 0
-1650 -1649 -342 0
1650 -1649 342 0
1650 1649 -342 0
-68 -1650 0
-1651 349 350 0
-1651 -349 -350 0
1651 -349 350 0
1651 349 -350 0
-1652 1651 356 0
-1652 -1651 -356 0
1652 -1651 356 0
1652 1651 -356 0
-1653 1652 357 0
-1653 -1652 -357 0
1653 -1652 357 0
1653 1652 -357 0
-68 -1653 0
-1654 317 319 0
-1654 -317 -319 0
1654 -317 319 0
1654 317 -319 0
-1655 1654 320 0
-1655 -1654 -320 0
1655 -1654 320 0
1655 1654 -320 0
-1656 1655 326 0
-1656 -1655 -326 0
1656 -1655 326 0
1656 1655 -326 0
-1657 1656 327 0
-1657 -1656 -327 0
1657 -1656 327 0
1657 1656 -327 0
-69 -1657 0
-1658 332 334 0
-1658 -332 -334 0
1658 -332 334 0
1658 332 -334 0
-1659 1658 335 0
-1659 -1658 -335 0
1659 -1658 335 0
1659 1658 -335 0
-1660 1659 341 0
-1660 -1659 -341 0
1660 -1659 341 0
1660 1659 -341 0
-1661 1660 342 0
-1661 -1660 -342 0
1661 -1660 342 0
1661 1660 -342 0
-69 -1661 0
-1662 347 349 0
-1662 -347 -349 0
1662 -347 349 0
1662 347 -349 0
-1663 1662 350 0
-1663 -1662 -350 0
1663 -1662 350 0
1663 1662 -350 0
-1664 1663 356 0
-1664 -1663 -356 0
1664 -1663 356 0
1664 1663 -356 0
-1665 1664 357 0
-1665 -1664 -357 0
1665 -1664 357 0
1665 1664 -357 0
-69 -1665 0
-1666 316 318 0
-1666 -316 -318 0
1666 -316 318 0
1666 316 -318 0
-1667 1666 319 0
-1667 -1666 -319 0
1667 -1666 319 0
1667 1666 -319 0
-1668 1667 320 0
-1668 -1667 -320 0
1668 -1667 320 0
1668 1667 -320 0
-1669 1668 321 0
-1669 -1668 -321 0
1669 -1668 321 0
1669 1668 -321 0
-1670 1669 325 0
-1670 -1669 -325 0
1670 -1669 325 0
1670 1669 -325 0
-1671 1670 326 0
-1671 -1670 -326 0
1671 -1670 326 0
1671 1670 -326 0
-1672 1671 327 0
-1672 -1671 -327 0
1672 -1671 327 0
1672 1671 -327 0
-70 -1672 0
-1673 331 333 0
-1673 -331 -333 0
1673 -331 333 0
1673 331 -333 0
-1674 1673 334 0
-1674 -1673 -334 0
1674 -1673 334 0
1674 1673 -334 0
-1675 1674 335 0
-1675 -1674 -335 0
1675 -1674 335 0
1675 1674 -335 0
-1676 1675 336 0
-1676 -1675 -336 0
1676 -1675 336 0
1676 1675 -336 0
-1677 1676 340 0
-1677 -1676 -340 0
1677 -1676 340 0
1677 1676 -340 0
-1678 1677 341 0
-1678 -1677 -341 0
1678 -1677 341 0
1678 1677 -341 0
-1679 1678 342 0
-1679 -1678 -342 0
1679 -1678 342 0
1679 1678 -342 0
-70 -1679 0
-1680 346 348 0
-1680 -346 -348 0
1680 -346 348 0
1680 346 -348 0
-1681 1680 349 0
-1681 -1680 -349 0
1681 -1680 349 0
1681 1680 -349 0
-1682 1681 350 0
-1682 -1681 -350 0
1682 -1681 350 0
1682 1681 -350 0
-1683 1682 351 0
-1683 -1682 -351 0
1683 -1682 351 0
1683 1682 -351 0
-1684 1683 355 0
-1684 -1683 -355 0
1684 -1683 355 0
1684 1683 -355 0
-1685 1684 356 0
-1685 -1684 -356 0
1685 -1684 356 0
1685 1684 -356 0
-1686 1685 357 0
-1686 -1685 -357 0
1686 -1685 357 0
1686 1685 -357 0
-70 -1686 0
-1687 316 317 0
-1687 -316 -317 0
1687 -316 317 0
1687 316 -317 0
-1688 1687 318 0
-1688 -1687 -318 0
1688 -1687 318 0
1688 1687 -318 0
-1689 1688 319 0
-1689 -1688 -319 0
1689 -1688 319 0
1689 1688 -319 0
-1690 1689 320 0
-1690 -1689 -320 0
1690 -1689 320 0
1690 1689 -320 0
-1691 1690 321 0
-1691 -1690 -321 0
1691 -1690 321 0
1691 1690 -321 0
-1692 1691 325 0
-1692 -1691 -325 0
1692 -1691 325 0
1692 1691 -325 0
-1693 1692 326 0
-1693 -1692 -326 0
1693 -1692 326 0
1693 1692 -326 0
-1694 1693 327 0
-1694 -1693 -327 0
1694 -1693 327 0
1694 1693 -327 0
-71 -1694 0
-1695 331 332 0
-1695 -331 -332 0
1695 -331 332 0
1695 331 -332 0
-1696 1695 333 0
-1696 -1695 -333 0
1696 -1695 333 0
1696 1695 -333 0
-1697 1696 334 0
-1697 -1696 -334 0
1697 -1696 334 0
1697 1696 -334 0
-1698 1697 335 0
-1698 -1697 -335 0
1698 -1697 335 0
1698 1697 -335 0
-1699 1698 336 0
-1699 -1698 -336 0
1699 -1698 336 0
1699 1698 -336 0
-1700 1699 340 0
-1700 -1699 -340 0
1700 -1699 340 0
1700 1699 -340 0
-1701 1700 341 0
-1701 -1700 -341 0
1701 -1700 341 0
1701 1700 -341 0
-1702 1701 342 0
-1702 -1701 -342 0
1702 -1701 342 0
1702 1701 -342 0
-71 -1702 0
-1703 346 347 0
-1703 -346 -347 0
1703 -346 347 0
1703 346 -347 0
-1704 1703 348 0
-1704 -1703 -348 0
1704 -1703 348 0
1704 1703 -348 0
-1705 1704 349 0
-1705 -1704 -349 0
1705 -1704 349 0
1705 1704 -349 0
-1706 1705 350 0
-1706 -1705 -350 0
1706 -1705 350 0
1706 1705 -350 0
-1707 1706 351 0
-1707 -1706 -351 0
1707 -1706 351 0
1707 1706 -351 0
-1708 1707 355 0
-1708 -1707 -355 0
1708 -1707 355 0
1708 1707 -355 0
-1709 1708 356 0
-1709 -1708 -356 0
1709 -1708 356 0
1709 1708 -356 0
-1710 1709 357 0
-1710 -1709 -357 0
1710 -1709 357 0
1710 1709 -357 0
-71 -1710 0
-1711 316 317 0
-1711 -316 -317 0
1711 -316 317 0
1711 316 -317 0
-1712 1711 322 0
-1712 -1711 -322 0
1712 -1711 322 0
1712 1711 -322 0
-1713 1712 325 0
-1713 -1712 -325 0
1713 -1712 325 0
1713 1712 -325 0
-72 -1713 0
-1714 331 332 0
-1714 -331 -332 0
1714 -331 332 0
1714 331 -332 0
-1715 1714 337 0
-1715 -1714 -337 0
1715 -1714 337 0
1715 1714 -337 0
-1716 1715 340 0
-1716 -1715 -340 0
1716 -1715 340 0
1716 1715 -340 0
-72 -1716 0
-1717 346 347 0
-1717 -346 -347 0
1717 -346 347 0
1717 346 -347 0
-1718 1717 352 0
-1718 -1717 -352 0
1718 -1717 352 0
1718 1717 -352 0
-1719 1718 355 0
-1719 -1718 -355 0
1719 -1718 355 0
1719 1718 -355 0
-72 -1719 0
-1720 316 317 0
-1720 -316 -317 0
1720 -316 317 0
1720 316 -317 0
-1721 1720 321 0
-1721 -1720 -321 0
1721 -1720 321 0
1721 1720 -321 0
-1722 1721 322 0
-1722 -1721 -322 0
1722 -1721 322 0
1722 1721 -322 0
-1723 1722 325 0
-1723 -1722 -325 0
1723 -1722 325 0
1723 1722 -325 0
-73 -1723 0
-1724 331 332 0
-1724 -331 -332 0
1724 -331 332 0
1724 331 -332 0
-1725 1724 336 0
-1725 -1724 -336 0
1725 -1724 336 0
1725 1724 -336 0
-1726 1725 337 0
-1726 -1725 -337 0
1726 -1725 337 0
1726 1725 -337 0
-1727 1726 340 0
-1727 -1726 -340 0
1727 -1726 340 0
1727 1726 -340 0
-73 -1727 0
-1728 346 347 0
-1728 -346 -347 0
1728 -346 347 0
1728 346 -347 0
-1729 1728 351 0
-1729 -1728 -351 0
1729 -1728 351 0
1729 1728 -351 0
-1730 1729 352 0
-1730 -1729 -352 0
1730 -1729 352 0
1730 1729 -352 0
-1731 1730 355 0
-1731 -1730 -355 0
1731 -1730 355 0
1731 1730 -355 0
-73 -1731 0
-1732 323 326 0
-1732 -323 -326 0
1732 -323 326 0
1732 323 -326 0
-74 -1732 0
-1733 338 341 0
-1733 -338 -341 0
1733 -338 341 0
1733 338 -341 0
-74 -1733 0
-1734 353 356 0
-1734 -353 -356 0
1734 -353 356 0
1734 353 -356 0
-74 -1734 0
-1735 321 323 0
-1735 -321 -323 0
1735 -321 323 0
1735 321 -323 0
-1736 1735 326 0
-1736 -1735 -326 0
1736 -1735 326 0
1736 1735 -326 0
-75 -1736 0
-1737 336 338 0
-1737 -336 -338 0
1737 -336 338 0
1737 336 -338 0
-1738 1737 341 0
-1738 -1737 -341 0
1738 -1737 341 0
1738 1737 -341 0
-75 -1738 0
-1739 351 353 0
-1739 -351 -353 0
1739 -351 353 0
1739 351 -353 0
-1740 1739 356 0
-1740 -1739 -356 0
1740 -1739 356 0
1740 1739 -356 0
-75 -1740 0
-1741 316 317 0
-1741 -316 -317 0
1741 -316 317 0
1741 316 -317 0
-1742 1741 322 0
-1742 -1741 -322 0
1742 -1741 322 0
1742 1741 -322 0
-1743 1742 323 0
-1743 -1742 -323 0
1743 -1742 323 0
1743 1742 -323 0
-1744 1743 325 0
-1744 -1743 -325 0
1744 -1743 325 0
1744 1743 -325 0
-1745 1744 326 0
-1745 -1744 -326 0
1745 -1744 326 0
1745 1744 -326 0
-76 -1745 0
-1746 331 332 0
-1746 -331 -332 0
1746 -331 332 0
1746 331 -332 0
-1747 1746 337 0
-1747 -1746 -337 0
1747 -1746 337 0
1747 1746 -337 0
-1748 1747 338 0
-1748 -1747 -338 0
1748 -1747 338 0
1748 1747 -338 0
-1749 1748 340 0
-1749 -1748 -340 0
1749 -1748 340 0
1749 1748 -340 0
-1750 1749 341 0
-1750 -1749 -341 0
1750 -1749 341 0
1750 1749 -341 0
-76 -1750 0
-1751 346 347 0
-1751 -346 -347 0
1751 -346 347 0
1751 346 -347 0
-1752 1751 352 0
-1752 -1751 -352 0
1752 -1751 352 0
1752 1751 -352 0
-1753 1752 353 0
-1753 -1752 -353 0
1753 -1752 353 0
1753 1752 -353 0
-1754 1753 355 0
-1754 -1753 -355 0
1754 -1753 355 0
1754 1753 -355 0
-1755 1754 356 0
-1755 -1754 -356 0
1755 -1754 356 0
1755 1754 -356 0
-76 -1755 0
-1756 316 317 0
-1756 -316 -317 0
1756 -316 317 0
1756 316 -317 0
-1757 1756 321 0
-1757 -1756 -321 0
1757 -1756 321 0
1757 1756 -321 0
-1758 1757 322 0
-1758 -1757 -322 0
1758 -1757 322 0
1758 1757 -322 0
-1759 1758 323 0
-1759 -1758 -323 0
1759 -1758 323 0
1759 1758 -323 0
-1760 1759 325 0
-1760 -1759 -325 0
1760 -1759 325 0
1760 1759 -325 0
-1761 1760 326 0
-1761 -1760 -326 0
1761 -1760 326 0
1761 1760 -326 0
-77 -1761 0
-1762 331 332 0
-1762 -331 -332 0
1762 -331 332 0
1762 331 -332 0
-1763 1762 336 0
-1763 -1762 -336 0
1763 -1762 336 0
1763 1762 -336 0
-1764 1763 337 0
-1764 -1763 -337 0
1764 -1763 337 0
1764 1763 -337 0
-1765 1764 338 0
-1765 -1764 -338 0
1765 -1764 338 0
1765 1764 -338 0
-1766 1765 340 0
-1766 -1765 -340 0
1766 -1765 340 0
1766 1765 -340 0
-1767 1766 341 0
-1767 -1766 -341 0
1767 -1766 341 0
1767 1766 -341 0
-77 -1767 0
-1768 346 347 0
-1768 -346 -347 0
1768 -346 347 0
1768 346 -347 0
-1769 1768 351 0
-1769 -1768 -351 0
1769 -1768 351 0
1769 1768 -351 0
-1770 1769 352 0
-1770 -1769 -352 0
1770 -1769 352 0
1770 1769 -352 0
-1771 1770 353 0
-1771 -1770 -353 0
1771 -1770 353 0
1771 1770 -353 0
-1772 1771 355 0
-1772 -1771 -355 0
1772 -1771 355 0
1772 1771 -355 0
-1773 1772 356 0
-1773 -1772 -356 0
1773 -1772 356 0
1773 1772 -356 0
-77 -1773 0
-1774 324 327 0
-1774 -324 -327 0
1774 -324 327 0
1774 324 -327 0
-78 -1774 0
-1775 339 342 0
-1775 -339 -342 0
1775 -339 342 0
1775 339 -342 0
-78 -1775 0
-1776 354 357 0
-1776 -354 -357 0
1776 -354 357 0
1776 354 -357 0
-78 -1776 0
-1777 321 324 0
-1777 -321 -324 0
1777 -321 324 0
1777 321 -324 0
-1778 1777 327 0
-1778 -1777 -327 0
1778 -1777 327 0
1778 1777 -327 0
-79 -1778 0
-1779 336 339 0
-1779 -336 -339 0
1779 -336 339 0
1779 336 -339 0
-1780 1779 342 0
-1780 -1779 -342 0
1780 -1779 342 0
1780 1779 -342 0
-79 -1780 0
-1781 351 354 0
-1781 -351 -354 0
1781 -351 354 0
1781 351 -354 0
-1782 1781 357 0
-1782 -1781 -357 0
1782 -1781 357 0
1782 1781 -357 0
-79 -1782 0
-1783 316 317 0
-1783 -316 -317 0
1783 -316 317 0
1783 316 -317 0
-1784 1783 322 0
-1784 -1783 -322 0
1784 -1783 322 0
1784 1783 -322 0
-1785 1784 324 0
-1785 -1784 -324 0
1785 -1784 324 0
1785 1784 -324 0
-1786 1785 325 0
-1786 -1785 -325 0
1786 -1785 325 0
1786 1785 -325 0
-1787 1786 327 0
-1787 -1786 -327 0
1787 -1786 327 0
1787 1786 -327 0
-80 -1787 0
-1788 331 332 0
-1788 -331 -332 0
1788 -331 332 0
1788 331 -332 0
-1789 1788 337 0
-1789 -1788 -337 0
1789 -1788 337 0
1789 1788 -337 0
-1790 1789 339 0
-1790 -1789 -339 0
1790 -1789 339 0
1790 1789 -339 0
-1791 1790 340 0
-1791 -1790 -340 0
1791 -1790 340 0
1791 1790 -340 0
-1792 1791 342 0
-1792 -1791 -342 0
1792 -1791 342 0
1792 1791 -342 0
-80 -1792 0
-1793 346 347 0
-1793 -346 -347 0
1793 -346 347 0
1793 346 -347 0
-1794 1793 352 0
-1794 -1793 -352 0
1794 -1793 352 0
1794 1793 -352 0
-1795 1794 354 0
-1795 -1794 -354 0
1795 -1794 354 0
1795 1794 -354 0
-1796 1795 355 0
-1796 -1795 -355 0
1796 -1795 355 0
1796 1795 -355 0
-1797 1796 357 0
-1797 -1796 -357 0
1797 -1796 357 0
1797 1796 -357 0
-80 -1797 0
-1798 316 317 0
-1798 -316 -317 0
1798 -316 317 0
1798 316 -317 0
-1799 1798 321 0
-1799 -1798 -321 0
1799 -1798 321 0
1799 1798 -321 0
-1800 1799 322 0
-1800 -1799 -322 0
1800 -1799 322 0
1800 1799 -322 0
-1801 1800 324 0
-1801 -1800 -324 0
1801 -1800 324 0
1801 1800 -324 0
-1802 1801 325 0
-1802 -1801 -325 0
1802 -1801 325 0
1802 1801 -325 0
-1803 1802 327 0
-1803 -1802 -327 0
1803 -1802 327 0
1803 1802 -327 0
-81 -1803 0
-1804 331 332 0
-1804 -331 -332 0
1804 -331 332 0
1804 331 -332 0
-1805 1804 336 0
-1805 -1804 -336 0
1805 -1804 336 0
1805 1804 -336 0
-1806 1805 337 0
-1806 -1805 -337 0
1806 -1805 337 0
1806 1805 -337 0
-1807 1806 339 0
-1807 -1806 -339 0
1807 -1806 339 0
1807 1806 -339 0
-1808 1807 340 0
-1808 -1807 -340 0
1808 -1807 340 0
1808 1807 -340 0
-1809 1808 342 0
-1809 -1808 -342 0
1809 -1808 342 0
1809 1808 -342 0
-81 -1809 0
-1810 346 347 0
-1810 -346 -347 0
1810 -346 347 0
1810 346 -347 0
-1811 1810 351 0
-1811 -1810 -351 0
1811 -1810 351 0
1811 1810 -351 0
-1812 1811 352 0
-1812 -1811 -352 0
1812 -1811 352 0
1812 1811 -352 0
-1813 1812 354 0
-1813 -1812 -354 0
1813 -1812 354 0
1813 1812 -354 0
-1814 1813 355 0
-1814 -1813 -355 0
1814 -1813 355 0
1814 1813 -355 0
-1815 1814 357 0
-1815 -1814 -357 0
1815 -1814 357 0
1815 1814 -357 0
-81 -1815 0
-1816 323 324 0
-1816 -323 -324 0
1816 -323 324 0
1816 323 -324 0
-1817 1816 326 0
-1817 -1816 -326 0
1817 -1816 326 0
1817 1816 -326 0
-1818 1817 327 0
-1818 -1817 -327 0
1818 -1817 327 0
1818 1817 -327 0
-82 -1818 0
-1819 338 339 0
-1819 -338 -339 0
1819 -338 339 0
1819 338 -339 0
-1820 1819 341 0
-1820 -1819 -341 0
1820 -1819 341 0
1820 1819 -341 0
-1821 1820 342 0
-1821 -1820 -342 0
1821 -1820 342 0
1821 1820 -342 0
-82 -1821 0
-1822 353 354 0
-1822 -353 -354 0
1822 -353 354 0
1822 353 -354 0
-1823 1822 356 0
-1823 -1822 -356 0
1823 -1822 356 0
1823 1822 -356 0
-1824 1823 357 0
-1824 -1823 -357 0
1824 -1823 357 0
1824 1823 -357 0
-82 -1824 0
-1825 321 323 0
-1825 -321 -323 0
1825 -321 323 0
1825 321 -323 0
-1826 1825 324 0
-1826 -1825 -324 0
1826 -1825 324 0
1826 1825 -324 0
-1827 1826 326 0
-1827 -1826 -326 0
1827 -1826 326 0
1827 1826 -326 0
-1828 1827 327 0
-1828 -1827 -327 0
1828 -1827 327 0
1828 1827 -327 0
-83 -1828 0
-1829 336 338 0
-1829 -336 -338 0
1829 -336 338 0
1829 336 -338 0
-1830 1829 339 0
-1830 -1829 -339 0
1830 -1829 339 0
1830 1829 -339 0
-1831 1830 341 0
-1831 -1830 -341 0
1831 -1830 341 0
1831 1830 -341 0
-1832 1831 342 0
-1832 -1831 -342 0
1832 -1831 342 0
1832 1831 -342 0
-83 -1832 0
-1833 351 353 0
-1833 -351 -353 0
1833 -351 353 0
1833 351 -353 0
-1834 1833 354 0
-1834 -1833 -354 0
1834 -1833 354 0
1834 1833 -354 0
-1835 1834 356 0
-1835 -1834 -356 0
1835 -1834 356 0
1835 1834 -356 0
-1836 1835 357 0
-1836 -1835 -357 0
1836 -1835 357 0
1836 1835 -357 0
-83 -1836 0
-1837 316 317 0
-1837 -316 -317 0
1837 -316 317 0
1837 316 -317 0
-1838 1837 322 0
-1838 -1837 -322 0
1838 -1837 322 0
1838 1837 -322 0
-1839 1838 323 0
-1839 -1838 -323 0
1839 -1838 323 0
1839 1838 -323 0
-1840 1839 324 0
-1840 -1839 -324 0
1840 -1839 324 0
1840 1839 -324 0
-1841 1840 325 0
-1841 -1840 -325 0
1841 -1840 325 0
1841 1840 -325 0
-1842 1841 326 0
-1842 -1841 -326 0
1842 -1841 326 0
1842 1841 -326 0
-1843 1842 327 0
-1843 -1842 -327 0
1843 -1842 327 0
1843 1842 -327 0
-84 -1843 0
-1844 331 332 0
-1844 -331 -332 0
1844 -331 332 0
1844 331 -332 0
-1845 1844 337 0
-1845 -1844 -337 0
1845 -1844 337 0
1845 1844 -337 0
-1846 1845 338 0
-1846 -1845 -338 0
1846 -1845 338 0
1846 1845 -338 0
-1847 1846 339 0
-1847 -1846 -339 0
1847 -1846 339 0
1847 1846 -339 0
-1848 1847 340 0
-1848 -1847 -340 0
1848 -1847 340 0
1848 1847 -340 0
-1849 1848 341 0
-1849 -1848 -341 0
1849 -1848 341 0
1849 1848 -341 0
-1850 1849 342 0
-1850 -1849 -342 0
1850 -1849 342 0
1850 1849 -342 0
-84 -1850 0
-1851 346 347 0
-1851 -346 -347 0
1851 -346 347 0
1851 346 -347 0
-1852 1851 352 0
-1852 -1851 -352 0
1852 -1851 352 0
1852 1851 -352 0
-1853 1852 353 0
-1853 -1852 -353 0
1853 -1852 353 0
1853 1852 -353 0
-1854 1853 354 0
-1854 -1853 -354 0
1854 -1853 354 0
1854 1853 -354 0
-1855 1854 355 0
-1855 -1854 -355 0
1855 -1854 355 0
1855 1854 -355 0
-1856 1855 356 0
-1856 -1855 -356 0
1856 -1855 356 0
1856 1855 -356 0
-1857 1856 357 0
-1857 -1856 -357 0
1857 -1856 357 0
1857 1856 -357 0
-84 -1857 0
-1858 316 317 0
-1858 -316 -317 0
1858 -316 317 0
1858 316 -317 0
-1859 1858 321 0
-1859 -1858 -321 0
1859 -1858 321 0
1859 1858 -321 0
-1860 1859 322 0
-1860 -1859 -322 0
1860 -1859 322 0
1860 1859 -322 0
-1861 1860 323 0
-1861 -1860 -323 0
1861 -1860 323 0
1861 1860 -323 0
-1862 1861 324 0
-1862 -1861 -324 0
1862 -1861 324 0
1862 1861 -324 0
-1863 1862 325 0
-1863 -1862 -325 0
1863 -1862 325 0
1863 1862 -325 0
-1864 1863 326 0
-1864 -1863 -326 0
1864 -1863 326 0
1864 1863 -326 0
-1865 1864 327 0
-1865 -1864 -327 0
1865 -1864 327 0
1865 1864 -327 0
-85 -1865 0
-1866 331 332 0
-1866 -331 -332 0
1866 -331 332 0
1866 331 -332 0
-1867 1866 336 0
-1867 -1866 -336 0
1867 -1866 336 0
1867 1866 -336 0
-1868 1867 337 0
-1868 -1867 -337 0
1868 -1867 337 0
1868 1867 -337 0
-1869 1868 338 0
-1869 -1868 -338 0
1869 -1868 338 0
1869 1868 -338 0
-1870 1869 339 0
-1870 -1869 -339 0
1870 -1869 339 0
1870 1869 -339 0
-1871 1870 340 0
-1871 -1870 -340 0
1871 -1870 340 0
1871 1870 -340 0
-1872 1871 341 0
-1872 -1871 -341 0
1872 -1871 341 0
1872 1871 -341 0
-1873 1872 342 0
-1873 -1872 -342 0
1873 -1872 342 0
1873 1872 -342 0
-85 -1873 0
-1874 346 347 0
-1874 -346 -347 0
1874 -346 347 0
1874 346 -347 0
-1875 1874 351 0
-1875 -1874 -351 0
1875 -1874 351 0
1875 1874 -351 0
-1876 1875 352 0
-1876 -1875 -352 0
1876 -1875 352 0
1876 1875 -352 0
-1877 1876 353 0
-1877 -1876 -353 0
1877 -1876 353 0
1877 1876 -353 0
-1878 1877 354 0
-1878 -1877 -354 0
1878 -1877 354 0
1878 1877 -354 0
-1879 1878 355 0
-1879 -1878 -355 0
1879 -1878 355 0
1879 1878 -355 0
-1880 1879 356 0
-1880 -1879 -356 0
1880 -1879 356 0
1880 1879 -356 0
-1881 1880 357 0
-1881 -1880 -357 0
1881 -1880 357 0
1881 1880 -357 0
-85 -1881 0
-1882 316 317 0
-1882 -316 -317 0
1882 -316 317 0
1882 316 -317 0
-1883 1882 318 0
-1883 -1882 -318 0
1883 -1882 318 0
1883 1882 -318 0
-1884 1883 322 0
-1884 -1883 -322 0
1884 -1883 322 0
1884 1883 -322 0
-1885 1884 325 0
-1885 -1884 -325 0
1885 -1884 325 0
1885 1884 -325 0
-86 -1885 0
-1886 331 332 0
-1886 -331 -332 0
1886 -331 332 0
1886 331 -332 0
-1887 1886 333 0
-1887 -1886 -333 0
1887 -1886 333 0
1887 1886 -333 0
-1888 1887 337 0
-1888 -1887 -337 0
1888 -1887 337 0
1888 1887 -337 0
-1889 1888 340 0
-1889 -1888 -340 0
1889 -1888 340 0
1889 1888 -340 0
-86 -1889 0
-1890 346 347 0
-1890 -346 -347 0
1890 -346 347 0
1890 346 -347 0
-1891 1890 348 0
-1891 -1890 -348 0
1891 -1890 348 0
1891 1890 -348 0
-1892 1891 352 0
-1892 -1891 -352 0
1892 -1891 352 0
1892 1891 -352 0
-1893 1892 355 0
-1893 -1892 -355 0
1893 -1892 355 0
1893 1892 -355 0
-86 -1893 0
-1894 316 318 0
-1894 -316 -318 0
1894 -316 318 0
1894 316 -318 0
-1895 1894 321 0
-1895 -1894 -321 0
1895 -1894 321 0
1895 1894 -321 0
-1896 1895 322 0
-1896 -1895 -322 0
1896 -1895 322 0
1896 1895 -322 0
-1897 1896 325 0
-1897 -1896 -325 0
1897 -1896 325 0
1897 1896 -325 0
-87 -1897 0
-1898 331 333 0
-1898 -331 -333 0
1898 -331 333 0
1898 331 -333 0
-1899 1898 336 0
-1899 -1898 -336 0
1899 -1898 336 0
1899 1898 -336 0
-1900 1899 337 0
-1900 -1899 -337 0
1900 -1899 337 0
1900 1899 -337 0
-1901 1900 340 0
-1901 -1900 -340 0
1901 -1900 340 0
1901 1900 -340 0
-87 -1901 0
-1902 346 348 0
-1902 -346 -348 0
1902 -346 348 0
1902 346 -348 0
-1903 1902 351 0
-1903 -1902 -351 0
1903 -1902 351 0
1903 1902 -351 0
-1904 1903 352 0
-1904 -1903 -352 0
1904 -1903 352 0
1904 1903 -352 0
-1905 1904 355 0
-1905 -1904 -355 0
1905 -1904 355 0
1905 1904 -355 0
-87 -1905 0
-1906 319 323 0
-1906 -319 -323 0
1906 -319 323 0
1906 319 -323 0
-1907 1906 326 0
-1907 -1906 -326 0
1907 -1906 326 0
1907 1906 -326 0
-88 -1907 0
-1908 334 338 0
-1908 -334 -338 0
1908 -334 338 0
1908 334 -338 0
-1909 1908 341 0
-1909 -1908 -341 0
1909 -1908 341 0
1909 1908 -341 0
-88 -1909 0
-1910 349 353 0
-1910 -349 -353 0
1910 -349 353 0
1910 349 -353 0
-1911 1910 356 0
-1911 -1910 -356 0
1911 -1910 356 0
1911 1910 -356 0
-88 -1911 0
-1912 317 319 0
-1912 -317 -319 0
1912 -317 319 0
1912 317 -319 0
-1913 1912 321 0
-1913 -1912 -321 0
1913 -1912 321 0
1913 1912 -321 0
-1914 1913 323 0
-1914 -1913 -323 0
1914 -1913 323 0
1914 1913 -323 0
-1915 1914 326 0
-1915 -1914 -326 0
1915 -1914 326 0
1915 1914 -326 0
-89 -1915 0
-1916 332 334 0
-1916 -332 -334 0
1916 -332 334 0
1916 332 -334 0
-1917 1916 336 0
-1917 -1916 -336 0
1917 -1916 336 0
1917 1916 -336 0
-1918 1917 338 0
-1918 -1917 -338 0
1918 -1917 338 0
1918 1917 -338 0
-1919 1918 341 0
-1919 -1918 -341 0
1919 -1918 341 0
1919 1918 -341 0
-89 -1919 0
-1920 347 349 0
-1920 -347 -349 0
1920 -347 349 0
1920 347 -349 0
-1921 1920 351 0
-1921 -1920 -351 0
1921 -1920 351 0
1921 1920 -351 0
-1922 1921 353 0
-1922 -1921 -353 0
1922 -1921 353 0
1922 1921 -353 0
-1923 1922 356 0
-1923 -1922 -356 0
1923 -1922 356 0
1923 1922 -356 0
-89 -1923 0
-1924 316 317 0
-1924 -316 -317 0
1924 -316 317 0
1924 316 -317 0
-1925 1924 318 0
-1925 -1924 -318 0
1925 -1924 318 0
1925 1924 -318 0
-1926 1925 319 0
-1926 -1925 -319 0
1926 -1925 319 0
1926 1925 -319 0
-1927 1926 322 0
-1927 -1926 -322 0
1927 -1926 322 0
1927 1926 -322 0
-1928 1927 323 0
-1928 -1927 -323 0
1928 -1927 323 0
1928 1927 -323 0
-1929 1928 325 0
-1929 -1928 -325 0
1929 -1928 325 0
1929 1928 -325 0
-1930 1929 326 0
-1930 -1929 -326 0
1930 -1929 326 0
1930 1929 -326 0
-90 -1930 0
-1931 331 332 0
-1931 -331 -332 0
1931 -331 332 0
1931 331 -332 0
-1932 1931 333 0
-1932 -1931 -333 0
1932 -1931 333 0
1932 1931 -333 0
-1933 1932 334 0
-1933 -1932 -334 0
1933 -1932 334 0
1933 1932 -334 0
-1934 1933 337 0
-1934 -1933 -337 0
1934 -1933 337 0
1934 1933 -337 0
-1935 1934 338 0
-1935 -1934 -338 0
1935 -1934 338 0
1935 1934 -338 0
-1936 1935 340 0
-1936 -1935 -340 0
1936 -1935 340 0
1936 1935 -340 0
-1937 1936 341 0
-1937 -1936 -341 0
1937 -1936 341 0
1937 1936 -341 0
-90 -1937 0
-1938 346 347 0
-1938 -346 -347 0
1938 -346 347 0
1938 346 -347 0
-1939 1938 348 0
-1939 -1938 -348 0
1939 -1938 348 0
1939 1938 -348 0
-1940 1939 349 0
-1940 -1939 -349 0
1940 -1939 349 0
1940 1939 -349 0
-1941 1940 352 0
-1941 -1940 -352 0
1941 -1940 352 0
1941 1940 -352 0
-1942 1941 353 0
-1942 -1941 -353 0
1942 -1941 353 0
1942 1941 -353 0
-1943 1942 355 0
-1943 -1942 -355 0
1943 -1942 355 0
1943 1942 -355 0
-1944 1943 356 0
-1944 -1943 -356 0
1944 -1943 356 0
1944 1943 -356 0
-90 -1944 0
-1945 316 318 0
-1945 -316 -318 0
1945 -316 318 0
1945 316 -318 0
-1946 1945 319 0
-1946 -1945 -319 0
1946 -1945 319 0
1946 1945 -319 0
-1947 1946 321 0
-1947 -1946 -321 0
1947 -1946 321 0
1947 1946 -321 0
-1948 1947 322 0
-1948 -1947 -322 0
1948 -1947 322 0
1948 1947 -322 0
-1949 1948 323 0
-1949 -1948 -323 0
1949 -1948 323 0
1949 1948 -323 0
-1950 1949 325 0
-1950 -1949 -325 0
1950 -1949 325 0
1950 1949 -325 0
-1951 1950 326 0
-1951 -1950 -326 0
1951 -1950 326 0
1951 1950 -326 0
-91 -1951 0
-1952 331 333 0
-1952 -331 -333 0
1952 -331 333 0
1952 331 -333 0
-1953 1952 334 0
-1953 -1952 -334 0
1953 -1952 334 0
1953 1952 -334 0
-1954 1953 336 0
-1954 -1953 -336 0
1954 -1953 336 0
1954 1953 -336 0
-1955 1954 337 0
-1955 -1954 -337 0
1955 -1954 337 0
1955 1954 -337 0
-1956 1955 338 0
-1956 -1955 -338 0
1956 -1955 338 0
1956 1955 -338 0
-1957 1956 340 0
-1957 -1956 -340 0
1957 -1956 340 0
1957 1956 -340 0
-1958 1957 341 0
-1958 -1957 -341 0
1958 -1957 341 0
1958 1957 -341 0
-91 -1958 0
-1959 346 348 0
-1959 -346 -348 0
1959 -346 348 0
1959 346 -348 0
-1960 1959 349 0
-1960 -1959 -349 0
1960 -1959 349 0
1960 1959 -349 0
-1961 1960 351 0
-1961 -1960 -351 0
1961 -1960 351 0
1961 1960 -351 0
-1962 1961 352 0
-1962 -1961 -352 0
1962 -1961 352 0
1962 1961 -352 0
-1963 1962 353 0
-1963 -1962 -353 0
1963 -1962 353 0
1963 1962 -353 0
-1964 1963 355 0
-1964 -1963 -355 0
1964 -1963 355 0
1964 1963 -355 0
-1965 1964 356 0
-1965 -1964 -356 0
1965 -1964 356 0
1965 1964 -356 0
-91 -1965 0
-1966 320 324 0
-1966 -320 -324 0
1966 -320 324 0
1966 320 -324 0
-1967 1966 327 0
-1967 -1966 -327 0
1967 -1966 327 0
1967 1966 -327 0
-92 -1967 0
-1968 335 339 0
-1968 -335 -339 0
1968 -335 339 0
1968 335 -339 0
-1969 1968 342 0
-1969 -1968 -342 0
1969 -1968 342 0
1969 1968 -342 0
-92 -1969 0
-1970 350 354 0
-1970 -350 -354 0
1970 -350 354 0
1970 350 -354 0
-1971 1970 357 0
-1971 -1970 -357 0
1971 -1970 357 0
1971 1970 -357 0
-92 -1971 0
-1972 317 320 0
-1972 -317 -320 0
1972 -317 320 0
1972 317 -320 0
-1973 1972 321 0
-1973 -1972 -321 0
1973 -1972 321 0
1973 1972 -321 0
-1974 1973 324 0
-1974 -1973 -324 0
1974 -1973 324 0
1974 1973 -324 0
-1975 1974 327 0
-1975 -1974 -327 0
1975 -1974 327 0
1975 1974 -327 0
-93 -1975 0
-1976 332 335 0
-1976 -332 -335 0
1976 -332 335 0
1976 332 -335 0
-1977 1976 336 0
-1977 -1976 -336 0
1977 -1976 336 0
1977 1976 -336 0
-1978 1977 339 0
-1978 -1977 -339 0
1978 -1977 339 0
1978 1977 -339 0
-1979 1978 342 0
-1979 -1978 -342 0
1979 -1978 342 0
1979 1978 -342 0
-93 -1979 0
-1980 347 350 0
-1980 -347 -350 0
1980 -347 350 0
1980 347 -350 0
-1981 1980 351 0
-1981 -1980 -351 0
1981 -1980 351 0
1981 1980 -351 0
-1982 1981 354 0
-1982 -1981 -354 0
1982 -1981 354 0
1982 1981 -354 0
-1983 1982 357 0
-1983 -1982 -357 0
1983 -1982 357 0
1983 1982 -357 0
-93 -1983 0
-1984 316 317 0
-1984 -316 -317 0
1984 -316 317 0
1984 316 -317 0
-1985 1984 318 0
-1985 -1984 -318 0
1985 -1984 318 0
1985 1984 -318 0
-1986 1985 320 0
-1986 -1985 -320 0
1986 -1985 320 0
1986 1985 -320 0
-1987 1986 322 0
-1987 -1986 -322 0
1987 -1986 322 0
1987 1986 -322 0
-1988 1987 324 0
-1988 -1987 -324 0
1988 -1987 324 0
1988 1987 -324 0
-1989 1988 325 0
-1989 -1988 -325 0
1989 -1988 325 0
1989 1988 -325 0
-1990 1989 327 0
-1990 -1989 -327 0
1990 -1989 327 0
1990 1989 -327 0
-94 -1990 0
-1991 331 332 0
-1991 -331 -332 0
1991 -331 332 0
1991 331 -332 0
-1992 1991 333 0
-1992 -1991 -333 0
1992 -1991 333 0
1992 1991 -333 0
-1993 1992 335 0
-1993 -1992 -335 0
1993 -1992 335 0
1993 1992 -335 0
-1994 1993 337 0
-1994 -1993 -337 0
1994 -1993 337 0
1994 1993 -337 0
-1995 1994 339 0
-1995 -1994 -339 0
1995 -1994 339 0
1995 1994 -339 0
-1996 1995 340 0
-1996 -1995 -340 0
1996 -1995 340 0
1996 1995 -340 0
-1997 1996 342 0
-1997 -1996 -342 0
1997 -1996 342 0
1997 1996 -342 0
-94 -1997 0
-1998 346 347 0
-1998 -346 -347 0
1998 -346 347 0
1998 346 -347 0
-1999 1998 348 0
-1999 -1998 -348 0
1999 -1998 348 0
1999 1998 -348 0
-2000 1999 350 0
-2000 -1999 -350 0
2000 -1999 350 0
2000 1999 -350 0
-2001 2000 352 0
-2001 -2000 -352 0
2001 -2000 352 0
2001 2000 -352 0
-2002 2001 354 0
-2002 -2001 -354 0
2002 -2001 354 0
2002 2001 -354 0
-2003 2002 355 0
-2003 -2002 -355 0
2003 -2002 355 0
2003 2002 -355 0
-2004 2003 357 0
-2004 -2003 -357 0
2004 -2003 357 0
2004 2003 -357 0
-94 -2004 0
-2005 316 318 0
-2005 -316 -318 0
2005 -316 318 0
2005 316 -318 0
-2006 2005 320 0
-2006 -2005 -320 0
2006 -2005 320 0
2006 2005 -320 0
-2007 2006 321 0
-2007 -2006 -321 0
2007 -2006 321 0
2007 2006 -321 0
-2008 2007 322 0
-2008 -2007 -322 0
2008 -2007 322 0
2008 2007 -322 0
-2009 2008 324 0
-2009 -2008 -324 0
2009 -2008 324 0
2009 2008 -324 0
-2010 2009 325 0
-2010 -2009 -325 0
2010 -2009 325 0
2010 2009 -325 0
-2011 2010 327 0
-2011 -2010 -327 0
2011 -2010 327 0
2011 2010 -327 0
-95 -2011 0
-2012 331 333 0
-2012 -331 -333 0
2012 -331 333 0
2012 331 -333 0
-2013 2012 335 0
-2013 -2012 -335 0
2013 -2012 335 0
2013 2012 -335 0
-2014 2013 336 0
-2014 -2013 -336 0
2014 -2013 336 0
2014 2013 -336 0
-2015 2014 337 0
-2015 -2014 -337 0
2015 -2014 337 0
2015 2014 -337 0
-2016 2015 339 0
-2016 -2015 -339 0
2016 -2015 339 0
2016 2015 -339 0
-2017 2016 340 0
-2017 -2016 -340 0
2017 -2016 340 0
2017 2016 -340 0
-2018 2017 342 0
-2018 -2017 -342 0
2018 -2017 342 0
2018 2017 -342 0
-95 -2018 0
-2019 346 348 0
-2019 -346 -348 0
2019 -346 348 0
2019 346 -348 0
-2020 2019 350 0
-2020 -2019 -350 0
2020 -2019 350 0
2020 2019 -350 0
-2021 2020 351 0
-2021 -2020 -351 0
2021 -2020 351 0
2021 2020 -351 0
-2022 2021 352 0
-2022 -2021 -352 0
2022 -2021 352 0
2022 2021 -352 0
-2023 2022 354 0
-2023 -2022 -354 0
2023 -2022 354 0
2023 2022 -354 0
-2024 2023 355 0
-2024 -2023 -355 0
2024 -2023 355 0
2024 2023 -355 0
-2025 2024 357 0
-2025 -2024 -357 0
2025 -2024 357 0
2025 2024 -357 0
-95 -2025 0
-2026 319 320 0
-2026 -319 -320 0
2026 -319 320 0
2026 319 -320 0
-2027 2026 323 0
-2027 -2026 -323 0
2027 -2026 323 0
2027 2026 -323 0
-2028 2027 324 0
-2028 -2027 -324 0
2028 -2027 324 0
2028 2027 -324 0
-2029 2028 326 0
-2029 -2028 -326 0
2029 -2028 326 0
2029 2028 -326 0
-2030 2029 327 0
-2030 -2029 -327 0
2030 -2029 327 0
2030 2029 -327 0
-96 -2030 0
-2031 334 335 0
-2031 -334 -335 0
2031 -334 335 0
2031 334 -335 0
-2032 2031 338 0
-2032 -2031 -338 0
2032 -2031 338 0
2032 2031 -338 0
-2033 2032 339 0
-2033 -2032 -339 0
2033 -2032 339 0
2033 2032 -339 0
-2034 2033 341 0
-2034 -2033 -341 0
2034 -2033 341 0
2034 2033 -341 0
-2035 2034 342 0
-2035 -2034 -342 0
2035 -2034 342 0
2035 2034 -342 0
-96 -2035 0
-2036 349 350 0
-2036 -349 -350 0
2036 -349 350 0
2036 349 -350 0
-2037 2036 353 0
-2037 -2036 -353 0
2037 -2036 353 0
2037 2036 -353 0
-2038 2037 354 0
-2038 -2037 -354 0
2038 -2037 354 0
2038 2037 -354 0
-2039 2038 356 0
-2039 -2038 -356 0
2039 -2038 356 0
2039 2038 -356 0
-2040 2039 357 0
-2040 -2039 -357 0
2040 -2039 357 0
2040 2039 -357 0
-96 -2040 0
-2041 317 319 0
-2041 -317 -319 0
2041 -317 319 0
2041 317 -319 0
-2042 2041 320 0
-2042 -2041 -320 0
2042 -2041 320 0
2042 2041 -320 0
-2043 2042 321 0
-2043 -2042 -321 0
2043 -2042 321 0
2043 2042 -321 0
-2044 2043 323 0
-2044 -2043 -323 0
2044 -2043 323 0
2044 2043 -323 0
-2045 2044 324 0
-2045 -2044 -324 0
2045 -2044 324 0
2045 2044 -324 0
-2046 2045 326 0
-2046 -2045 -326 0
2046 -2045 326 0
2046 2045 -326 0
-2047 2046 327 0
-2047 -2046 -327 0
2047 -2046 327 0
2047 2046 -327 0
-97 -2047 0
-2048 332 334 0
-2048 -332 -334 0
2048 -332 334 0
2048 332 -334 0
-2049 2048 335 0
-2049 -2048 -335 0
2049 -2048 335 0
2049 2048 -335 0
-2050 2049 336 0
-2050 -2049 -336 0
2050 -2049 336 0
2050 2049 -336 0
-2051 2050 338 0
-2051 -2050 -338 0
2051 -2050 338 0
2051 2050 -338 0
-2052 2051 339 0
-2052 -2051 -339 0
2052 -2051 339 0
2052 2051 -339 0
-2053 2052 341 0
-2053 -2052 -341 0
2053 -2052 341 0
2053 2052 -341 0
-2054 2053 342 0
-2054 -2053 -342 0
2054 -2053 342 0
2054 2053 -342 0
-97 -2054 0
-2055 347 349 0
-2055 -347 -349 0
2055 -347 349 0
2055 347 -349 0
-2056 2055 350 0
-2056 -2055 -350 0
2056 -2055 350 0
2056 2055 -350 0
-2057 2056 351 0
-2057 -2056 -351 0
2057 -2056 351 0
2057 2056 -351 0
-2058 2057 353 0
-2058 -2057 -353 0
2058 -2057 353 0
2058 2057 -353 0
-2059 2058 354 0
-2059 -2058 -354 0
2059 -2058 354 0
2059 2058 -354 0
-2060 2059 356 0
-2060 -2059 -356 0
2060 -2059 356 0
2060 2059 -356 0
-2061 2060 357 0
-2061 -2060 -357 0
2061 -2060 357 0
2061 2060 -357 0
-97 -2061 0
-2062 316 317 0
-2062 -316 -317 0
2062 -316 317 0
2062 316 -317 0
-2063 2062 318 0
-2063 -2062 -318 0
2063 -2062 318 0
2063 2062 -318 0
-2064 2063 319 0
-2064 -2063 -319 0
2064 -2063 319 0
2064 2063 -319 0
-2065 2064 320 0
-2065 -2064 -320 0
2065 -2064 320 0
2065 2064 -320 0
-2066 2065 322 0
-2066 -2065 -322 0
2066 -2065 322 0
2066 2065 -322 0
-2067 2066 323 0
-2067 -2066 -323 0
2067 -2066 323 0
2067 2066 -323 0
-2068 2067 324 0
-2068 -2067 -324 0
2068 -2067 324 0
2068 2067 -324 0
-2069 2068 325 0
-2069 -2068 -325 0
2069 -2068 325 0
2069 2068 -325 0
-2070 2069 326 0
-2070 -2069 -326 0
2070 -2069 326 0
2070 2069 -326 0
-2071 2070 327 0
-2071 -2070 -327 0
2071 -2070 327 0
2071 2070 -327 0
-98 -2071 0
-2072 331 332 0
-2072 -331 -332 0
2072 -331 332 0
2072 331 -332 0
-2073 2072 333 0
-2073 -2072 -333 0
2073 -2072 333 0
2073 2072 -333 0
-2074 2073 334 0
-2074 -2073 -334 0
2074 -2073 334 0
2074 2073 -334 0
-2075 2074 335 0
-2075 -2074 -335 0
2075 -2074 335 0
2075 2074 -335 0
-2076 2075 337 0
-2076 -2075 -337 0
2076 -2075 337 0
2076 2075 -337 0
-2077 2076 338 0
-2077 -2076 -338 0
2077 -2076 338 0
2077 2076 -338 0
-2078 2077 339 0
-2078 -2077 -339 0
2078 -2077 339 0
2078 2077 -339 0
-2079 2078 340 0
-2079 -2078 -340 0
2079 -2078 340 0
2079 2078 -340 0
-2080 2079 341 0
-2080 -2079 -341 0
2080 -2079 341 0
2080 2079 -341 0
-2081 2080 342 0
-2081 -2080 -342 0
2081 -2080 342 0
2081 2080 -342 0
-98 -2081 0
-2082 346 347 0
-2082 -346 -347 0
2082 -346 347 0
2082 346 -347 0
-2083 2082 348 0
-2083 -2082 -348 0
2083 -2082 348 0
2083 2082 -348 0
-2084 2083 349 0
-2084 -2083 -349 0
2084 -2083 349 0
2084 2083 -349 0
-2085 2084 350 0
-2085 -2084 -350 0
2085 -2084 350 0
2085 2084 -350 0
-2086 2085 352 0
-2086 -2085 -352 0
2086 -2085 352 0
2086 2085 -352 0
-2087 2086 353 0
-2087 -2086 -353 0
2087 -2086 353 0
2087 2086 -353 0
-2088 2087 354 0
-2088 -2087 -354 0
2088 -2087 354 0
2088 2087 -354 0
-2089 2088 355 0
-2089 -2088 -355 0
2089 -2088 355 0
2089 2088 -355 0
-2090 2089 356 0
-2090 -2089 -356 0
2090 -2089 356 0
2090 2089 -356 0
-2091 2090 357 0
-2091 -2090 -357 0
2091 -2090 357 0
2091 2090 -357 0
-98 -2091 0
-2092 316 318 0
-2092 -316 -318 0
2092 -316 318 0
2092 316 -318 0
-2093 2092 319 0
-2093 -2092 -319 0
2093 -2092 319 0
2093 2092 -319 0
-2094 2093 320 0
-2094 -2093 -320 0
2094 -2093 320 0
2094 2093 -320 0
-2095 2094 321 0
-2095 -2094 -321 0
2095 -2094 321 0
2095 2094 -321 0
-2096 2095 322 0
-2096 -2095 -322 0
2096 -2095 322 0
2096 2095 -322 0
-2097 2096 323 0
-2097 -2096 -323 0
2097 -2096 323 0
2097 2096 -323 0
-2098 2097 324 0
-2098 -2097 -324 0
2098 -2097 324 0
2098 2097 -324 0
-2099 2098 325 0
-2099 -2098 -325 0
2099 -2098 325 0
2099 2098 -325 0
-2100 2099 326 0
-2100 -2099 -326 0
2100 -2099 326 0
2100 2099 -326 0
-2101 2100 327 0
-2101 -2100 -327 0
2101 -2100 327 0
2101 2100 -327 0
-99 -2101 0
-2102 331 333 0
-2102 -331 -333 0
2102 -331 333 0
2102 331 -333 0
-2103 2102 334 0
-2103 -2102 -334 0
2103 -2102 334 0
2103 2102 -334 0
-2104 2103 335 0
-2104 -2103 -335 0
2104 -2103 335 0
2104 2103 -335 0
-2105 2104 336 0
-2105 -2104 -336 0
2105 -2104 336 0
2105 2104 -336 0
-2106 2105 337 0
-2106 -2105 -337 0
2106 -2105 337 0
2106 2105 -337 0
-2107 2106 338 0
-2107 -2106 -338 0
2107 -2106 338 0
2107 2106 -338 0
-2108 2107 339 0
-2108 -2107 -339 0
2108 -2107 339 0
2108 2107 -339 0
-2109 2108 340 0
-2109 -2108 -340 0
2109 -2108 340 0
2109 2108 -340 0
-2110 2109 341 0
-2110 -2109 -341 0
2110 -2109 341 0
2110 2109 -341 0
-2111 2110 342 0
-2111 -2110 -342 0
2111 -2110 342 0
2111 2110 -342 0
-99 -2111 0
-2112 346 348 0
-2112 -346 -348 0
2112 -346 348 0
2112 346 -348 0
-2113 2112 349 0
-2113 -2112 -349 0
2113 -2112 349 0
2113 2112 -349 0
-2114 2113 350 0
-2114 -2113 -350 0
2114 -2113 350 0
2114 2113 -350 0
-2115 2114 351 0
-2115 -2114 -351 0
2115 -2114 351 0
2115 2114 -351 0
-2116 2115 352 0
-2116 -2115 -352 0
2116 -2115 352 0
2116 2115 -352 0
-2117 2116 353 0
-2117 -2116 -353 0
2117 -2116 353 0
2117 2116 -353 0
-2118 2117 354 0
-2118 -2117 -354 0
2118 -2117 354 0
2118 2117 -354 0
-2119 2118 355 0
-2119 -2118 -355 0
2119 -2118 355 0
2119 2118 -355 0
-2120 2119 356 0
-2120 -2119 -356 0
2120 -2119 356 0
2120 2119 -356 0
-2121 2120 357 0
-2121 -2120 -357 0
2121 -2120 357 0
2121 2120 -357 0
-99 -2121 0
-100 -328 0
-100 -343 0
-100 -358 0
-2122 318 328 0
-2122 -318 -328 0
2122 -318 328 0
2122 318 -328 0
-101 -2122 0
-2123 333 343 0
-2123 -333 -343 0
2123 -333 343 0
2123 333 -343 0
-101 -2123 0
-2124 348 358 0
-2124 -348 -358 0
2124 -348 358 0
2124 348 -358 0
-101 -2124 0
-2125 322 328 0
-2125 -322 -328 0
2125 -322 328 0
2125 322 -328 0
-102 -2125 0
-2126 337 343 0
-2126 -337 -343 0
2126 -337 343 0
2126 337 -343 0
-102 -2126 0
-2127 352 358 0
-2127 -352 -358 0
2127 -352 358 0
2127 352 -358 0
-102 -2127 0
-2128 318 322 0
-2128 -318 -322 0
2128 -318 322 0
2128 318 -322 0
-2129 2128 328 0
-2129 -2128 -328 0
2129 -2128 328 0
2129 2128 -328 0
-103 -2129 0
-2130 333 337 0
-2130 -333 -337 0
2130 -333 337 0
2130 333 -337 0
-2131 2130 343 0
-2131 -2130 -343 0
2131 -2130 343 0
2131 2130 -343 0
-103 -2131 0
-2132 348 352 0
-2132 -348 -352 0
2132 -348 352 0
2132 348 -352 0
-2133 2132 358 0
-2133 -2132 -358 0
2133 -2132 358 0
2133 2132 -358 0
-103 -2133 0
-104 -329 0
-104 -344 0
-104 -359 0
-2134 318 329 0
-2134 -318 -329 0
2134 -318 329 0
2134 318 -329 0
-105 -2134 0
-2135 333 344 0
-2135 -333 -344 0
2135 -333 344 0
2135 333 -344 0
-105 -2135 0
-2136 348 359 0
-2136 -348 -359 0
2136 -348 359 0
2136 348 -359 0
-105 -2136 0
-2137 322 329 0
-2137 -322 -329 0
2137 -322 329 0
2137 322 -329 0
-106 -2137 0
-2138 337 344 0
-2138 -337 -344 0
2138 -337 344 0
2138 337 -344 0
-106 -2138 0
-2139 352 359 0
-2139 -352 -359 0
2139 -352 359 0
2139 352 -359 0
-106 -2139 0
-2140 318 322 0
-2140 -318 -322 0
2140 -318 322 0
2140 318 -322 0
-2141 2140 329 0
-2141 -2140 -329 0
2141 -2140 329 0
2141 2140 -329 0
-107 -2141 0
-2142 333 337 0
-2142 -333 -337 0
2142 -333 337 0
2142 333 -337 0
-2143 2142 344 0
-2143 -2142 -344 0
2143 -2142 344 0
2143 2142 -344 0
-107 -2143 0
-2144 348 352 0
-2144 -348 -352 0
2144 -348 352 0
2144 348 -352 0
-2145 2144 359 0
-2145 -2144 -359 0
2145 -2144 359 0
2145 2144 -359 0
-107 -2145 0
-2146 328 329 0
-2146 -328 -329 0
2146 -328 329 0
2146 328 -329 0
-108 -2146 0
-2147 343 344 0
-2147 -343 -344 0
2147 -343 344 0
2147 343 -344 0
-108 -2147 0
-2148 358 359 0
-2148 -358 -359 0
2148 -358 359 0
2148 358 -359 0
-108 -2148 0
-2149 318 328 0
-2149 -318 -328 0
2149 -318 328 0
2149 318 -328 0
-2150 2149 329 0
-2150 -2149 -329 0
2150 -2149 329 0
2150 2149 -329 0
-109 -2150 0
-2151 333 343 0
-2151 -333 -343 0
2151 -333 343 0
2151 333 -343 0
-2152 2151 344 0
-2152 -2151 -344 0
2152 -2151 344 0
2152 2151 -344 0
-109 -2152 0
-2153 348 358 0
-2153 -348 -358 0
2153 -348 358 0
2153 348 -358 0
-2154 2153 359 0
-2154 -2153 -359 0
2154 -2153 359 0
2154 2153 -359 0
-109 -2154 0
-2155 322 328 0
-2155 -322 -328 0
2155 -322 328 0
2155 322 -328 0
-2156 2155 329 0
-2156 -2155 -329 0
2156 -2155 329 0
2156 2155 -329 0
-110 -2156 0
-2157 337 343 0
-2157 -337 -343 0
2157 -337 343 0
2157 337 -343 0
-2158 2157 344 0
-2158 -2157 -344 0
2158 -2157 344 0
2158 2157 -344 0
-110 -2158 0
-2159 352 358 0
-2159 -352 -358 0
2159 -352 358 0
2159 352 -358 0
-2160 2159 359 0
-2160 -2159 -359 0
2160 -2159 359 0
2160 2159 -359 0
-110 -2160 0
-2161 318 322 0
-2161 -318 -322 0
2161 -318 322 0
2161 318 -322 0
-2162 2161 328 0
-2162 -2161 -328 0
2162 -2161 328 0
2162 2161 -328 0
-2163 2162 329 0
-2163 -2162 -329 0
2163 -2162 329 0
2163 2162 -329 0
-111 -2163 0
-2164 333 337 0
-2164 -333 -337 0
2164 -333 337 0
2164 333 -337 0
-2165 2164 343 0
-2165 -2164 -343 0
2165 -2164 343 0
2165 2164 -343 0
-2166 2165 344 0
-2166 -2165 -344 0
2166 -2165 344 0
2166 2165 -344 0
-111 -2166 0
-2167 348 352 0
-2167 -348 -352 0
2167 -348 352 0
2167 348 -352 0
-2168 2167 358 0
-2168 -2167 -358 0
2168 -2167 358 0
2168 2167 -358 0
-2169 2168 359 0
-2169 -2168 -359 0
2169 -2168 359 0
2169 2168 -359 0
-111 -2169 0
-2170 319 328 0
-2170 -319 -328 0
2170 -319 328 0
2170 319 -328 0
-112 -2170 0
-2171 334 343 0
-2171 -334 -343 0
2171 -334 343 0
2171 334 -343 0
-112 -2171 0
-2172 349 358 0
-2172 -349 -358 0
2172 -349 358 0
2172 349 -358 0
-112 -2172 0
-2173 318 319 0
-2173 -318 -319 0
2173 -318 319 0
2173 318 -319 0
-2174 2173 328 0
-2174 -2173 -328 0
2174 -2173 328 0
2174 2173 -328 0
-113 -2174 0
-2175 333 334 0
-2175 -333 -334 0
2175 -333 334 0
2175 333 -334 0
-2176 2175 343 0
-2176 -2175 -343 0
2176 -2175 343 0
2176 2175 -343 0
-113 -2176 0
-2177 348 349 0
-2177 -348 -349 0
2177 -348 349 0
2177 348 -349 0
-2178 2177 358 0
-2178 -2177 -358 0
2178 -2177 358 0
2178 2177 -358 0
-113 -2178 0
-2179 316 317 0
-2179 -316 -317 0
2179 -316 317 0
2179 316 -317 0
-2180 2179 319 0
-2180 -2179 -319 0
2180 -2179 319 0
2180 2179 -319 0
-2181 2180 322 0
-2181 -2180 -322 0
2181 -2180 322 0
2181 2180 -322 0
-2182 2181 325 0
-2182 -2181 -325 0
2182 -2181 325 0
2182 2181 -325 0
-2183 2182 328 0
-2183 -2182 -328 0
2183 -2182 328 0
2183 2182 -328 0
-114 -2183 0
-2184 331 332 0
-2184 -331 -332 0
2184 -331 332 0
2184 331 -332 0
-2185 2184 334 0
-2185 -2184 -334 0
2185 -2184 334 0
2185 2184 -334 0
-2186 2185 337 0
-2186 -2185 -337 0
2186 -2185 337 0
2186 2185 -337 0
-2187 2186 340 0
-2187 -2186 -340 0
2187 -2186 340 0
2187 2186 -340 0
-2188 2187 343 0
-2188 -2187 -343 0
2188 -2187 343 0
2188 2187 -343 0
-114 -2188 0
-2189 346 347 0
-2189 -346 -347 0
2189 -346 347 0
2189 346 -347 0
-2190 2189 349 0
-2190 -2189 -349 0
2190 -2189 349 0
2190 2189 -349 0
-2191 2190 352 0
-2191 -2190 -352 0
2191 -2190 352 0
2191 2190 -352 0
-2192 2191 355 0
-2192 -2191 -355 0
2192 -2191 355 0
2192 2191 -355 0
-2193 2192 358 0
-2193 -2192 -358 0
2193 -2192 358 0
2193 2192 -358 0
-114 -2193 0
-2194 316 317 0
-2194 -316 -317 0
2194 -316 317 0
2194 316 -317 0
-2195 2194 318 0
-2195 -2194 -318 0
2195 -2194 318 0
2195 2194 -318 0
-2196 2195 319 0
-2196 -2195 -319 0
2196 -2195 319 0
2196 2195 -319 0
-2197 2196 322 0
-2197 -2196 -322 0
2197 -2196 322 0
2197 2196 -322 0
-2198 2197 325 0
-2198 -2197 -325 0
2198 -2197 325 0
2198 2197 -325 0
-2199 2198 328 0
-2199 -2198 -328 0
2199 -2198 328 0
2199 2198 -328 0
-115 -2199 0
-2200 331 332 0
-2200 -331 -332 0
2200 -331 332 0
2200 331 -332 0
-2201 2200 333 0
-2201 -2200 -333 0
2201 -2200 333 0
2201 2200 -333 0
-2202 2201 334 0
-2202 -2201 -334 0
2202 -2201 334 0
2202 2201 -334 0
-2203 2202 337 0
-2203 -2202 -337 0
2203 -2202 337 0
2203 2202 -337 0
-2204 2203 340 0
-2204 -2203 -340 0
2204 -2203 340 0
2204 2203 -340 0
-2205 2204 343 0
-2205 -2204 -343 0
2205 -2204 343 0
2205 2204 -343 0
-115 -2205 0
-2206 346 347 0
-2206 -346 -347 0
2206 -346 347 0
2206 346 -347 0
-2207 2206 348 0
-2207 -2206 -348 0
2207 -2206 348 0
2207 2206 -348 0
-2208 2207 349 0
-2208 -2207 -349 0
2208 -2207 349 0
2208 2207 -349 0
-2209 2208 352 0
-2209 -2208 -352 0
2209 -2208 352 0
2209 2208 -352 0
-2210 2209 355 0
-2210 -2209 -355 0
2210 -2209 355 0
2210 2209 -355 0
-2211 2210 358 0
-2211 -2210 -358 0
2211 -2210 358 0
2211 2210 -358 0
-115 -2211 0
-2212 320 329 0
-2212 -320 -329 0
2212 -320 329 0
2212 320 -329 0
-116 -2212 0
-2213 335 344 0
-2213 -335 -344 0
2213 -335 344 0
2213 335 -344 0
-116 -2213 0
-2214 350 359 0
-2214 -350 -359 0
2214 -350 359 0
2214 350 -359 0
-116 -2214 0
-2215 318 320 0
-2215 -318 -320 0
2215 -318 320 0
2215 318 -320 0
-2216 2215 329 0
-2216 -2215 -329 0
2216 -2215 329 0
2216 2215 -329 0
-117 -2216 0
-2217 333 335 0
-2217 -333 -335 0
2217 -333 335 0
2217 333 -335 0
-2218 2217 344 0
-2218 -2217 -344 0
2218 -2217 344 0
2218 2217 -344 0
-117 -2218 0
-2219 348 350 0
-2219 -348 -350 0
2219 -348 350 0
2219 348 -350 0
-2220 2219 359 0
-2220 -2219 -359 0
2220 -2219 359 0
2220 2219 -359 0
-117 -2220 0
-2221 316 317 0
-2221 -316 -317 0
2221 -316 317 0
2221 316 -317 0
-2222 2221 320 0
-2222 -2221 -320 0
2222 -2221 320 0
2222 2221 -320 0
-2223 2222 322 0
-2223 -2222 -322 0
2223 -2222 322 0
2223 2222 -322 0
-2224 2223 325 0
-2224 -2223 -325 0
2224 -2223 325 0
2224 2223 -325 0
-2225 2224 329 0
-2225 -2224 -329 0
2225 -2224 329 0
2225 2224 -329 0
-118 -2225 0
-2226 331 332 0
-2226 -331 -332 0
2226 -331 332 0
2226 331 -332 0
-2227 2226 335 0
-2227 -2226 -335 0
2227 -2226 335 0
2227 2226 -335 0
-2228 2227 337 0
-2228 -2227 -337 0
2228 -2227 337 0
2228 2227 -337 0
-2229 2228 340 0
-2229 -2228 -340 0
2229 -2228 340 0
2229 2228 -340 0
-2230 2229 344 0
-2230 -2229 -344 0
2230 -2229 344 0
2230 2229 -344 0
-118 -2230 0
-2231 346 347 0
-2231 -346 -347 0
2231 -346 347 0
2231 346 -347 0
-2232 2231 350 0
-2232 -2231 -350 0
2232 -2231 350 0
2232 2231 -350 0
-2233 2232 352 0
-2233 -2232 -352 0
2233 -2232 352 0
2233 2232 -352 0
-2234 2233 355 0
-2234 -2233 -355 0
2234 -2233 355 0
2234 2233 -355 0
-2235 2234 359 0
-2235 -2234 -359 0
2235 -2234 359 0
2235 2234 -359 0
-118 -2235 0
-2236 316 317 0
-2236 -316 -317 0
2236 -316 317 0
2236 316 -317 0
-2237 2236 318 0
-2237 -2236 -318 0
2237 -2236 318 0
2237 2236 -318 0
-2238 2237 320 0
-2238 -2237 -320 0
2238 -2237 320 0
2238 2237 -320 0
-2239 2238 322 0
-2239 -2238 -322 0
2239 -2238 322 0
2239 2238 -322 0
-2240 2239 325 0
-2240 -2239 -325 0
2240 -2239 325 0
2240 2239 -325 0
-2241 2240 329 0
-2241 -2240 -329 0
2241 -2240 329 0
2241 2240 -329 0
-119 -2241 0
-2242 331 332 0
-2242 -331 -332 0
2242 -331 332 0
2242 331 -332 0
-2243 2242 333 0
-2243 -2242 -333 0
2243 -2242 333 0
2243 2242 -333 0
-2244 2243 335 0
-2244 -2243 -335 0
2244 -2243 335 0
2244 2243 -335 0
-2245 2244 337 0
-2245 -2244 -337 0
2245 -2244 337 0
2245 2244 -337 0
-2246 2245 340 0
-2246 -2245 -340 0
2246 -2245 340 0
2246 2245 -340 0
-2247 2246 344 0
-2247 -2246 -344 0
2247 -2246 344 0
2247 2246 -344 0
-119 -2247 0
-2248 346 347 0
-2248 -346 -347 0
2248 -346 347 0
2248 346 -347 0
-2249 2248 348 0
-2249 -2248 -348 0
2249 -2248 348 0
2249 2248 -348 0
-2250 2249 350 0
-2250 -2249 -350 0
2250 -2249 350 0
2250 2249 -350 0
-2251 2250 352 0
-2251 -2250 -352 0
2251 -2250 352 0
2251 2250 -352 0
-2252 2251 355 0
-2252 -2251 -355 0
2252 -2251 355 0
2252 2251 -355 0
-2253 2252 359 0
-2253 -2252 -359 0
2253 -2252 359 0
2253 2252 -359 0
-119 -2253 0
-2254 319 320 0
-2254 -319 -320 0
2254 -319 320 0
2254 319 -320 0
-2255 2254 328 0
-2255 -2254 -328 0
2255 -2254 328 0
2255 2254 -328 0
-2256 2255 329 0
-2256 -2255 -329 0
2256 -2255 329 0
2256 2255 -329 0
-120 -2256 0
-2257 334 335 0
-2257 -334 -335 0
2257 -334 335 0
2257 334 -335 0
-2258 2257 343 0
-2258 -2257 -343 0
2258 -2257 343 0
2258 2257 -343 0
-2259 2258 344 0
-2259 -2258 -344 0
2259 -2258 344 0
2259 2258 -344 0
-120 -2259 0
-2260 349 350 0
-2260 -349 -350 0
2260 -349 350 0
2260 349 -350 0
-2261 2260 358 0
-2261 -2260 -358 0
2261 -2260 358 0
2261 2260 -358 0
-2262 2261 359 0
-2262 -2261 -359 0
2262 -2261 359 0
2262 2261 -359 0
-120 -2262 0
-2263 318 319 0
-2263 -318 -319 0
2263 -318 319 0
2263 318 -319 0
-2264 2263 320 0
-2264 -2263 -320 0
2264 -2263 320 0
2264 2263 -320 0
-2265 2264 328 0
-2265 -2264 -328 0
2265 -2264 328 0
2265 2264 -328 0
-2266 2265 329 0
-2266 -2265 -329 0
2266 -2265 329 0
2266 2265 -329 0
-121 -2266 0
-2267 333 334 0
-2267 -333 -334 0
2267 -333 334 0
2267 333 -334 0
-2268 2267 335 0
-2268 -2267 -335 0
2268 -2267 335 0
2268 2267 -335 0
-2269 2268 343 0
-2269 -2268 -343 0
2269 -2268 343 0
2269 2268 -343 0
-2270 2269 344 0
-2270 -2269 -344 0
2270 -2269 344 0
2270 2269 -344 0
-121 -2270 0
-2271 348 349 0
-2271 -348 -349 0
2271 -348 349 0
2271 348 -349 0
-2272 2271 350 0
-2272 -2271 -350 0
2272 -2271 350 0
2272 2271 -350 0
-2273 2272 358 0
-2273 -2272 -358 0
2273 -2272 358 0
2273 2272 -358 0
-2274 2273 359 0
-2274 -2273 -359 0
2274 -2273 359 0
2274 2273 -359 0
-121 -2274 0
-2275 316 317 0
-2275 -316 -317 0
2275 -316 317 0
2275 316 -317 0
-2276 2275 319 0
-2276 -2275 -319 0
2276 -2275 319 0
2276 2275 -319 0
-2277 2276 320 0
-2277 -2276 -320 0
2277 -2276 320 0
2277 2276 -320 0
-2278 2277 322 0
-2278 -2277 -322 0
2278 -2277 322 0
2278 2277 -322 0
-2279 2278 325 0
-2279 -2278 -325 0
2279 -2278 325 0
2279 2278 -325 0
-2280 2279 328 0
-2280 -2279 -328 0
2280 -2279 328 0
2280 2279 -328 0
-2281 2280 329 0
-2281 -2280 -329 0
2281 -2280 329 0
2281 2280 -329 0
-122 -2281 0
-2282 331 332 0
-2282 -331 -332 0
2282 -331 332 0
2282 331 -332 0
-2283 2282 334 0
-2283 -2282 -334 0
2283 -2282 334 0
2283 2282 -334 0
-2284 2283 335 0
-2284 -2283 -335 0
2284 -2283 335 0
2284 2283 -335 0
-2285 2284 337 0
-2285 -2284 -337 0
2285 -2284 337 0
2285 2284 -337 0
-2286 2285 340 0
-2286 -2285 -340 0
2286 -2285 340 0
2286 2285 -340 0
-2287 2286 343 0
-2287 -2286 -343 0
2287 -2286 343 0
2287 2286 -343 0
-2288 2287 344 0
-2288 -2287 -344 0
2288 -2287 344 0
2288 2287 -344 0
-122 -2288 0
-2289 346 347 0
-2289 -346 -347 0
2289 -346 347 0
2289 346 -347 0
-2290 2289 349 0
-2290 -2289 -349 0
2290 -2289 349 0
2290 2289 -349 0
-2291 2290 350 0
-2291 -2290 -350 0
2291 -2290 350 0
2291 2290 -350 0
-2292 2291 352 0
-2292 -2291 -352 0
2292 -2291 352 0
2292 2291 -352 0
-2293 2292 355 0
-2293 -2292 -355 0
2293 -2292 355 0
2293 2292 -355 0
-2294 2293 358 0
-2294 -2293 -358 0
2294 -2293 358 0
2294 2293 -358 0
-2295 2294 359 0
-2295 -2294 -359 0
2295 -2294 359 0
2295 2294 -359 0
-122 -2295 0
-2296 316 317 0
-2296 -316 -317 0
2296 -316 317 0
2296 316 -317 0
-2297 2296 318 0
-2297 -2296 -318 0
2297 -2296 318 0
2297 2296 -318 0
-2298 2297 319 0
-2298 -2297 -319 0
2298 -2297 319 0
2298 2297 -319 0
-2299 2298 320 0
-2299 -2298 -320 0
2299 -2298 320 0
2299 2298 -320 0
-2300 2299 322 0
-2300 -2299 -322 0
2300 -2299 322 0
2300 2299 -322 0
-2301 2300 325 0
-2301 -2300 -325 0
2301 -2300 325 0
2301 2300 -325 0
-2302 2301 328 0
-2302 -2301 -328 0
2302 -2301 328 0
2302 2301 -328 0
-2303 2302 329 0
-2303 -2302 -329 0
2303 -2302 329 0
2303 2302 -329 0
-123 -2303 0
-2304 331 332 0
-2304 -331 -332 0
2304 -331 332 0
2304 331 -332 0
-2305 2304 333 0
-2305 -2304 -333 0
2305 -2304 333 0
2305 2304 -333 0
-2306 2305 334 0
-2306 -2305 -334 0
2306 -2305 334 0
2306 2305 -334 0
-2307 2306 335 0
-2307 -2306 -335 0
2307 -2306 335 0
2307 2306 -335 0
-2308 2307 337 0
-2308 -2307 -337 0
2308 -2307 337 0
2308 2307 -337 0
-2309 2308 340 0
-2309 -2308 -340 0
2309 -2308 340 0
2309 2308 -340 0
-2310 2309 343 0
-2310 -2309 -343 0
2310 -2309 343 0
2310 2309 -343 0
-2311 2310 344 0
-2311 -2310 -344 0
2311 -2310 344 0
2311 2310 -344 0
-123 -2311 0
-2312 346 347 0
-2312 -346 -347 0
2312 -346 347 0
2312 346 -347 0
-2313 2312 348 0
-2313 -2312 -348 0
2313 -2312 348 0
2313 2312 -348 0
-2314 2313 349 0
-2314 -2313 -349 0
2314 -2313 349 0
2314 2313 -349 0
-2315 2314 350 0
-2315 -2314 -350 0
2315 -2314 350 0
2315 2314 -350 0
-2316 2315 352 0
-2316 -2315 -352 0
2316 -2315 352 0
2316 2315 -352 0
-2317 2316 355 0
-2317 -2316 -355 0
2317 -2316 355 0
2317 2316 -355 0
-2318 2317 358 0
-2318 -2317 -358 0
2318 -2317 358 0
2318 2317 -358 0
-2319 2318 359 0
-2319 -2318 -359 0
2319 -2318 359 0
2319 2318 -359 0
-123 -2319 0
-2320 323 328 0
-2320 -323 -328 0
2320 -323 328 0
2320 323 -328 0
-124 -2320 0
-2321 338 343 0
-2321 -338 -343 0
2321 -338 343 0
2321 338 -343 0
-124 -2321 0
-2322 353 358 0
-2322 -353 -358 0
2322 -353 358 0
2322 353 -358 0
-124 -2322 0
-2323 322 323 0
-2323 -322 -323 0
2323 -322 323 0
2323 322 -323 0
-2324 2323 328 0
-2324 -2323 -328 0
2324 -2323 328 0
2324 2323 -328 0
-125 -2324 0
-2325 337 338 0
-2325 -337 -338 0
2325 -337 338 0
2325 337 -338 0
-2326 2325 343 0
-2326 -2325 -343 0
2326 -2325 343 0
2326 2325 -343 0
-125 -2326 0
-2327 352 353 0
-2327 -352 -353 0
2327 -352 353 0
2327 352 -353 0
-2328 2327 358 0
-2328 -2327 -358 0
2328 -2327 358 0
2328 2327 -358 0
-125 -2328 0
-2329 316 318 0
-2329 -316 -318 0
2329 -316 318 0
2329 316 -318 0
-2330 2329 321 0
-2330 -2329 -321 0
2330 -2329 321 0
2330 2329 -321 0
-2331 2330 323 0
-2331 -2330 -323 0
2331 -2330 323 0
2331 2330 -323 0
-2332 2331 325 0
-2332 -2331 -325 0
2332 -2331 325 0
2332 2331 -325 0
-2333 2332 328 0
-2333 -2332 -328 0
2333 -2332 328 0
2333 2332 -328 0
-126 -2333 0
-2334 331 333 0
-2334 -331 -333 0
2334 -331 333 0
2334 331 -333 0
-2335 2334 336 0
-2335 -2334 -336 0
2335 -2334 336 0
2335 2334 -336 0
-2336 2335 338 0
-2336 -2335 -338 0
2336 -2335 338 0
2336 2335 -338 0
-2337 2336 340 0
-2337 -2336 -340 0
2337 -2336 340 0
2337 2336 -340 0
-2338 2337 343 0
-2338 -2337 -343 0
2338 -2337 343 0
2338 2337 -343 0
-126 -2338 0
-2339 346 348 0
-2339 -346 -348 0
2339 -346 348 0
2339 346 -348 0
-2340 2339 351 0
-2340 -2339 -351 0
2340 -2339 351 0
2340 2339 -351 0
-2341 2340 353 0
-2341 -2340 -353 0
2341 -2340 353 0
2341 2340 -353 0
-2342 2341 355 0
-2342 -2341 -355 0
2342 -2341 355 0
2342 2341 -355 0
-2343 2342 358 0
-2343 -2342 -358 0
2343 -2342 358 0
2343 2342 -358 0
-126 -2343 0
-2344 316 318 0
-2344 -316 -318 0
2344 -316 318 0
2344 316 -318 0
-2345 2344 321 0
-2345 -2344 -321 0
2345 -2344 321 0
2345 2344 -321 0
-2346 2345 322 0
-2346 -2345 -322 0
2346 -2345 322 0
2346 2345 -322 0
-2347 2346 323 0
-2347 -2346 -323 0
2347 -2346 323 0
2347 2346 -323 0
-2348 2347 325 0
-2348 -2347 -325 0
2348 -2347 325 0
2348 2347 -325 0
-2349 2348 328 0
-2349 -2348 -328 0
2349 -2348 328 0
2349 2348 -328 0
-127 -2349 0
-2350 331 333 0
-2350 -331 -333 0
2350 -331 333 0
2350 331 -333 0
-2351 2350 336 0
-2351 -2350 -336 0
2351 -2350 336 0
2351 2350 -336 0
-2352 2351 337 0
-2352 -2351 -337 0
2352 -2351 337 0
2352 2351 -337 0
-2353 2352 338 0
-2353 -2352 -338 0
2353 -2352 338 0
2353 2352 -338 0
-2354 2353 340 0
-2354 -2353 -340 0
2354 -2353 340 0
2354 2353 -340 0
-2355 2354 343 0
-2355 -2354 -343 0
2355 -2354 343 0
2355 2354 -343 0
-127 -2355 0
-2356 346 348 0
-2356 -346 -348 0
2356 -346 348 0
2356 346 -348 0
-2357 2356 351 0
-2357 -2356 -351 0
2357 -2356 351 0
2357 2356 -351 0
-2358 2357 352 0
-2358 -2357 -352 0
2358 -2357 352 0
2358 2357 -352 0
-2359 2358 353 0
-2359 -2358 -353 0
2359 -2358 353 0
2359 2358 -353 0
-2360 2359 355 0
-2360 -2359 -355 0
2360 -2359 355 0
2360 2359 -355 0
-2361 2360 358 0
-2361 -2360 -358 0
2361 -2360 358 0
2361 2360 -358 0
-127 -2361 0
-2362 324 329 0
-2362 -324 -329 0
2362 -324 329 0
2362 324 -329 0
-128 -2362 0
-2363 339 344 0
-2363 -339 -344 0
2363 -339 344 0
2363 339 -344 0
-128 -2363 0
-2364 354 359 0
-2364 -354 -359 0
2364 -354 359 0
2364 354 -359 0
-128 -2364 0
-2365 322 324 0
-2365 -322 -324 0
2365 -322 324 0
2365 322 -324 0
-2366 2365 329 0
-2366 -2365 -329 0
2366 -2365 329 0
2366 2365 -329 0
-129 -2366 0
-2367 337 339 0
-2367 -337 -339 0
2367 -337 339 0
2367 337 -339 0
-2368 2367 344 0
-2368 -2367 -344 0
2368 -2367 344 0
2368 2367 -344 0
-129 -2368 0
-2369 352 354 0
-2369 -352 -354 0
2369 -352 354 0
2369 352 -354 0
-2370 2369 359 0
-2370 -2369 -359 0
2370 -2369 359 0
2370 2369 -359 0
-129 -2370 0
-2371 316 318 0
-2371 -316 -318 0
2371 -316 318 0
2371 316 -318 0
-2372 2371 321 0
-2372 -2371 -321 0
2372 -2371 321 0
2372 2371 -321 0
-2373 2372 324 0
-2373 -2372 -324 0
2373 -2372 324 0
2373 2372 -324 0
-2374 2373 325 0
-2374 -2373 -325 0
2374 -2373 325 0
2374 2373 -325 0
-2375 2374 329 0
-2375 -2374 -329 0
2375 -2374 329 0
2375 2374 -329 0
-130 -2375 0
-2376 331 333 0
-2376 -331 -333 0
2376 -331 333 0
2376 331 -333 0
-2377 2376 336 0
-2377 -2376 -336 0
2377 -2376 336 0
2377 2376 -336 0
-2378 2377 339 0
-2378 -2377 -339 0
2378 -2377 339 0
2378 2377 -339 0
-2379 2378 340 0
-2379 -2378 -340 0
2379 -2378 340 0
2379 2378 -340 0
-2380 2379 344 0
-2380 -2379 -344 0
2380 -2379 344 0
2380 2379 -344 0
-130 -2380 0
-2381 346 348 0
-2381 -346 -348 0
2381 -346 348 0
2381 346 -348 0
-2382 2381 351 0
-2382 -2381 -351 0
2382 -2381 351 0
2382 2381 -351 0
-2383 2382 354 0
-2383 -2382 -354 0
2383 -2382 354 0
2383 2382 -354 0
-2384 2383 355 0
-2384 -2383 -355 0
2384 -2383 355 0
2384 2383 -355 0
-2385 2384 359 0
-2385 -2384 -359 0
2385 -2384 359 0
2385 2384 -359 0
-130 -2385 0
-2386 316 318 0
-2386 -316 -318 0
2386 -316 318 0
2386 316 -318 0
-2387 2386 321 0
-2387 -2386 -321 0
2387 -2386 321 0
2387 2386 -321 0
-2388 2387 322 0
-2388 -2387 -322 0
2388 -2387 322 0
2388 2387 -322 0
-2389 2388 324 0
-2389 -2388 -324 0
2389 -2388 324 0
2389 2388 -324 0
-2390 2389 325 0
-2390 -2389 -325 0
2390 -2389 325 0
2390 2389 -325 0
-2391 2390 329 0
-2391 -2390 -329 0
2391 -2390 329 0
2391 2390 -329 0
-131 -2391 0
-2392 331 333 0
-2392 -331 -333 0
2392 -331 333 0
2392 331 -333 0
-2393 2392 336 0
-2393 -2392 -336 0
2393 -2392 336 0
2393 2392 -336 0
-2394 2393 337 0
-2394 -2393 -337 0
2394 -2393 337 0
2394 2393 -337 0
-2395 2394 339 0
-2395 -2394 -339 0
2395 -2394 339 0
2395 2394 -339 0
-2396 2395 340 0
-2396 -2395 -340 0
2396 -2395 340 0
2396 2395 -340 0
-2397 2396 344 0
-2397 -2396 -344 0
2397 -2396 344 0
2397 2396 -344 0
-131 -2397 0
-2398 346 348 0
-2398 -346 -348 0
2398 -346 348 0
2398 346 -348 0
-2399 2398 351 0
-2399 -2398 -351 0
2399 -2398 351 0
2399 2398 -351 0
-2400 2399 352 0
-2400 -2399 -352 0
2400 -2399 352 0
2400 2399 -352 0
-2401 2400 354 0
-2401 -2400 -354 0
2401 -2400 354 0
2401 2400 -354 0
-2402 2401 355 0
-2402 -2401 -355 0
2402 -2401 355 0
2402 2401 -355 0
-2403 2402 359 0
-2403 -2402 -359 0
2403 -2402 359 0
2403 2402 -359 0
-131 -2403 0
-2404 323 324 0
-2404 -323 -324 0
2404 -323 324 0
2404 323 -324 0
-2405 2404 328 0
-2405 -2404 -328 0
2405 -2404 328 0
2405 2404 -328 0
-2406 2405 329 0
-2406 -2405 -329 0
2406 -2405 329 0
2406 2405 -329 0
-132 -2406 0
-2407 338 339 0
-2407 -338 -339 0
2407 -338 339 0
2407 338 -339 0
-2408 2407 343 0
-2408 -2407 -343 0
2408 -2407 343 0
2408 2407 -343 0
-2409 2408 344 0
-2409 -2408 -344 0
2409 -2408 344 0
2409 2408 -344 0
-132 -2409 0
-2410 353 354 0
-2410 -353 -354 0
2410 -353 354 0
2410 353 -354 0
-2411 2410 358 0
-2411 -2410 -358 0
2411 -2410 358 0
2411 2410 -358 0
-2412 2411 359 0
-2412 -2411 -359 0
2412 -2411 359 0
2412 2411 -359 0
-132 -2412 0
-2413 322 323 0
-2413 -322 -323 0
2413 -322 323 0
2413 322 -323 0
-2414 2413 324 0
-2414 -2413 -324 0
2414 -2413 324 0
2414 2413 -324 0
-2415 2414 328 0
-2415 -2414 -328 0
2415 -2414 328 0
2415 2414 -328 0
-2416 2415 329 0
-2416 -2415 -329 0
2416 -2415 329 0
2416 2415 -329 0
-133 -2416 0
-2417 337 338 0
-2417 -337 -338 0
2417 -337 338 0
2417 337 -338 0
-2418 2417 339 0
-2418 -2417 -339 0
2418 -2417 339 0
2418 2417 -339 0
-2419 2418 343 0
-2419 -2418 -343 0
2419 -2418 343 0
2419 2418 -343 0
-2420 2419 344 0
-2420 -2419 -344 0
2420 -2419 344 0
2420 2419 -344 0
-133 -2420 0
-2421 352 353 0
-2421 -352 -353 0
2421 -352 353 0
2421 352 -353 0
-2422 2421 354 0
-2422 -2421 -354 0
2422 -2421 354 0
2422 2421 -354 0
-2423 2422 358 0
-2423 -2422 -358 0
2423 -2422 358 0
2423 2422 -358 0
-2424 2423 359 0
-2424 -2423 -359 0
2424 -2423 359 0
2424 2423 -359 0
-133 -2424 0
-2425 316 318 0
-2425 -316 -318 0
2425 -316 318 0
2425 316 -318 0
-2426 2425 321 0
-2426 -2425 -321 0
2426 -2425 321 0
2426 2425 -321 0
-2427 2426 323 0
-2427 -2426 -323 0
2427 -2426 323 0
2427 2426 -323 0
-2428 2427 324 0
-2428 -2427 -324 0
2428 -2427 324 0
2428 2427 -324 0
-2429 2428 325 0
-2429 -2428 -325 0
2429 -2428 325 0
2429 2428 -325 0
-2430 2429 328 0
-2430 -2429 -328 0
2430 -2429 328 0
2430 2429 -328 0
-2431 2430 329 0
-2431 -2430 -329 0
2431 -2430 329 0
2431 2430 -329 0
-134 -2431 0
-2432 331 333 0
-2432 -331 -333 0
2432 -331 333 0
2432 331 -333 0
-2433 2432 336 0
-2433 -2432 -336 0
2433 -2432 336 0
2433 2432 -336 0
-2434 2433 338 0
-2434 -2433 -338 0
2434 -2433 338 0
2434 2433 -338 0
-2435 2434 339 0
-2435 -2434 -339 0
2435 -2434 339 0
2435 2434 -339 0
-2436 2435 340 0
-2436 -2435 -340 0
2436 -2435 340 0
2436 2435 -340 0
-2437 2436 343 0
-2437 -2436 -343 0
2437 -2436 343 0
2437 2436 -343 0
-2438 2437 344 0
-2438 -2437 -344 0
2438 -2437 344 0
2438 2437 -344 0
-134 -2438 0
-2439 346 348 0
-2439 -346 -348 0
2439 -346 348 0
2439 346 -348 0
-2440 2439 351 0
-2440 -2439 -351 0
2440 -2439 351 0
2440 2439 -351 0
-2441 2440 353 0
-2441 -2440 -353 0
2441 -2440 353 0
2441 2440 -353 0
-2442 2441 354 0
-2442 -2441 -354 0
2442 -2441 354 0
2442 2441 -354 0
-2443 2442 355 0
-2443 -2442 -355 0
2443 -2442 355 0
2443 2442 -355 0
-2444 2443 358 0
-2444 -2443 -358 0
2444 -2443 358 0
2444 2443 -358 0
-2445 2444 359 0
-2445 -2444 -359 0
2445 -2444 359 0
2445 2444 -359 0
-134 -2445 0
-2446 316 318 0
-2446 -316 -318 0
2446 -316 318 0
2446 316 -318 0
-2447 2446 321 0
-2447 -2446 -321 0
2447 -2446 321 0
2447 2446 -321 0
-2448 2447 322 0
-2448 -2447 -322 0
2448 -2447 322 0
2448 2447 -322 0
-2449 2448 323 0
-2449 -2448 -323 0
2449 -2448 323 0
2449 2448 -323 0
-2450 2449 324 0
-2450 -2449 -324 0
2450 -2449 324 0
2450 2449 -324 0
-2451 2450 325 0
-2451 -2450 -325 0
2451 -2450 325 0
2451 2450 -325 0
-2452 2451 328 0
-2452 -2451 -328 0
2452 -2451 328 0
2452 2451 -328 0
-2453 2452 329 0
-2453 -2452 -329 0
2453 -2452 329 0
2453 2452 -329 0
-135 -2453 0
-2454 331 333 0
-2454 -331 -333 0
2454 -331 333 0
2454 331 -333 0
-2455 2454 336 0
-2455 -2454 -336 0
2455 -2454 336 0
2455 2454 -336 0
-2456 2455 337 0
-2456 -2455 -337 0
2456 -2455 337 0
2456 2455 -337 0
-2457 2456 338 0
-2457 -2456 -338 0
2457 -2456 338 0
2457 2456 -338 0
-2458 2457 339 0
-2458 -2457 -339 0
2458 -2457 339 0
2458 2457 -339 0
-2459 2458 340 0
-2459 -2458 -340 0
2459 -2458 340 0
2459 2458 -340 0
-2460 2459 343 0
-2460 -2459 -343 0
2460 -2459 343 0
2460 2459 -343 0
-2461 2460 344 0
-2461 -2460 -344 0
2461 -2460 344 0
2461 2460 -344 0
-135 -2461 0
-2462 346 348 0
-2462 -346 -348 0
2462 -346 348 0
2462 346 -348 0
-2463 2462 351 0
-2463 -2462 -351 0
2463 -2462 351 0
2463 2462 -351 0
-2464 2463 352 0
-2464 -2463 -352 0
2464 -2463 352 0
2464 2463 -352 0
-2465 2464 353 0
-2465 -2464 -353 0
2465 -2464 353 0
2465 2464 -353 0
-2466 2465 354 0
-2466 -2465 -354 0
2466 -2465 354 0
2466 2465 -354 0
-2467 2466 355 0
-2467 -2466 -355 0
2467 -2466 355 0
2467 2466 -355 0
-2468 2467 358 0
-2468 -2467 -358 0
2468 -2467 358 0
2468 2467 -358 0
-2469 2468 359 0
-2469 -2468 -359 0
2469 -2468 359 0
2469 2468 -359 0
-135 -2469 0
-2470 319 323 0
-2470 -319 -323 0
2470 -319 323 0
2470 319 -323 0
-2471 2470 328 0
-2471 -2470 -328 0
2471 -2470 328 0
2471 2470 -328 0
-136 -2471 0
-2472 334 338 0
-2472 -334 -338 0
2472 -334 338 0
2472 334 -338 0
-2473 2472 343 0
-2473 -2472 -343 0
2473 -2472 343 0
2473 2472 -343 0
-136 -2473 0
-2474 349 353 0
-2474 -349 -353 0
2474 -349 353 0
2474 349 -353 0
-2475 2474 358 0
-2475 -2474 -358 0
2475 -2474 358 0
2475 2474 -358 0
-136 -2475 0
-2476 318 319 0
-2476 -318 -319 0
2476 -318 319 0
2476 318 -319 0
-2477 2476 322 0
-2477 -2476 -322 0
2477 -2476 322 0
2477 2476 -322 0
-2478 2477 323 0
-2478 -2477 -323 0
2478 -2477 323 0
2478 2477 -323 0
-2479 2478 328 0
-2479 -2478 -328 0
2479 -2478 328 0
2479 2478 -328 0
-137 -2479 0
-2480 333 334 0
-2480 -333 -334 0
2480 -333 334 0
2480 333 -334 0
-2481 2480 337 0
-2481 -2480 -337 0
2481 -2480 337 0
2481 2480 -337 0
-2482 2481 338 0
-2482 -2481 -338 0
2482 -2481 338 0
2482 2481 -338 0
-2483 2482 343 0
-2483 -2482 -343 0
2483 -2482 343 0
2483 2482 -343 0
-137 -2483 0
-2484 348 349 0
-2484 -348 -349 0
2484 -348 349 0
2484 348 -349 0
-2485 2484 352 0
-2485 -2484 -352 0
2485 -2484 352 0
2485 2484 -352 0
-2486 2485 353 0
-2486 -2485 -353 0
2486 -2485 353 0
2486 2485 -353 0
-2487 2486 358 0
-2487 -2486 -358 0
2487 -2486 358 0
2487 2486 -358 0
-137 -2487 0
-2488 316 317 0
-2488 -316 -317 0
2488 -316 317 0
2488 316 -317 0
-2489 2488 318 0
-2489 -2488 -318 0
2489 -2488 318 0
2489 2488 -318 0
-2490 2489 319 0
-2490 -2489 -319 0
2490 -2489 319 0
2490 2489 -319 0
-2491 2490 321 0
-2491 -2490 -321 0
2491 -2490 321 0
2491 2490 -321 0
-2492 2491 323 0
-2492 -2491 -323 0
2492 -2491 323 0
2492 2491 -323 0
-2493 2492 325 0
-2493 -2492 -325 0
2493 -2492 325 0
2493 2492 -325 0
-2494 2493 328 0
-2494 -2493 -328 0
2494 -2493 328 0
2494 2493 -328 0
-138 -2494 0
-2495 331 332 0
-2495 -331 -332 0
2495 -331 332 0
2495 331 -332 0
-2496 2495 333 0
-2496 -2495 -333 0
2496 -2495 333 0
2496 2495 -333 0
-2497 2496 334 0
-2497 -2496 -334 0
2497 -2496 334 0
2497 2496 -334 0
-2498 2497 336 0
-2498 -2497 -336 0
2498 -2497 336 0
2498 2497 -336 0
-2499 2498 338 0
-2499 -2498 -338 0
2499 -2498 338 0
2499 2498 -338 0
-2500 2499 340 0
-2500 -2499 -340 0
2500 -2499 340 0
2500 2499 -340 0
-2501 2500 343 0
-2501 -2500 -343 0
2501 -2500 343 0
2501 2500 -343 0
-138 -2501 0
-2502 346 347 0
-2502 -346 -347 0
2502 -346 347 0
2502 346 -347 0
-2503 2502 348 0
-2503 -2502 -348 0
2503 -2502 348 0
2503 2502 -348 0
-2504 2503 349 0
-2504 -2503 -349 0
2504 -2503 349 0
2504 2503 -349 0
-2505 2504 351 0
-2505 -2504 -351 0
2505 -2504 351 0
2505 2504 -351 0
-2506 2505 353 0
-2506 -2505 -353 0
2506 -2505 353 0
2506 2505 -353 0
-2507 2506 355 0
-2507 -2506 -355 0
2507 -2506 355 0
2507 2506 -355 0
-2508 2507 358 0
-2508 -2507 -358 0
2508 -2507 358 0
2508 2507 -358 0
-138 -2508 0
-2509 316 317 0
-2509 -316 -317 0
2509 -316 317 0
2509 316 -317 0
-2510 2509 319 0
-2510 -2509 -319 0
2510 -2509 319 0
2510 2509 -319 0
-2511 2510 321 0
-2511 -2510 -321 0
2511 -2510 321 0
2511 2510 -321 0
-2512 2511 322 0
-2512 -2511 -322 0
2512 -2511 322 0
2512 2511 -322 0
-2513 2512 323 0
-2513 -2512 -323 0
2513 -2512 323 0
2513 2512 -323 0
-2514 2513 325 0
-2514 -2513 -325 0
2514 -2513 325 0
2514 2513 -325 0
-2515 2514 328 0
-2515 -2514 -328 0
2515 -2514 328 0
2515 2514 -328 0
-139 -2515 0
-2516 331 332 0
-2516 -331 -332 0
2516 -331 332 0
2516 331 -332 0
-2517 2516 334 0
-2517 -2516 -334 0
2517 -2516 334 0
2517 2516 -334 0
-2518 2517 336 0
-2518 -2517 -336 0
2518 -2517 336 0
2518 2517 -336 0
-2519 2518 337 0
-2519 -2518 -337 0
2519 -2518 337 0
2519 2518 -337 0
-2520 2519 338 0
-2520 -2519 -338 0
2520 -2519 338 0
2520 2519 -338 0
-2521 2520 340 0
-2521 -2520 -340 0
2521 -2520 340 0
2521 2520 -340 0
-2522 2521 343 0
-2522 -2521 -343 0
2522 -2521 343 0
2522 2521 -343 0
-139 -2522 0
-2523 346 347 0
-2523 -346 -347 0
2523 -346 347 0
2523 346 -347 0
-2524 2523 349 0
-2524 -2523 -349 0
2524 -2523 349 0
2524 2523 -349 0
-2525 2524 351 0
-2525 -2524 -351 0
2525 -2524 351 0
2525 2524 -351 0
-2526 2525 352 0
-2526 -2525 -352 0
2526 -2525 352 0
2526 2525 -352 0
-2527 2526 353 0
-2527 -2526 -353 0
2527 -2526 353 0
2527 2526 -353 0
-2528 2527 355 0
-2528 -2527 -355 0
2528 -2527 355 0
2528 2527 -355 0
-2529 2528 358 0
-2529 -2528 -358 0
2529 -2528 358 0
2529 2528 -358 0
-139 -2529 0
-2530 320 324 0
-2530 -320 -324 0
2530 -320 324 0
2530 320 -324 0
-2531 2530 329 0
-2531 -2530 -329 0
2531 -2530 329 0
2531 2530 -329 0
-140 -2531 0
-2532 335 339 0
-2532 -335 -339 0
2532 -335 339 0
2532 335 -339 0
-2533 2532 344 0
-2533 -2532 -344 0
2533 -2532 344 0
2533 2532 -344 0
-140 -2533 0
-2534 350 354 0
-2534 -350 -354 0
2534 -350 354 0
2534 350 -354 0
-2535 2534 359 0
-2535 -2534 -359 0
2535 -2534 359 0
2535 2534 -359 0
-140 -2535 0
-2536 318 320 0
-2536 -318 -320 0
2536 -318 320 0
2536 318 -320 0
-2537 2536 322 0
-2537 -2536 -322 0
2537 -2536 322 0
2537 2536 -322 0
-2538 2537 324 0
-2538 -2537 -324 0
2538 -2537 324 0
2538 2537 -324 0
-2539 2538 329 0
-2539 -2538 -329 0
2539 -2538 329 0
2539 2538 -329 0
-141 -2539 0
-2540 333 335 0
-2540 -333 -335 0
2540 -333 335 0
2540 333 -335 0
-2541 2540 337 0
-2541 -2540 -337 0
2541 -2540 337 0
2541 2540 -337 0
-2542 2541 339 0
-2542 -2541 -339 0
2542 -2541 339 0
2542 2541 -339 0
-2543 2542 344 0
-2543 -2542 -344 0
2543 -2542 344 0
2543 2542 -344 0
-141 -2543 0
-2544 348 350 0
-2544 -348 -350 0
2544 -348 350 0
2544 348 -350 0
-2545 2544 352 0
-2545 -2544 -352 0
2545 -2544 352 0
2545 2544 -352 0
-2546 2545 354 0
-2546 -2545 -354 0
2546 -2545 354 0
2546 2545 -354 0
-2547 2546 359 0
-2547 -2546 -359 0
2547 -2546 359 0
2547 2546 -359 0
-141 -2547 0
-2548 316 317 0
-2548 -316 -317 0
2548 -316 317 0
2548 316 -317 0
-2549 2548 318 0
-2549 -2548 -318 0
2549 -2548 318 0
2549 2548 -318 0
-2550 2549 320 0
-2550 -2549 -320 0
2550 -2549 320 0
2550 2549 -320 0
-2551 2550 321 0
-2551 -2550 -321 0
2551 -2550 321 0
2551 2550 -321 0
-2552 2551 324 0
-2552 -2551 -324 0
2552 -2551 324 0
2552 2551 -324 0
-2553 2552 325 0
-2553 -2552 -325 0
2553 -2552 325 0
2553 2552 -325 0
-2554 2553 329 0
-2554 -2553 -329 0
2554 -2553 329 0
2554 2553 -329 0
-142 -2554 0
-2555 331 332 0
-2555 -331 -332 0
2555 -331 332 0
2555 331 -332 0
-2556 2555 333 0
-2556 -2555 -333 0
2556 -2555 333 0
2556 2555 -333 0
-2557 2556 335 0
-2557 -2556 -335 0
2557 -2556 335 0
2557 2556 -335 0
-2558 2557 336 0
-2558 -2557 -336 0
2558 -2557 336 0
2558 2557 -336 0
-2559 2558 339 0
-2559 -2558 -339 0
2559 -2558 339 0
2559 2558 -339 0
-2560 2559 340 0
-2560 -2559 -340 0
2560 -2559 340 0
2560 2559 -340 0
-2561 2560 344 0
-2561 -2560 -344 0
2561 -2560 344 0
2561 2560 -344 0
-142 -2561 0
-2562 346 347 0
-2562 -346 -347 0
2562 -346 347 0
2562 346 -347 0
-2563 2562 348 0
-2563 -2562 -348 0
2563 -2562 348 0
2563 2562 -348 0
-2564 2563 350 0
-2564 -2563 -350 0
2564 -2563 350 0
2564 2563 -350 0
-2565 2564 351 0
-2565 -2564 -351 0
2565 -2564 351 0
2565 2564 -351 0
-2566 2565 354 0
-2566 -2565 -354 0
2566 -2565 354 0
2566 2565 -354 0
-2567 2566 355 0
-2567 -2566 -355 0
2567 -2566 355 0
2567 2566 -355 0
-2568 2567 359 0
-2568 -2567 -359 0
2568 -2567 359 0
2568 2567 -359 0
-142 -2568 0
-2569 316 317 0
-2569 -316 -317 0
2569 -316 317 0
2569 316 -317 0
-2570 2569 320 0
-2570 -2569 -320 0
2570 -2569 320 0
2570 2569 -320 0
-2571 2570 321 0
-2571 -2570 -321 0
2571 -2570 321 0
2571 2570 -321 0
-2572 2571 322 0
-2572 -2571 -322 0
2572 -2571 322 0
2572 2571 -322 0
-2573 2572 324 0
-2573 -2572 -324 0
2573 -2572 324 0
2573 2572 -324 0
-2574 2573 325 0
-2574 -2573 -325 0
2574 -2573 325 0
2574 2573 -325 0
-2575 2574 329 0
-2575 -2574 -329 0
2575 -2574 329 0
2575 2574 -329 0
-143 -2575 0
-2576 331 332 0
-2576 -331 -332 0
2576 -331 332 0
2576 331 -332 0
-2577 2576 335 0
-2577 -2576 -335 0
2577 -2576 335 0
2577 2576 -335 0
-2578 2577 336 0
-2578 -2577 -336 0
2578 -2577 336 0
2578 2577 -336 0
-2579 2578 337 0
-2579 -2578 -337 0
2579 -2578 337 0
2579 2578 -337 0
-2580 2579 339 0
-2580 -2579 -339 0
2580 -2579 339 0
2580 2579 -339 0
-2581 2580 340 0
-2581 -2580 -340 0
2581 -2580 340 0
2581 2580 -340 0
-2582 2581 344 0
-2582 -2581 -344 0
2582 -2581 344 0
2582 2581 -344 0
-143 -2582 0
-2583 346 347 0
-2583 -346 -347 0
2583 -346 347 0
2583 346 -347 0
-2584 2583 350 0
-2584 -2583 -350 0
2584 -2583 350 0
2584 2583 -350 0
-2585 2584 351 0
-2585 -2584 -351 0
2585 -2584 351 0
2585 2584 -351 0
-2586 2585 352 0
-2586 -2585 -352 0
2586 -2585 352 0
2586 2585 -352 0
-2587 2586 354 0
-2587 -2586 -354 0
2587 -2586 354 0
2587 2586 -354 0
-2588 2587 355 0
-2588 -2587 -355 0
2588 -2587 355 0
2588 2587 -355 0
-2589 2588 359 0
-2589 -2588 -359 0
2589 -2588 359 0
2589 2588 -359 0
-143 -2589 0
-2590 319 320 0
-2590 -319 -320 0
2590 -319 320 0
2590 319 -320 0
-2591 2590 323 0
-2591 -2590 -323 0
2591 -2590 323 0
2591 2590 -323 0
-2592 2591 324 0
-2592 -2591 -324 0
2592 -2591 324 0
2592 2591 -324 0
-2593 2592 328 0
-2593 -2592 -328 0
2593 -2592 328 0
2593 2592 -328 0
-2594 2593 329 0
-2594 -2593 -329 0
2594 -2593 329 0
2594 2593 -329 0
-144 -2594 0
-2595 334 335 0
-2595 -334 -335 0
2595 -334 335 0
2595 334 -335 0
-2596 2595 338 0
-2596 -2595 -338 0
2596 -2595 338 0
2596 2595 -338 0
-2597 2596 339 0
-2597 -2596 -339 0
2597 -2596 339 0
2597 2596 -339 0
-2598 2597 343 0
-2598 -2597 -343 0
2598 -2597 343 0
2598 2597 -343 0
-2599 2598 344 0
-2599 -2598 -344 0
2599 -2598 344 0
2599 2598 -344 0
-144 -2599 0
-2600 349 350 0
-2600 -349 -350 0
2600 -349 350 0
2600 349 -350 0
-2601 2600 353 0
-2601 -2600 -353 0
2601 -2600 353 0
2601 2600 -353 0
-2602 2601 354 0
-2602 -2601 -354 0
2602 -2601 354 0
2602 2601 -354 0
-2603 2602 358 0
-2603 -2602 -358 0
2603 -2602 358 0
2603 2602 -358 0
-2604 2603 359 0
-2604 -2603 -359 0
2604 -2603 359 0
2604 2603 -359 0
-144 -2604 0
-2605 318 319 0
-2605 -318 -319 0
2605 -318 319 0
2605 318 -319 0
-2606 2605 320 0
-2606 -2605 -320 0
2606 -2605 320 0
2606 2605 -320 0
-2607 2606 322 0
-2607 -2606 -322 0
2607 -2606 322 0
2607 2606 -322 0
-2608 2607 323 0
-2608 -2607 -323 0
2608 -2607 323 0
2608 2607 -323 0
-2609 2608 324 0
-2609 -2608 -324 0
2609 -2608 324 0
2609 2608 -324 0
-2610 2609 328 0
-2610 -2609 -328 0
2610 -2609 328 0
2610 2609 -328 0
-2611 2610 329 0
-2611 -2610 -329 0
2611 -2610 329 0
2611 2610 -329 0
-145 -2611 0
-2612 333 334 0
-2612 -333 -334 0
2612 -333 334 0
2612 333 -334 0
-2613 2612 335 0
-2613 -2612 -335 0
2613 -2612 335 0
2613 2612 -335 0
-2614 2613 337 0
-2614 -2613 -337 0
2614 -2613 337 0
2614 2613 -337 0
-2615 2614 338 0
-2615 -2614 -338 0
2615 -2614 338 0
2615 2614 -338 0
-2616 2615 339 0
-2616 -2615 -339 0
2616 -2615 339 0
2616 2615 -339 0
-2617 2616 343 0
-2617 -2616 -343 0
2617 -2616 343 0
2617 2616 -343 0
-2618 2617 344 0
-2618 -2617 -344 0
2618 -2617 344 0
2618 2617 -344 0
-145 -2618 0
-2619 348 349 0
-2619 -348 -349 0
2619 -348 349 0
2619 348 -349 0
-2620 2619 350 0
-2620 -2619 -350 0
2620 -2619 350 0
2620 2619 -350 0
-2621 2620 352 0
-2621 -2620 -352 0
2621 -2620 352 0
2621 2620 -352 0
-2622 2621 353 0
-2622 -2621 -353 0
2622 -2621 353 0
2622 2621 -353 0
-2623 2622 354 0
-2623 -2622 -354 0
2623 -2622 354 0
2623 2622 -354 0
-2624 2623 358 0
-2624 -2623 -358 0
2624 -2623 358 0
2624 2623 -358 0
-2625 2624 359 0
-2625 -2624 -359 0
2625 -2624 359 0
2625 2624 -359 0
-145 -2625 0
-2626 316 317 0
-2626 -316 -317 0
2626 -316 317 0
2626 316 -317 0
-2627 2626 318 0
-2627 -2626 -318 0
2627 -2626 318 0
2627 2626 -318 0
-2628 2627 319 0
-2628 -2627 -319 0
2628 -2627 319 0
2628 2627 -319 0
-2629 2628 320 0
-2629 -2628 -320 0
2629 -2628 320 0
2629 2628 -320 0
-2630 2629 321 0
-2630 -2629 -321 0
2630 -2629 321 0
2630 2629 -321 0
-2631 2630 323 0
-2631 -2630 -323 0
2631 -2630 323 0
2631 2630 -323 0
-2632 2631 324 0
-2632 -2631 -324 0
2632 -2631 324 0
2632 2631 -324 0
-2633 2632 325 0
-2633 -2632 -325 0
2633 -2632 325 0
2633 2632 -325 0
-2634 2633 328 0
-2634 -2633 -328 0
2634 -2633 328 0
2634 2633 -328 0
-2635 2634 329 0
-2635 -2634 -329 0
2635 -2634 329 0
2635 2634 -329 0
-146 -2635 0
-2636 331 332 0
-2636 -331 -332 0
2636 -331 332 0
2636 331 -332 0
-2637 2636 333 0
-2637 -2636 -333 0
2637 -2636 333 0
2637 2636 -333 0
-2638 2637 334 0
-2638 -2637 -334 0
2638 -2637 334 0
2638 2637 -334 0
-2639 2638 335 0
-2639 -2638 -335 0
2639 -2638 335 0
2639 2638 -335 0
-2640 2639 336 0
-2640 -2639 -336 0
2640 -2639 336 0
2640 2639 -336 0
-2641 2640 338 0
-2641 -2640 -338 0
2641 -2640 338 0
2641 2640 -338 0
-2642 2641 339 0
-2642 -2641 -339 0
2642 -2641 339 0
2642 2641 -339 0
-2643 2642 340 0
-2643 -2642 -340 0
2643 -2642 340 0
2643 2642 -340 0
-2644 2643 343 0
-2644 -2643 -343 0
2644 -2643 343 0
2644 2643 -343 0
-2645 2644 344 0
-2645 -2644 -344 0
2645 -2644 344 0
2645 2644 -344 0
-146 -2645 0
-2646 346 347 0
-2646 -346 -347 0
2646 -346 347 0
2646 346 -347 0
-2647 2646 348 0
-2647 -2646 -348 0
2647 -2646 348 0
2647 2646 -348 0
-2648 2647 349 0
-2648 -2647 -349 0
2648 -2647 349 0
2648 2647 -349 0
-2649 2648 350 0
-2649 -2648 -350 0
2649 -2648 350 0
2649 2648 -350 0
-2650 2649 351 0
-2650 -2649 -351 0
2650 -2649 351 0
2650 2649 -351 0
-2651 2650 353 0
-2651 -2650 -353 0
2651 -2650 353 0
2651 2650 -353 0
-2652 2651 354 0
-2652 -2651 -354 0
2652 -2651 354 0
2652 2651 -354 0
-2653 2652 355 0
-2653 -2652 -355 0
2653 -2652 355 0
2653 2652 -355 0
-2654 2653 358 0
-2654 -2653 -358 0
2654 -2653 358 0
2654 2653 -358 0
-2655 2654 359 0
-2655 -2654 -359 0
2655 -2654 359 0
2655 2654 -359 0
-146 -2655 0
-2656 316 317 0
-2656 -316 -317 0
2656 -316 317 0
2656 316 -317 0
-2657 2656 319 0
-2657 -2656 -319 0
2657 -2656 319 0
2657 2656 -319 0
-2658 2657 320 0
-2658 -2657 -320 0
2658 -2657 320 0
2658 2657 -320 0
-2659 2658 321 0
-2659 -2658 -321 0
2659 -2658 321 0
2659 2658 -321 0
-2660 2659 322 0
-2660 -2659 -322 0
2660 -2659 322 0
2660 2659 -322 0
-2661 2660 323 0
-2661 -2660 -323 0
2661 -2660 323 0
2661 2660 -323 0
-2662 2661 324 0
-2662 -2661 -324 0
2662 -2661 324 0
2662 2661 -324 0
-2663 2662 325 0
-2663 -2662 -325 0
2663 -2662 325 0
2663 2662 -325 0
-2664 2663 328 0
-2664 -2663 -328 0
2664 -2663 328 0
2664 2663 -328 0
-2665 2664 329 0
-2665 -2664 -329 0
2665 -2664 329 0
2665 2664 -329 0
-147 -2665 0
-2666 331 332 0
-2666 -331 -332 0
2666 -331 332 0
2666 331 -332 0
-2667 2666 334 0
-2667 -2666 -334 0
2667 -2666 334 0
2667 2666 -334 0
-2668 2667 335 0
-2668 -2667 -335 0
2668 -2667 335 0
2668 2667 -335 0
-2669 2668 336 0
-2669 -2668 -336 0
2669 -2668 336 0
2669 2668 -336 0
-2670 2669 337 0
-2670 -2669 -337 0
2670 -2669 337 0
2670 2669 -337 0
-2671 2670 338 0
-2671 -2670 -338 0
2671 -2670 338 0
2671 2670 -338 0
-2672 2671 339 0
-2672 -2671 -339 0
2672 -2671 339 0
2672 2671 -339 0
-2673 2672 340 0
-2673 -2672 -340 0
2673 -2672 340 0
2673 2672 -340 0
-2674 2673 343 0
-2674 -2673 -343 0
2674 -2673 343 0
2674 2673 -343 0
-2675 2674 344 0
-2675 -2674 -344 0
2675 -2674 344 0
2675 2674 -344 0
-147 -2675 0
-2676 346 347 0
-2676 -346 -347 0
2676 -346 347 0
2676 346 -347 0
-2677 2676 349 0
-2677 -2676 -349 0
2677 -2676 349 0
2677 2676 -349 0
-2678 2677 350 0
-2678 -2677 -350 0
2678 -2677 350 0
2678 2677 -350 0
-2679 2678 351 0
-2679 -2678 -351 0
2679 -2678 351 0
2679 2678 -351 0
-2680 2679 352 0
-2680 -2679 -352 0
2680 -2679 352 0
2680 2679 -352 0
-2681 2680 353 0
-2681 -2680 -353 0
2681 -2680 353 0
2681 2680 -353 0
-2682 2681 354 0
-2682 -2681 -354 0
2682 -2681 354 0
2682 2681 -354 0
-2683 2682 355 0
-2683 -2682 -355 0
2683 -2682 355 0
2683 2682 -355 0
-2684 2683 358 0
-2684 -2683 -358 0
2684 -2683 358 0
2684 2683 -358 0
-2685 2684 359 0
-2685 -2684 -359 0
2685 -2684 359 0
2685 2684 -359 0
-147 -2685 0
-2686 326 328 0
-2686 -326 -328 0
2686 -326 328 0
2686 326 -328 0
-148 -2686 0
-2687 341 343 0
-2687 -341 -343 0
2687 -341 343 0
2687 341 -343 0
-148 -2687 0
-2688 356 358 0
-2688 -356 -358 0
2688 -356 358 0
2688 356 -358 0
-148 -2688 0
-2689 317 318 0
-2689 -317 -318 0
2689 -317 318 0
2689 317 -318 0
-2690 2689 326 0
-2690 -2689 -326 0
2690 -2689 326 0
2690 2689 -326 0
-2691 2690 328 0
-2691 -2690 -328 0
2691 -2690 328 0
2691 2690 -328 0
-149 -2691 0
-2692 332 333 0
-2692 -332 -333 0
2692 -332 333 0
2692 332 -333 0
-2693 2692 341 0
-2693 -2692 -341 0
2693 -2692 341 0
2693 2692 -341 0
-2694 2693 343 0
-2694 -2693 -343 0
2694 -2693 343 0
2694 2693 -343 0
-149 -2694 0
-2695 347 348 0
-2695 -347 -348 0
2695 -347 348 0
2695 347 -348 0
-2696 2695 356 0
-2696 -2695 -356 0
2696 -2695 356 0
2696 2695 -356 0
-2697 2696 358 0
-2697 -2696 -358 0
2697 -2696 358 0
2697 2696 -358 0
-149 -2697 0
-2698 321 322 0
-2698 -321 -322 0
2698 -321 322 0
2698 321 -322 0
-2699 2698 326 0
-2699 -2698 -326 0
2699 -2698 326 0
2699 2698 -326 0
-2700 2699 328 0
-2700 -2699 -328 0
2700 -2699 328 0
2700 2699 -328 0
-150 -2700 0
-2701 336 337 0
-2701 -336 -337 0
2701 -336 337 0
2701 336 -337 0
-2702 2701 341 0
-2702 -2701 -341 0
2702 -2701 341 0
2702 2701 -341 0
-2703 2702 343 0
-2703 -2702 -343 0
2703 -2702 343 0
2703 2702 -343 0
-150 -2703 0
-2704 351 352 0
-2704 -351 -352 0
2704 -351 352 0
2704 351 -352 0
-2705 2704 356 0
-2705 -2704 -356 0
2705 -2704 356 0
2705 2704 -356 0
-2706 2705 358 0
-2706 -2705 -358 0
2706 -2705 358 0
2706 2705 -358 0
-150 -2706 0
-2707 317 318 0
-2707 -317 -318 0
2707 -317 318 0
2707 317 -318 0
-2708 2707 321 0
-2708 -2707 -321 0
2708 -2707 321 0
2708 2707 -321 0
-2709 2708 322 0
-2709 -2708 -322 0
2709 -2708 322 0
2709 2708 -322 0
-2710 2709 326 0
-2710 -2709 -326 0
2710 -2709 326 0
2710 2709 -326 0
-2711 2710 328 0
-2711 -2710 -328 0
2711 -2710 328 0
2711 2710 -328 0
-151 -2711 0
-2712 332 333 0
-2712 -332 -333 0
2712 -332 333 0
2712 332 -333 0
-2713 2712 336 0
-2713 -2712 -336 0
2713 -2712 336 0
2713 2712 -336 0
-2714 2713 337 0
-2714 -2713 -337 0
2714 -2713 337 0
2714 2713 -337 0
-2715 2714 341 0
-2715 -2714 -341 0
2715 -2714 341 0
2715 2714 -341 0
-2716 2715 343 0
-2716 -2715 -343 0
2716 -2715 343 0
2716 2715 -343 0
-151 -2716 0
-2717 347 348 0
-2717 -347 -348 0
2717 -347 348 0
2717 347 -348 0
-2718 2717 351 0
-2718 -2717 -351 0
2718 -2717 351 0
2718 2717 -351 0
-2719 2718 352 0
-2719 -2718 -352 0
2719 -2718 352 0
2719 2718 -352 0
-2720 2719 356 0
-2720 -2719 -356 0
2720 -2719 356 0
2720 2719 -356 0
-2721 2720 358 0
-2721 -2720 -358 0
2721 -2720 358 0
2721 2720 -358 0
-151 -2721 0
-2722 327 329 0
-2722 -327 -329 0
2722 -327 329 0
2722 327 -329 0
-152 -2722 0
-2723 342 344 0
-2723 -342 -344 0
2723 -342 344 0
2723 342 -344 0
-152 -2723 0
-2724 357 359 0
-2724 -357 -359 0
2724 -357 359 0
2724 357 -359 0
-152 -2724 0
-2725 317 318 0
-2725 -317 -318 0
2725 -317 318 0
2725 317 -318 0
-2726 2725 327 0
-2726 -2725 -327 0
2726 -2725 327 0
2726 2725 -327 0
-2727 2726 329 0
-2727 -2726 -329 0
2727 -2726 329 0
2727 2726 -329 0
-153 -2727 0
-2728 332 333 0
-2728 -332 -333 0
2728 -332 333 0
2728 332 -333 0
-2729 2728 342 0
-2729 -2728 -342 0
2729 -2728 342 0
2729 2728 -342 0
-2730 2729 344 0
-2730 -2729 -344 0
2730 -2729 344 0
2730 2729 -344 0
-153 -2730 0
-2731 347 348 0
-2731 -347 -348 0
2731 -347 348 0
2731 347 -348 0
-2732 2731 357 0
-2732 -2731 -357 0
2732 -2731 357 0
2732 2731 -357 0
-2733 2732 359 0
-2733 -2732 -359 0
2733 -2732 359 0
2733 2732 -359 0
-153 -2733 0
-2734 321 322 0
-2734 -321 -322 0
2734 -321 322 0
2734 321 -322 0
-2735 2734 327 0
-2735 -2734 -327 0
2735 -2734 327 0
2735 2734 -327 0
-2736 2735 329 0
-2736 -2735 -329 0
2736 -2735 329 0
2736 2735 -329 0
-154 -2736 0
-2737 336 337 0
-2737 -336 -337 0
2737 -336 337 0
2737 336 -337 0
-2738 2737 342 0
-2738 -2737 -342 0
2738 -2737 342 0
2738 2737 -342 0
-2739 2738 344 0
-2739 -2738 -344 0
2739 -2738 344 0
2739 2738 -344 0
-154 -2739 0
-2740 351 352 0
-2740 -351 -352 0
2740 -351 352 0
2740 351 -352 0
-2741 2740 357 0
-2741 -2740 -357 0
2741 -2740 357 0
2741 2740 -357 0
-2742 2741 359 0
-2742 -2741 -359 0
2742 -2741 359 0
2742 2741 -359 0
-154 -2742 0
-2743 317 318 0
-2743 -317 -318 0
2743 -317 318 0
2743 317 -318 0
-2744 2743 321 0
-2744 -2743 -321 0
2744 -2743 321 0
2744 2743 -321 0
-2745 2744 322 0
-2745 -2744 -322 0
2745 -2744 322 0
2745 2744 -322 0
-2746 2745 327 0
-2746 -2745 -327 0
2746 -2745 327 0
2746 2745 -327 0
-2747 2746 329 0
-2747 -2746 -329 0
2747 -2746 329 0
2747 2746 -329 0
-155 -2747 0
-2748 332 333 0
-2748 -332 -333 0
2748 -332 333 0
2748 332 -333 0
-2749 2748 336 0
-2749 -2748 -336 0
2749 -2748 336 0
2749 2748 -336 0
-2750 2749 337 0
-2750 -2749 -337 0
2750 -2749 337 0
2750 2749 -337 0
-2751 2750 342 0
-2751 -2750 -342 0
2751 -2750 342 0
2751 2750 -342 0
-2752 2751 344 0
-2752 -2751 -344 0
2752 -2751 344 0
2752 2751 -344 0
-155 -2752 0
-2753 347 348 0
-2753 -347 -348 0
2753 -347 348 0
2753 347 -348 0
-2754 2753 351 0
-2754 -2753 -351 0
2754 -2753 351 0
2754 2753 -351 0
-2755 2754 352 0
-2755 -2754 -352 0
2755 -2754 352 0
2755 2754 -352 0
-2756 2755 357 0
-2756 -2755 -357 0
2756 -2755 357 0
2756 2755 -357 0
-2757 2756 359 0
-2757 -2756 -359 0
2757 -2756 359 0
2757 2756 -359 0
-155 -2757 0
-2758 326 327 0
-2758 -326 -327 0
2758 -326 327 0
2758 326 -327 0
-2759 2758 328 0
-2759 -2758 -328 0
2759 -2758 328 0
2759 2758 -328 0
-2760 2759 329 0
-2760 -2759 -329 0
2760 -2759 329 0
2760 2759 -329 0
-156 -2760 0
-2761 341 342 0
-2761 -341 -342 0
2761 -341 342 0
2761 341 -342 0
-2762 2761 343 0
-2762 -2761 -343 0
2762 -2761 343 0
2762 2761 -343 0
-2763 2762 344 0
-2763 -2762 -344 0
2763 -2762 344 0
2763 2762 -344 0
-156 -2763 0
-2764 356 357 0
-2764 -356 -357 0
2764 -356 357 0
2764 356 -357 0
-2765 2764 358 0
-2765 -2764 -358 0
2765 -2764 358 0
2765 2764 -358 0
-2766 2765 359 0
-2766 -2765 -359 0
2766 -2765 359 0
2766 2765 -359 0
-156 -2766 0
-2767 317 318 0
-2767 -317 -318 0
2767 -317 318 0
2767 317 -318 0
-2768 2767 326 0
-2768 -2767 -326 0
2768 -2767 326 0
2768 2767 -326 0
-2769 2768 327 0
-2769 -2768 -327 0
2769 -2768 327 0
2769 2768 -327 0
-2770 2769 328 0
-2770 -2769 -328 0
2770 -2769 328 0
2770 2769 -328 0
-2771 2770 329 0
-2771 -2770 -329 0
2771 -2770 329 0
2771 2770 -329 0
-157 -2771 0
-2772 332 333 0
-2772 -332 -333 0
2772 -332 333 0
2772 332 -333 0
-2773 2772 341 0
-2773 -2772 -341 0
2773 -2772 341 0
2773 2772 -341 0
-2774 2773 342 0
-2774 -2773 -342 0
2774 -2773 342 0
2774 2773 -342 0
-2775 2774 343 0
-2775 -2774 -343 0
2775 -2774 343 0
2775 2774 -343 0
-2776 2775 344 0
-2776 -2775 -344 0
2776 -2775 344 0
2776 2775 -344 0
-157 -2776 0
-2777 347 348 0
-2777 -347 -348 0
2777 -347 348 0
2777 347 -348 0
-2778 2777 356 0
-2778 -2777 -356 0
2778 -2777 356 0
2778 2777 -356 0
-2779 2778 357 0
-2779 -2778 -357 0
2779 -2778 357 0
2779 2778 -357 0
-2780 2779 358 0
-2780 -2779 -358 0
2780 -2779 358 0
2780 2779 -358 0
-2781 2780 359 0
-2781 -2780 -359 0
2781 -2780 359 0
2781 2780 -359 0
-157 -2781 0
-2782 321 322 0
-2782 -321 -322 0
2782 -321 322 0
2782 321 -322 0
-2783 2782 326 0
-2783 -2782 -326 0
2783 -2782 326 0
2783 2782 -326 0
-2784 2783 327 0
-2784 -2783 -327 0
2784 -2783 327 0
2784 2783 -327 0
-2785 2784 328 0
-2785 -2784 -328 0
2785 -2784 328 0
2785 2784 -328 0
-2786 2785 329 0
-2786 -2785 -329 0
2786 -2785 329 0
2786 2785 -329 0
-158 -2786 0
-2787 336 337 0
-2787 -336 -337 0
2787 -336 337 0
2787 336 -337 0
-2788 2787 341 0
-2788 -2787 -341 0
2788 -2787 341 0
2788 2787 -341 0
-2789 2788 342 0
-2789 -2788 -342 0
2789 -2788 342 0
2789 2788 -342 0
-2790 2789 343 0
-2790 -2789 -343 0
2790 -2789 343 0
2790 2789 -343 0
-2791 2790 344 0
-2791 -2790 -344 0
2791 -2790 344 0
2791 2790 -344 0
-158 -2791 0
-2792 351 352 0
-2792 -351 -352 0
2792 -351 352 0
2792 351 -352 0
-2793 2792 356 0
-2793 -2792 -356 0
2793 -2792 356 0
2793 2792 -356 0
-2794 2793 357 0
-2794 -2793 -357 0
2794 -2793 357 0
2794 2793 -357 0
-2795 2794 358 0
-2795 -2794 -358 0
2795 -2794 358 0
2795 2794 -358 0
-2796 2795 359 0
-2796 -2795 -359 0
2796 -2795 359 0
2796 2795 -359 0
-158 -2796 0
-2797 317 318 0
-2797 -317 -318 0
2797 -317 318 0
2797 317 -318 0
-2798 2797 321 0
-2798 -2797 -321 0
2798 -2797 321 0
2798 2797 -321 0
-2799 2798 322 0
-2799 -2798 -322 0
2799 -2798 322 0
2799 2798 -322 0
-2800 2799 326 0
-2800 -2799 -326 0
2800 -2799 326 0
2800 2799 -326 0
-2801 2800 327 0
-2801 -2800 -327 0
2801 -2800 327 0
2801 2800 -327 0
-2802 2801 328 0
-2802 -2801 -328 0
2802 -2801 328 0
2802 2801 -328 0
-2803 2802 329 0
-2803 -2802 -329 0
2803 -2802 329 0
2803 2802 -329 0
-159 -2803 0
-2804 332 333 0
-2804 -332 -333 0
2804 -332 333 0
2804 332 -333 0
-2805 2804 336 0
-2805 -2804 -336 0
2805 -2804 336 0
2805 2804 -336 0
-2806 2805 337 0
-2806 -2805 -337 0
2806 -2805 337 0
2806 2805 -337 0
-2807 2806 341 0
-2807 -2806 -341 0
2807 -2806 341 0
2807 2806 -341 0
-2808 2807 342 0
-2808 -2807 -342 0
2808 -2807 342 0
2808 2807 -342 0
-2809 2808 343 0
-2809 -2808 -343 0
2809 -2808 343 0
2809 2808 -343 0
-2810 2809 344 0
-2810 -2809 -344 0
2810 -2809 344 0
2810 2809 -344 0
-159 -2810 0
-2811 347 348 0
-2811 -347 -348 0
2811 -347 348 0
2811 347 -348 0
-2812 2811 351 0
-2812 -2811 -351 0
2812 -2811 351 0
2812 2811 -351 0
-2813 2812 352 0
-2813 -2812 -352 0
2813 -2812 352 0
2813 2812 -352 0
-2814 2813 356 0
-2814 -2813 -356 0
2814 -2813 356 0
2814 2813 -356 0
-2815 2814 357 0
-2815 -2814 -357 0
2815 -2814 357 0
2815 2814 -357 0
-2816 2815 358 0
-2816 -2815 -358 0
2816 -2815 358 0
2816 2815 -358 0
-2817 2816 359 0
-2817 -2816 -359 0
2817 -2816 359 0
2817 2816 -359 0
-159 -2817 0
-2818 319 326 0
-2818 -319 -326 0
2818 -319 326 0
2818 319 -326 0
-2819 2818 328 0
-2819 -2818 -328 0
2819 -2818 328 0
2819 2818 -328 0
-160 -2819 0
-2820 334 341 0
-2820 -334 -341 0
2820 -334 341 0
2820 334 -341 0
-2821 2820 343 0
-2821 -2820 -343 0
2821 -2820 343 0
2821 2820 -343 0
-160 -2821 0
-2822 349 356 0
-2822 -349 -356 0
2822 -349 356 0
2822 349 -356 0
-2823 2822 358 0
-2823 -2822 -358 0
2823 -2822 358 0
2823 2822 -358 0
-160 -2823 0
-2824 317 318 0
-2824 -317 -318 0
2824 -317 318 0
2824 317 -318 0
-2825 2824 319 0
-2825 -2824 -319 0
2825 -2824 319 0
2825 2824 -319 0
-2826 2825 326 0
-2826 -2825 -326 0
2826 -2825 326 0
2826 2825 -326 0
-2827 2826 328 0
-2827 -2826 -328 0
2827 -2826 328 0
2827 2826 -328 0
-161 -2827 0
-2828 332 333 0
-2828 -332 -333 0
2828 -332 333 0
2828 332 -333 0
-2829 2828 334 0
-2829 -2828 -334 0
2829 -2828 334 0
2829 2828 -334 0
-2830 2829 341 0
-2830 -2829 -341 0
2830 -2829 341 0
2830 2829 -341 0
-2831 2830 343 0
-2831 -2830 -343 0
2831 -2830 343 0
2831 2830 -343 0
-161 -2831 0
-2832 347 348 0
-2832 -347 -348 0
2832 -347 348 0
2832 347 -348 0
-2833 2832 349 0
-2833 -2832 -349 0
2833 -2832 349 0
2833 2832 -349 0
-2834 2833 356 0
-2834 -2833 -356 0
2834 -2833 356 0
2834 2833 -356 0
-2835 2834 358 0
-2835 -2834 -358 0
2835 -2834 358 0
2835 2834 -358 0
-161 -2835 0
-2836 316 317 0
-2836 -316 -317 0
2836 -316 317 0
2836 316 -317 0
-2837 2836 319 0
-2837 -2836 -319 0
2837 -2836 319 0
2837 2836 -319 0
-2838 2837 321 0
-2838 -2837 -321 0
2838 -2837 321 0
2838 2837 -321 0
-2839 2838 322 0
-2839 -2838 -322 0
2839 -2838 322 0
2839 2838 -322 0
-2840 2839 325 0
-2840 -2839 -325 0
2840 -2839 325 0
2840 2839 -325 0
-2841 2840 326 0
-2841 -2840 -326 0
2841 -2840 326 0
2841 2840 -326 0
-2842 2841 328 0
-2842 -2841 -328 0
2842 -2841 328 0
2842 2841 -328 0
-162 -2842 0
-2843 331 332 0
-2843 -331 -332 0
2843 -331 332 0
2843 331 -332 0
-2844 2843 334 0
-2844 -2843 -334 0
2844 -2843 334 0
2844 2843 -334 0
-2845 2844 336 0
-2845 -2844 -336 0
2845 -2844 336 0
2845 2844 -336 0
-2846 2845 337 0
-2846 -2845 -337 0
2846 -2845 337 0
2846 2845 -337 0
-2847 2846 340 0
-2847 -2846 -340 0
2847 -2846 340 0
2847 2846 -340 0
-2848 2847 341 0
-2848 -2847 -341 0
2848 -2847 341 0
2848 2847 -341 0
-2849 2848 343 0
-2849 -2848 -343 0
2849 -2848 343 0
2849 2848 -343 0
-162 -2849 0
-2850 346 347 0
-2850 -346 -347 0
2850 -346 347 0
2850 346 -347 0
-2851 2850 349 0
-2851 -2850 -349 0
2851 -2850 349 0
2851 2850 -349 0
-2852 2851 351 0
-2852 -2851 -351 0
2852 -2851 351 0
2852 2851 -351 0
-2853 2852 352 0
-2853 -2852 -352 0
2853 -2852 352 0
2853 2852 -352 0
-2854 2853 355 0
-2854 -2853 -355 0
2854 -2853 355 0
2854 2853 -355 0
-2855 2854 356 0
-2855 -2854 -356 0
2855 -2854 356 0
2855 2854 -356 0
-2856 2855 358 0
-2856 -2855 -358 0
2856 -2855 358 0
2856 2855 -358 0
-162 -2856 0
-2857 316 318 0
-2857 -316 -318 0
2857 -316 318 0
2857 316 -318 0
-2858 2857 319 0
-2858 -2857 -319 0
2858 -2857 319 0
2858 2857 -319 0
-2859 2858 321 0
-2859 -2858 -321 0
2859 -2858 321 0
2859 2858 -321 0
-2860 2859 322 0
-2860 -2859 -322 0
2860 -2859 322 0
2860 2859 -322 0
-2861 2860 325 0
-2861 -2860 -325 0
2861 -2860 325 0
2861 2860 -325 0
-2862 2861 326 0
-2862 -2861 -326 0
2862 -2861 326 0
2862 2861 -326 0
-2863 2862 328 0
-2863 -2862 -328 0
2863 -2862 328 0
2863 2862 -328 0
-163 -2863 0
-2864 331 333 0
-2864 -331 -333 0
2864 -331 333 0
2864 331 -333 0
-2865 2864 334 0
-2865 -2864 -334 0
2865 -2864 334 0
2865 2864 -334 0
-2866 2865 336 0
-2866 -2865 -336 0
2866 -2865 336 0
2866 2865 -336 0
-2867 2866 337 0
-2867 -2866 -337 0
2867 -2866 337 0
2867 2866 -337 0
-2868 2867 340 0
-2868 -2867 -340 0
2868 -2867 340 0
2868 2867 -340 0
-2869 2868 341 0
-2869 -2868 -341 0
2869 -2868 341 0
2869 2868 -341 0
-2870 2869 343 0
-2870 -2869 -343 0
2870 -2869 343 0
2870 2869 -343 0
-163 -2870 0
-2871 346 348 0
-2871 -346 -348 0
2871 -346 348 0
2871 346 -348 0
-2872 2871 349 0
-2872 -2871 -349 0
2872 -2871 349 0
2872 2871 -349 0
-2873 2872 351 0
-2873 -2872 -351 0
2873 -2872 351 0
2873 2872 -351 0
-2874 2873 352 0
-2874 -2873 -352 0
2874 -2873 352 0
2874 2873 -352 0
-2875 2874 355 0
-2875 -2874 -355 0
2875 -2874 355 0
2875 2874 -355 0
-2876 2875 356 0
-2876 -2875 -356 0
2876 -2875 356 0
2876 2875 -356 0
-2877 2876 358 0
-2877 -2876 -358 0
2877 -2876 358 0
2877 2876 -358 0
-163 -2877 0
-2878 320 327 0
-2878 -320 -327 0
2878 -320 327 0
2878 320 -327 0
-2879 2878 329 0
-2879 -2878 -329 0
2879 -2878 329 0
2879 2878 -329 0
-164 -2879 0
-2880 335 342 0
-2880 -335 -342 0
2880 -335 342 0
2880 335 -342 0
-2881 2880 344 0
-2881 -2880 -344 0
2881 -2880 344 0
2881 2880 -344 0
-164 -2881 0
-2882 350 357 0
-2882 -350 -357 0
2882 -350 357 0
2882 350 -357 0
-2883 2882 359 0
-2883 -2882 -359 0
2883 -2882 359 0
2883 2882 -359 0
-164 -2883 0
-2884 317 318 0
-2884 -317 -318 0
2884 -317 318 0
2884 317 -318 0
-2885 2884 320 0
-2885 -2884 -320 0
2885 -2884 320 0
2885 2884 -320 0
-2886 2885 327 0
-2886 -2885 -327 0
2886 -2885 327 0
2886 2885 -327 0
-2887 2886 329 0
-2887 -2886 -329 0
2887 -2886 329 0
2887 2886 -329 0
-165 -2887 0
-2888 332 333 0
-2888 -332 -333 0
2888 -332 333 0
2888 332 -333 0
-2889 2888 335 0
-2889 -2888 -335 0
2889 -2888 335 0
2889 2888 -335 0
-2890 2889 342 0
-2890 -2889 -342 0
2890 -2889 342 0
2890 2889 -342 0
-2891 2890 344 0
-2891 -2890 -344 0
2891 -2890 344 0
2891 2890 -344 0
-165 -2891 0
-2892 347 348 0
-2892 -347 -348 0
2892 -347 348 0
2892 347 -348 0
-2893 2892 350 0
-2893 -2892 -350 0
2893 -2892 350 0
2893 2892 -350 0
-2894 2893 357 0
-2894 -2893 -357 0
2894 -2893 357 0
2894 2893 -357 0
-2895 2894 359 0
-2895 -2894 -359 0
2895 -2894 359 0
2895 2894 -359 0
-165 -2895 0
-2896 316 317 0
-2896 -316 -317 0
2896 -316 317 0
2896 316 -317 0
-2897 2896 320 0
-2897 -2896 -320 0
2897 -2896 320 0
2897 2896 -320 0
-2898 2897 321 0
-2898 -2897 -321 0
2898 -2897 321 0
2898 2897 -321 0
-2899 2898 322 0
-2899 -2898 -322 0
2899 -2898 322 0
2899 2898 -322 0
-2900 2899 325 0
-2900 -2899 -325 0
2900 -2899 325 0
2900 2899 -325 0
-2901 2900 327 0
-2901 -2900 -327 0
2901 -2900 327 0
2901 2900 -327 0
-2902 2901 329 0
-2902 -2901 -329 0
2902 -2901 329 0
2902 2901 -329 0
-166 -2902 0
-2903 331 332 0
-2903 -331 -332 0
2903 -331 332 0
2903 331 -332 0
-2904 2903 335 0
-2904 -2903 -335 0
2904 -2903 335 0
2904 2903 -335 0
-2905 2904 336 0
-2905 -2904 -336 0
2905 -2904 336 0
2905 2904 -336 0
-2906 2905 337 0
-2906 -2905 -337 0
2906 -2905 337 0
2906 2905 -337 0
-2907 2906 340 0
-2907 -2906 -340 0
2907 -2906 340 0
2907 2906 -340 0
-2908 2907 342 0
-2908 -2907 -342 0
2908 -2907 342 0
2908 2907 -342 0
-2909 2908 344 0
-2909 -2908 -344 0
2909 -2908 344 0
2909 2908 -344 0
-166 -2909 0
-2910 346 347 0
-2910 -346 -347 0
2910 -346 347 0
2910 346 -347 0
-2911 2910 350 0
-2911 -2910 -350 0
2911 -2910 350 0
2911 2910 -350 0
-2912 2911 351 0
-2912 -2911 -351 0
2912 -2911 351 0
2912 2911 -351 0
-2913 2912 352 0
-2913 -2912 -352 0
2913 -2912 352 0
2913 2912 -352 0
-2914 2913 355 0
-2914 -2913 -355 0
2914 -2913 355 0
2914 2913 -355 0
-2915 2914 357 0
-2915 -2914 -357 0
2915 -2914 357 0
2915 2914 -357 0
-2916 2915 359 0
-2916 -2915 -359 0
2916 -2915 359 0
2916 2915 -359 0
-166 -2916 0
-2917 316 318 0
-2917 -316 -318 0
2917 -316 318 0
2917 316 -318 0
-2918 2917 320 0
-2918 -2917 -320 0
2918 -2917 320 0
2918 2917 -320 0
-2919 2918 321 0
-2919 -2918 -321 0
2919 -2918 321 0
2919 2918 -321 0
-2920 2919 322 0
-2920 -2919 -322 0
2920 -2919 322 0
2920 2919 -322 0
-2921 2920 325 0
-2921 -2920 -325 0
2921 -2920 325 0
2921 2920 -325 0
-2922 2921 327 0
-2922 -2921 -327 0
2922 -2921 327 0
2922 2921 -327 0
-2923 2922 329 0
-2923 -2922 -329 0
2923 -2922 329 0
2923 2922 -329 0
-167 -2923 0
-2924 331 333 0
-2924 -331 -333 0
2924 -331 333 0
2924 331 -333 0
-2925 2924 335 0
-2925 -2924 -335 0
2925 -2924 335 0
2925 2924 -335 0
-2926 2925 336 0
-2926 -2925 -336 0
2926 -2925 336 0
2926 2925 -336 0
-2927 2926 337 0
-2927 -2926 -337 0
2927 -2926 337 0
2927 2926 -337 0
-2928 2927 340 0
-2928 -2927 -340 0
2928 -2927 340 0
2928 2927 -340 0
-2929 2928 342 0
-2929 -2928 -342 0
2929 -2928 342 0
2929 2928 -342 0
-2930 2929 344 0
-2930 -2929 -344 0
2930 -2929 344 0
2930 2929 -344 0
-167 -2930 0
-2931 346 348 0
-2931 -346 -348 0
2931 -346 348 0
2931 346 -348 0
-2932 2931 350 0
-2932 -2931 -350 0
2932 -2931 350 0
2932 2931 -350 0
-2933 2932 351 0
-2933 -2932 -351 0
2933 -2932 351 0
2933 2932 -351 0
-2934 2933 352 0
-2934 -2933 -352 0
2934 -2933 352 0
2934 2933 -352 0
-2935 2934 355 0
-2935 -2934 -355 0
2935 -2934 355 0
2935 2934 -355 0
-2936 2935 357 0
-2936 -2935 -357 0
2936 -2935 357 0
2936 2935 -357 0
-2937 2936 359 0
-2937 -2936 -359 0
2937 -2936 359 0
2937 2936 -359 0
-167 -2937 0
-2938 319 320 0
-2938 -319 -320 0
2938 -319 320 0
2938 319 -320 0
-2939 2938 326 0
-2939 -2938 -326 0
2939 -2938 326 0
2939 2938 -326 0
-2940 2939 327 0
-2940 -2939 -327 0
2940 -2939 327 0
2940 2939 -327 0
-2941 2940 328 0
-2941 -2940 -328 0
2941 -2940 328 0
2941 2940 -328 0
-2942 2941 329 0
-2942 -2941 -329 0
2942 -2941 329 0
2942 2941 -329 0
-168 -2942 0
-2943 334 335 0
-2943 -334 -335 0
2943 -334 335 0
2943 334 -335 0
-2944 2943 341 0
-2944 -2943 -341 0
2944 -2943 341 0
2944 2943 -341 0
-2945 2944 342 0
-2945 -2944 -342 0
2945 -2944 342 0
2945 2944 -342 0
-2946 2945 343 0
-2946 -2945 -343 0
2946 -2945 343 0
2946 2945 -343 0
-2947 2946 344 0
-2947 -2946 -344 0
2947 -2946 344 0
2947 2946 -344 0
-168 -2947 0
-2948 349 350 0
-2948 -349 -350 0
2948 -349 350 0
2948 349 -350 0
-2949 2948 356 0
-2949 -2948 -356 0
2949 -2948 356 0
2949 2948 -356 0
-2950 2949 357 0
-2950 -2949 -357 0
2950 -2949 357 0
2950 2949 -357 0
-2951 2950 358 0
-2951 -2950 -358 0
2951 -2950 358 0
2951 2950 -358 0
-2952 2951 359 0
-2952 -2951 -359 0
2952 -2951 359 0
2952 2951 -359 0
-168 -2952 0
-2953 317 318 0
-2953 -317 -318 0
2953 -317 318 0
2953 317 -318 0
-2954 2953 319 0
-2954 -2953 -319 0
2954 -2953 319 0
2954 2953 -319 0
-2955 2954 320 0
-2955 -2954 -320 0
2955 -2954 320 0
2955 2954 -320 0
-2956 2955 326 0
-2956 -2955 -326 0
2956 -2955 326 0
2956 2955 -326 0
-2957 2956 327 0
-2957 -2956 -327 0
2957 -2956 327 0
2957 2956 -327 0
-2958 2957 328 0
-2958 -2957 -328 0
2958 -2957 328 0
2958 2957 -328 0
-2959 2958 329 0
-2959 -2958 -329 0
2959 -2958 329 0
2959 2958 -329 0
-169 -2959 0
-2960 332 333 0
-2960 -332 -333 0
2960 -332 333 0
2960 332 -333 0
-2961 2960 334 0
-2961 -2960 -334 0
2961 -2960 334 0
2961 2960 -334 0
-2962 2961 335 0
-2962 -2961 -335 0
2962 -2961 335 0
2962 2961 -335 0
-2963 2962 341 0
-2963 -2962 -341 0
2963 -2962 341 0
2963 2962 -341 0
-2964 2963 342 0
-2964 -2963 -342 0
2964 -2963 342 0
2964 2963 -342 0
-2965 2964 343 0
-2965 -2964 -343 0
2965 -2964 343 0
2965 2964 -343 0
-2966 2965 344 0
-2966 -2965 -344 0
2966 -2965 344 0
2966 2965 -344 0
-169 -2966 0
-2967 347 348 0
-2967 -347 -348 0
2967 -347 348 0
2967 347 -348 0
-2968 2967 349 0
-2968 -2967 -349 0
2968 -2967 349 0
2968 2967 -349 0
-2969 2968 350 0
-2969 -2968 -350 0
2969 -2968 350 0
2969 2968 -350 0
-2970 2969 356 0
-2970 -2969 -356 0
2970 -2969 356 0
2970 2969 -356 0
-2971 2970 357 0
-2971 -2970 -357 0
2971 -2970 357 0
2971 2970 -357 0
-2972 2971 358 0
-2972 -2971 -358 0
2972 -2971 358 0
2972 2971 -358 0
-2973 2972 359 0
-2973 -2972 -359 0
2973 -2972 359 0
2973 2972 -359 0
-169 -2973 0
-2974 316 317 0
-2974 -316 -317 0
2974 -316 317 0
2974 316 -317 0
-2975 2974 319 0
-2975 -2974 -319 0
2975 -2974 319 0
2975 2974 -319 0
-2976 2975 320 0
-2976 -2975 -320 0
2976 -2975 320 0
2976 2975 -320 0
-2977 2976 321 0
-2977 -2976 -321 0
2977 -2976 321 0
2977 2976 -321 0
-2978 2977 322 0
-2978 -2977 -322 0
2978 -2977 322 0
2978 2977 -322 0
-2979 2978 325 0
-2979 -2978 -325 0
2979 -2978 325 0
2979 2978 -325 0
-2980 2979 326 0
-2980 -2979 -326 0
2980 -2979 326 0
2980 2979 -326 0
-2981 2980 327 0
-2981 -2980 -327 0
2981 -2980 327 0
2981 2980 -327 0
-2982 2981 328 0
-2982 -2981 -328 0
2982 -2981 328 0
2982 2981 -328 0
-2983 2982 329 0
-2983 -2982 -329 0
2983 -2982 329 0
2983 2982 -329 0
-170 -2983 0
-2984 331 332 0
-2984 -331 -332 0
2984 -331 332 0
2984 331 -332 0
-2985 2984 334 0
-2985 -2984 -334 0
2985 -2984 334 0
2985 2984 -334 0
-2986 2985 335 0
-2986 -2985 -335 0
2986 -2985 335 0
2986 2985 -335 0
-2987 2986 336 0
-2987 -2986 -336 0
2987 -2986 336 0
2987 2986 -336 0
-2988 2987 337 0
-2988 -2987 -337 0
2988 -2987 337 0
2988 2987 -337 0
-2989 2988 340 0
-2989 -2988 -340 0
2989 -2988 340 0
2989 2988 -340 0
-2990 2989 341 0
-2990 -2989 -341 0
2990 -2989 341 0
2990 2989 -341 0
-2991 2990 342 0
-2991 -2990 -342 0
2991 -2990 342 0
2991 2990 -342 0
-2992 2991 343 0
-2992 -2991 -343 0
2992 -2991 343 0
2992 2991 -343 0
-2993 2992 344 0
-2993 -2992 -344 0
2993 -2992 344 0
2993 2992 -344 0
-170 -2993 0
-2994 346 347 0
-2994 -346 -347 0
2994 -346 347 0
2994 346 -347 0
-2995 2994 349 0
-2995 -2994 -349 0
2995 -2994 349 0
2995 2994 -349 0
-2996 2995 350 0
-2996 -2995 -350 0
2996 -2995 350 0
2996 2995 -350 0
-2997 2996 351 0
-2997 -2996 -351 0
2997 -2996 351 0
2997 2996 -351 0
-2998 2997 352 0
-2998 -2997 -352 0
2998 -2997 352 0
2998 2997 -352 0
-2999 2998 355 0
-2999 -2998 -355 0
2999 -2998 355 0
2999 2998 -355 0
-3000 2999 356 0
-3000 -2999 -356 0
3000 -2999 356 0
3000 2999 -356 0
-3001 3000 357 0
-3001 -3000 -357 0
3001 -3000 357 0
3001 3000 -357 0
-3002 3001 358 0
-3002 -3001 -358 0
3002 -3001 358 0
3002 3001 -358 0
-3003 3002 359 0
-3003 -3002 -359 0
3003 -3002 359 0
3003 3002 -359 0
-170 -3003 0
-3004 316 318 0
-3004 -316 -318 0
3004 -316 318 0
3004 316 -318 0
-3005 3004 319 0
-3005 -3004 -319 0
3005 -3004 319 0
3005 3004 -319 0
-3006 3005 320 0
-3006 -3005 -320 0
3006 -3005 320 0
3006 3005 -320 0
-3007 3006 321 0
-3007 -3006 -321 0
3007 -3006 321 0
3007 3006 -321 0
-3008 3007 322 0
-3008 -3007 -322 0
3008 -3007 322 0
3008 3007 -322 0
-3009 3008 325 0
-3009 -3008 -325 0
3009 -3008 325 0
3009 3008 -325 0
-3010 3009 326 0
-3010 -3009 -326 0
3010 -3009 326 0
3010 3009 -326 0
-3011 3010 327 0
-3011 -3010 -327 0
3011 -3010 327 0
3011 3010 -327 0
-3012 3011 328 0
-3012 -3011 -328 0
3012 -3011 328 0
3012 3011 -328 0
-3013 3012 329 0
-3013 -3012 -329 0
3013 -3012 329 0
3013 3012 -329 0
-171 -3013 0
-3014 331 333 0
-3014 -331 -333 0
3014 -331 333 0
3014 331 -333 0
-3015 3014 334 0
-3015 -3014 -334 0
3015 -3014 334 0
3015 3014 -334 0
-3016 3015 335 0
-3016 -3015 -335 0
3016 -3015 335 0
3016 3015 -335 0
-3017 3016 336 0
-3017 -3016 -336 0
3017 -3016 336 0
3017 3016 -336 0
-3018 3017 337 0
-3018 -3017 -337 0
3018 -3017 337 0
3018 3017 -337 0
-3019 3018 340 0
-3019 -3018 -340 0
3019 -3018 340 0
3019 3018 -340 0
-3020 3019 341 0
-3020 -3019 -341 0
3020 -3019 341 0
3020 3019 -341 0
-3021 3020 342 0
-3021 -3020 -342 0
3021 -3020 342 0
3021 3020 -342 0
-3022 3021 343 0
-3022 -3021 -343 0
3022 -3021 343 0
3022 3021 -343 0
-3023 3022 344 0
-3023 -3022 -344 0
3023 -3022 344 0
3023 3022 -344 0
-171 -3023 0
-3024 346 348 0
-3024 -346 -348 0
3024 -346 348 0
3024 346 -348 0
-3025 3024 349 0
-3025 -3024 -349 0
3025 -3024 349 0
3025 3024 -349 0
-3026 3025 350 0
-3026 -3025 -350 0
3026 -3025 350 0
3026 3025 -350 0
-3027 3026 351 0
-3027 -3026 -351 0
3027 -3026 351 0
3027 3026 -351 0
-3028 3027 352 0
-3028 -3027 -352 0
3028 -3027 352 0
3028 3027 -352 0
-3029 3028 355 0
-3029 -3028 -355 0
3029 -3028 355 0
3029 3028 -355 0
-3030 3029 356 0
-3030 -3029 -356 0
3030 -3029 356 0
3030 3029 -356 0
-3031 3030 357 0
-3031 -3030 -357 0
3031 -3030 357 0
3031 3030 -357 0
-3032 3031 358 0
-3032 -3031 -358 0
3032 -3031 358 0
3032 3031 -358 0
-3033 3032 359 0
-3033 -3032 -359 0
3033 -3032 359 0
3033 3032 -359 0
-171 -3033 0
-3034 323 326 0
-3034 -323 -326 0
3034 -323 326 0
3034 323 -326 0
-3035 3034 328 0
-3035 -3034 -328 0
3035 -3034 328 0
3035 3034 -328 0
-172 -3035 0
-3036 338 341 0
-3036 -338 -341 0
3036 -338 341 0
3036 338 -341 0
-3037 3036 343 0
-3037 -3036 -343 0
3037 -3036 343 0
3037 3036 -343 0
-172 -3037 0
-3038 353 356 0
-3038 -353 -356 0
3038 -353 356 0
3038 353 -356 0
-3039 3038 358 0
-3039 -3038 -358 0
3039 -3038 358 0
3039 3038 -358 0
-172 -3039 0
-3040 321 322 0
-3040 -321 -322 0
3040 -321 322 0
3040 321 -322 0
-3041 3040 323 0
-3041 -3040 -323 0
3041 -3040 323 0
3041 3040 -323 0
-3042 3041 326 0
-3042 -3041 -326 0
3042 -3041 326 0
3042 3041 -326 0
-3043 3042 328 0
-3043 -3042 -328 0
3043 -3042 328 0
3043 3042 -328 0
-173 -3043 0
-3044 336 337 0
-3044 -336 -337 0
3044 -336 337 0
3044 336 -337 0
-3045 3044 338 0
-3045 -3044 -338 0
3045 -3044 338 0
3045 3044 -338 0
-3046 3045 341 0
-3046 -3045 -341 0
3046 -3045 341 0
3046 3045 -341 0
-3047 3046 343 0
-3047 -3046 -343 0
3047 -3046 343 0
3047 3046 -343 0
-173 -3047 0
-3048 351 352 0
-3048 -351 -352 0
3048 -351 352 0
3048 351 -352 0
-3049 3048 353 0
-3049 -3048 -353 0
3049 -3048 353 0
3049 3048 -353 0
-3050 3049 356 0
-3050 -3049 -356 0
3050 -3049 356 0
3050 3049 -356 0
-3051 3050 358 0
-3051 -3050 -358 0
3051 -3050 358 0
3051 3050 -358 0
-173 -3051 0
-3052 316 317 0
-3052 -316 -317 0
3052 -316 317 0
3052 316 -317 0
-3053 3052 318 0
-3053 -3052 -318 0
3053 -3052 318 0
3053 3052 -318 0
-3054 3053 321 0
-3054 -3053 -321 0
3054 -3053 321 0
3054 3053 -321 0
-3055 3054 323 0
-3055 -3054 -323 0
3055 -3054 323 0
3055 3054 -323 0
-3056 3055 325 0
-3056 -3055 -325 0
3056 -3055 325 0
3056 3055 -325 0
-3057 3056 326 0
-3057 -3056 -326 0
3057 -3056 326 0
3057 3056 -326 0
-3058 3057 328 0
-3058 -3057 -328 0
3058 -3057 328 0
3058 3057 -328 0
-174 -3058 0
-3059 331 332 0
-3059 -331 -332 0
3059 -331 332 0
3059 331 -332 0
-3060 3059 333 0
-3060 -3059 -333 0
3060 -3059 333 0
3060 3059 -333 0
-3061 3060 336 0
-3061 -3060 -336 0
3061 -3060 336 0
3061 3060 -336 0
-3062 3061 338 0
-3062 -3061 -338 0
3062 -3061 338 0
3062 3061 -338 0
-3063 3062 340 0
-3063 -3062 -340 0
3063 -3062 340 0
3063 3062 -340 0
-3064 3063 341 0
-3064 -3063 -341 0
3064 -3063 341 0
3064 3063 -341 0
-3065 3064 343 0
-3065 -3064 -343 0
3065 -3064 343 0
3065 3064 -343 0
-174 -3065 0
-3066 346 347 0
-3066 -346 -347 0
3066 -346 347 0
3066 346 -347 0
-3067 3066 348 0
-3067 -3066 -348 0
3067 -3066 348 0
3067 3066 -348 0
-3068 3067 351 0
-3068 -3067 -351 0
3068 -3067 351 0
3068 3067 -351 0
-3069 3068 353 0
-3069 -3068 -353 0
3069 -3068 353 0
3069 3068 -353 0
-3070 3069 355 0
-3070 -3069 -355 0
3070 -3069 355 0
3070 3069 -355 0
-3071 3070 356 0
-3071 -3070 -356 0
3071 -3070 356 0
3071 3070 -356 0
-3072 3071 358 0
-3072 -3071 -358 0
3072 -3071 358 0
3072 3071 -358 0
-174 -3072 0
-3073 316 317 0
-3073 -316 -317 0
3073 -316 317 0
3073 316 -317 0
-3074 3073 318 0
-3074 -3073 -318 0
3074 -3073 318 0
3074 3073 -318 0
-3075 3074 322 0
-3075 -3074 -322 0
3075 -3074 322 0
3075 3074 -322 0
-3076 3075 323 0
-3076 -3075 -323 0
3076 -3075 323 0
3076 3075 -323 0
-3077 3076 325 0
-3077 -3076 -325 0
3077 -3076 325 0
3077 3076 -325 0
-3078 3077 326 0
-3078 -3077 -326 0
3078 -3077 326 0
3078 3077 -326 0
-3079 3078 328 0
-3079 -3078 -328 0
3079 -3078 328 0
3079 3078 -328 0
-175 -3079 0
-3080 331 332 0
-3080 -331 -332 0
3080 -331 332 0
3080 331 -332 0
-3081 3080 333 0
-3081 -3080 -333 0
3081 -3080 333 0
3081 3080 -333 0
-3082 3081 337 0
-3082 -3081 -337 0
3082 -3081 337 0
3082 3081 -337 0
-3083 3082 338 0
-3083 -3082 -338 0
3083 -3082 338 0
3083 3082 -338 0
-3084 3083 340 0
-3084 -3083 -340 0
3084 -3083 340 0
3084 3083 -340 0
-3085 3084 341 0
-3085 -3084 -341 0
3085 -3084 341 0
3085 3084 -341 0
-3086 3085 343 0
-3086 -3085 -343 0
3086 -3085 343 0
3086 3085 -343 0
-175 -3086 0
-3087 346 347 0
-3087 -346 -347 0
3087 -346 347 0
3087 346 -347 0
-3088 3087 348 0
-3088 -3087 -348 0
3088 -3087 348 0
3088 3087 -348 0
-3089 3088 352 0
-3089 -3088 -352 0
3089 -3088 352 0
3089 3088 -352 0
-3090 3089 353 0
-3090 -3089 -353 0
3090 -3089 353 0
3090 3089 -353 0
-3091 3090 355 0
-3091 -3090 -355 0
3091 -3090 355 0
3091 3090 -355 0
-3092 3091 356 0
-3092 -3091 -356 0
3092 -3091 356 0
3092 3091 -356 0
-3093 3092 358 0
-3093 -3092 -358 0
3093 -3092 358 0
3093 3092 -358 0
-175 -3093 0
-3094 324 327 0
-3094 -324 -327 0
3094 -324 327 0
3094 324 -327 0
-3095 3094 329 0
-3095 -3094 -329 0
3095 -3094 329 0
3095 3094 -329 0
-176 -3095 0
-3096 339 342 0
-3096 -339 -342 0
3096 -339 342 0
3096 339 -342 0
-3097 3096 344 0
-3097 -3096 -344 0
3097 -3096 344 0
3097 3096 -344 0
-176 -3097 0
-3098 354 357 0
-3098 -354 -357 0
3098 -354 357 0
3098 354 -357 0
-3099 3098 359 0
-3099 -3098 -359 0
3099 -3098 359 0
3099 3098 -359 0
-176 -3099 0
-3100 321 322 0
-3100 -321 -322 0
3100 -321 322 0
3100 321 -322 0
-3101 3100 324 0
-3101 -3100 -324 0
3101 -3100 324 0
3101 3100 -324 0
-3102 3101 327 0
-3102 -3101 -327 0
3102 -3101 327 0
3102 3101 -327 0
-3103 3102 329 0
-3103 -3102 -329 0
3103 -3102 329 0
3103 3102 -329 0
-177 -3103 0
-3104 336 337 0
-3104 -336 -337 0
3104 -336 337 0
3104 336 -337 0
-3105 3104 339 0
-3105 -3104 -339 0
3105 -3104 339 0
3105 3104 -339 0
-3106 3105 342 0
-3106 -3105 -342 0
3106 -3105 342 0
3106 3105 -342 0
-3107 3106 344 0
-3107 -3106 -344 0
3107 -3106 344 0
3107 3106 -344 0
-177 -3107 0
-3108 351 352 0
-3108 -351 -352 0
3108 -351 352 0
3108 351 -352 0
-3109 3108 354 0
-3109 -3108 -354 0
3109 -3108 354 0
3109 3108 -354 0
-3110 3109 357 0
-3110 -3109 -357 0
3110 -3109 357 0
3110 3109 -357 0
-3111 3110 359 0
-3111 -3110 -359 0
3111 -3110 359 0
3111 3110 -359 0
-177 -3111 0
-3112 316 317 0
-3112 -316 -317 0
3112 -316 317 0
3112 316 -317 0
-3113 3112 318 0
-3113 -3112 -318 0
3113 -3112 318 0
3113 3112 -318 0
-3114 3113 321 0
-3114 -3113 -321 0
3114 -3113 321 0
3114 3113 -321 0
-3115 3114 324 0
-3115 -3114 -324 0
3115 -3114 324 0
3115 3114 -324 0
-3116 3115 325 0
-3116 -3115 -325 0
3116 -3115 325 0
3116 3115 -325 0
-3117 3116 327 0
-3117 -3116 -327 0
3117 -3116 327 0
3117 3116 -327 0
-3118 3117 329 0
-3118 -3117 -329 0
3118 -3117 329 0
3118 3117 -329 0
-178 -3118 0
-3119 331 332 0
-3119 -331 -332 0
3119 -331 332 0
3119 331 -332 0
-3120 3119 333 0
-3120 -3119 -333 0
3120 -3119 333 0
3120 3119 -333 0
-3121 3120 336 0
-3121 -3120 -336 0
3121 -3120 336 0
3121 3120 -336 0
-3122 3121 339 0
-3122 -3121 -339 0
3122 -3121 339 0
3122 3121 -339 0
-3123 3122 340 0
-3123 -3122 -340 0
3123 -3122 340 0
3123 3122 -340 0
-3124 3123 342 0
-3124 -3123 -342 0
3124 -3123 342 0
3124 3123 -342 0
-3125 3124 344 0
-3125 -3124 -344 0
3125 -3124 344 0
3125 3124 -344 0
-178 -3125 0
-3126 346 347 0
-3126 -346 -347 0
3126 -346 347 0
3126 346 -347 0
-3127 3126 348 0
-3127 -3126 -348 0
3127 -3126 348 0
3127 3126 -348 0
-3128 3127 351 0
-3128 -3127 -351 0
3128 -3127 351 0
3128 3127 -351 0
-3129 3128 354 0
-3129 -3128 -354 0
3129 -3128 354 0
3129 3128 -354 0
-3130 3129 355 0
-3130 -3129 -355 0
3130 -3129 355 0
3130 3129 -355 0
-3131 3130 357 0
-3131 -3130 -357 0
3131 -3130 357 0
3131 3130 -357 0
-3132 3131 359 0
-3132 -3131 -359 0
3132 -3131 359 0
3132 3131 -359 0
-178 -3132 0
-3133 316 317 0
-3133 -316 -317 0
3133 -316 317 0
3133 316 -317 0
-3134 3133 318 0
-3134 -3133 -318 0
3134 -3133 318 0
3134 3133 -318 0
-3135 3134 322 0
-3135 -3134 -322 0
3135 -3134 322 0
3135 3134 -322 0
-3136 3135 324 0
-3136 -3135 -324 0
3136 -3135 324 0
3136 3135 -324 0
-3137 3136 325 0
-3137 -3136 -325 0
3137 -3136 325 0
3137 3136 -325 0
-3138 3137 327 0
-3138 -3137 -327 0
3138 -3137 327 0
3138 3137 -327 0
-3139 3138 329 0
-3139 -3138 -329 0
3139 -3138 329 0
3139 3138 -329 0
-179 -3139 0
-3140 331 332 0
-3140 -331 -332 0
3140 -331 332 0
3140 331 -332 0
-3141 3140 333 0
-3141 -3140 -333 0
3141 -3140 333 0
3141 3140 -333 0
-3142 3141 337 0
-3142 -3141 -337 0
3142 -3141 337 0
3142 3141 -337 0
-3143 3142 339 0
-3143 -3142 -339 0
3143 -3142 339 0
3143 3142 -339 0
-3144 3143 340 0
-3144 -3143 -340 0
3144 -3143 340 0
3144 3143 -340 0
-3145 3144 342 0
-3145 -3144 -342 0
3145 -3144 342 0
3145 3144 -342 0
-3146 3145 344 0
-3146 -3145 -344 0
3146 -3145 344 0
3146 3145 -344 0
-179 -3146 0
-3147 346 347 0
-3147 -346 -347 0
3147 -346 347 0
3147 346 -347 0
-3148 3147 348 0
-3148 -3147 -348 0
3148 -3147 348 0
3148 3147 -348 0
-3149 3148 352 0
-3149 -3148 -352 0
3149 -3148 352 0
3149 3148 -352 0
-3150 3149 354 0
-3150 -3149 -354 0
3150 -3149 354 0
3150 3149 -354 0
-3151 3150 355 0
-3151 -3150 -355 0
3151 -3150 355 0
3151 3150 -355 0
-3152 3151 357 0
-3152 -3151 -357 0
3152 -3151 357 0
3152 3151 -357 0
-3153 3152 359 0
-3153 -3152 -359 0
3153 -3152 359 0
3153 3152 -359 0
-179 -3153 0
-3154 323 324 0
-3154 -323 -324 0
3154 -323 324 0
3154 323 -324 0
-3155 3154 326 0
-3155 -3154 -326 0
3155 -3154 326 0
3155 3154 -326 0
-3156 3155 327 0
-3156 -3155 -327 0
3156 -3155 327 0
3156 3155 -327 0
-3157 3156 328 0
-3157 -3156 -328 0
3157 -3156 328 0
3157 3156 -328 0
-3158 3157 329 0
-3158 -3157 -329 0
3158 -3157 329 0
3158 3157 -329 0
-180 -3158 0
-3159 338 339 0
-3159 -338 -339 0
3159 -338 339 0
3159 338 -339 0
-3160 3159 341 0
-3160 -3159 -341 0
3160 -3159 341 0
3160 3159 -341 0
-3161 3160 342 0
-3161 -3160 -342 0
3161 -3160 342 0
3161 3160 -342 0
-3162 3161 343 0
-3162 -3161 -343 0
3162 -3161 343 0
3162 3161 -343 0
-3163 3162 344 0
-3163 -3162 -344 0
3163 -3162 344 0
3163 3162 -344 0
-180 -3163 0
-3164 353 354 0
-3164 -353 -354 0
3164 -353 354 0
3164 353 -354 0
-3165 3164 356 0
-3165 -3164 -356 0
3165 -3164 356 0
3165 3164 -356 0
-3166 3165 357 0
-3166 -3165 -357 0
3166 -3165 357 0
3166 3165 -357 0
-3167 3166 358 0
-3167 -3166 -358 0
3167 -3166 358 0
3167 3166 -358 0
-3168 3167 359 0
-3168 -3167 -359 0
3168 -3167 359 0
3168 3167 -359 0
-180 -3168 0
-3169 321 322 0
-3169 -321 -322 0
3169 -321 322 0
3169 321 -322 0
-3170 3169 323 0
-3170 -3169 -323 0
3170 -3169 323 0
3170 3169 -323 0
-3171 3170 324 0
-3171 -3170 -324 0
3171 -3170 324 0
3171 3170 -324 0
-3172 3171 326 0
-3172 -3171 -326 0
3172 -3171 326 0
3172 3171 -326 0
-3173 3172 327 0
-3173 -3172 -327 0
3173 -3172 327 0
3173 3172 -327 0
-3174 3173 328 0
-3174 -3173 -328 0
3174 -3173 328 0
3174 3173 -328 0
-3175 3174 329 0
-3175 -3174 -329 0
3175 -3174 329 0
3175 3174 -329 0
-181 -3175 0
-3176 336 337 0
-3176 -336 -337 0
3176 -336 337 0
3176 336 -337 0
-3177 3176 338 0
-3177 -3176 -338 0
3177 -3176 338 0
3177 3176 -338 0
-3178 3177 339 0
-3178 -3177 -339 0
3178 -3177 339 0
3178 3177 -339 0
-3179 3178 341 0
-3179 -3178 -341 0
3179 -3178 341 0
3179 3178 -341 0
-3180 3179 342 0
-3180 -3179 -342 0
3180 -3179 342 0
3180 3179 -342 0
-3181 3180 343 0
-3181 -3180 -343 0
3181 -3180 343 0
3181 3180 -343 0
-3182 3181 344 0
-3182 -3181 -344 0
3182 -3181 344 0
3182 3181 -344 0
-181 -3182 0
-3183 351 352 0
-3183 -351 -352 0
3183 -351 352 0
3183 351 -352 0
-3184 3183 353 0
-3184 -3183 -353 0
3184 -3183 353 0
3184 3183 -353 0
-3185 3184 354 0
-3185 -3184 -354 0
3185 -3184 354 0
3185 3184 -354 0
-3186 3185 356 0
-3186 -3185 -356 0
3186 -3185 356 0
3186 3185 -356 0
-3187 3186 357 0
-3187 -3186 -357 0
3187 -3186 357 0
3187 3186 -357 0
-3188 3187 358 0
-3188 -3187 -358 0
3188 -3187 358 0
3188 3187 -358 0
-3189 3188 359 0
-3189 -3188 -359 0
3189 -3188 359 0
3189 3188 -359 0
-181 -3189 0
-3190 316 317 0
-3190 -316 -317 0
3190 -316 317 0
3190 316 -317 0
-3191 3190 318 0
-3191 -3190 -318 0
3191 -3190 318 0
3191 3190 -318 0
-3192 3191 321 0
-3192 -3191 -321 0
3192 -3191 321 0
3192 3191 -321 0
-3193 3192 323 0
-3193 -3192 -323 0
3193 -3192 323 0
3193 3192 -323 0
-3194 3193 324 0
-3194 -3193 -324 0
3194 -3193 324 0
3194 3193 -324 0
-3195 3194 325 0
-3195 -3194 -325 0
3195 -3194 325 0
3195 3194 -325 0
-3196 3195 326 0
-3196 -3195 -326 0
3196 -3195 326 0
3196 3195 -326 0
-3197 3196 327 0
-3197 -3196 -327 0
3197 -3196 327 0
3197 3196 -327 0
-3198 3197 328 0
-3198 -3197 -328 0
3198 -3197 328 0
3198 3197 -328 0
-3199 3198 329 0
-3199 -3198 -329 0
3199 -3198 329 0
3199 3198 -329 0
-182 -3199 0
-3200 331 332 0
-3200 -331 -332 0
3200 -331 332 0
3200 331 -332 0
-3201 3200 333 0
-3201 -3200 -333 0
3201 -3200 333 0
3201 3200 -333 0
-3202 3201 336 0
-3202 -3201 -336 0
3202 -3201 336 0
3202 3201 -336 0
-3203 3202 338 0
-3203 -3202 -338 0
3203 -3202 338 0
3203 3202 -338 0
-3204 3203 339 0
-3204 -3203 -339 0
3204 -3203 339 0
3204 3203 -339 0
-3205 3204 340 0
-3205 -3204 -340 0
3205 -3204 340 0
3205 3204 -340 0
-3206 3205 341 0
-3206 -3205 -341 0
3206 -3205 341 0
3206 3205 -341 0
-3207 3206 342 0
-3207 -3206 -342 0
3207 -3206 342 0
3207 3206 -342 0
-3208 3207 343 0
-3208 -3207 -343 0
3208 -3207 343 0
3208 3207 -343 0
-3209 3208 344 0
-3209 -3208 -344 0
3209 -3208 344 0
3209 3208 -344 0
-182 -3209 0
-3210 346 347 0
-3210 -346 -347 0
3210 -346 347 0
3210 346 -347 0
-3211 3210 348 0
-3211 -3210 -348 0
3211 -3210 348 0
3211 3210 -348 0
-3212 3211 351 0
-3212 -3211 -351 0
3212 -3211 351 0
3212 3211 -351 0
-3213 3212 353 0
-3213 -3212 -353 0
3213 -3212 353 0
3213 3212 -353 0
-3214 3213 354 0
-3214 -3213 -354 0
3214 -3213 354 0
3214 3213 -354 0
-3215 3214 355 0
-3215 -3214 -355 0
3215 -3214 355 0
3215 3214 -355 0
-3216 3215 356 0
-3216 -3215 -356 0
3216 -3215 356 0
3216 3215 -356 0
-3217 3216 357 0
-3217 -3216 -357 0
3217 -3216 357 0
3217 3216 -357 0
-3218 3217 358 0
-3218 -3217 -358 0
3218 -3217 358 0
3218 3217 -358 0
-3219 3218 359 0
-3219 -3218 -359 0
3219 -3218 359 0
3219 3218 -359 0
-182 -3219 0
-3220 316 317 0
-3220 -316 -317 0
3220 -316 317 0
3220 316 -317 0
-3221 3220 318 0
-3221 -3220 -318 0
3221 -3220 318 0
3221 3220 -318 0
-3222 3221 322 0
-3222 -3221 -322 0
3222 -3221 322 0
3222 3221 -322 0
-3223 3222 323 0
-3223 -3222 -323 0
3223 -3222 323 0
3223 3222 -323 0
-3224 3223 324 0
-3224 -3223 -324 0
3224 -3223 324 0
3224 3223 -324 0
-3225 3224 325 0
-3225 -3224 -325 0
3225 -3224 325 0
3225 3224 -325 0
-3226 3225 326 0
-3226 -3225 -326 0
3226 -3225 326 0
3226 3225 -326 0
-3227 3226 327 0
-3227 -3226 -327 0
3227 -3226 327 0
3227 3226 -327 0
-3228 3227 328 0
-3228 -3227 -328 0
3228 -3227 328 0
3228 3227 -328 0
-3229 3228 329 0
-3229 -3228 -329 0
3229 -3228 329 0
3229 3228 -329 0
-183 -3229 0
-3230 331 332 0
-3230 -331 -332 0
3230 -331 332 0
3230 331 -332 0
-3231 3230 333 0
-3231 -3230 -333 0
3231 -3230 333 0
3231 3230 -333 0
-3232 3231 337 0
-3232 -3231 -337 0
3232 -3231 337 0
3232 3231 -337 0
-3233 3232 338 0
-3233 -3232 -338 0
3233 -3232 338 0
3233 3232 -338 0
-3234 3233 339 0
-3234 -3233 -339 0
3234 -3233 339 0
3234 3233 -339 0
-3235 3234 340 0
-3235 -3234 -340 0
3235 -3234 340 0
3235 3234 -340 0
-3236 3235 341 0
-3236 -3235 -341 0
3236 -3235 341 0
3236 3235 -341 0
-3237 3236 342 0
-3237 -3236 -342 0
3237 -3236 342 0
3237 3236 -342 0
-3238 3237 343 0
-3238 -3237 -343 0
3238 -3237 343 0
3238 3237 -343 0
-3239 3238 344 0
-3239 -3238 -344 0
3239 -3238 344 0
3239 3238 -344 0
-183 -3239 0
-3240 346 347 0
-3240 -346 -347 0
3240 -346 347 0
3240 346 -347 0
-3241 3240 348 0
-3241 -3240 -348 0
3241 -3240 348 0
3241 3240 -348 0
-3242 3241 352 0
-3242 -3241 -352 0
3242 -3241 352 0
3242 3241 -352 0
-3243 3242 353 0
-3243 -3242 -353 0
3243 -3242 353 0
3243 3242 -353 0
-3244 3243 354 0
-3244 -3243 -354 0
3244 -3243 354 0
3244 3243 -354 0
-3245 3244 355 0
-3245 -3244 -355 0
3245 -3244 355 0
3245 3244 -355 0
-3246 3245 356 0
-3246 -3245 -356 0
3246 -3245 356 0
3246 3245 -356 0
-3247 3246 357 0
-3247 -3246 -357 0
3247 -3246 357 0
3247 3246 -357 0
-3248 3247 358 0
-3248 -3247 -358 0
3248 -3247 358 0
3248 3247 -358 0
-3249 3248 359 0
-3249 -3248 -359 0
3249 -3248 359 0
3249 3248 -359 0
-183 -3249 0
-3250 319 323 0
-3250 -319 -323 0
3250 -319 323 0
3250 319 -323 0
-3251 3250 326 0
-3251 -3250 -326 0
3251 -3250 326 0
3251 3250 -326 0
-3252 3251 328 0
-3252 -3251 -328 0
3252 -3251 328 0
3252 3251 -328 0
-184 -3252 0
-3253 334 338 0
-3253 -334 -338 0
3253 -334 338 0
3253 334 -338 0
-3254 3253 341 0
-3254 -3253 -341 0
3254 -3253 341 0
3254 3253 -341 0
-3255 3254 343 0
-3255 -3254 -343 0
3255 -3254 343 0
3255 3254 -343 0
-184 -3255 0
-3256 349 353 0
-3256 -349 -353 0
3256 -349 353 0
3256 349 -353 0
-3257 3256 356 0
-3257 -3256 -356 0
3257 -3256 356 0
3257 3256 -356 0
-3258 3257 358 0
-3258 -3257 -358 0
3258 -3257 358 0
3258 3257 -358 0
-184 -3258 0
-3259 317 318 0
-3259 -317 -318 0
3259 -317 318 0
3259 317 -318 0
-3260 3259 319 0
-3260 -3259 -319 0
3260 -3259 319 0
3260 3259 -319 0
-3261 3260 321 0
-3261 -3260 -321 0
3261 -3260 321 0
3261 3260 -321 0
-3262 3261 322 0
-3262 -3261 -322 0
3262 -3261 322 0
3262 3261 -322 0
-3263 3262 323 0
-3263 -3262 -323 0
3263 -3262 323 0
3263 3262 -323 0
-3264 3263 326 0
-3264 -3263 -326 0
3264 -3263 326 0
3264 3263 -326 0
-3265 3264 328 0
-3265 -3264 -328 0
3265 -3264 328 0
3265 3264 -328 0
-185 -3265 0
-3266 332 333 0
-3266 -332 -333 0
3266 -332 333 0
3266 332 -333 0
-3267 3266 334 0
-3267 -3266 -334 0
3267 -3266 334 0
3267 3266 -334 0
-3268 3267 336 0
-3268 -3267 -336 0
3268 -3267 336 0
3268 3267 -336 0
-3269 3268 337 0
-3269 -3268 -337 0
3269 -3268 337 0
3269 3268 -337 0
-3270 3269 338 0
-3270 -3269 -338 0
3270 -3269 338 0
3270 3269 -338 0
-3271 3270 341 0
-3271 -3270 -341 0
3271 -3270 341 0
3271 3270 -341 0
-3272 3271 343 0
-3272 -3271 -343 0
3272 -3271 343 0
3272 3271 -343 0
-185 -3272 0
-3273 347 348 0
-3273 -347 -348 0
3273 -347 348 0
3273 347 -348 0
-3274 3273 349 0
-3274 -3273 -349 0
3274 -3273 349 0
3274 3273 -349 0
-3275 3274 351 0
-3275 -3274 -351 0
3275 -3274 351 0
3275 3274 -351 0
-3276 3275 352 0
-3276 -3275 -352 0
3276 -3275 352 0
3276 3275 -352 0
-3277 3276 353 0
-3277 -3276 -353 0
3277 -3276 353 0
3277 3276 -353 0
-3278 3277 356 0
-3278 -3277 -356 0
3278 -3277 356 0
3278 3277 -356 0
-3279 3278 358 0
-3279 -3278 -358 0
3279 -3278 358 0
3279 3278 -358 0
-185 -3279 0
-3280 316 318 0
-3280 -316 -318 0
3280 -316 318 0
3280 316 -318 0
-3281 3280 319 0
-3281 -3280 -319 0
3281 -3280 319 0
3281 3280 -319 0
-3282 3281 321 0
-3282 -3281 -321 0
3282 -3281 321 0
3282 3281 -321 0
-3283 3282 323 0
-3283 -3282 -323 0
3283 -3282 323 0
3283 3282 -323 0
-3284 3283 325 0
-3284 -3283 -325 0
3284 -3283 325 0
3284 3283 -325 0
-3285 3284 326 0
-3285 -3284 -326 0
3285 -3284 326 0
3285 3284 -326 0
-3286 3285 328 0
-3286 -3285 -328 0
3286 -3285 328 0
3286 3285 -328 0
-186 -3286 0
-3287 331 333 0
-3287 -331 -333 0
3287 -331 333 0
3287 331 -333 0
-3288 3287 334 0
-3288 -3287 -334 0
3288 -3287 334 0
3288 3287 -334 0
-3289 3288 336 0
-3289 -3288 -336 0
3289 -3288 336 0
3289 3288 -336 0
-3290 3289 338 0
-3290 -3289 -338 0
3290 -3289 338 0
3290 3289 -338 0
-3291 3290 340 0
-3291 -3290 -340 0
3291 -3290 340 0
3291 3290 -340 0
-3292 3291 341 0
-3292 -3291 -341 0
3292 -3291 341 0
3292 3291 -341 0
-3293 3292 343 0
-3293 -3292 -343 0
3293 -3292 343 0
3293 3292 -343 0
-186 -3293 0
-3294 346 348 0
-3294 -346 -348 0
3294 -346 348 0
3294 346 -348 0
-3295 3294 349 0
-3295 -3294 -349 0
3295 -3294 349 0
3295 3294 -349 0
-3296 3295 351 0
-3296 -3295 -351 0
3296 -3295 351 0
3296 3295 -351 0
-3297 3296 353 0
-3297 -3296 -353 0
3297 -3296 353 0
3297 3296 -353 0
-3298 3297 355 0
-3298 -3297 -355 0
3298 -3297 355 0
3298 3297 -355 0
-3299 3298 356 0
-3299 -3298 -356 0
3299 -3298 356 0
3299 3298 -356 0
-3300 3299 358 0
-3300 -3299 -358 0
3300 -3299 358 0
3300 3299 -358 0
-186 -3300 0
-3301 316 317 0
-3301 -316 -317 0
3301 -316 317 0
3301 316 -317 0
-3302 3301 319 0
-3302 -3301 -319 0
3302 -3301 319 0
3302 3301 -319 0
-3303 3302 322 0
-3303 -3302 -322 0
3303 -3302 322 0
3303 3302 -322 0
-3304 3303 323 0
-3304 -3303 -323 0
3304 -3303 323 0
3304 3303 -323 0
-3305 3304 325 0
-3305 -3304 -325 0
3305 -3304 325 0
3305 3304 -325 0
-3306 3305 326 0
-3306 -3305 -326 0
3306 -3305 326 0
3306 3305 -326 0
-3307 3306 328 0
-3307 -3306 -328 0
3307 -3306 328 0
3307 3306 -328 0
-187 -3307 0
-3308 331 332 0
-3308 -331 -332 0
3308 -331 332 0
3308 331 -332 0
-3309 3308 334 0
-3309 -3308 -334 0
3309 -3308 334 0
3309 3308 -334 0
-3310 3309 337 0
-3310 -3309 -337 0
3310 -3309 337 0
3310 3309 -337 0
-3311 3310 338 0
-3311 -3310 -338 0
3311 -3310 338 0
3311 3310 -338 0
-3312 3311 340 0
-3312 -3311 -340 0
3312 -3311 340 0
3312 3311 -340 0
-3313 3312 341 0
-3313 -3312 -341 0
3313 -3312 341 0
3313 3312 -341 0
-3314 3313 343 0
-3314 -3313 -343 0
3314 -3313 343 0
3314 3313 -343 0
-187 -3314 0
-3315 346 347 0
-3315 -346 -347 0
3315 -346 347 0
3315 346 -347 0
-3316 3315 349 0
-3316 -3315 -349 0
3316 -3315 349 0
3316 3315 -349 0
-3317 3316 352 0
-3317 -3316 -352 0
3317 -3316 352 0
3317 3316 -352 0
-3318 3317 353 0
-3318 -3317 -353 0
3318 -3317 353 0
3318 3317 -353 0
-3319 3318 355 0
-3319 -3318 -355 0
3319 -3318 355 0
3319 3318 -355 0
-3320 3319 356 0
-3320 -3319 -356 0
3320 -3319 356 0
3320 3319 -356 0
-3321 3320 358 0
-3321 -3320 -358 0
3321 -3320 358 0
3321 3320 -358 0
-187 -3321 0
-3322 320 324 0
-3322 -320 -324 0
3322 -320 324 0
3322 320 -324 0
-3323 3322 327 0
-3323 -3322 -327 0
3323 -3322 327 0
3323 3322 -327 0
-3324 3323 329 0
-3324 -3323 -329 0
3324 -3323 329 0
3324 3323 -329 0
-188 -3324 0
-3325 335 339 0
-3325 -335 -339 0
3325 -335 339 0
3325 335 -339 0
-3326 3325 342 0
-3326 -3325 -342 0
3326 -3325 342 0
3326 3325 -342 0
-3327 3326 344 0
-3327 -3326 -344 0
3327 -3326 344 0
3327 3326 -344 0
-188 -3327 0
-3328 350 354 0
-3328 -350 -354 0
3328 -350 354 0
3328 350 -354 0
-3329 3328 357 0
-3329 -3328 -357 0
3329 -3328 357 0
3329 3328 -357 0
-3330 3329 359 0
-3330 -3329 -359 0
3330 -3329 359 0
3330 3329 -359 0
-188 -3330 0
-3331 317 318 0
-3331 -317 -318 0
3331 -317 318 0
3331 317 -318 0
-3332 3331 320 0
-3332 -3331 -320 0
3332 -3331 320 0
3332 3331 -320 0
-3333 3332 321 0
-3333 -3332 -321 0
3333 -3332 321 0
3333 3332 -321 0
-3334 3333 322 0
-3334 -3333 -322 0
3334 -3333 322 0
3334 3333 -322 0
-3335 3334 324 0
-3335 -3334 -324 0
3335 -3334 324 0
3335 3334 -324 0
-3336 3335 327 0
-3336 -3335 -327 0
3336 -3335 327 0
3336 3335 -327 0
-3337 3336 329 0
-3337 -3336 -329 0
3337 -3336 329 0
3337 3336 -329 0
-189 -3337 0
-3338 332 333 0
-3338 -332 -333 0
3338 -332 333 0
3338 332 -333 0
-3339 3338 335 0
-3339 -3338 -335 0
3339 -3338 335 0
3339 3338 -335 0
-3340 3339 336 0
-3340 -3339 -336 0
3340 -3339 336 0
3340 3339 -336 0
-3341 3340 337 0
-3341 -3340 -337 0
3341 -3340 337 0
3341 3340 -337 0
-3342 3341 339 0
-3342 -3341 -339 0
3342 -3341 339 0
3342 3341 -339 0
-3343 3342 342 0
-3343 -3342 -342 0
3343 -3342 342 0
3343 3342 -342 0
-3344 3343 344 0
-3344 -3343 -344 0
3344 -3343 344 0
3344 3343 -344 0
-189 -3344 0
-3345 347 348 0
-3345 -347 -348 0
3345 -347 348 0
3345 347 -348 0
-3346 3345 350 0
-3346 -3345 -350 0
3346 -3345 350 0
3346 3345 -350 0
-3347 3346 351 0
-3347 -3346 -351 0
3347 -3346 351 0
3347 3346 -351 0
-3348 3347 352 0
-3348 -3347 -352 0
3348 -3347 352 0
3348 3347 -352 0
-3349 3348 354 0
-3349 -3348 -354 0
3349 -3348 354 0
3349 3348 -354 0
-3350 3349 357 0
-3350 -3349 -357 0
3350 -3349 357 0
3350 3349 -357 0
-3351 3350 359 0
-3351 -3350 -359 0
3351 -3350 359 0
3351 3350 -359 0
-189 -3351 0
-3352 316 318 0
-3352 -316 -318 0
3352 -316 318 0
3352 316 -318 0
-3353 3352 320 0
-3353 -3352 -320 0
3353 -3352 320 0
3353 3352 -320 0
-3354 3353 321 0
-3354 -3353 -321 0
3354 -3353 321 0
3354 3353 -321 0
-3355 3354 324 0
-3355 -3354 -324 0
3355 -3354 324 0
3355 3354 -324 0
-3356 3355 325 0
-3356 -3355 -325 0
3356 -3355 325 0
3356 3355 -325 0
-3357 3356 327 0
-3357 -3356 -327 0
3357 -3356 327 0
3357 3356 -327 0
-3358 3357 329 0
-3358 -3357 -329 0
3358 -3357 329 0
3358 3357 -329 0
-190 -3358 0
-3359 331 333 0
-3359 -331 -333 0
3359 -331 333 0
3359 331 -333 0
-3360 3359 335 0
-3360 -3359 -335 0
3360 -3359 335 0
3360 3359 -335 0
-3361 3360 336 0
-3361 -3360 -336 0
3361 -3360 336 0
3361 3360 -336 0
-3362 3361 339 0
-3362 -3361 -339 0
3362 -3361 339 0
3362 3361 -339 0
-3363 3362 340 0
-3363 -3362 -340 0
3363 -3362 340 0
3363 3362 -340 0
-3364 3363 342 0
-3364 -3363 -342 0
3364 -3363 342 0
3364 3363 -342 0
-3365 3364 344 0
-3365 -3364 -344 0
3365 -3364 344 0
3365 3364 -344 0
-190 -3365 0
-3366 346 348 0
-3366 -346 -348 0
3366 -346 348 0
3366 346 -348 0
-3367 3366 350 0
-3367 -3366 -350 0
3367 -3366 350 0
3367 3366 -350 0
-3368 3367 351 0
-3368 -3367 -351 0
3368 -3367 351 0
3368 3367 -351 0
-3369 3368 354 0
-3369 -3368 -354 0
3369 -3368 354 0
3369 3368 -354 0
-3370 3369 355 0
-3370 -3369 -355 0
3370 -3369 355 0
3370 3369 -355 0
-3371 3370 357 0
-3371 -3370 -357 0
3371 -3370 357 0
3371 3370 -357 0
-3372 3371 359 0
-3372 -3371 -359 0
3372 -3371 359 0
3372 3371 -359 0
-190 -3372 0
-3373 316 317 0
-3373 -316 -317 0
3373 -316 317 0
3373 316 -317 0
-3374 3373 320 0
-3374 -3373 -320 0
3374 -3373 320 0
3374 3373 -320 0
-3375 3374 322 0
-3375 -3374 -322 0
3375 -3374 322 0
3375 3374 -322 0
-3376 3375 324 0
-3376 -3375 -324 0
3376 -3375 324 0
3376 3375 -324 0
-3377 3376 325 0
-3377 -3376 -325 0
3377 -3376 325 0
3377 3376 -325 0
-3378 3377 327 0
-3378 -3377 -327 0
3378 -3377 327 0
3378 3377 -327 0
-3379 3378 329 0
-3379 -3378 -329 0
3379 -3378 329 0
3379 3378 -329 0
-191 -3379 0
-3380 331 332 0
-3380 -331 -332 0
3380 -331 332 0
3380 331 -332 0
-3381 3380 335 0
-3381 -3380 -335 0
3381 -3380 335 0
3381 3380 -335 0
-3382 3381 337 0
-3382 -3381 -337 0
3382 -3381 337 0
3382 3381 -337 0
-3383 3382 339 0
-3383 -3382 -339 0
3383 -3382 339 0
3383 3382 -339 0
-3384 3383 340 0
-3384 -3383 -340 0
3384 -3383 340 0
3384 3383 -340 0
-3385 3384 342 0
-3385 -3384 -342 0
3385 -3384 342 0
3385 3384 -342 0
-3386 3385 344 0
-3386 -3385 -344 0
3386 -3385 344 0
3386 3385 -344 0
-191 -3386 0
-3387 346 347 0
-3387 -346 -347 0
3387 -346 347 0
3387 346 -347 0
-3388 3387 350 0
-3388 -3387 -350 0
3388 -3387 350 0
3388 3387 -350 0
-3389 3388 352 0
-3389 -3388 -352 0
3389 -3388 352 0
3389 3388 -352 0
-3390 3389 354 0
-3390 -3389 -354 0
3390 -3389 354 0
3390 3389 -354 0
-3391 3390 355 0
-3391 -3390 -355 0
3391 -3390 355 0
3391 3390 -355 0
-3392 3391 357 0
-3392 -3391 -357 0
3392 -3391 357 0
3392 3391 -357 0
-3393 3392 359 0
-3393 -3392 -359 0
3393 -3392 359 0
3393 3392 -359 0
-191 -3393 0
-3394 319 320 0
-3394 -319 -320 0
3394 -319 320 0
3394 319 -320 0
-3395 3394 323 0
-3395 -3394 -323 0
3395 -3394 323 0
3395 3394 -323 0
-3396 3395 324 0
-3396 -3395 -324 0
3396 -3395 324 0
3396 3395 -324 0
-3397 3396 326 0
-3397 -3396 -326 0
3397 -3396 326 0
3397 3396 -326 0
-3398 3397 327 0
-3398 -3397 -327 0
3398 -3397 327 0
3398 3397 -327 0
-3399 3398 328 0
-3399 -3398 -328 0
3399 -3398 328 0
3399 3398 -328 0
-3400 3399 329 0
-3400 -3399 -329 0
3400 -3399 329 0
3400 3399 -329 0
-192 -3400 0
-3401 334 335 0
-3401 -334 -335 0
3401 -334 335 0
3401 334 -335 0
-3402 3401 338 0
-3402 -3401 -338 0
3402 -3401 338 0
3402 3401 -338 0
-3403 3402 339 0
-3403 -3402 -339 0
3403 -3402 339 0
3403 3402 -339 0
-3404 3403 341 0
-3404 -3403 -341 0
3404 -3403 341 0
3404 3403 -341 0
-3405 3404 342 0
-3405 -3404 -342 0
3405 -3404 342 0
3405 3404 -342 0
-3406 3405 343 0
-3406 -3405 -343 0
3406 -3405 343 0
3406 3405 -343 0
-3407 3406 344 0
-3407 -3406 -344 0
3407 -3406 344 0
3407 3406 -344 0
-192 -3407 0
-3408 349 350 0
-3408 -349 -350 0
3408 -349 350 0
3408 349 -350 0
-3409 3408 353 0
-3409 -3408 -353 0
3409 -3408 353 0
3409 3408 -353 0
-3410 3409 354 0
-3410 -3409 -354 0
3410 -3409 354 0
3410 3409 -354 0
-3411 3410 356 0
-3411 -3410 -356 0
3411 -3410 356 0
3411 3410 -356 0
-3412 3411 357 0
-3412 -3411 -357 0
3412 -3411 357 0
3412 3411 -357 0
-3413 3412 358 0
-3413 -3412 -358 0
3413 -3412 358 0
3413 3412 -358 0
-3414 3413 359 0
-3414 -3413 -359 0
3414 -3413 359 0
3414 3413 -359 0
-192 -3414 0
-3415 317 318 0
-3415 -317 -318 0
3415 -317 318 0
3415 317 -318 0
-3416 3415 319 0
-3416 -3415 -319 0
3416 -3415 319 0
3416 3415 -319 0
-3417 3416 320 0
-3417 -3416 -320 0
3417 -3416 320 0
3417 3416 -320 0
-3418 3417 321 0
-3418 -3417 -321 0
3418 -3417 321 0
3418 3417 -321 0
-3419 3418 322 0
-3419 -3418 -322 0
3419 -3418 322 0
3419 3418 -322 0
-3420 3419 323 0
-3420 -3419 -323 0
3420 -3419 323 0
3420 3419 -323 0
-3421 3420 324 0
-3421 -3420 -324 0
3421 -3420 324 0
3421 3420 -324 0
-3422 3421 326 0
-3422 -3421 -326 0
3422 -3421 326 0
3422 3421 -326 0
-3423 3422 327 0
-3423 -3422 -327 0
3423 -3422 327 0
3423 3422 -327 0
-3424 3423 328 0
-3424 -3423 -328 0
3424 -3423 328 0
3424 3423 -328 0
-3425 3424 329 0
-3425 -3424 -329 0
3425 -3424 329 0
3425 3424 -329 0
-193 -3425 0
-3426 332 333 0
-3426 -332 -333 0
3426 -332 333 0
3426 332 -333 0
-3427 3426 334 0
-3427 -3426 -334 0
3427 -3426 334 0
3427 3426 -334 0
-3428 3427 335 0
-3428 -3427 -335 0
3428 -3427 335 0
3428 3427 -335 0
-3429 3428 336 0
-3429 -3428 -336 0
3429 -3428 336 0
3429 3428 -336 0
-3430 3429 337 0
-3430 -3429 -337 0
3430 -3429 337 0
3430 3429 -337 0
-3431 3430 338 0
-3431 -3430 -338 0
3431 -3430 338 0
3431 3430 -338 0
-3432 3431 339 0
-3432 -3431 -339 0
3432 -3431 339 0
3432 3431 -339 0
-3433 3432 341 0
-3433 -3432 -341 0
3433 -3432 341 0
3433 3432 -341 0
-3434 3433 342 0
-3434 -3433 -342 0
3434 -3433 342 0
3434 3433 -342 0
-3435 3434 343 0
-3435 -3434 -343 0
3435 -3434 343 0
3435 3434 -343 0
-3436 3435 344 0
-3436 -3435 -344 0
3436 -3435 344 0
3436 3435 -344 0
-193 -3436 0
-3437 347 348 0
-3437 -347 -348 0
3437 -347 348 0
3437 347 -348 0
-3438 3437 349 0
-3438 -3437 -349 0
3438 -3437 349 0
3438 3437 -349 0
-3439 3438 350 0
-3439 -3438 -350 0
3439 -3438 350 0
3439 3438 -350 0
-3440 3439 351 0
-3440 -3439 -351 0
3440 -3439 351 0
3440 3439 -351 0
-3441 3440 352 0
-3441 -3440 -352 0
3441 -3440 352 0
3441 3440 -352 0
-3442 3441 353 0
-3442 -3441 -353 0
3442 -3441 353 0
3442 3441 -353 0
-3443 3442 354 0
-3443 -3442 -354 0
3443 -3442 354 0
3443 3442 -354 0
-3444 3443 356 0
-3444 -3443 -356 0
3444 -3443 356 0
3444 3443 -356 0
-3445 3444 357 0
-3445 -3444 -357 0
3445 -3444 357 0
3445 3444 -357 0
-3446 3445 358 0
-3446 -3445 -358 0
3446 -3445 358 0
3446 3445 -358 0
-3447 3446 359 0
-3447 -3446 -359 0
3447 -3446 359 0
3447 3446 -359 0
-193 -3447 0
-3448 316 318 0
-3448 -316 -318 0
3448 -316 318 0
3448 316 -318 0
-3449 3448 319 0
-3449 -3448 -319 0
3449 -3448 319 0
3449 3448 -319 0
-3450 3449 320 0
-3450 -3449 -320 0
3450 -3449 320 0
3450 3449 -320 0
-3451 3450 321 0
-3451 -3450 -321 0
3451 -3450 321 0
3451 3450 -321 0
-3452 3451 323 0
-3452 -3451 -323 0
3452 -3451 323 0
3452 3451 -323 0
-3453 3452 324 0
-3453 -3452 -324 0
3453 -3452 324 0
3453 3452 -324 0
-3454 3453 325 0
-3454 -3453 -325 0
3454 -3453 325 0
3454 3453 -325 0
-3455 3454 326 0
-3455 -3454 -326 0
3455 -3454 326 0
3455 3454 -326 0
-3456 3455 327 0
-3456 -3455 -327 0
3456 -3455 327 0
3456 3455 -327 0
-3457 3456 328 0
-3457 -3456 -328 0
3457 -3456 328 0
3457 3456 -328 0
-3458 3457 329 0
-3458 -3457 -329 0
3458 -3457 329 0
3458 3457 -329 0
-194 -3458 0
-3459 331 333 0
-3459 -331 -333 0
3459 -331 333 0
3459 331 -333 0
-3460 3459 334 0
-3460 -3459 -334 0
3460 -3459 334 0
3460 3459 -334 0
-3461 3460 335 0
-3461 -3460 -335 0
3461 -3460 335 0
3461 3460 -335 0
-3462 3461 336 0
-3462 -3461 -336 0
3462 -3461 336 0
3462 3461 -336 0
-3463 3462 338 0
-3463 -3462 -338 0
3463 -3462 338 0
3463 3462 -338 0
-3464 3463 339 0
-3464 -3463 -339 0
3464 -3463 339 0
3464 3463 -339 0
-3465 3464 340 0
-3465 -3464 -340 0
3465 -3464 340 0
3465 3464 -340 0
-3466 3465 341 0
-3466 -3465 -341 0
3466 -3465 341 0
3466 3465 -341 0
-3467 3466 342 0
-3467 -3466 -342 0
3467 -3466 342 0
3467 3466 -342 0
-3468 3467 343 0
-3468 -3467 -343 0
3468 -3467 343 0
3468 3467 -343 0
-3469 3468 344 0
-3469 -3468 -344 0
3469 -3468 344 0
3469 3468 -344 0
-194 -3469 0
-3470 346 348 0
-3470 -346 -348 0
3470 -346 348 0
3470 346 -348 0
-3471 3470 349 0
-3471 -3470 -349 0
3471 -3470 349 0
3471 3470 -349 0
-3472 3471 350 0
-3472 -3471 -350 0
3472 -3471 350 0
3472 3471 -350 0
-3473 3472 351 0
-3473 -3472 -351 0
3473 -3472 351 0
3473 3472 -351 0
-3474 3473 353 0
-3474 -3473 -353 0
3474 -3473 353 0
3474 3473 -353 0
-3475 3474 354 0
-3475 -3474 -354 0
3475 -3474 354 0
3475 3474 -354 0
-3476 3475 355 0
-3476 -3475 -355 0
3476 -3475 355 0
3476 3475 -355 0
-3477 3476 356 0
-3477 -3476 -356 0
3477 -3476 356 0
3477 3476 -356 0
-3478 3477 357 0
-3478 -3477 -357 0
3478 -3477 357 0
3478 3477 -357 0
-3479 3478 358 0
-3479 -3478 -358 0
3479 -3478 358 0
3479 3478 -358 0
-3480 3479 359 0
-3480 -3479 -359 0
3480 -3479 359 0
3480 3479 -359 0
-194 -3480 0
-3481 316 317 0
-3481 -316 -317 0
3481 -316 317 0
3481 316 -317 0
-3482 3481 319 0
-3482 -3481 -319 0
3482 -3481 319 0
3482 3481 -319 0
-3483 3482 320 0
-3483 -3482 -320 0
3483 -3482 320 0
3483 3482 -320 0
-3484 3483 322 0
-3484 -3483 -322 0
3484 -3483 322 0
3484 3483 -322 0
-3485 3484 323 0
-3485 -3484 -323 0
3485 -3484 323 0
3485 3484 -323 0
-3486 3485 324 0
-3486 -3485 -324 0
3486 -3485 324 0
3486 3485 -324 0
-3487 3486 325 0
-3487 -3486 -325 0
3487 -3486 325 0
3487 3486 -325 0
-3488 3487 326 0
-3488 -3487 -326 0
3488 -3487 326 0
3488 3487 -326 0
-3489 3488 327 0
-3489 -3488 -327 0
3489 -3488 327 0
3489 3488 -327 0
-3490 3489 328 0
-3490 -3489 -328 0
3490 -3489 328 0
3490 3489 -328 0
-3491 3490 329 0
-3491 -3490 -329 0
3491 -3490 329 0
3491 3490 -329 0
-195 -3491 0
-3492 331 332 0
-3492 -331 -332 0
3492 -331 332 0
3492 331 -332 0
-3493 3492 334 0
-3493 -3492 -334 0
3493 -3492 334 0
3493 3492 -334 0
-3494 3493 335 0
-3494 -3493 -335 0
3494 -3493 335 0
3494 3493 -335 0
-3495 3494 337 0
-3495 -3494 -337 0
3495 -3494 337 0
3495 3494 -337 0
-3496 3495 338 0
-3496 -3495 -338 0
3496 -3495 338 0
3496 3495 -338 0
-3497 3496 339 0
-3497 -3496 -339 0
3497 -3496 339 0
3497 3496 -339 0
-3498 3497 340 0
-3498 -3497 -340 0
3498 -3497 340 0
3498 3497 -340 0
-3499 3498 341 0
-3499 -3498 -341 0
3499 -3498 341 0
3499 3498 -341 0
-3500 3499 342 0
-3500 -3499 -342 0
3500 -3499 342 0
3500 3499 -342 0
-3501 3500 343 0
-3501 -3500 -343 0
3501 -3500 343 0
3501 3500 -343 0
-3502 3501 344 0
-3502 -3501 -344 0
3502 -3501 344 0
3502 3501 -344 0
-195 -3502 0
-3503 346 347 0
-3503 -346 -347 0
3503 -346 347 0
3503 346 -347 0
-3504 3503 349 0
-3504 -3503 -349 0
3504 -3503 349 0
3504 3503 -349 0
-3505 3504 350 0
-3505 -3504 -350 0
3505 -3504 350 0
3505 3504 -350 0
-3506 3505 352 0
-3506 -3505 -352 0
3506 -3505 352 0
3506 3505 -352 0
-3507 3506 353 0
-3507 -3506 -353 0
3507 -3506 353 0
3507 3506 -353 0
-3508 3507 354 0
-3508 -3507 -354 0
3508 -3507 354 0
3508 3507 -354 0
-3509 3508 355 0
-3509 -3508 -355 0
3509 -3508 355 0
3509 3508 -355 0
-3510 3509 356 0
-3510 -3509 -356 0
3510 -3509 356 0
3510 3509 -356 0
-3511 3510 357 0
-3511 -3510 -357 0
3511 -3510 357 0
3511 3510 -357 0
-3512 3511 358 0
-3512 -3511 -358 0
3512 -3511 358 0
3512 3511 -358 0
-3513 3512 359 0
-3513 -3512 -359 0
3513 -3512 359 0
3513 3512 -359 0
-195 -3513 0
-3514 316 320 0
-3514 -316 -320 0
3514 -316 320 0
3514 316 -320 0
-3515 3514 323 0
-3515 -3514 -323 0
3515 -3514 323 0
3515 3514 -323 0
-3516 3515 330 0
-3516 -3515 -330 0
3516 -3515 330 0
3516 3515 -330 0
-196 -3516 0
-3517 331 335 0
-3517 -331 -335 0
3517 -331 335 0
3517 331 -335 0
-3518 3517 338 0
-3518 -3517 -338 0
3518 -3517 338 0
3518 3517 -338 0
-3519 3518 345 0
-3519 -3518 -345 0
3519 -3518 345 0
3519 3518 -345 0
-196 -3519 0
-3520 346 350 0
-3520 -346 -350 0
3520 -346 350 0
3520 346 -350 0
-3521 3520 353 0
-3521 -3520 -353 0
3521 -3520 353 0
3521 3520 -353 0
-3522 3521 360 0
-3522 -3521 -360 0
3522 -3521 360 0
3522 3521 -360 0
-196 -3522 0
-3523 316 319 0
-3523 -316 -319 0
3523 -316 319 0
3523 316 -319 0
-3524 3523 320 0
-3524 -3523 -320 0
3524 -3523 320 0
3524 3523 -320 0
-3525 3524 323 0
-3525 -3524 -323 0
3525 -3524 323 0
3525 3524 -323 0
-3526 3525 330 0
-3526 -3525 -330 0
3526 -3525 330 0
3526 3525 -330 0
-197 -3526 0
-3527 331 334 0
-3527 -331 -334 0
3527 -331 334 0
3527 331 -334 0
-3528 3527 335 0
-3528 -3527 -335 0
3528 -3527 335 0
3528 3527 -335 0
-3529 3528 338 0
-3529 -3528 -338 0
3529 -3528 338 0
3529 3528 -338 0
-3530 3529 345 0
-3530 -3529 -345 0
3530 -3529 345 0
3530 3529 -345 0
-197 -3530 0
-3531 346 349 0
-3531 -346 -349 0
3531 -346 349 0
3531 346 -349 0
-3532 3531 350 0
-3532 -3531 -350 0
3532 -3531 350 0
3532 3531 -350 0
-3533 3532 353 0
-3533 -3532 -353 0
3533 -3532 353 0
3533 3532 -353 0
-3534 3533 360 0
-3534 -3533 -360 0
3534 -3533 360 0
3534 3533 -360 0
-197 -3534 0
-3535 316 317 0
-3535 -316 -317 0
3535 -316 317 0
3535 316 -317 0
-3536 3535 320 0
-3536 -3535 -320 0
3536 -3535 320 0
3536 3535 -320 0
-3537 3536 323 0
-3537 -3536 -323 0
3537 -3536 323 0
3537 3536 -323 0
-3538 3537 326 0
-3538 -3537 -326 0
3538 -3537 326 0
3538 3537 -326 0
-3539 3538 330 0
-3539 -3538 -330 0
3539 -3538 330 0
3539 3538 -330 0
-198 -3539 0
-3540 331 332 0
-3540 -331 -332 0
3540 -331 332 0
3540 331 -332 0
-3541 3540 335 0
-3541 -3540 -335 0
3541 -3540 335 0
3541 3540 -335 0
-3542 3541 338 0
-3542 -3541 -338 0
3542 -3541 338 0
3542 3541 -338 0
-3543 3542 341 0
-3543 -3542 -341 0
3543 -3542 341 0
3543 3542 -341 0
-3544 3543 345 0
-3544 -3543 -345 0
3544 -3543 345 0
3544 3543 -345 0
-198 -3544 0
-3545 346 347 0
-3545 -346 -347 0
3545 -346 347 0
3545 346 -347 0
-3546 3545 350 0
-3546 -3545 -350 0
3546 -3545 350 0
3546 3545 -350 0
-3547 3546 353 0
-3547 -3546 -353 0
3547 -3546 353 0
3547 3546 -353 0
-3548 3547 356 0
-3548 -3547 -356 0
3548 -3547 356 0
3548 3547 -356 0
-3549 3548 360 0
-3549 -3548 -360 0
3549 -3548 360 0
3549 3548 -360 0
-198 -3549 0
-3550 316 317 0
-3550 -316 -317 0
3550 -316 317 0
3550 316 -317 0
-3551 3550 319 0
-3551 -3550 -319 0
3551 -3550 319 0
3551 3550 -319 0
-3552 3551 320 0
-3552 -3551 -320 0
3552 -3551 320 0
3552 3551 -320 0
-3553 3552 323 0
-3553 -3552 -323 0
3553 -3552 323 0
3553 3552 -323 0
-3554 3553 326 0
-3554 -3553 -326 0
3554 -3553 326 0
3554 3553 -326 0
-3555 3554 330 0
-3555 -3554 -330 0
3555 -3554 330 0
3555 3554 -330 0
-199 -3555 0
-3556 331 332 0
-3556 -331 -332 0
3556 -331 332 0
3556 331 -332 0
-3557 3556 334 0
-3557 -3556 -334 0
3557 -3556 334 0
3557 3556 -334 0
-3558 3557 335 0
-3558 -3557 -335 0
3558 -3557 335 0
3558 3557 -335 0
-3559 3558 338 0
-3559 -3558 -338 0
3559 -3558 338 0
3559 3558 -338 0
-3560 3559 341 0
-3560 -3559 -341 0
3560 -3559 341 0
3560 3559 -341 0
-3561 3560 345 0
-3561 -3560 -345 0
3561 -3560 345 0
3561 3560 -345 0
-199 -3561 0
-3562 346 347 0
-3562 -346 -347 0
3562 -346 347 0
3562 346 -347 0
-3563 3562 349 0
-3563 -3562 -349 0
3563 -3562 349 0
3563 3562 -349 0
-3564 3563 350 0
-3564 -3563 -350 0
3564 -3563 350 0
3564 3563 -350 0
-3565 3564 353 0
-3565 -3564 -353 0
3565 -3564 353 0
3565 3564 -353 0
-3566 3565 356 0
-3566 -3565 -356 0
3566 -3565 356 0
3566 3565 -356 0
-3567 3566 360 0
-3567 -3566 -360 0
3567 -3566 360 0
3567 3566 -360 0
-199 -3567 0
-3568 316 318 0
-3568 -316 -318 0
3568 -316 318 0
3568 316 -318 0
-3569 3568 320 0
-3569 -3568 -320 0
3569 -3568 320 0
3569 3568 -320 0
-3570 3569 323 0
-3570 -3569 -323 0
3570 -3569 323 0
3570 3569 -323 0
-3571 3570 328 0
-3571 -3570 -328 0
3571 -3570 328 0
3571 3570 -328 0
-3572 3571 330 0
-3572 -3571 -330 0
3572 -3571 330 0
3572 3571 -330 0
-200 -3572 0
-3573 331 333 0
-3573 -331 -333 0
3573 -331 333 0
3573 331 -333 0
-3574 3573 335 0
-3574 -3573 -335 0
3574 -3573 335 0
3574 3573 -335 0
-3575 3574 338 0
-3575 -3574 -338 0
3575 -3574 338 0
3575 3574 -338 0
-3576 3575 343 0
-3576 -3575 -343 0
3576 -3575 343 0
3576 3575 -343 0
-3577 3576 345 0
-3577 -3576 -345 0
3577 -3576 345 0
3577 3576 -345 0
-200 -3577 0
-3578 346 348 0
-3578 -346 -348 0
3578 -346 348 0
3578 346 -348 0
-3579 3578 350 0
-3579 -3578 -350 0
3579 -3578 350 0
3579 3578 -350 0
-3580 3579 353 0
-3580 -3579 -353 0
3580 -3579 353 0
3580 3579 -353 0
-3581 3580 358 0
-3581 -3580 -358 0
3581 -3580 358 0
3581 3580 -358 0
-3582 3581 360 0
-3582 -3581 -360 0
3582 -3581 360 0
3582 3581 -360 0
-200 -3582 0
-3583 316 318 0
-3583 -316 -318 0
3583 -316 318 0
3583 316 -318 0
-3584 3583 319 0
-3584 -3583 -319 0
3584 -3583 319 0
3584 3583 -319 0
-3585 3584 320 0
-3585 -3584 -320 0
3585 -3584 320 0
3585 3584 -320 0
-3586 3585 323 0
-3586 -3585 -323 0
3586 -3585 323 0
3586 3585 -323 0
-3587 3586 328 0
-3587 -3586 -328 0
3587 -3586 328 0
3587 3586 -328 0
-3588 3587 330 0
-3588 -3587 -330 0
3588 -3587 330 0
3588 3587 -330 0
-201 -3588 0
-3589 331 333 0
-3589 -331 -333 0
3589 -331 333 0
3589 331 -333 0
-3590 3589 334 0
-3590 -3589 -334 0
3590 -3589 334 0
3590 3589 -334 0
-3591 3590 335 0
-3591 -3590 -335 0
3591 -3590 335 0
3591 3590 -335 0
-3592 3591 338 0
-3592 -3591 -338 0
3592 -3591 338 0
3592 3591 -338 0
-3593 3592 343 0
-3593 -3592 -343 0
3593 -3592 343 0
3593 3592 -343 0
-3594 3593 345 0
-3594 -3593 -345 0
3594 -3593 345 0
3594 3593 -345 0
-201 -3594 0
-3595 346 348 0
-3595 -346 -348 0
3595 -346 348 0
3595 346 -348 0
-3596 3595 349 0
-3596 -3595 -349 0
3596 -3595 349 0
3596 3595 -349 0
-3597 3596 350 0
-3597 -3596 -350 0
3597 -3596 350 0
3597 3596 -350 0
-3598 3597 353 0
-3598 -3597 -353 0
3598 -3597 353 0
3598 3597 -353 0
-3599 3598 358 0
-3599 -3598 -358 0
3599 -3598 358 0
3599 3598 -358 0
-3600 3599 360 0
-3600 -3599 -360 0
3600 -3599 360 0
3600 3599 -360 0
-201 -3600 0
-3601 316 317 0
-3601 -316 -317 0
3601 -316 317 0
3601 316 -317 0
-3602 3601 318 0
-3602 -3601 -318 0
3602 -3601 318 0
3602 3601 -318 0
-3603 3602 320 0
-3603 -3602 -320 0
3603 -3602 320 0
3603 3602 -320 0
-3604 3603 323 0
-3604 -3603 -323 0
3604 -3603 323 0
3604 3603 -323 0
-3605 3604 326 0
-3605 -3604 -326 0
3605 -3604 326 0
3605 3604 -326 0
-3606 3605 328 0
-3606 -3605 -328 0
3606 -3605 328 0
3606 3605 -328 0
-3607 3606 330 0
-3607 -3606 -330 0
3607 -3606 330 0
3607 3606 -330 0
-202 -3607 0
-3608 331 332 0
-3608 -331 -332 0
3608 -331 332 0
3608 331 -332 0
-3609 3608 333 0
-3609 -3608 -333 0
3609 -3608 333 0
3609 3608 -333 0
-3610 3609 335 0
-3610 -3609 -335 0
3610 -3609 335 0
3610 3609 -335 0
-3611 3610 338 0
-3611 -3610 -338 0
3611 -3610 338 0
3611 3610 -338 0
-3612 3611 341 0
-3612 -3611 -341 0
3612 -3611 341 0
3612 3611 -341 0
-3613 3612 343 0
-3613 -3612 -343 0
3613 -3612 343 0
3613 3612 -343 0
-3614 3613 345 0
-3614 -3613 -345 0
3614 -3613 345 0
3614 3613 -345 0
-202 -3614 0
-3615 346 347 0
-3615 -346 -347 0
3615 -346 347 0
3615 346 -347 0
-3616 3615 348 0
-3616 -3615 -348 0
3616 -3615 348 0
3616 3615 -348 0
-3617 3616 350 0
-3617 -3616 -350 0
3617 -3616 350 0
3617 3616 -350 0
-3618 3617 353 0
-3618 -3617 -353 0
3618 -3617 353 0
3618 3617 -353 0
-3619 3618 356 0
-3619 -3618 -356 0
3619 -3618 356 0
3619 3618 -356 0
-3620 3619 358 0
-3620 -3619 -358 0
3620 -3619 358 0
3620 3619 -358 0
-3621 3620 360 0
-3621 -3620 -360 0
3621 -3620 360 0
3621 3620 -360 0
-202 -3621 0
-3622 316 317 0
-3622 -316 -317 0
3622 -316 317 0
3622 316 -317 0
-3623 3622 318 0
-3623 -3622 -318 0
3623 -3622 318 0
3623 3622 -318 0
-3624 3623 319 0
-3624 -3623 -319 0
3624 -3623 319 0
3624 3623 -319 0
-3625 3624 320 0
-3625 -3624 -320 0
3625 -3624 320 0
3625 3624 -320 0
-3626 3625 323 0
-3626 -3625 -323 0
3626 -3625 323 0
3626 3625 -323 0
-3627 3626 326 0
-3627 -3626 -326 0
3627 -3626 326 0
3627 3626 -326 0
-3628 3627 328 0
-3628 -3627 -328 0
3628 -3627 328 0
3628 3627 -328 0
-3629 3628 330 0
-3629 -3628 -330 0
3629 -3628 330 0
3629 3628 -330 0
-203 -3629 0
-3630 331 332 0
-3630 -331 -332 0
3630 -331 332 0
3630 331 -332 0
-3631 3630 333 0
-3631 -3630 -333 0
3631 -3630 333 0
3631 3630 -333 0
-3632 3631 334 0
-3632 -3631 -334 0
3632 -3631 334 0
3632 3631 -334 0
-3633 3632 335 0
-3633 -3632 -335 0
3633 -3632 335 0
3633 3632 -335 0
-3634 3633 338 0
-3634 -3633 -338 0
3634 -3633 338 0
3634 3633 -338 0
-3635 3634 341 0
-3635 -3634 -341 0
3635 -3634 341 0
3635 3634 -341 0
-3636 3635 343 0
-3636 -3635 -343 0
3636 -3635 343 0
3636 3635 -343 0
-3637 3636 345 0
-3637 -3636 -345 0
3637 -3636 345 0
3637 3636 -345 0
-203 -3637 0
-3638 346 347 0
-3638 -346 -347 0
3638 -346 347 0
3638 346 -347 0
-3639 3638 348 0
-3639 -3638 -348 0
3639 -3638 348 0
3639 3638 -348 0
-3640 3639 349 0
-3640 -3639 -349 0
3640 -3639 349 0
3640 3639 -349 0
-3641 3640 350 0
-3641 -3640 -350 0
3641 -3640 350 0
3641 3640 -350 0
-3642 3641 353 0
-3642 -3641 -353 0
3642 -3641 353 0
3642 3641 -353 0
-3643 3642 356 0
-3643 -3642 -356 0
3643 -3642 356 0
3643 3642 -356 0
-3644 3643 358 0
-3644 -3643 -358 0
3644 -3643 358 0
3644 3643 -358 0
-3645 3644 360 0
-3645 -3644 -360 0
3645 -3644 360 0
3645 3644 -360 0
-203 -3645 0
-3646 316 319 0
-3646 -316 -319 0
3646 -316 319 0
3646 316 -319 0
-3647 3646 324 0
-3647 -3646 -324 0
3647 -3646 324 0
3647 3646 -324 0
-3648 3647 330 0
-3648 -3647 -330 0
3648 -3647 330 0
3648 3647 -330 0
-204 -3648 0
-3649 331 334 0
-3649 -331 -334 0
3649 -331 334 0
3649 331 -334 0
-3650 3649 339 0
-3650 -3649 -339 0
3650 -3649 339 0
3650 3649 -339 0
-3651 3650 345 0
-3651 -3650 -345 0
3651 -3650 345 0
3651 3650 -345 0
-204 -3651 0
-3652 346 349 0
-3652 -346 -349 0
3652 -346 349 0
3652 346 -349 0
-3653 3652 354 0
-3653 -3652 -354 0
3653 -3652 354 0
3653 3652 -354 0
-3654 3653 360 0
-3654 -3653 -360 0
3654 -3653 360 0
3654 3653 -360 0
-204 -3654 0
-3655 316 319 0
-3655 -316 -319 0
3655 -316 319 0
3655 316 -319 0
-3656 3655 323 0
-3656 -3655 -323 0
3656 -3655 323 0
3656 3655 -323 0
-3657 3656 324 0
-3657 -3656 -324 0
3657 -3656 324 0
3657 3656 -324 0
-3658 3657 330 0
-3658 -3657 -330 0
3658 -3657 330 0
3658 3657 -330 0
-205 -3658 0
-3659 331 334 0
-3659 -331 -334 0
3659 -331 334 0
3659 331 -334 0
-3660 3659 338 0
-3660 -3659 -338 0
3660 -3659 338 0
3660 3659 -338 0
-3661 3660 339 0
-3661 -3660 -339 0
3661 -3660 339 0
3661 3660 -339 0
-3662 3661 345 0
-3662 -3661 -345 0
3662 -3661 345 0
3662 3661 -345 0
-205 -3662 0
-3663 346 349 0
-3663 -346 -349 0
3663 -346 349 0
3663 346 -349 0
-3664 3663 353 0
-3664 -3663 -353 0
3664 -3663 353 0
3664 3663 -353 0
-3665 3664 354 0
-3665 -3664 -354 0
3665 -3664 354 0
3665 3664 -354 0
-3666 3665 360 0
-3666 -3665 -360 0
3666 -3665 360 0
3666 3665 -360 0
-205 -3666 0
-3667 316 319 0
-3667 -316 -319 0
3667 -316 319 0
3667 316 -319 0
-3668 3667 321 0
-3668 -3667 -321 0
3668 -3667 321 0
3668 3667 -321 0
-3669 3668 324 0
-3669 -3668 -324 0
3669 -3668 324 0
3669 3668 -324 0
-3670 3669 326 0
-3670 -3669 -326 0
3670 -3669 326 0
3670 3669 -326 0
-3671 3670 330 0
-3671 -3670 -330 0
3671 -3670 330 0
3671 3670 -330 0
-206 -3671 0
-3672 331 334 0
-3672 -331 -334 0
3672 -331 334 0
3672 331 -334 0
-3673 3672 336 0
-3673 -3672 -336 0
3673 -3672 336 0
3673 3672 -336 0
-3674 3673 339 0
-3674 -3673 -339 0
3674 -3673 339 0
3674 3673 -339 0
-3675 3674 341 0
-3675 -3674 -341 0
3675 -3674 341 0
3675 3674 -341 0
-3676 3675 345 0
-3676 -3675 -345 0
3676 -3675 345 0
3676 3675 -345 0
-206 -3676 0
-3677 346 349 0
-3677 -346 -349 0
3677 -346 349 0
3677 346 -349 0
-3678 3677 351 0
-3678 -3677 -351 0
3678 -3677 351 0
3678 3677 -351 0
-3679 3678 354 0
-3679 -3678 -354 0
3679 -3678 354 0
3679 3678 -354 0
-3680 3679 356 0
-3680 -3679 -356 0
3680 -3679 356 0
3680 3679 -356 0
-3681 3680 360 0
-3681 -3680 -360 0
3681 -3680 360 0
3681 3680 -360 0
-206 -3681 0
-3682 316 319 0
-3682 -316 -319 0
3682 -316 319 0
3682 316 -319 0
-3683 3682 321 0
-3683 -3682 -321 0
3683 -3682 321 0
3683 3682 -321 0
-3684 3683 323 0
-3684 -3683 -323 0
3684 -3683 323 0
3684 3683 -323 0
-3685 3684 324 0
-3685 -3684 -324 0
3685 -3684 324 0
3685 3684 -324 0
-3686 3685 326 0
-3686 -3685 -326 0
3686 -3685 326 0
3686 3685 -326 0
-3687 3686 330 0
-3687 -3686 -330 0
3687 -3686 330 0
3687 3686 -330 0
-207 -3687 0
-3688 331 334 0
-3688 -331 -334 0
3688 -331 334 0
3688 331 -334 0
-3689 3688 336 0
-3689 -3688 -336 0
3689 -3688 336 0
3689 3688 -336 0
-3690 3689 338 0
-3690 -3689 -338 0
3690 -3689 338 0
3690 3689 -338 0
-3691 3690 339 0
-3691 -3690 -339 0
3691 -3690 339 0
3691 3690 -339 0
-3692 3691 341 0
-3692 -3691 -341 0
3692 -3691 341 0
3692 3691 -341 0
-3693 3692 345 0
-3693 -3692 -345 0
3693 -3692 345 0
3693 3692 -345 0
-207 -3693 0
-3694 346 349 0
-3694 -346 -349 0
3694 -346 349 0
3694 346 -349 0
-3695 3694 351 0
-3695 -3694 -351 0
3695 -3694 351 0
3695 3694 -351 0
-3696 3695 353 0
-3696 -3695 -353 0
3696 -3695 353 0
3696 3695 -353 0
-3697 3696 354 0
-3697 -3696 -354 0
3697 -3696 354 0
3697 3696 -354 0
-3698 3697 356 0
-3698 -3697 -356 0
3698 -3697 356 0
3698 3697 -356 0
-3699 3698 360 0
-3699 -3698 -360 0
3699 -3698 360 0
3699 3698 -360 0
-207 -3699 0
-3700 316 319 0
-3700 -316 -319 0
3700 -316 319 0
3700 316 -319 0
-3701 3700 322 0
-3701 -3700 -322 0
3701 -3700 322 0
3701 3700 -322 0
-3702 3701 324 0
-3702 -3701 -324 0
3702 -3701 324 0
3702 3701 -324 0
-3703 3702 328 0
-3703 -3702 -328 0
3703 -3702 328 0
3703 3702 -328 0
-3704 3703 330 0
-3704 -3703 -330 0
3704 -3703 330 0
3704 3703 -330 0
-208 -3704 0
-3705 331 334 0
-3705 -331 -334 0
3705 -331 334 0
3705 331 -334 0
-3706 3705 337 0
-3706 -3705 -337 0
3706 -3705 337 0
3706 3705 -337 0
-3707 3706 339 0
-3707 -3706 -339 0
3707 -3706 339 0
3707 3706 -339 0
-3708 3707 343 0
-3708 -3707 -343 0
3708 -3707 343 0
3708 3707 -343 0
-3709 3708 345 0
-3709 -3708 -345 0
3709 -3708 345 0
3709 3708 -345 0
-208 -3709 0
-3710 346 349 0
-3710 -346 -349 0
3710 -346 349 0
3710 346 -349 0
-3711 3710 352 0
-3711 -3710 -352 0
3711 -3710 352 0
3711 3710 -352 0
-3712 3711 354 0
-3712 -3711 -354 0
3712 -3711 354 0
3712 3711 -354 0
-3713 3712 358 0
-3713 -3712 -358 0
3713 -3712 358 0
3713 3712 -358 0
-3714 3713 360 0
-3714 -3713 -360 0
3714 -3713 360 0
3714 3713 -360 0
-208 -3714 0
-3715 316 319 0
-3715 -316 -319 0
3715 -316 319 0
3715 316 -319 0
-3716 3715 322 0
-3716 -3715 -322 0
3716 -3715 322 0
3716 3715 -322 0
-3717 3716 323 0
-3717 -3716 -323 0
3717 -3716 323 0
3717 3716 -323 0
-3718 3717 324 0
-3718 -3717 -324 0
3718 -3717 324 0
3718 3717 -324 0
-3719 3718 328 0
-3719 -3718 -328 0
3719 -3718 328 0
3719 3718 -328 0
-3720 3719 330 0
-3720 -3719 -330 0
3720 -3719 330 0
3720 3719 -330 0
-209 -3720 0
-3721 331 334 0
-3721 -331 -334 0
3721 -331 334 0
3721 331 -334 0
-3722 3721 337 0
-3722 -3721 -337 0
3722 -3721 337 0
3722 3721 -337 0
-3723 3722 338 0
-3723 -3722 -338 0
3723 -3722 338 0
3723 3722 -338 0
-3724 3723 339 0
-3724 -3723 -339 0
3724 -3723 339 0
3724 3723 -339 0
-3725 3724 343 0
-3725 -3724 -343 0
3725 -3724 343 0
3725 3724 -343 0
-3726 3725 345 0
-3726 -3725 -345 0
3726 -3725 345 0
3726 3725 -345 0
-209 -3726 0
-3727 346 349 0
-3727 -346 -349 0
3727 -346 349 0
3727 346 -349 0
-3728 3727 352 0
-3728 -3727 -352 0
3728 -3727 352 0
3728 3727 -352 0
-3729 3728 353 0
-3729 -3728 -353 0
3729 -3728 353 0
3729 3728 -353 0
-3730 3729 354 0
-3730 -3729 -354 0
3730 -3729 354 0
3730 3729 -354 0
-3731 3730 358 0
-3731 -3730 -358 0
3731 -3730 358 0
3731 3730 -358 0
-3732 3731 360 0
-3732 -3731 -360 0
3732 -3731 360 0
3732 3731 -360 0
-209 -3732 0
-3733 316 319 0
-3733 -316 -319 0
3733 -316 319 0
3733 316 -319 0
-3734 3733 321 0
-3734 -3733 -321 0
3734 -3733 321 0
3734 3733 -321 0
-3735 3734 322 0
-3735 -3734 -322 0
3735 -3734 322 0
3735 3734 -322 0
-3736 3735 324 0
-3736 -3735 -324 0
3736 -3735 324 0
3736 3735 -324 0
-3737 3736 326 0
-3737 -3736 -326 0
3737 -3736 326 0
3737 3736 -326 0
-3738 3737 328 0
-3738 -3737 -328 0
3738 -3737 328 0
3738 3737 -328 0
-3739 3738 330 0
-3739 -3738 -330 0
3739 -3738 330 0
3739 3738 -330 0
-210 -3739 0
-3740 331 334 0
-3740 -331 -334 0
3740 -331 334 0
3740 331 -334 0
-3741 3740 336 0
-3741 -3740 -336 0
3741 -3740 336 0
3741 3740 -336 0
-3742 3741 337 0
-3742 -3741 -337 0
3742 -3741 337 0
3742 3741 -337 0
-3743 3742 339 0
-3743 -3742 -339 0
3743 -3742 339 0
3743 3742 -339 0
-3744 3743 341 0
-3744 -3743 -341 0
3744 -3743 341 0
3744 3743 -341 0
-3745 3744 343 0
-3745 -3744 -343 0
3745 -3744 343 0
3745 3744 -343 0
-3746 3745 345 0
-3746 -3745 -345 0
3746 -3745 345 0
3746 3745 -345 0
-210 -3746 0
-3747 346 349 0
-3747 -346 -349 0
3747 -346 349 0
3747 346 -349 0
-3748 3747 351 0
-3748 -3747 -351 0
3748 -3747 351 0
3748 3747 -351 0
-3749 3748 352 0
-3749 -3748 -352 0
3749 -3748 352 0
3749 3748 -352 0
-3750 3749 354 0
-3750 -3749 -354 0
3750 -3749 354 0
3750 3749 -354 0
-3751 3750 356 0
-3751 -3750 -356 0
3751 -3750 356 0
3751 3750 -356 0
-3752 3751 358 0
-3752 -3751 -358 0
3752 -3751 358 0
3752 3751 -358 0
-3753 3752 360 0
-3753 -3752 -360 0
3753 -3752 360 0
3753 3752 -360 0
-210 -3753 0
-3754 316 319 0
-3754 -316 -319 0
3754 -316 319 0
3754 316 -319 0
-3755 3754 321 0
-3755 -3754 -321 0
3755 -3754 321 0
3755 3754 -321 0
-3756 3755 322 0
-3756 -3755 -322 0
3756 -3755 322 0
3756 3755 -322 0
-3757 3756 323 0
-3757 -3756 -323 0
3757 -3756 323 0
3757 3756 -323 0
-3758 3757 324 0
-3758 -3757 -324 0
3758 -3757 324 0
3758 3757 -324 0
-3759 3758 326 0
-3759 -3758 -326 0
3759 -3758 326 0
3759 3758 -326 0
-3760 3759 328 0
-3760 -3759 -328 0
3760 -3759 328 0
3760 3759 -328 0
-3761 3760 330 0
-3761 -3760 -330 0
3761 -3760 330 0
3761 3760 -330 0
-211 -3761 0
-3762 331 334 0
-3762 -331 -334 0
3762 -331 334 0
3762 331 -334 0
-3763 3762 336 0
-3763 -3762 -336 0
3763 -3762 336 0
3763 3762 -336 0
-3764 3763 337 0
-3764 -3763 -337 0
3764 -3763 337 0
3764 3763 -337 0
-3765 3764 338 0
-3765 -3764 -338 0
3765 -3764 338 0
3765 3764 -338 0
-3766 3765 339 0
-3766 -3765 -339 0
3766 -3765 339 0
3766 3765 -339 0
-3767 3766 341 0
-3767 -3766 -341 0
3767 -3766 341 0
3767 3766 -341 0
-3768 3767 343 0
-3768 -3767 -343 0
3768 -3767 343 0
3768 3767 -343 0
-3769 3768 345 0
-3769 -3768 -345 0
3769 -3768 345 0
3769 3768 -345 0
-211 -3769 0
-3770 346 349 0
-3770 -346 -349 0
3770 -346 349 0
3770 346 -349 0
-3771 3770 351 0
-3771 -3770 -351 0
3771 -3770 351 0
3771 3770 -351 0
-3772 3771 352 0
-3772 -3771 -352 0
3772 -3771 352 0
3772 3771 -352 0
-3773 3772 353 0
-3773 -3772 -353 0
3773 -3772 353 0
3773 3772 -353 0
-3774 3773 354 0
-3774 -3773 -354 0
3774 -3773 354 0
3774 3773 -354 0
-3775 3774 356 0
-3775 -3774 -356 0
3775 -3774 356 0
3775 3774 -356 0
-3776 3775 358 0
-3776 -3775 -358 0
3776 -3775 358 0
3776 3775 -358 0
-3777 3776 360 0
-3777 -3776 -360 0
3777 -3776 360 0
3777 3776 -360 0
-211 -3777 0
-3778 316 319 0
-3778 -316 -319 0
3778 -316 319 0
3778 316 -319 0
-3779 3778 320 0
-3779 -3778 -320 0
3779 -3778 320 0
3779 3778 -320 0
-3780 3779 324 0
-3780 -3779 -324 0
3780 -3779 324 0
3780 3779 -324 0
-3781 3780 330 0
-3781 -3780 -330 0
3781 -3780 330 0
3781 3780 -330 0
-212 -3781 0
-3782 331 334 0
-3782 -331 -334 0
3782 -331 334 0
3782 331 -334 0
-3783 3782 335 0
-3783 -3782 -335 0
3783 -3782 335 0
3783 3782 -335 0
-3784 3783 339 0
-3784 -3783 -339 0
3784 -3783 339 0
3784 3783 -339 0
-3785 3784 345 0
-3785 -3784 -345 0
3785 -3784 345 0
3785 3784 -345 0
-212 -3785 0
-3786 346 349 0
-3786 -346 -349 0
3786 -346 349 0
3786 346 -349 0
-3787 3786 350 0
-3787 -3786 -350 0
3787 -3786 350 0
3787 3786 -350 0
-3788 3787 354 0
-3788 -3787 -354 0
3788 -3787 354 0
3788 3787 -354 0
-3789 3788 360 0
-3789 -3788 -360 0
3789 -3788 360 0
3789 3788 -360 0
-212 -3789 0
-3790 316 320 0
-3790 -316 -320 0
3790 -316 320 0
3790 316 -320 0
-3791 3790 323 0
-3791 -3790 -323 0
3791 -3790 323 0
3791 3790 -323 0
-3792 3791 324 0
-3792 -3791 -324 0
3792 -3791 324 0
3792 3791 -324 0
-3793 3792 330 0
-3793 -3792 -330 0
3793 -3792 330 0
3793 3792 -330 0
-213 -3793 0
-3794 331 335 0
-3794 -331 -335 0
3794 -331 335 0
3794 331 -335 0
-3795 3794 338 0
-3795 -3794 -338 0
3795 -3794 338 0
3795 3794 -338 0
-3796 3795 339 0
-3796 -3795 -339 0
3796 -3795 339 0
3796 3795 -339 0
-3797 3796 345 0
-3797 -3796 -345 0
3797 -3796 345 0
3797 3796 -345 0
-213 -3797 0
-3798 346 350 0
-3798 -346 -350 0
3798 -346 350 0
3798 346 -350 0
-3799 3798 353 0
-3799 -3798 -353 0
3799 -3798 353 0
3799 3798 -353 0
-3800 3799 354 0
-3800 -3799 -354 0
3800 -3799 354 0
3800 3799 -354 0
-3801 3800 360 0
-3801 -3800 -360 0
3801 -3800 360 0
3801 3800 -360 0
-213 -3801 0
-3802 316 317 0
-3802 -316 -317 0
3802 -316 317 0
3802 316 -317 0
-3803 3802 319 0
-3803 -3802 -319 0
3803 -3802 319 0
3803 3802 -319 0
-3804 3803 320 0
-3804 -3803 -320 0
3804 -3803 320 0
3804 3803 -320 0
-3805 3804 321 0
-3805 -3804 -321 0
3805 -3804 321 0
3805 3804 -321 0
-3806 3805 324 0
-3806 -3805 -324 0
3806 -3805 324 0
3806 3805 -324 0
-3807 3806 326 0
-3807 -3806 -326 0
3807 -3806 326 0
3807 3806 -326 0
-3808 3807 330 0
-3808 -3807 -330 0
3808 -3807 330 0
3808 3807 -330 0
-214 -3808 0
-3809 331 332 0
-3809 -331 -332 0
3809 -331 332 0
3809 331 -332 0
-3810 3809 334 0
-3810 -3809 -334 0
3810 -3809 334 0
3810 3809 -334 0
-3811 3810 335 0
-3811 -3810 -335 0
3811 -3810 335 0
3811 3810 -335 0
-3812 3811 336 0
-3812 -3811 -336 0
3812 -3811 336 0
3812 3811 -336 0
-3813 3812 339 0
-3813 -3812 -339 0
3813 -3812 339 0
3813 3812 -339 0
-3814 3813 341 0
-3814 -3813 -341 0
3814 -3813 341 0
3814 3813 -341 0
-3815 3814 345 0
-3815 -3814 -345 0
3815 -3814 345 0
3815 3814 -345 0
-214 -3815 0
-3816 346 347 0
-3816 -346 -347 0
3816 -346 347 0
3816 346 -347 0
-3817 3816 349 0
-3817 -3816 -349 0
3817 -3816 349 0
3817 3816 -349 0
-3818 3817 350 0
-3818 -3817 -350 0
3818 -3817 350 0
3818 3817 -350 0
-3819 3818 351 0
-3819 -3818 -351 0
3819 -3818 351 0
3819 3818 -351 0
-3820 3819 354 0
-3820 -3819 -354 0
3820 -3819 354 0
3820 3819 -354 0
-3821 3820 356 0
-3821 -3820 -356 0
3821 -3820 356 0
3821 3820 -356 0
-3822 3821 360 0
-3822 -3821 -360 0
3822 -3821 360 0
3822 3821 -360 0
-214 -3822 0
-3823 316 317 0
-3823 -316 -317 0
3823 -316 317 0
3823 316 -317 0
-3824 3823 320 0
-3824 -3823 -320 0
3824 -3823 320 0
3824 3823 -320 0
-3825 3824 321 0
-3825 -3824 -321 0
3825 -3824 321 0
3825 3824 -321 0
-3826 3825 323 0
-3826 -3825 -323 0
3826 -3825 323 0
3826 3825 -323 0
-3827 3826 324 0
-3827 -3826 -324 0
3827 -3826 324 0
3827 3826 -324 0
-3828 3827 326 0
-3828 -3827 -326 0
3828 -3827 326 0
3828 3827 -326 0
-3829 3828 330 0
-3829 -3828 -330 0
3829 -3828 330 0
3829 3828 -330 0
-215 -3829 0
-3830 331 332 0
-3830 -331 -332 0
3830 -331 332 0
3830 331 -332 0
-3831 3830 335 0
-3831 -3830 -335 0
3831 -3830 335 0
3831 3830 -335 0
-3832 3831 336 0
-3832 -3831 -336 0
3832 -3831 336 0
3832 3831 -336 0
-3833 3832 338 0
-3833 -3832 -338 0
3833 -3832 338 0
3833 3832 -338 0
-3834 3833 339 0
-3834 -3833 -339 0
3834 -3833 339 0
3834 3833 -339 0
-3835 3834 341 0
-3835 -3834 -341 0
3835 -3834 341 0
3835 3834 -341 0
-3836 3835 345 0
-3836 -3835 -345 0
3836 -3835 345 0
3836 3835 -345 0
-215 -3836 0
-3837 346 347 0
-3837 -346 -347 0
3837 -346 347 0
3837 346 -347 0
-3838 3837 350 0
-3838 -3837 -350 0
3838 -3837 350 0
3838 3837 -350 0
-3839 3838 351 0
-3839 -3838 -351 0
3839 -3838 351 0
3839 3838 -351 0
-3840 3839 353 0
-3840 -3839 -353 0
3840 -3839 353 0
3840 3839 -353 0
-3841 3840 354 0
-3841 -3840 -354 0
3841 -3840 354 0
3841 3840 -354 0
-3842 3841 356 0
-3842 -3841 -356 0
3842 -3841 356 0
3842 3841 -356 0
-3843 3842 360 0
-3843 -3842 -360 0
3843 -3842 360 0
3843 3842 -360 0
-215 -3843 0
-3844 316 318 0
-3844 -316 -318 0
3844 -316 318 0
3844 316 -318 0
-3845 3844 319 0
-3845 -3844 -319 0
3845 -3844 319 0
3845 3844 -319 0
-3846 3845 320 0
-3846 -3845 -320 0
3846 -3845 320 0
3846 3845 -320 0
-3847 3846 322 0
-3847 -3846 -322 0
3847 -3846 322 0
3847 3846 -322 0
-3848 3847 324 0
-3848 -3847 -324 0
3848 -3847 324 0
3848 3847 -324 0
-3849 3848 328 0
-3849 -3848 -328 0
3849 -3848 328 0
3849 3848 -328 0
-3850 3849 330 0
-3850 -3849 -330 0
3850 -3849 330 0
3850 3849 -330 0
-216 -3850 0
-3851 331 333 0
-3851 -331 -333 0
3851 -331 333 0
3851 331 -333 0
-3852 3851 334 0
-3852 -3851 -334 0
3852 -3851 334 0
3852 3851 -334 0
-3853 3852 335 0
-3853 -3852 -335 0
3853 -3852 335 0
3853 3852 -335 0
-3854 3853 337 0
-3854 -3853 -337 0
3854 -3853 337 0
3854 3853 -337 0
-3855 3854 339 0
-3855 -3854 -339 0
3855 -3854 339 0
3855 3854 -339 0
-3856 3855 343 0
-3856 -3855 -343 0
3856 -3855 343 0
3856 3855 -343 0
-3857 3856 345 0
-3857 -3856 -345 0
3857 -3856 345 0
3857 3856 -345 0
-216 -3857 0
-3858 346 348 0
-3858 -346 -348 0
3858 -346 348 0
3858 346 -348 0
-3859 3858 349 0
-3859 -3858 -349 0
3859 -3858 349 0
3859 3858 -349 0
-3860 3859 350 0
-3860 -3859 -350 0
3860 -3859 350 0
3860 3859 -350 0
-3861 3860 352 0
-3861 -3860 -352 0
3861 -3860 352 0
3861 3860 -352 0
-3862 3861 354 0
-3862 -3861 -354 0
3862 -3861 354 0
3862 3861 -354 0
-3863 3862 358 0
-3863 -3862 -358 0
3863 -3862 358 0
3863 3862 -358 0
-3864 3863 360 0
-3864 -3863 -360 0
3864 -3863 360 0
3864 3863 -360 0
-216 -3864 0
-3865 316 318 0
-3865 -316 -318 0
3865 -316 318 0
3865 316 -318 0
-3866 3865 320 0
-3866 -3865 -320 0
3866 -3865 320 0
3866 3865 -320 0
-3867 3866 322 0
-3867 -3866 -322 0
3867 -3866 322 0
3867 3866 -322 0
-3868 3867 323 0
-3868 -3867 -323 0
3868 -3867 323 0
3868 3867 -323 0
-3869 3868 324 0
-3869 -3868 -324 0
3869 -3868 324 0
3869 3868 -324 0
-3870 3869 328 0
-3870 -3869 -328 0
3870 -3869 328 0
3870 3869 -328 0
-3871 3870 330 0
-3871 -3870 -330 0
3871 -3870 330 0
3871 3870 -330 0
-217 -3871 0
-3872 331 333 0
-3872 -331 -333 0
3872 -331 333 0
3872 331 -333 0
-3873 3872 335 0
-3873 -3872 -335 0
3873 -3872 335 0
3873 3872 -335 0
-3874 3873 337 0
-3874 -3873 -337 0
3874 -3873 337 0
3874 3873 -337 0
-3875 3874 338 0
-3875 -3874 -338 0
3875 -3874 338 0
3875 3874 -338 0
-3876 3875 339 0
-3876 -3875 -339 0
3876 -3875 339 0
3876 3875 -339 0
-3877 3876 343 0
-3877 -3876 -343 0
3877 -3876 343 0
3877 3876 -343 0
-3878 3877 345 0
-3878 -3877 -345 0
3878 -3877 345 0
3878 3877 -345 0
-217 -3878 0
-3879 346 348 0
-3879 -346 -348 0
3879 -346 348 0
3879 346 -348 0
-3880 3879 350 0
-3880 -3879 -350 0
3880 -3879 350 0
3880 3879 -350 0
-3881 3880 352 0
-3881 -3880 -352 0
3881 -3880 352 0
3881 3880 -352 0
-3882 3881 353 0
-3882 -3881 -353 0
3882 -3881 353 0
3882 3881 -353 0
-3883 3882 354 0
-3883 -3882 -354 0
3883 -3882 354 0
3883 3882 -354 0
-3884 3883 358 0
-3884 -3883 -358 0
3884 -3883 358 0
3884 3883 -358 0
-3885 3884 360 0
-3885 -3884 -360 0
3885 -3884 360 0
3885 3884 -360 0
-217 -3885 0
-3886 316 317 0
-3886 -316 -317 0
3886 -316 317 0
3886 316 -317 0
-3887 3886 318 0
-3887 -3886 -318 0
3887 -3886 318 0
3887 3886 -318 0
-3888 3887 319 0
-3888 -3887 -319 0
3888 -3887 319 0
3888 3887 -319 0
-3889 3888 320 0
-3889 -3888 -320 0
3889 -3888 320 0
3889 3888 -320 0
-3890 3889 321 0
-3890 -3889 -321 0
3890 -3889 321 0
3890 3889 -321 0
-3891 3890 322 0
-3891 -3890 -322 0
3891 -3890 322 0
3891 3890 -322 0
-3892 3891 324 0
-3892 -3891 -324 0
3892 -3891 324 0
3892 3891 -324 0
-3893 3892 326 0
-3893 -3892 -326 0
3893 -3892 326 0
3893 3892 -326 0
-3894 3893 328 0
-3894 -3893 -328 0
3894 -3893 328 0
3894 3893 -328 0
-3895 3894 330 0
-3895 -3894 -330 0
3895 -3894 330 0
3895 3894 -330 0
-218 -3895 0
-3896 331 332 0
-3896 -331 -332 0
3896 -331 332 0
3896 331 -332 0
-3897 3896 333 0
-3897 -3896 -333 0
3897 -3896 333 0
3897 3896 -333 0
-3898 3897 334 0
-3898 -3897 -334 0
3898 -3897 334 0
3898 3897 -334 0
-3899 3898 335 0
-3899 -3898 -335 0
3899 -3898 335 0
3899 3898 -335 0
-3900 3899 336 0
-3900 -3899 -336 0
3900 -3899 336 0
3900 3899 -336 0
-3901 3900 337 0
-3901 -3900 -337 0
3901 -3900 337 0
3901 3900 -337 0
-3902 3901 339 0
-3902 -3901 -339 0
3902 -3901 339 0
3902 3901 -339 0
-3903 3902 341 0
-3903 -3902 -341 0
3903 -3902 341 0
3903 3902 -341 0
-3904 3903 343 0
-3904 -3903 -343 0
3904 -3903 343 0
3904 3903 -343 0
-3905 3904 345 0
-3905 -3904 -345 0
3905 -3904 345 0
3905 3904 -345 0
-218 -3905 0
-3906 346 347 0
-3906 -346 -347 0
3906 -346 347 0
3906 346 -347 0
-3907 3906 348 0
-3907 -3906 -348 0
3907 -3906 348 0
3907 3906 -348 0
-3908 3907 349 0
-3908 -3907 -349 0
3908 -3907 349 0
3908 3907 -349 0
-3909 3908 350 0
-3909 -3908 -350 0
3909 -3908 350 0
3909 3908 -350 0
-3910 3909 351 0
-3910 -3909 -351 0
3910 -3909 351 0
3910 3909 -351 0
-3911 3910 352 0
-3911 -3910 -352 0
3911 -3910 352 0
3911 3910 -352 0
-3912 3911 354 0
-3912 -3911 -354 0
3912 -3911 354 0
3912 3911 -354 0
-3913 3912 356 0
-3913 -3912 -356 0
3913 -3912 356 0
3913 3912 -356 0
-3914 3913 358 0
-3914 -3913 -358 0
3914 -3913 358 0
3914 3913 -358 0
-3915 3914 360 0
-3915 -3914 -360 0
3915 -3914 360 0
3915 3914 -360 0
-218 -3915 0
-3916 316 317 0
-3916 -316 -317 0
3916 -316 317 0
3916 316 -317 0
-3917 3916 318 0
-3917 -3916 -318 0
3917 -3916 318 0
3917 3916 -318 0
-3918 3917 320 0
-3918 -3917 -320 0
3918 -3917 320 0
3918 3917 -320 0
-3919 3918 321 0
-3919 -3918 -321 0
3919 -3918 321 0
3919 3918 -321 0
-3920 3919 322 0
-3920 -3919 -322 0
3920 -3919 322 0
3920 3919 -322 0
-3921 3920 323 0
-3921 -3920 -323 0
3921 -3920 323 0
3921 3920 -323 0
-3922 3921 324 0
-3922 -3921 -324 0
3922 -3921 324 0
3922 3921 -324 0
-3923 3922 326 0
-3923 -3922 -326 0
3923 -3922 326 0
3923 3922 -326 0
-3924 3923 328 0
-3924 -3923 -328 0
3924 -3923 328 0
3924 3923 -328 0
-3925 3924 330 0
-3925 -3924 -330 0
3925 -3924 330 0
3925 3924 -330 0
-219 -3925 0
-3926 331 332 0
-3926 -331 -332 0
3926 -331 332 0
3926 331 -332 0
-3927 3926 333 0
-3927 -3926 -333 0
3927 -3926 333 0
3927 3926 -333 0
-3928 3927 335 0
-3928 -3927 -335 0
3928 -3927 335 0
3928 3927 -335 0
-3929 3928 336 0
-3929 -3928 -336 0
3929 -3928 336 0
3929 3928 -336 0
-3930 3929 337 0
-3930 -3929 -337 0
3930 -3929 337 0
3930 3929 -337 0
-3931 3930 338 0
-3931 -3930 -338 0
3931 -3930 338 0
3931 3930 -338 0
-3932 3931 339 0
-3932 -3931 -339 0
3932 -3931 339 0
3932 3931 -339 0
-3933 3932 341 0
-3933 -3932 -341 0
3933 -3932 341 0
3933 3932 -341 0
-3934 3933 343 0
-3934 -3933 -343 0
3934 -3933 343 0
3934 3933 -343 0
-3935 3934 345 0
-3935 -3934 -345 0
3935 -3934 345 0
3935 3934 -345 0
-219 -3935 0
-3936 346 347 0
-3936 -346 -347 0
3936 -346 347 0
3936 346 -347 0
-3937 3936 348 0
-3937 -3936 -348 0
3937 -3936 348 0
3937 3936 -348 0
-3938 3937 350 0
-3938 -3937 -350 0
3938 -3937 350 0
3938 3937 -350 0
-3939 3938 351 0
-3939 -3938 -351 0
3939 -3938 351 0
3939 3938 -351 0
-3940 3939 352 0
-3940 -3939 -352 0
3940 -3939 352 0
3940 3939 -352 0
-3941 3940 353 0
-3941 -3940 -353 0
3941 -3940 353 0
3941 3940 -353 0
-3942 3941 354 0
-3942 -3941 -354 0
3942 -3941 354 0
3942 3941 -354 0
-3943 3942 356 0
-3943 -3942 -356 0
3943 -3942 356 0
3943 3942 -356 0
-3944 3943 358 0
-3944 -3943 -358 0
3944 -3943 358 0
3944 3943 -358 0
-3945 3944 360 0
-3945 -3944 -360 0
3945 -3944 360 0
3945 3944 -360 0
-219 -3945 0
-3946 325 327 0
-3946 -325 -327 0
3946 -325 327 0
3946 325 -327 0
-3947 3946 328 0
-3947 -3946 -328 0
3947 -3946 328 0
3947 3946 -328 0
-3948 3947 330 0
-3948 -3947 -330 0
3948 -3947 330 0
3948 3947 -330 0
-220 -3948 0
-3949 340 342 0
-3949 -340 -342 0
3949 -340 342 0
3949 340 -342 0
-3950 3949 343 0
-3950 -3949 -343 0
3950 -3949 343 0
3950 3949 -343 0
-3951 3950 345 0
-3951 -3950 -345 0
3951 -3950 345 0
3951 3950 -345 0
-220 -3951 0
-3952 355 357 0
-3952 -355 -357 0
3952 -355 357 0
3952 355 -357 0
-3953 3952 358 0
-3953 -3952 -358 0
3953 -3952 358 0
3953 3952 -358 0
-3954 3953 360 0
-3954 -3953 -360 0
3954 -3953 360 0
3954 3953 -360 0
-220 -3954 0
-3955 317 319 0
-3955 -317 -319 0
3955 -317 319 0
3955 317 -319 0
-3956 3955 325 0
-3956 -3955 -325 0
3956 -3955 325 0
3956 3955 -325 0
-3957 3956 327 0
-3957 -3956 -327 0
3957 -3956 327 0
3957 3956 -327 0
-3958 3957 328 0
-3958 -3957 -328 0
3958 -3957 328 0
3958 3957 -328 0
-3959 3958 330 0
-3959 -3958 -330 0
3959 -3958 330 0
3959 3958 -330 0
-221 -3959 0
-3960 332 334 0
-3960 -332 -334 0
3960 -332 334 0
3960 332 -334 0
-3961 3960 340 0
-3961 -3960 -340 0
3961 -3960 340 0
3961 3960 -340 0
-3962 3961 342 0
-3962 -3961 -342 0
3962 -3961 342 0
3962 3961 -342 0
-3963 3962 343 0
-3963 -3962 -343 0
3963 -3962 343 0
3963 3962 -343 0
-3964 3963 345 0
-3964 -3963 -345 0
3964 -3963 345 0
3964 3963 -345 0
-221 -3964 0
-3965 347 349 0
-3965 -347 -349 0
3965 -347 349 0
3965 347 -349 0
-3966 3965 355 0
-3966 -3965 -355 0
3966 -3965 355 0
3966 3965 -355 0
-3967 3966 357 0
-3967 -3966 -357 0
3967 -3966 357 0
3967 3966 -357 0
-3968 3967 358 0
-3968 -3967 -358 0
3968 -3967 358 0
3968 3967 -358 0
-3969 3968 360 0
-3969 -3968 -360 0
3969 -3968 360 0
3969 3968 -360 0
-221 -3969 0
-3970 321 323 0
-3970 -321 -323 0
3970 -321 323 0
3970 321 -323 0
-3971 3970 325 0
-3971 -3970 -325 0
3971 -3970 325 0
3971 3970 -325 0
-3972 3971 327 0
-3972 -3971 -327 0
3972 -3971 327 0
3972 3971 -327 0
-3973 3972 328 0
-3973 -3972 -328 0
3973 -3972 328 0
3973 3972 -328 0
-3974 3973 330 0
-3974 -3973 -330 0
3974 -3973 330 0
3974 3973 -330 0
-222 -3974 0
-3975 336 338 0
-3975 -336 -338 0
3975 -336 338 0
3975 336 -338 0
-3976 3975 340 0
-3976 -3975 -340 0
3976 -3975 340 0
3976 3975 -340 0
-3977 3976 342 0
-3977 -3976 -342 0
3977 -3976 342 0
3977 3976 -342 0
-3978 3977 343 0
-3978 -3977 -343 0
3978 -3977 343 0
3978 3977 -343 0
-3979 3978 345 0
-3979 -3978 -345 0
3979 -3978 345 0
3979 3978 -345 0
-222 -3979 0
-3980 351 353 0
-3980 -351 -353 0
3980 -351 353 0
3980 351 -353 0
-3981 3980 355 0
-3981 -3980 -355 0
3981 -3980 355 0
3981 3980 -355 0
-3982 3981 357 0
-3982 -3981 -357 0
3982 -3981 357 0
3982 3981 -357 0
-3983 3982 358 0
-3983 -3982 -358 0
3983 -3982 358 0
3983 3982 -358 0
-3984 3983 360 0
-3984 -3983 -360 0
3984 -3983 360 0
3984 3983 -360 0
-222 -3984 0
-3985 317 319 0
-3985 -317 -319 0
3985 -317 319 0
3985 317 -319 0
-3986 3985 321 0
-3986 -3985 -321 0
3986 -3985 321 0
3986 3985 -321 0
-3987 3986 323 0
-3987 -3986 -323 0
3987 -3986 323 0
3987 3986 -323 0
-3988 3987 325 0
-3988 -3987 -325 0
3988 -3987 325 0
3988 3987 -325 0
-3989 3988 327 0
-3989 -3988 -327 0
3989 -3988 327 0
3989 3988 -327 0
-3990 3989 328 0
-3990 -3989 -328 0
3990 -3989 328 0
3990 3989 -328 0
-3991 3990 330 0
-3991 -3990 -330 0
3991 -3990 330 0
3991 3990 -330 0
-223 -3991 0
-3992 332 334 0
-3992 -332 -334 0
3992 -332 334 0
3992 332 -334 0
-3993 3992 336 0
-3993 -3992 -336 0
3993 -3992 336 0
3993 3992 -336 0
-3994 3993 338 0
-3994 -3993 -338 0
3994 -3993 338 0
3994 3993 -338 0
-3995 3994 340 0
-3995 -3994 -340 0
3995 -3994 340 0
3995 3994 -340 0
-3996 3995 342 0
-3996 -3995 -342 0
3996 -3995 342 0
3996 3995 -342 0
-3997 3996 343 0
-3997 -3996 -343 0
3997 -3996 343 0
3997 3996 -343 0
-3998 3997 345 0
-3998 -3997 -345 0
3998 -3997 345 0
3998 3997 -345 0
-223 -3998 0
-3999 347 349 0
-3999 -347 -349 0
3999 -347 349 0
3999 347 -349 0
-4000 3999 351 0
-4000 -3999 -351 0
4000 -3999 351 0
4000 3999 -351 0
-4001 4000 353 0
-4001 -4000 -353 0
4001 -4000 353 0
4001 4000 -353 0
-4002 4001 355 0
-4002 -4001 -355 0
4002 -4001 355 0
4002 4001 -355 0
-4003 4002 357 0
-4003 -4002 -357 0
4003 -4002 357 0
4003 4002 -357 0
-4004 4003 358 0
-4004 -4003 -358 0
4004 -4003 358 0
4004 4003 -358 0
-4005 4004 360 0
-4005 -4004 -360 0
4005 -4004 360 0
4005 4004 -360 0
-223 -4005 0
-4006 325 326 0
-4006 -325 -326 0
4006 -325 326 0
4006 325 -326 0
-4007 4006 327 0
-4007 -4006 -327 0
4007 -4006 327 0
4007 4006 -327 0
-4008 4007 328 0
-4008 -4007 -328 0
4008 -4007 328 0
4008 4007 -328 0
-4009 4008 330 0
-4009 -4008 -330 0
4009 -4008 330 0
4009 4008 -330 0
-224 -4009 0
-4010 340 341 0
-4010 -340 -341 0
4010 -340 341 0
4010 340 -341 0
-4011 4010 342 0
-4011 -4010 -342 0
4011 -4010 342 0
4011 4010 -342 0
-4012 4011 343 0
-4012 -4011 -343 0
4012 -4011 343 0
4012 4011 -343 0
-4013 4012 345 0
-4013 -4012 -345 0
4013 -4012 345 0
4013 4012 -345 0
-224 -4013 0
-4014 355 356 0
-4014 -355 -356 0
4014 -355 356 0
4014 355 -356 0
-4015 4014 357 0
-4015 -4014 -357 0
4015 -4014 357 0
4015 4014 -357 0
-4016 4015 358 0
-4016 -4015 -358 0
4016 -4015 358 0
4016 4015 -358 0
-4017 4016 360 0
-4017 -4016 -360 0
4017 -4016 360 0
4017 4016 -360 0
-224 -4017 0
-4018 317 319 0
-4018 -317 -319 0
4018 -317 319 0
4018 317 -319 0
-4019 4018 325 0
-4019 -4018 -325 0
4019 -4018 325 0
4019 4018 -325 0
-4020 4019 326 0
-4020 -4019 -326 0
4020 -4019 326 0
4020 4019 -326 0
-4021 4020 327 0
-4021 -4020 -327 0
4021 -4020 327 0
4021 4020 -327 0
-4022 4021 328 0
-4022 -4021 -328 0
4022 -4021 328 0
4022 4021 -328 0
-4023 4022 330 0
-4023 -4022 -330 0
4023 -4022 330 0
4023 4022 -330 0
-225 -4023 0
-4024 332 334 0
-4024 -332 -334 0
4024 -332 334 0
4024 332 -334 0
-4025 4024 340 0
-4025 -4024 -340 0
4025 -4024 340 0
4025 4024 -340 0
-4026 4025 341 0
-4026 -4025 -341 0
4026 -4025 341 0
4026 4025 -341 0
-4027 4026 342 0
-4027 -4026 -342 0
4027 -4026 342 0
4027 4026 -342 0
-4028 4027 343 0
-4028 -4027 -343 0
4028 -4027 343 0
4028 4027 -343 0
-4029 4028 345 0
-4029 -4028 -345 0
4029 -4028 345 0
4029 4028 -345 0
-225 -4029 0
-4030 347 349 0
-4030 -347 -349 0
4030 -347 349 0
4030 347 -349 0
-4031 4030 355 0
-4031 -4030 -355 0
4031 -4030 355 0
4031 4030 -355 0
-4032 4031 356 0
-4032 -4031 -356 0
4032 -4031 356 0
4032 4031 -356 0
-4033 4032 357 0
-4033 -4032 -357 0
4033 -4032 357 0
4033 4032 -357 0
-4034 4033 358 0
-4034 -4033 -358 0
4034 -4033 358 0
4034 4033 -358 0
-4035 4034 360 0
-4035 -4034 -360 0
4035 -4034 360 0
4035 4034 -360 0
-225 -4035 0
-4036 321 323 0
-4036 -321 -323 0
4036 -321 323 0
4036 321 -323 0
-4037 4036 325 0
-4037 -4036 -325 0
4037 -4036 325 0
4037 4036 -325 0
-4038 4037 326 0
-4038 -4037 -326 0
4038 -4037 326 0
4038 4037 -326 0
-4039 4038 327 0
-4039 -4038 -327 0
4039 -4038 327 0
4039 4038 -327 0
-4040 4039 328 0
-4040 -4039 -328 0
4040 -4039 328 0
4040 4039 -328 0
-4041 4040 330 0
-4041 -4040 -330 0
4041 -4040 330 0
4041 4040 -330 0
-226 -4041 0
-4042 336 338 0
-4042 -336 -338 0
4042 -336 338 0
4042 336 -338 0
-4043 4042 340 0
-4043 -4042 -340 0
4043 -4042 340 0
4043 4042 -340 0
-4044 4043 341 0
-4044 -4043 -341 0
4044 -4043 341 0
4044 4043 -341 0
-4045 4044 342 0
-4045 -4044 -342 0
4045 -4044 342 0
4045 4044 -342 0
-4046 4045 343 0
-4046 -4045 -343 0
4046 -4045 343 0
4046 4045 -343 0
-4047 4046 345 0
-4047 -4046 -345 0
4047 -4046 345 0
4047 4046 -345 0
-226 -4047 0
-4048 351 353 0
-4048 -351 -353 0
4048 -351 353 0
4048 351 -353 0
-4049 4048 355 0
-4049 -4048 -355 0
4049 -4048 355 0
4049 4048 -355 0
-4050 4049 356 0
-4050 -4049 -356 0
4050 -4049 356 0
4050 4049 -356 0
-4051 4050 357 0
-4051 -4050 -357 0
4051 -4050 357 0
4051 4050 -357 0
-4052 4051 358 0
-4052 -4051 -358 0
4052 -4051 358 0
4052 4051 -358 0
-4053 4052 360 0
-4053 -4052 -360 0
4053 -4052 360 0
4053 4052 -360 0
-226 -4053 0
-4054 317 319 0
-4054 -317 -319 0
4054 -317 319 0
4054 317 -319 0
-4055 4054 321 0
-4055 -4054 -321 0
4055 -4054 321 0
4055 4054 -321 0
-4056 4055 323 0
-4056 -4055 -323 0
4056 -4055 323 0
4056 4055 -323 0
-4057 4056 325 0
-4057 -4056 -325 0
4057 -4056 325 0
4057 4056 -325 0
-4058 4057 326 0
-4058 -4057 -326 0
4058 -4057 326 0
4058 4057 -326 0
-4059 4058 327 0
-4059 -4058 -327 0
4059 -4058 327 0
4059 4058 -327 0
-4060 4059 328 0
-4060 -4059 -328 0
4060 -4059 328 0
4060 4059 -328 0
-4061 4060 330 0
-4061 -4060 -330 0
4061 -4060 330 0
4061 4060 -330 0
-227 -4061 0
-4062 332 334 0
-4062 -332 -334 0
4062 -332 334 0
4062 332 -334 0
-4063 4062 336 0
-4063 -4062 -336 0
4063 -4062 336 0
4063 4062 -336 0
-4064 4063 338 0
-4064 -4063 -338 0
4064 -4063 338 0
4064 4063 -338 0
-4065 4064 340 0
-4065 -4064 -340 0
4065 -4064 340 0
4065 4064 -340 0
-4066 4065 341 0
-4066 -4065 -341 0
4066 -4065 341 0
4066 4065 -341 0
-4067 4066 342 0
-4067 -4066 -342 0
4067 -4066 342 0
4067 4066 -342 0
-4068 4067 343 0
-4068 -4067 -343 0
4068 -4067 343 0
4068 4067 -343 0
-4069 4068 345 0
-4069 -4068 -345 0
4069 -4068 345 0
4069 4068 -345 0
-227 -4069 0
-4070 347 349 0
-4070 -347 -349 0
4070 -347 349 0
4070 347 -349 0
-4071 4070 351 0
-4071 -4070 -351 0
4071 -4070 351 0
4071 4070 -351 0
-4072 4071 353 0
-4072 -4071 -353 0
4072 -4071 353 0
4072 4071 -353 0
-4073 4072 355 0
-4073 -4072 -355 0
4073 -4072 355 0
4073 4072 -355 0
-4074 4073 356 0
-4074 -4073 -356 0
4074 -4073 356 0
4074 4073 -356 0
-4075 4074 357 0
-4075 -4074 -357 0
4075 -4074 357 0
4075 4074 -357 0
-4076 4075 358 0
-4076 -4075 -358 0
4076 -4075 358 0
4076 4075 -358 0
-4077 4076 360 0
-4077 -4076 -360 0
4077 -4076 360 0
4077 4076 -360 0
-227 -4077 0
-4078 316 320 0
-4078 -316 -320 0
4078 -316 320 0
4078 316 -320 0
-4079 4078 321 0
-4079 -4078 -321 0
4079 -4078 321 0
4079 4078 -321 0
-4080 4079 323 0
-4080 -4079 -323 0
4080 -4079 323 0
4080 4079 -323 0
-4081 4080 327 0
-4081 -4080 -327 0
4081 -4080 327 0
4081 4080 -327 0
-4082 4081 330 0
-4082 -4081 -330 0
4082 -4081 330 0
4082 4081 -330 0
-228 -4082 0
-4083 331 335 0
-4083 -331 -335 0
4083 -331 335 0
4083 331 -335 0
-4084 4083 336 0
-4084 -4083 -336 0
4084 -4083 336 0
4084 4083 -336 0
-4085 4084 338 0
-4085 -4084 -338 0
4085 -4084 338 0
4085 4084 -338 0
-4086 4085 342 0
-4086 -4085 -342 0
4086 -4085 342 0
4086 4085 -342 0
-4087 4086 345 0
-4087 -4086 -345 0
4087 -4086 345 0
4087 4086 -345 0
-228 -4087 0
-4088 346 350 0
-4088 -346 -350 0
4088 -346 350 0
4088 346 -350 0
-4089 4088 351 0
-4089 -4088 -351 0
4089 -4088 351 0
4089 4088 -351 0
-4090 4089 353 0
-4090 -4089 -353 0
4090 -4089 353 0
4090 4089 -353 0
-4091 4090 357 0
-4091 -4090 -357 0
4091 -4090 357 0
4091 4090 -357 0
-4092 4091 360 0
-4092 -4091 -360 0
4092 -4091 360 0
4092 4091 -360 0
-228 -4092 0
-4093 316 317 0
-4093 -316 -317 0
4093 -316 317 0
4093 316 -317 0
-4094 4093 319 0
-4094 -4093 -319 0
4094 -4093 319 0
4094 4093 -319 0
-4095 4094 320 0
-4095 -4094 -320 0
4095 -4094 320 0
4095 4094 -320 0
-4096 4095 321 0
-4096 -4095 -321 0
4096 -4095 321 0
4096 4095 -321 0
-4097 4096 323 0
-4097 -4096 -323 0
4097 -4096 323 0
4097 4096 -323 0
-4098 4097 327 0
-4098 -4097 -327 0
4098 -4097 327 0
4098 4097 -327 0
-4099 4098 330 0
-4099 -4098 -330 0
4099 -4098 330 0
4099 4098 -330 0
-229 -4099 0
-4100 331 332 0
-4100 -331 -332 0
4100 -331 332 0
4100 331 -332 0
-4101 4100 334 0
-4101 -4100 -334 0
4101 -4100 334 0
4101 4100 -334 0
-4102 4101 335 0
-4102 -4101 -335 0
4102 -4101 335 0
4102 4101 -335 0
-4103 4102 336 0
-4103 -4102 -336 0
4103 -4102 336 0
4103 4102 -336 0
-4104 4103 338 0
-4104 -4103 -338 0
4104 -4103 338 0
4104 4103 -338 0
-4105 4104 342 0
-4105 -4104 -342 0
4105 -4104 342 0
4105 4104 -342 0
-4106 4105 345 0
-4106 -4105 -345 0
4106 -4105 345 0
4106 4105 -345 0
-229 -4106 0
-4107 346 347 0
-4107 -346 -347 0
4107 -346 347 0
4107 346 -347 0
-4108 4107 349 0
-4108 -4107 -349 0
4108 -4107 349 0
4108 4107 -349 0
-4109 4108 350 0
-4109 -4108 -350 0
4109 -4108 350 0
4109 4108 -350 0
-4110 4109 351 0
-4110 -4109 -351 0
4110 -4109 351 0
4110 4109 -351 0
-4111 4110 353 0
-4111 -4110 -353 0
4111 -4110 353 0
4111 4110 -353 0
-4112 4111 357 0
-4112 -4111 -357 0
4112 -4111 357 0
4112 4111 -357 0
-4113 4112 360 0
-4113 -4112 -360 0
4113 -4112 360 0
4113 4112 -360 0
-229 -4113 0
-4114 316 317 0
-4114 -316 -317 0
4114 -316 317 0
4114 316 -317 0
-4115 4114 320 0
-4115 -4114 -320 0
4115 -4114 320 0
4115 4114 -320 0
-4116 4115 321 0
-4116 -4115 -321 0
4116 -4115 321 0
4116 4115 -321 0
-4117 4116 323 0
-4117 -4116 -323 0
4117 -4116 323 0
4117 4116 -323 0
-4118 4117 326 0
-4118 -4117 -326 0
4118 -4117 326 0
4118 4117 -326 0
-4119 4118 327 0
-4119 -4118 -327 0
4119 -4118 327 0
4119 4118 -327 0
-4120 4119 330 0
-4120 -4119 -330 0
4120 -4119 330 0
4120 4119 -330 0
-230 -4120 0
-4121 331 332 0
-4121 -331 -332 0
4121 -331 332 0
4121 331 -332 0
-4122 4121 335 0
-4122 -4121 -335 0
4122 -4121 335 0
4122 4121 -335 0
-4123 4122 336 0
-4123 -4122 -336 0
4123 -4122 336 0
4123 4122 -336 0
-4124 4123 338 0
-4124 -4123 -338 0
4124 -4123 338 0
4124 4123 -338 0
-4125 4124 341 0
-4125 -4124 -341 0
4125 -4124 341 0
4125 4124 -341 0
-4126 4125 342 0
-4126 -4125 -342 0
4126 -4125 342 0
4126 4125 -342 0
-4127 4126 345 0
-4127 -4126 -345 0
4127 -4126 345 0
4127 4126 -345 0
-230 -4127 0
-4128 346 347 0
-4128 -346 -347 0
4128 -346 347 0
4128 346 -347 0
-4129 4128 350 0
-4129 -4128 -350 0
4129 -4128 350 0
4129 4128 -350 0
-4130 4129 351 0
-4130 -4129 -351 0
4130 -4129 351 0
4130 4129 -351 0
-4131 4130 353 0
-4131 -4130 -353 0
4131 -4130 353 0
4131 4130 -353 0
-4132 4131 356 0
-4132 -4131 -356 0
4132 -4131 356 0
4132 4131 -356 0
-4133 4132 357 0
-4133 -4132 -357 0
4133 -4132 357 0
4133 4132 -357 0
-4134 4133 360 0
-4134 -4133 -360 0
4134 -4133 360 0
4134 4133 -360 0
-230 -4134 0
-4135 316 319 0
-4135 -316 -319 0
4135 -316 319 0
4135 316 -319 0
-4136 4135 320 0
-4136 -4135 -320 0
4136 -4135 320 0
4136 4135 -320 0
-4137 4136 321 0
-4137 -4136 -321 0
4137 -4136 321 0
4137 4136 -321 0
-4138 4137 323 0
-4138 -4137 -323 0
4138 -4137 323 0
4138 4137 -323 0
-4139 4138 326 0
-4139 -4138 -326 0
4139 -4138 326 0
4139 4138 -326 0
-4140 4139 327 0
-4140 -4139 -327 0
4140 -4139 327 0
4140 4139 -327 0
-4141 4140 330 0
-4141 -4140 -330 0
4141 -4140 330 0
4141 4140 -330 0
-231 -4141 0
-4142 331 334 0
-4142 -331 -334 0
4142 -331 334 0
4142 331 -334 0
-4143 4142 335 0
-4143 -4142 -335 0
4143 -4142 335 0
4143 4142 -335 0
-4144 4143 336 0
-4144 -4143 -336 0
4144 -4143 336 0
4144 4143 -336 0
-4145 4144 338 0
-4145 -4144 -338 0
4145 -4144 338 0
4145 4144 -338 0
-4146 4145 341 0
-4146 -4145 -341 0
4146 -4145 341 0
4146 4145 -341 0
-4147 4146 342 0
-4147 -4146 -342 0
4147 -4146 342 0
4147 4146 -342 0
-4148 4147 345 0
-4148 -4147 -345 0
4148 -4147 345 0
4148 4147 -345 0
-231 -4148 0
-4149 346 349 0
-4149 -346 -349 0
4149 -346 349 0
4149 346 -349 0
-4150 4149 350 0
-4150 -4149 -350 0
4150 -4149 350 0
4150 4149 -350 0
-4151 4150 351 0
-4151 -4150 -351 0
4151 -4150 351 0
4151 4150 -351 0
-4152 4151 353 0
-4152 -4151 -353 0
4152 -4151 353 0
4152 4151 -353 0
-4153 4152 356 0
-4153 -4152 -356 0
4153 -4152 356 0
4153 4152 -356 0
-4154 4153 357 0
-4154 -4153 -357 0
4154 -4153 357 0
4154 4153 -357 0
-4155 4154 360 0
-4155 -4154 -360 0
4155 -4154 360 0
4155 4154 -360 0
-231 -4155 0
-4156 318 320 0
-4156 -318 -320 0
4156 -318 320 0
4156 318 -320 0
-4157 4156 325 0
-4157 -4156 -325 0
4157 -4156 325 0
4157 4156 -325 0
-4158 4157 327 0
-4158 -4157 -327 0
4158 -4157 327 0
4158 4157 -327 0
-4159 4158 328 0
-4159 -4158 -328 0
4159 -4158 328 0
4159 4158 -328 0
-4160 4159 330 0
-4160 -4159 -330 0
4160 -4159 330 0
4160 4159 -330 0
-232 -4160 0
-4161 333 335 0
-4161 -333 -335 0
4161 -333 335 0
4161 333 -335 0
-4162 4161 340 0
-4162 -4161 -340 0
4162 -4161 340 0
4162 4161 -340 0
-4163 4162 342 0
-4163 -4162 -342 0
4163 -4162 342 0
4163 4162 -342 0
-4164 4163 343 0
-4164 -4163 -343 0
4164 -4163 343 0
4164 4163 -343 0
-4165 4164 345 0
-4165 -4164 -345 0
4165 -4164 345 0
4165 4164 -345 0
-232 -4165 0
-4166 348 350 0
-4166 -348 -350 0
4166 -348 350 0
4166 348 -350 0
-4167 4166 355 0
-4167 -4166 -355 0
4167 -4166 355 0
4167 4166 -355 0
-4168 4167 357 0
-4168 -4167 -357 0
4168 -4167 357 0
4168 4167 -357 0
-4169 4168 358 0
-4169 -4168 -358 0
4169 -4168 358 0
4169 4168 -358 0
-4170 4169 360 0
-4170 -4169 -360 0
4170 -4169 360 0
4170 4169 -360 0
-232 -4170 0
-4171 317 318 0
-4171 -317 -318 0
4171 -317 318 0
4171 317 -318 0
-4172 4171 319 0
-4172 -4171 -319 0
4172 -4171 319 0
4172 4171 -319 0
-4173 4172 320 0
-4173 -4172 -320 0
4173 -4172 320 0
4173 4172 -320 0
-4174 4173 325 0
-4174 -4173 -325 0
4174 -4173 325 0
4174 4173 -325 0
-4175 4174 327 0
-4175 -4174 -327 0
4175 -4174 327 0
4175 4174 -327 0
-4176 4175 328 0
-4176 -4175 -328 0
4176 -4175 328 0
4176 4175 -328 0
-4177 4176 330 0
-4177 -4176 -330 0
4177 -4176 330 0
4177 4176 -330 0
-233 -4177 0
-4178 332 333 0
-4178 -332 -333 0
4178 -332 333 0
4178 332 -333 0
-4179 4178 334 0
-4179 -4178 -334 0
4179 -4178 334 0
4179 4178 -334 0
-4180 4179 335 0
-4180 -4179 -335 0
4180 -4179 335 0
4180 4179 -335 0
-4181 4180 340 0
-4181 -4180 -340 0
4181 -4180 340 0
4181 4180 -340 0
-4182 4181 342 0
-4182 -4181 -342 0
4182 -4181 342 0
4182 4181 -342 0
-4183 4182 343 0
-4183 -4182 -343 0
4183 -4182 343 0
4183 4182 -343 0
-4184 4183 345 0
-4184 -4183 -345 0
4184 -4183 345 0
4184 4183 -345 0
-233 -4184 0
-4185 347 348 0
-4185 -347 -348 0
4185 -347 348 0
4185 347 -348 0
-4186 4185 349 0
-4186 -4185 -349 0
4186 -4185 349 0
4186 4185 -349 0
-4187 4186 350 0
-4187 -4186 -350 0
4187 -4186 350 0
4187 4186 -350 0
-4188 4187 355 0
-4188 -4187 -355 0
4188 -4187 355 0
4188 4187 -355 0
-4189 4188 357 0
-4189 -4188 -357 0
4189 -4188 357 0
4189 4188 -357 0
-4190 4189 358 0
-4190 -4189 -358 0
4190 -4189 358 0
4190 4189 -358 0
-4191 4190 360 0
-4191 -4190 -360 0
4191 -4190 360 0
4191 4190 -360 0
-233 -4191 0
-4192 317 318 0
-4192 -317 -318 0
4192 -317 318 0
4192 317 -318 0
-4193 4192 320 0
-4193 -4192 -320 0
4193 -4192 320 0
4193 4192 -320 0
-4194 4193 325 0
-4194 -4193 -325 0
4194 -4193 325 0
4194 4193 -325 0
-4195 4194 326 0
-4195 -4194 -326 0
4195 -4194 326 0
4195 4194 -326 0
-4196 4195 327 0
-4196 -4195 -327 0
4196 -4195 327 0
4196 4195 -327 0
-4197 4196 328 0
-4197 -4196 -328 0
4197 -4196 328 0
4197 4196 -328 0
-4198 4197 330 0
-4198 -4197 -330 0
4198 -4197 330 0
4198 4197 -330 0
-234 -4198 0
-4199 332 333 0
-4199 -332 -333 0
4199 -332 333 0
4199 332 -333 0
-4200 4199 335 0
-4200 -4199 -335 0
4200 -4199 335 0
4200 4199 -335 0
-4201 4200 340 0
-4201 -4200 -340 0
4201 -4200 340 0
4201 4200 -340 0
-4202 4201 341 0
-4202 -4201 -341 0
4202 -4201 341 0
4202 4201 -341 0
-4203 4202 342 0
-4203 -4202 -342 0
4203 -4202 342 0
4203 4202 -342 0
-4204 4203 343 0
-4204 -4203 -343 0
4204 -4203 343 0
4204 4203 -343 0
-4205 4204 345 0
-4205 -4204 -345 0
4205 -4204 345 0
4205 4204 -345 0
-234 -4205 0
-4206 347 348 0
-4206 -347 -348 0
4206 -347 348 0
4206 347 -348 0
-4207 4206 350 0
-4207 -4206 -350 0
4207 -4206 350 0
4207 4206 -350 0
-4208 4207 355 0
-4208 -4207 -355 0
4208 -4207 355 0
4208 4207 -355 0
-4209 4208 356 0
-4209 -4208 -356 0
4209 -4208 356 0
4209 4208 -356 0
-4210 4209 357 0
-4210 -4209 -357 0
4210 -4209 357 0
4210 4209 -357 0
-4211 4210 358 0
-4211 -4210 -358 0
4211 -4210 358 0
4211 4210 -358 0
-4212 4211 360 0
-4212 -4211 -360 0
4212 -4211 360 0
4212 4211 -360 0
-234 -4212 0
-4213 318 319 0
-4213 -318 -319 0
4213 -318 319 0
4213 318 -319 0
-4214 4213 320 0
-4214 -4213 -320 0
4214 -4213 320 0
4214 4213 -320 0
-4215 4214 325 0
-4215 -4214 -325 0
4215 -4214 325 0
4215 4214 -325 0
-4216 4215 326 0
-4216 -4215 -326 0
4216 -4215 326 0
4216 4215 -326 0
-4217 4216 327 0
-4217 -4216 -327 0
4217 -4216 327 0
4217 4216 -327 0
-4218 4217 328 0
-4218 -4217 -328 0
4218 -4217 328 0
4218 4217 -328 0
-4219 4218 330 0
-4219 -4218 -330 0
4219 -4218 330 0
4219 4218 -330 0
-235 -4219 0
-4220 333 334 0
-4220 -333 -334 0
4220 -333 334 0
4220 333 -334 0
-4221 4220 335 0
-4221 -4220 -335 0
4221 -4220 335 0
4221 4220 -335 0
-4222 4221 340 0
-4222 -4221 -340 0
4222 -4221 340 0
4222 4221 -340 0
-4223 4222 341 0
-4223 -4222 -341 0
4223 -4222 341 0
4223 4222 -341 0
-4224 4223 342 0
-4224 -4223 -342 0
4224 -4223 342 0
4224 4223 -342 0
-4225 4224 343 0
-4225 -4224 -343 0
4225 -4224 343 0
4225 4224 -343 0
-4226 4225 345 0
-4226 -4225 -345 0
4226 -4225 345 0
4226 4225 -345 0
-235 -4226 0
-4227 348 349 0
-4227 -348 -349 0
4227 -348 349 0
4227 348 -349 0
-4228 4227 350 0
-4228 -4227 -350 0
4228 -4227 350 0
4228 4227 -350 0
-4229 4228 355 0
-4229 -4228 -355 0
4229 -4228 355 0
4229 4228 -355 0
-4230 4229 356 0
-4230 -4229 -356 0
4230 -4229 356 0
4230 4229 -356 0
-4231 4230 357 0
-4231 -4230 -357 0
4231 -4230 357 0
4231 4230 -357 0
-4232 4231 358 0
-4232 -4231 -358 0
4232 -4231 358 0
4232 4231 -358 0
-4233 4232 360 0
-4233 -4232 -360 0
4233 -4232 360 0
4233 4232 -360 0
-235 -4233 0
-4234 316 317 0
-4234 -316 -317 0
4234 -316 317 0
4234 316 -317 0
-4235 4234 319 0
-4235 -4234 -319 0
4235 -4234 319 0
4235 4234 -319 0
-4236 4235 324 0
-4236 -4235 -324 0
4236 -4235 324 0
4236 4235 -324 0
-4237 4236 327 0
-4237 -4236 -327 0
4237 -4236 327 0
4237 4236 -327 0
-4238 4237 330 0
-4238 -4237 -330 0
4238 -4237 330 0
4238 4237 -330 0
-236 -4238 0
-4239 331 332 0
-4239 -331 -332 0
4239 -331 332 0
4239 331 -332 0
-4240 4239 334 0
-4240 -4239 -334 0
4240 -4239 334 0
4240 4239 -334 0
-4241 4240 339 0
-4241 -4240 -339 0
4241 -4240 339 0
4241 4240 -339 0
-4242 4241 342 0
-4242 -4241 -342 0
4242 -4241 342 0
4242 4241 -342 0
-4243 4242 345 0
-4243 -4242 -345 0
4243 -4242 345 0
4243 4242 -345 0
-236 -4243 0
-4244 346 347 0
-4244 -346 -347 0
4244 -346 347 0
4244 346 -347 0
-4245 4244 349 0
-4245 -4244 -349 0
4245 -4244 349 0
4245 4244 -349 0
-4246 4245 354 0
-4246 -4245 -354 0
4246 -4245 354 0
4246 4245 -354 0
-4247 4246 357 0
-4247 -4246 -357 0
4247 -4246 357 0
4247 4246 -357 0
-4248 4247 360 0
-4248 -4247 -360 0
4248 -4247 360 0
4248 4247 -360 0
-236 -4248 0
-4249 316 317 0
-4249 -316 -317 0
4249 -316 317 0
4249 316 -317 0
-4250 4249 319 0
-4250 -4249 -319 0
4250 -4249 319 0
4250 4249 -319 0
-4251 4250 321 0
-4251 -4250 -321 0
4251 -4250 321 0
4251 4250 -321 0
-4252 4251 323 0
-4252 -4251 -323 0
4252 -4251 323 0
4252 4251 -323 0
-4253 4252 324 0
-4253 -4252 -324 0
4253 -4252 324 0
4253 4252 -324 0
-4254 4253 327 0
-4254 -4253 -327 0
4254 -4253 327 0
4254 4253 -327 0
-4255 4254 330 0
-4255 -4254 -330 0
4255 -4254 330 0
4255 4254 -330 0
-237 -4255 0
-4256 331 332 0
-4256 -331 -332 0
4256 -331 332 0
4256 331 -332 0
-4257 4256 334 0
-4257 -4256 -334 0
4257 -4256 334 0
4257 4256 -334 0
-4258 4257 336 0
-4258 -4257 -336 0
4258 -4257 336 0
4258 4257 -336 0
-4259 4258 338 0
-4259 -4258 -338 0
4259 -4258 338 0
4259 4258 -338 0
-4260 4259 339 0
-4260 -4259 -339 0
4260 -4259 339 0
4260 4259 -339 0
-4261 4260 342 0
-4261 -4260 -342 0
4261 -4260 342 0
4261 4260 -342 0
-4262 4261 345 0
-4262 -4261 -345 0
4262 -4261 345 0
4262 4261 -345 0
-237 -4262 0
-4263 346 347 0
-4263 -346 -347 0
4263 -346 347 0
4263 346 -347 0
-4264 4263 349 0
-4264 -4263 -349 0
4264 -4263 349 0
4264 4263 -349 0
-4265 4264 351 0
-4265 -4264 -351 0
4265 -4264 351 0
4265 4264 -351 0
-4266 4265 353 0
-4266 -4265 -353 0
4266 -4265 353 0
4266 4265 -353 0
-4267 4266 354 0
-4267 -4266 -354 0
4267 -4266 354 0
4267 4266 -354 0
-4268 4267 357 0
-4268 -4267 -357 0
4268 -4267 357 0
4268 4267 -357 0
-4269 4268 360 0
-4269 -4268 -360 0
4269 -4268 360 0
4269 4268 -360 0
-237 -4269 0
-4270 316 317 0
-4270 -316 -317 0
4270 -316 317 0
4270 316 -317 0
-4271 4270 319 0
-4271 -4270 -319 0
4271 -4270 319 0
4271 4270 -319 0
-4272 4271 321 0
-4272 -4271 -321 0
4272 -4271 321 0
4272 4271 -321 0
-4273 4272 324 0
-4273 -4272 -324 0
4273 -4272 324 0
4273 4272 -324 0
-4274 4273 326 0
-4274 -4273 -326 0
4274 -4273 326 0
4274 4273 -326 0
-4275 4274 327 0
-4275 -4274 -327 0
4275 -4274 327 0
4275 4274 -327 0
-4276 4275 330 0
-4276 -4275 -330 0
4276 -4275 330 0
4276 4275 -330 0
-238 -4276 0
-4277 331 332 0
-4277 -331 -332 0
4277 -331 332 0
4277 331 -332 0
-4278 4277 334 0
-4278 -4277 -334 0
4278 -4277 334 0
4278 4277 -334 0
-4279 4278 336 0
-4279 -4278 -336 0
4279 -4278 336 0
4279 4278 -336 0
-4280 4279 339 0
-4280 -4279 -339 0
4280 -4279 339 0
4280 4279 -339 0
-4281 4280 341 0
-4281 -4280 -341 0
4281 -4280 341 0
4281 4280 -341 0
-4282 4281 342 0
-4282 -4281 -342 0
4282 -4281 342 0
4282 4281 -342 0
-4283 4282 345 0
-4283 -4282 -345 0
4283 -4282 345 0
4283 4282 -345 0
-238 -4283 0
-4284 346 347 0
-4284 -346 -347 0
4284 -346 347 0
4284 346 -347 0
-4285 4284 349 0
-4285 -4284 -349 0
4285 -4284 349 0
4285 4284 -349 0
-4286 4285 351 0
-4286 -4285 -351 0
4286 -4285 351 0
4286 4285 -351 0
-4287 4286 354 0
-4287 -4286 -354 0
4287 -4286 354 0
4287 4286 -354 0
-4288 4287 356 0
-4288 -4287 -356 0
4288 -4287 356 0
4288 4287 -356 0
-4289 4288 357 0
-4289 -4288 -357 0
4289 -4288 357 0
4289 4288 -357 0
-4290 4289 360 0
-4290 -4289 -360 0
4290 -4289 360 0
4290 4289 -360 0
-238 -4290 0
-4291 316 317 0
-4291 -316 -317 0
4291 -316 317 0
4291 316 -317 0
-4292 4291 319 0
-4292 -4291 -319 0
4292 -4291 319 0
4292 4291 -319 0
-4293 4292 323 0
-4293 -4292 -323 0
4293 -4292 323 0
4293 4292 -323 0
-4294 4293 324 0
-4294 -4293 -324 0
4294 -4293 324 0
4294 4293 -324 0
-4295 4294 326 0
-4295 -4294 -326 0
4295 -4294 326 0
4295 4294 -326 0
-4296 4295 327 0
-4296 -4295 -327 0
4296 -4295 327 0
4296 4295 -327 0
-4297 4296 330 0
-4297 -4296 -330 0
4297 -4296 330 0
4297 4296 -330 0
-239 -4297 0
-4298 331 332 0
-4298 -331 -332 0
4298 -331 332 0
4298 331 -332 0
-4299 4298 334 0
-4299 -4298 -334 0
4299 -4298 334 0
4299 4298 -334 0
-4300 4299 338 0
-4300 -4299 -338 0
4300 -4299 338 0
4300 4299 -338 0
-4301 4300 339 0
-4301 -4300 -339 0
4301 -4300 339 0
4301 4300 -339 0
-4302 4301 341 0
-4302 -4301 -341 0
4302 -4301 341 0
4302 4301 -341 0
-4303 4302 342 0
-4303 -4302 -342 0
4303 -4302 342 0
4303 4302 -342 0
-4304 4303 345 0
-4304 -4303 -345 0
4304 -4303 345 0
4304 4303 -345 0
-239 -4304 0
-4305 346 347 0
-4305 -346 -347 0
4305 -346 347 0
4305 346 -347 0
-4306 4305 349 0
-4306 -4305 -349 0
4306 -4305 349 0
4306 4305 -349 0
-4307 4306 353 0
-4307 -4306 -353 0
4307 -4306 353 0
4307 4306 -353 0
-4308 4307 354 0
-4308 -4307 -354 0
4308 -4307 354 0
4308 4307 -354 0
-4309 4308 356 0
-4309 -4308 -356 0
4309 -4308 356 0
4309 4308 -356 0
-4310 4309 357 0
-4310 -4309 -357 0
4310 -4309 357 0
4310 4309 -357 0
-4311 4310 360 0
-4311 -4310 -360 0
4311 -4310 360 0
4311 4310 -360 0
-239 -4311 0
-4312 322 324 0
-4312 -322 -324 0
4312 -322 324 0
4312 322 -324 0
-4313 4312 325 0
-4313 -4312 -325 0
4313 -4312 325 0
4313 4312 -325 0
-4314 4313 327 0
-4314 -4313 -327 0
4314 -4313 327 0
4314 4313 -327 0
-4315 4314 328 0
-4315 -4314 -328 0
4315 -4314 328 0
4315 4314 -328 0
-4316 4315 330 0
-4316 -4315 -330 0
4316 -4315 330 0
4316 4315 -330 0
-240 -4316 0
-4317 337 339 0
-4317 -337 -339 0
4317 -337 339 0
4317 337 -339 0
-4318 4317 340 0
-4318 -4317 -340 0
4318 -4317 340 0
4318 4317 -340 0
-4319 4318 342 0
-4319 -4318 -342 0
4319 -4318 342 0
4319 4318 -342 0
-4320 4319 343 0
-4320 -4319 -343 0
4320 -4319 343 0
4320 4319 -343 0
-4321 4320 345 0
-4321 -4320 -345 0
4321 -4320 345 0
4321 4320 -345 0
-240 -4321 0
-4322 352 354 0
-4322 -352 -354 0
4322 -352 354 0
4322 352 -354 0
-4323 4322 355 0
-4323 -4322 -355 0
4323 -4322 355 0
4323 4322 -355 0
-4324 4323 357 0
-4324 -4323 -357 0
4324 -4323 357 0
4324 4323 -357 0
-4325 4324 358 0
-4325 -4324 -358 0
4325 -4324 358 0
4325 4324 -358 0
-4326 4325 360 0
-4326 -4325 -360 0
4326 -4325 360 0
4326 4325 -360 0
-240 -4326 0
-4327 321 322 0
-4327 -321 -322 0
4327 -321 322 0
4327 321 -322 0
-4328 4327 323 0
-4328 -4327 -323 0
4328 -4327 323 0
4328 4327 -323 0
-4329 4328 324 0
-4329 -4328 -324 0
4329 -4328 324 0
4329 4328 -324 0
-4330 4329 325 0
-4330 -4329 -325 0
4330 -4329 325 0
4330 4329 -325 0
-4331 4330 327 0
-4331 -4330 -327 0
4331 -4330 327 0
4331 4330 -327 0
-4332 4331 328 0
-4332 -4331 -328 0
4332 -4331 328 0
4332 4331 -328 0
-4333 4332 330 0
-4333 -4332 -330 0
4333 -4332 330 0
4333 4332 -330 0
-241 -4333 0
-4334 336 337 0
-4334 -336 -337 0
4334 -336 337 0
4334 336 -337 0
-4335 4334 338 0
-4335 -4334 -338 0
4335 -4334 338 0
4335 4334 -338 0
-4336 4335 339 0
-4336 -4335 -339 0
4336 -4335 339 0
4336 4335 -339 0
-4337 4336 340 0
-4337 -4336 -340 0
4337 -4336 340 0
4337 4336 -340 0
-4338 4337 342 0
-4338 -4337 -342 0
4338 -4337 342 0
4338 4337 -342 0
-4339 4338 343 0
-4339 -4338 -343 0
4339 -4338 343 0
4339 4338 -343 0
-4340 4339 345 0
-4340 -4339 -345 0
4340 -4339 345 0
4340 4339 -345 0
-241 -4340 0
-4341 351 352 0
-4341 -351 -352 0
4341 -351 352 0
4341 351 -352 0
-4342 4341 353 0
-4342 -4341 -353 0
4342 -4341 353 0
4342 4341 -353 0
-4343 4342 354 0
-4343 -4342 -354 0
4343 -4342 354 0
4343 4342 -354 0
-4344 4343 355 0
-4344 -4343 -355 0
4344 -4343 355 0
4344 4343 -355 0
-4345 4344 357 0
-4345 -4344 -357 0
4345 -4344 357 0
4345 4344 -357 0
-4346 4345 358 0
-4346 -4345 -358 0
4346 -4345 358 0
4346 4345 -358 0
-4347 4346 360 0
-4347 -4346 -360 0
4347 -4346 360 0
4347 4346 -360 0
-241 -4347 0
-4348 321 322 0
-4348 -321 -322 0
4348 -321 322 0
4348 321 -322 0
-4349 4348 324 0
-4349 -4348 -324 0
4349 -4348 324 0
4349 4348 -324 0
-4350 4349 325 0
-4350 -4349 -325 0
4350 -4349 325 0
4350 4349 -325 0
-4351 4350 326 0
-4351 -4350 -326 0
4351 -4350 326 0
4351 4350 -326 0
-4352 4351 327 0
-4352 -4351 -327 0
4352 -4351 327 0
4352 4351 -327 0
-4353 4352 328 0
-4353 -4352 -328 0
4353 -4352 328 0
4353 4352 -328 0
-4354 4353 330 0
-4354 -4353 -330 0
4354 -4353 330 0
4354 4353 -330 0
-242 -4354 0
-4355 336 337 0
-4355 -336 -337 0
4355 -336 337 0
4355 336 -337 0
-4356 4355 339 0
-4356 -4355 -339 0
4356 -4355 339 0
4356 4355 -339 0
-4357 4356 340 0
-4357 -4356 -340 0
4357 -4356 340 0
4357 4356 -340 0
-4358 4357 341 0
-4358 -4357 -341 0
4358 -4357 341 0
4358 4357 -341 0
-4359 4358 342 0
-4359 -4358 -342 0
4359 -4358 342 0
4359 4358 -342 0
-4360 4359 343 0
-4360 -4359 -343 0
4360 -4359 343 0
4360 4359 -343 0
-4361 4360 345 0
-4361 -4360 -345 0
4361 -4360 345 0
4361 4360 -345 0
-242 -4361 0
-4362 351 352 0
-4362 -351 -352 0
4362 -351 352 0
4362 351 -352 0
-4363 4362 354 0
-4363 -4362 -354 0
4363 -4362 354 0
4363 4362 -354 0
-4364 4363 355 0
-4364 -4363 -355 0
4364 -4363 355 0
4364 4363 -355 0
-4365 4364 356 0
-4365 -4364 -356 0
4365 -4364 356 0
4365 4364 -356 0
-4366 4365 357 0
-4366 -4365 -357 0
4366 -4365 357 0
4366 4365 -357 0
-4367 4366 358 0
-4367 -4366 -358 0
4367 -4366 358 0
4367 4366 -358 0
-4368 4367 360 0
-4368 -4367 -360 0
4368 -4367 360 0
4368 4367 -360 0
-242 -4368 0
-4369 322 323 0
-4369 -322 -323 0
4369 -322 323 0
4369 322 -323 0
-4370 4369 324 0
-4370 -4369 -324 0
4370 -4369 324 0
4370 4369 -324 0
-4371 4370 325 0
-4371 -4370 -325 0
4371 -4370 325 0
4371 4370 -325 0
-4372 4371 326 0
-4372 -4371 -326 0
4372 -4371 326 0
4372 4371 -326 0
-4373 4372 327 0
-4373 -4372 -327 0
4373 -4372 327 0
4373 4372 -327 0
-4374 4373 328 0
-4374 -4373 -328 0
4374 -4373 328 0
4374 4373 -328 0
-4375 4374 330 0
-4375 -4374 -330 0
4375 -4374 330 0
4375 4374 -330 0
-243 -4375 0
-4376 337 338 0
-4376 -337 -338 0
4376 -337 338 0
4376 337 -338 0
-4377 4376 339 0
-4377 -4376 -339 0
4377 -4376 339 0
4377 4376 -339 0
-4378 4377 340 0
-4378 -4377 -340 0
4378 -4377 340 0
4378 4377 -340 0
-4379 4378 341 0
-4379 -4378 -341 0
4379 -4378 341 0
4379 4378 -341 0
-4380 4379 342 0
-4380 -4379 -342 0
4380 -4379 342 0
4380 4379 -342 0
-4381 4380 343 0
-4381 -4380 -343 0
4381 -4380 343 0
4381 4380 -343 0
-4382 4381 345 0
-4382 -4381 -345 0
4382 -4381 345 0
4382 4381 -345 0
-243 -4382 0
-4383 352 353 0
-4383 -352 -353 0
4383 -352 353 0
4383 352 -353 0
-4384 4383 354 0
-4384 -4383 -354 0
4384 -4383 354 0
4384 4383 -354 0
-4385 4384 355 0
-4385 -4384 -355 0
4385 -4384 355 0
4385 4384 -355 0
-4386 4385 356 0
-4386 -4385 -356 0
4386 -4385 356 0
4386 4385 -356 0
-4387 4386 357 0
-4387 -4386 -357 0
4387 -4386 357 0
4387 4386 -357 0
-4388 4387 358 0
-4388 -4387 -358 0
4388 -4387 358 0
4388 4387 -358 0
-4389 4388 360 0
-4389 -4388 -360 0
4389 -4388 360 0
4389 4388 -360 0
-243 -4389 0
-4390 316 317 0
-4390 -316 -317 0
4390 -316 317 0
4390 316 -317 0
-4391 4390 319 0
-4391 -4390 -319 0
4391 -4390 319 0
4391 4390 -319 0
-4392 4391 320 0
-4392 -4391 -320 0
4392 -4391 320 0
4392 4391 -320 0
-4393 4392 324 0
-4393 -4392 -324 0
4393 -4392 324 0
4393 4392 -324 0
-4394 4393 327 0
-4394 -4393 -327 0
4394 -4393 327 0
4394 4393 -327 0
-4395 4394 330 0
-4395 -4394 -330 0
4395 -4394 330 0
4395 4394 -330 0
-244 -4395 0
-4396 331 332 0
-4396 -331 -332 0
4396 -331 332 0
4396 331 -332 0
-4397 4396 334 0
-4397 -4396 -334 0
4397 -4396 334 0
4397 4396 -334 0
-4398 4397 335 0
-4398 -4397 -335 0
4398 -4397 335 0
4398 4397 -335 0
-4399 4398 339 0
-4399 -4398 -339 0
4399 -4398 339 0
4399 4398 -339 0
-4400 4399 342 0
-4400 -4399 -342 0
4400 -4399 342 0
4400 4399 -342 0
-4401 4400 345 0
-4401 -4400 -345 0
4401 -4400 345 0
4401 4400 -345 0
-244 -4401 0
-4402 346 347 0
-4402 -346 -347 0
4402 -346 347 0
4402 346 -347 0
-4403 4402 349 0
-4403 -4402 -349 0
4403 -4402 349 0
4403 4402 -349 0
-4404 4403 350 0
-4404 -4403 -350 0
4404 -4403 350 0
4404 4403 -350 0
-4405 4404 354 0
-4405 -4404 -354 0
4405 -4404 354 0
4405 4404 -354 0
-4406 4405 357 0
-4406 -4405 -357 0
4406 -4405 357 0
4406 4405 -357 0
-4407 4406 360 0
-4407 -4406 -360 0
4407 -4406 360 0
4407 4406 -360 0
-244 -4407 0
-4408 316 320 0
-4408 -316 -320 0
4408 -316 320 0
4408 316 -320 0
-4409 4408 321 0
-4409 -4408 -321 0
4409 -4408 321 0
4409 4408 -321 0
-4410 4409 323 0
-4410 -4409 -323 0
4410 -4409 323 0
4410 4409 -323 0
-4411 4410 324 0
-4411 -4410 -324 0
4411 -4410 324 0
4411 4410 -324 0
-4412 4411 327 0
-4412 -4411 -327 0
4412 -4411 327 0
4412 4411 -327 0
-4413 4412 330 0
-4413 -4412 -330 0
4413 -4412 330 0
4413 4412 -330 0
-245 -4413 0
-4414 331 335 0
-4414 -331 -335 0
4414 -331 335 0
4414 331 -335 0
-4415 4414 336 0
-4415 -4414 -336 0
4415 -4414 336 0
4415 4414 -336 0
-4416 4415 338 0
-4416 -4415 -338 0
4416 -4415 338 0
4416 4415 -338 0
-4417 4416 339 0
-4417 -4416 -339 0
4417 -4416 339 0
4417 4416 -339 0
-4418 4417 342 0
-4418 -4417 -342 0
4418 -4417 342 0
4418 4417 -342 0
-4419 4418 345 0
-4419 -4418 -345 0
4419 -4418 345 0
4419 4418 -345 0
-245 -4419 0
-4420 346 350 0
-4420 -346 -350 0
4420 -346 350 0
4420 346 -350 0
-4421 4420 351 0
-4421 -4420 -351 0
4421 -4420 351 0
4421 4420 -351 0
-4422 4421 353 0
-4422 -4421 -353 0
4422 -4421 353 0
4422 4421 -353 0
-4423 4422 354 0
-4423 -4422 -354 0
4423 -4422 354 0
4423 4422 -354 0
-4424 4423 357 0
-4424 -4423 -357 0
4424 -4423 357 0
4424 4423 -357 0
-4425 4424 360 0
-4425 -4424 -360 0
4425 -4424 360 0
4425 4424 -360 0
-245 -4425 0
-4426 316 319 0
-4426 -316 -319 0
4426 -316 319 0
4426 316 -319 0
-4427 4426 320 0
-4427 -4426 -320 0
4427 -4426 320 0
4427 4426 -320 0
-4428 4427 321 0
-4428 -4427 -321 0
4428 -4427 321 0
4428 4427 -321 0
-4429 4428 324 0
-4429 -4428 -324 0
4429 -4428 324 0
4429 4428 -324 0
-4430 4429 326 0
-4430 -4429 -326 0
4430 -4429 326 0
4430 4429 -326 0
-4431 4430 327 0
-4431 -4430 -327 0
4431 -4430 327 0
4431 4430 -327 0
-4432 4431 330 0
-4432 -4431 -330 0
4432 -4431 330 0
4432 4431 -330 0
-246 -4432 0
-4433 331 334 0
-4433 -331 -334 0
4433 -331 334 0
4433 331 -334 0
-4434 4433 335 0
-4434 -4433 -335 0
4434 -4433 335 0
4434 4433 -335 0
-4435 4434 336 0
-4435 -4434 -336 0
4435 -4434 336 0
4435 4434 -336 0
-4436 4435 339 0
-4436 -4435 -339 0
4436 -4435 339 0
4436 4435 -339 0
-4437 4436 341 0
-4437 -4436 -341 0
4437 -4436 341 0
4437 4436 -341 0
-4438 4437 342 0
-4438 -4437 -342 0
4438 -4437 342 0
4438 4437 -342 0
-4439 4438 345 0
-4439 -4438 -345 0
4439 -4438 345 0
4439 4438 -345 0
-246 -4439 0
-4440 346 349 0
-4440 -346 -349 0
4440 -346 349 0
4440 346 -349 0
-4441 4440 350 0
-4441 -4440 -350 0
4441 -4440 350 0
4441 4440 -350 0
-4442 4441 351 0
-4442 -4441 -351 0
4442 -4441 351 0
4442 4441 -351 0
-4443 4442 354 0
-4443 -4442 -354 0
4443 -4442 354 0
4443 4442 -354 0
-4444 4443 356 0
-4444 -4443 -356 0
4444 -4443 356 0
4444 4443 -356 0
-4445 4444 357 0
-4445 -4444 -357 0
4445 -4444 357 0
4445 4444 -357 0
-4446 4445 360 0
-4446 -4445 -360 0
4446 -4445 360 0
4446 4445 -360 0
-246 -4446 0
-4447 316 317 0
-4447 -316 -317 0
4447 -316 317 0
4447 316 -317 0
-4448 4447 320 0
-4448 -4447 -320 0
4448 -4447 320 0
4448 4447 -320 0
-4449 4448 323 0
-4449 -4448 -323 0
4449 -4448 323 0
4449 4448 -323 0
-4450 4449 324 0
-4450 -4449 -324 0
4450 -4449 324 0
4450 4449 -324 0
-4451 4450 326 0
-4451 -4450 -326 0
4451 -4450 326 0
4451 4450 -326 0
-4452 4451 327 0
-4452 -4451 -327 0
4452 -4451 327 0
4452 4451 -327 0
-4453 4452 330 0
-4453 -4452 -330 0
4453 -4452 330 0
4453 4452 -330 0
-247 -4453 0
-4454 331 332 0
-4454 -331 -332 0
4454 -331 332 0
4454 331 -332 0
-4455 4454 335 0
-4455 -4454 -335 0
4455 -4454 335 0
4455 4454 -335 0
-4456 4455 338 0
-4456 -4455 -338 0
4456 -4455 338 0
4456 4455 -338 0
-4457 4456 339 0
-4457 -4456 -339 0
4457 -4456 339 0
4457 4456 -339 0
-4458 4457 341 0
-4458 -4457 -341 0
4458 -4457 341 0
4458 4457 -341 0
-4459 4458 342 0
-4459 -4458 -342 0
4459 -4458 342 0
4459 4458 -342 0
-4460 4459 345 0
-4460 -4459 -345 0
4460 -4459 345 0
4460 4459 -345 0
-247 -4460 0
-4461 346 347 0
-4461 -346 -347 0
4461 -346 347 0
4461 346 -347 0
-4462 4461 350 0
-4462 -4461 -350 0
4462 -4461 350 0
4462 4461 -350 0
-4463 4462 353 0
-4463 -4462 -353 0
4463 -4462 353 0
4463 4462 -353 0
-4464 4463 354 0
-4464 -4463 -354 0
4464 -4463 354 0
4464 4463 -354 0
-4465 4464 356 0
-4465 -4464 -356 0
4465 -4464 356 0
4465 4464 -356 0
-4466 4465 357 0
-4466 -4465 -357 0
4466 -4465 357 0
4466 4465 -357 0
-4467 4466 360 0
-4467 -4466 -360 0
4467 -4466 360 0
4467 4466 -360 0
-247 -4467 0
-4468 318 320 0
-4468 -318 -320 0
4468 -318 320 0
4468 318 -320 0
-4469 4468 322 0
-4469 -4468 -322 0
4469 -4468 322 0
4469 4468 -322 0
-4470 4469 324 0
-4470 -4469 -324 0
4470 -4469 324 0
4470 4469 -324 0
-4471 4470 325 0
-4471 -4470 -325 0
4471 -4470 325 0
4471 4470 -325 0
-4472 4471 327 0
-4472 -4471 -327 0
4472 -4471 327 0
4472 4471 -327 0
-4473 4472 328 0
-4473 -4472 -328 0
4473 -4472 328 0
4473 4472 -328 0
-4474 4473 330 0
-4474 -4473 -330 0
4474 -4473 330 0
4474 4473 -330 0
-248 -4474 0
-4475 333 335 0
-4475 -333 -335 0
4475 -333 335 0
4475 333 -335 0
-4476 4475 337 0
-4476 -4475 -337 0
4476 -4475 337 0
4476 4475 -337 0
-4477 4476 339 0
-4477 -4476 -339 0
4477 -4476 339 0
4477 4476 -339 0
-4478 4477 340 0
-4478 -4477 -340 0
4478 -4477 340 0
4478 4477 -340 0
-4479 4478 342 0
-4479 -4478 -342 0
4479 -4478 342 0
4479 4478 -342 0
-4480 4479 343 0
-4480 -4479 -343 0
4480 -4479 343 0
4480 4479 -343 0
-4481 4480 345 0
-4481 -4480 -345 0
4481 -4480 345 0
4481 4480 -345 0
-248 -4481 0
-4482 348 350 0
-4482 -348 -350 0
4482 -348 350 0
4482 348 -350 0
-4483 4482 352 0
-4483 -4482 -352 0
4483 -4482 352 0
4483 4482 -352 0
-4484 4483 354 0
-4484 -4483 -354 0
4484 -4483 354 0
4484 4483 -354 0
-4485 4484 355 0
-4485 -4484 -355 0
4485 -4484 355 0
4485 4484 -355 0
-4486 4485 357 0
-4486 -4485 -357 0
4486 -4485 357 0
4486 4485 -357 0
-4487 4486 358 0
-4487 -4486 -358 0
4487 -4486 358 0
4487 4486 -358 0
-4488 4487 360 0
-4488 -4487 -360 0
4488 -4487 360 0
4488 4487 -360 0
-248 -4488 0
-4489 317 318 0
-4489 -317 -318 0
4489 -317 318 0
4489 317 -318 0
-4490 4489 319 0
-4490 -4489 -319 0
4490 -4489 319 0
4490 4489 -319 0
-4491 4490 320 0
-4491 -4490 -320 0
4491 -4490 320 0
4491 4490 -320 0
-4492 4491 321 0
-4492 -4491 -321 0
4492 -4491 321 0
4492 4491 -321 0
-4493 4492 322 0
-4493 -4492 -322 0
4493 -4492 322 0
4493 4492 -322 0
-4494 4493 323 0
-4494 -4493 -323 0
4494 -4493 323 0
4494 4493 -323 0
-4495 4494 324 0
-4495 -4494 -324 0
4495 -4494 324 0
4495 4494 -324 0
-4496 4495 325 0
-4496 -4495 -325 0
4496 -4495 325 0
4496 4495 -325 0
-4497 4496 327 0
-4497 -4496 -327 0
4497 -4496 327 0
4497 4496 -327 0
-4498 4497 328 0
-4498 -4497 -328 0
4498 -4497 328 0
4498 4497 -328 0
-4499 4498 330 0
-4499 -4498 -330 0
4499 -4498 330 0
4499 4498 -330 0
-249 -4499 0
-4500 332 333 0
-4500 -332 -333 0
4500 -332 333 0
4500 332 -333 0
-4501 4500 334 0
-4501 -4500 -334 0
4501 -4500 334 0
4501 4500 -334 0
-4502 4501 335 0
-4502 -4501 -335 0
4502 -4501 335 0
4502 4501 -335 0
-4503 4502 336 0
-4503 -4502 -336 0
4503 -4502 336 0
4503 4502 -336 0
-4504 4503 337 0
-4504 -4503 -337 0
4504 -4503 337 0
4504 4503 -337 0
-4505 4504 338 0
-4505 -4504 -338 0
4505 -4504 338 0
4505 4504 -338 0
-4506 4505 339 0
-4506 -4505 -339 0
4506 -4505 339 0
4506 4505 -339 0
-4507 4506 340 0
-4507 -4506 -340 0
4507 -4506 340 0
4507 4506 -340 0
-4508 4507 342 0
-4508 -4507 -342 0
4508 -4507 342 0
4508 4507 -342 0
-4509 4508 343 0
-4509 -4508 -343 0
4509 -4508 343 0
4509 4508 -343 0
-4510 4509 345 0
-4510 -4509 -345 0
4510 -4509 345 0
4510 4509 -345 0
-249 -4510 0
-4511 347 348 0
-4511 -347 -348 0
4511 -347 348 0
4511 347 -348 0
-4512 4511 349 0
-4512 -4511 -349 0
4512 -4511 349 0
4512 4511 -349 0
-4513 4512 350 0
-4513 -4512 -350 0
4513 -4512 350 0
4513 4512 -350 0
-4514 4513 351 0
-4514 -4513 -351 0
4514 -4513 351 0
4514 4513 -351 0
-4515 4514 352 0
-4515 -4514 -352 0
4515 -4514 352 0
4515 4514 -352 0
-4516 4515 353 0
-4516 -4515 -353 0
4516 -4515 353 0
4516 4515 -353 0
-4517 4516 354 0
-4517 -4516 -354 0
4517 -4516 354 0
4517 4516 -354 0
-4518 4517 355 0
-4518 -4517 -355 0
4518 -4517 355 0
4518 4517 -355 0
-4519 4518 357 0
-4519 -4518 -357 0
4519 -4518 357 0
4519 4518 -357 0
-4520 4519 358 0
-4520 -4519 -358 0
4520 -4519 358 0
4520 4519 -358 0
-4521 4520 360 0
-4521 -4520 -360 0
4521 -4520 360 0
4521 4520 -360 0
-249 -4521 0
-4522 317 318 0
-4522 -317 -318 0
4522 -317 318 0
4522 317 -318 0
-4523 4522 320 0
-4523 -4522 -320 0
4523 -4522 320 0
4523 4522 -320 0
-4524 4523 321 0
-4524 -4523 -321 0
4524 -4523 321 0
4524 4523 -321 0
-4525 4524 322 0
-4525 -4524 -322 0
4525 -4524 322 0
4525 4524 -322 0
-4526 4525 324 0
-4526 -4525 -324 0
4526 -4525 324 0
4526 4525 -324 0
-4527 4526 325 0
-4527 -4526 -325 0
4527 -4526 325 0
4527 4526 -325 0
-4528 4527 326 0
-4528 -4527 -326 0
4528 -4527 326 0
4528 4527 -326 0
-4529 4528 327 0
-4529 -4528 -327 0
4529 -4528 327 0
4529 4528 -327 0
-4530 4529 328 0
-4530 -4529 -328 0
4530 -4529 328 0
4530 4529 -328 0
-4531 4530 330 0
-4531 -4530 -330 0
4531 -4530 330 0
4531 4530 -330 0
-250 -4531 0
-4532 332 333 0
-4532 -332 -333 0
4532 -332 333 0
4532 332 -333 0
-4533 4532 335 0
-4533 -4532 -335 0
4533 -4532 335 0
4533 4532 -335 0
-4534 4533 336 0
-4534 -4533 -336 0
4534 -4533 336 0
4534 4533 -336 0
-4535 4534 337 0
-4535 -4534 -337 0
4535 -4534 337 0
4535 4534 -337 0
-4536 4535 339 0
-4536 -4535 -339 0
4536 -4535 339 0
4536 4535 -339 0
-4537 4536 340 0
-4537 -4536 -340 0
4537 -4536 340 0
4537 4536 -340 0
-4538 4537 341 0
-4538 -4537 -341 0
4538 -4537 341 0
4538 4537 -341 0
-4539 4538 342 0
-4539 -4538 -342 0
4539 -4538 342 0
4539 4538 -342 0
-4540 4539 343 0
-4540 -4539 -343 0
4540 -4539 343 0
4540 4539 -343 0
-4541 4540 345 0
-4541 -4540 -345 0
4541 -4540 345 0
4541 4540 -345 0
-250 -4541 0
-4542 347 348 0
-4542 -347 -348 0
4542 -347 348 0
4542 347 -348 0
-4543 4542 350 0
-4543 -4542 -350 0
4543 -4542 350 0
4543 4542 -350 0
-4544 4543 351 0
-4544 -4543 -351 0
4544 -4543 351 0
4544 4543 -351 0
-4545 4544 352 0
-4545 -4544 -352 0
4545 -4544 352 0
4545 4544 -352 0
-4546 4545 354 0
-4546 -4545 -354 0
4546 -4545 354 0
4546 4545 -354 0
-4547 4546 355 0
-4547 -4546 -355 0
4547 -4546 355 0
4547 4546 -355 0
-4548 4547 356 0
-4548 -4547 -356 0
4548 -4547 356 0
4548 4547 -356 0
-4549 4548 357 0
-4549 -4548 -357 0
4549 -4548 357 0
4549 4548 -357 0
-4550 4549 358 0
-4550 -4549 -358 0
4550 -4549 358 0
4550 4549 -358 0
-4551 4550 360 0
-4551 -4550 -360 0
4551 -4550 360 0
4551 4550 -360 0
-250 -4551 0
-4552 318 319 0
-4552 -318 -319 0
4552 -318 319 0
4552 318 -319 0
-4553 4552 320 0
-4553 -4552 -320 0
4553 -4552 320 0
4553 4552 -320 0
-4554 4553 322 0
-4554 -4553 -322 0
4554 -4553 322 0
4554 4553 -322 0
-4555 4554 323 0
-4555 -4554 -323 0
4555 -4554 323 0
4555 4554 -323 0
-4556 4555 324 0
-4556 -4555 -324 0
4556 -4555 324 0
4556 4555 -324 0
-4557 4556 325 0
-4557 -4556 -325 0
4557 -4556 325 0
4557 4556 -325 0
-4558 4557 326 0
-4558 -4557 -326 0
4558 -4557 326 0
4558 4557 -326 0
-4559 4558 327 0
-4559 -4558 -327 0
4559 -4558 327 0
4559 4558 -327 0
-4560 4559 328 0
-4560 -4559 -328 0
4560 -4559 328 0
4560 4559 -328 0
-4561 4560 330 0
-4561 -4560 -330 0
4561 -4560 330 0
4561 4560 -330 0
-251 -4561 0
-4562 333 334 0
-4562 -333 -334 0
4562 -333 334 0
4562 333 -334 0
-4563 4562 335 0
-4563 -4562 -335 0
4563 -4562 335 0
4563 4562 -335 0
-4564 4563 337 0
-4564 -4563 -337 0
4564 -4563 337 0
4564 4563 -337 0
-4565 4564 338 0
-4565 -4564 -338 0
4565 -4564 338 0
4565 4564 -338 0
-4566 4565 339 0
-4566 -4565 -339 0
4566 -4565 339 0
4566 4565 -339 0
-4567 4566 340 0
-4567 -4566 -340 0
4567 -4566 340 0
4567 4566 -340 0
-4568 4567 341 0
-4568 -4567 -341 0
4568 -4567 341 0
4568 4567 -341 0
-4569 4568 342 0
-4569 -4568 -342 0
4569 -4568 342 0
4569 4568 -342 0
-4570 4569 343 0
-4570 -4569 -343 0
4570 -4569 343 0
4570 4569 -343 0
-4571 4570 345 0
-4571 -4570 -345 0
4571 -4570 345 0
4571 4570 -345 0
-251 -4571 0
-4572 348 349 0
-4572 -348 -349 0
4572 -348 349 0
4572 348 -349 0
-4573 4572 350 0
-4573 -4572 -350 0
4573 -4572 350 0
4573 4572 -350 0
-4574 4573 352 0
-4574 -4573 -352 0
4574 -4573 352 0
4574 4573 -352 0
-4575 4574 353 0
-4575 -4574 -353 0
4575 -4574 353 0
4575 4574 -353 0
-4576 4575 354 0
-4576 -4575 -354 0
4576 -4575 354 0
4576 4575 -354 0
-4577 4576 355 0
-4577 -4576 -355 0
4577 -4576 355 0
4577 4576 -355 0
-4578 4577 356 0
-4578 -4577 -356 0
4578 -4577 356 0
4578 4577 -356 0
-4579 4578 357 0
-4579 -4578 -357 0
4579 -4578 357 0
4579 4578 -357 0
-4580 4579 358 0
-4580 -4579 -358 0
4580 -4579 358 0
4580 4579 -358 0
-4581 4580 360 0
-4581 -4580 -360 0
4581 -4580 360 0
4581 4580 -360 0
-251 -4581 0
-4582 325 326 0
-4582 -325 -326 0
4582 -325 326 0
4582 325 -326 0
-4583 4582 329 0
-4583 -4582 -329 0
4583 -4582 329 0
4583 4582 -329 0
-4584 4583 330 0
-4584 -4583 -330 0
4584 -4583 330 0
4584 4583 -330 0
-252 -4584 0
-4585 340 341 0
-4585 -340 -341 0
4585 -340 341 0
4585 340 -341 0
-4586 4585 344 0
-4586 -4585 -344 0
4586 -4585 344 0
4586 4585 -344 0
-4587 4586 345 0
-4587 -4586 -345 0
4587 -4586 345 0
4587 4586 -345 0
-252 -4587 0
-4588 355 356 0
-4588 -355 -356 0
4588 -355 356 0
4588 355 -356 0
-4589 4588 359 0
-4589 -4588 -359 0
4589 -4588 359 0
4589 4588 -359 0
-4590 4589 360 0
-4590 -4589 -360 0
4590 -4589 360 0
4590 4589 -360 0
-252 -4590 0
-4591 318 319 0
-4591 -318 -319 0
4591 -318 319 0
4591 318 -319 0
-4592 4591 325 0
-4592 -4591 -325 0
4592 -4591 325 0
4592 4591 -325 0
-4593 4592 326 0
-4593 -4592 -326 0
4593 -4592 326 0
4593 4592 -326 0
-4594 4593 329 0
-4594 -4593 -329 0
4594 -4593 329 0
4594 4593 -329 0
-4595 4594 330 0
-4595 -4594 -330 0
4595 -4594 330 0
4595 4594 -330 0
-253 -4595 0
-4596 333 334 0
-4596 -333 -334 0
4596 -333 334 0
4596 333 -334 0
-4597 4596 340 0
-4597 -4596 -340 0
4597 -4596 340 0
4597 4596 -340 0
-4598 4597 341 0
-4598 -4597 -341 0
4598 -4597 341 0
4598 4597 -341 0
-4599 4598 344 0
-4599 -4598 -344 0
4599 -4598 344 0
4599 4598 -344 0
-4600 4599 345 0
-4600 -4599 -345 0
4600 -4599 345 0
4600 4599 -345 0
-253 -4600 0
-4601 348 349 0
-4601 -348 -349 0
4601 -348 349 0
4601 348 -349 0
-4602 4601 355 0
-4602 -4601 -355 0
4602 -4601 355 0
4602 4601 -355 0
-4603 4602 356 0
-4603 -4602 -356 0
4603 -4602 356 0
4603 4602 -356 0
-4604 4603 359 0
-4604 -4603 -359 0
4604 -4603 359 0
4604 4603 -359 0
-4605 4604 360 0
-4605 -4604 -360 0
4605 -4604 360 0
4605 4604 -360 0
-253 -4605 0
-4606 322 323 0
-4606 -322 -323 0
4606 -322 323 0
4606 322 -323 0
-4607 4606 325 0
-4607 -4606 -325 0
4607 -4606 325 0
4607 4606 -325 0
-4608 4607 326 0
-4608 -4607 -326 0
4608 -4607 326 0
4608 4607 -326 0
-4609 4608 329 0
-4609 -4608 -329 0
4609 -4608 329 0
4609 4608 -329 0
-4610 4609 330 0
-4610 -4609 -330 0
4610 -4609 330 0
4610 4609 -330 0
-254 -4610 0
-4611 337 338 0
-4611 -337 -338 0
4611 -337 338 0
4611 337 -338 0
-4612 4611 340 0
-4612 -4611 -340 0
4612 -4611 340 0
4612 4611 -340 0
-4613 4612 341 0
-4613 -4612 -341 0
4613 -4612 341 0
4613 4612 -341 0
-4614 4613 344 0
-4614 -4613 -344 0
4614 -4613 344 0
4614 4613 -344 0
-4615 4614 345 0
-4615 -4614 -345 0
4615 -4614 345 0
4615 4614 -345 0
-254 -4615 0
-4616 352 353 0
-4616 -352 -353 0
4616 -352 353 0
4616 352 -353 0
-4617 4616 355 0
-4617 -4616 -355 0
4617 -4616 355 0
4617 4616 -355 0
-4618 4617 356 0
-4618 -4617 -356 0
4618 -4617 356 0
4618 4617 -356 0
-4619 4618 359 0
-4619 -4618 -359 0
4619 -4618 359 0
4619 4618 -359 0
-4620 4619 360 0
-4620 -4619 -360 0
4620 -4619 360 0
4620 4619 -360 0
-254 -4620 0
-4621 318 319 0
-4621 -318 -319 0
4621 -318 319 0
4621 318 -319 0
-4622 4621 322 0
-4622 -4621 -322 0
4622 -4621 322 0
4622 4621 -322 0
-4623 4622 323 0
-4623 -4622 -323 0
4623 -4622 323 0
4623 4622 -323 0
-4624 4623 325 0
-4624 -4623 -325 0
4624 -4623 325 0
4624 4623 -325 0
-4625 4624 326 0
-4625 -4624 -326 0
4625 -4624 326 0
4625 4624 -326 0
-4626 4625 329 0
-4626 -4625 -329 0
4626 -4625 329 0
4626 4625 -329 0
-4627 4626 330 0
-4627 -4626 -330 0
4627 -4626 330 0
4627 4626 -330 0
-255 -4627 0
-4628 333 334 0
-4628 -333 -334 0
4628 -333 334 0
4628 333 -334 0
-4629 4628 337 0
-4629 -4628 -337 0
4629 -4628 337 0
4629 4628 -337 0
-4630 4629 338 0
-4630 -4629 -338 0
4630 -4629 338 0
4630 4629 -338 0
-4631 4630 340 0
-4631 -4630 -340 0
4631 -4630 340 0
4631 4630 -340 0
-4632 4631 341 0
-4632 -4631 -341 0
4632 -4631 341 0
4632 4631 -341 0
-4633 4632 344 0
-4633 -4632 -344 0
4633 -4632 344 0
4633 4632 -344 0
-4634 4633 345 0
-4634 -4633 -345 0
4634 -4633 345 0
4634 4633 -345 0
-255 -4634 0
-4635 348 349 0
-4635 -348 -349 0
4635 -348 349 0
4635 348 -349 0
-4636 4635 352 0
-4636 -4635 -352 0
4636 -4635 352 0
4636 4635 -352 0
-4637 4636 353 0
-4637 -4636 -353 0
4637 -4636 353 0
4637 4636 -353 0
-4638 4637 355 0
-4638 -4637 -355 0
4638 -4637 355 0
4638 4637 -355 0
-4639 4638 356 0
-4639 -4638 -356 0
4639 -4638 356 0
4639 4638 -356 0
-4640 4639 359 0
-4640 -4639 -359 0
4640 -4639 359 0
4640 4639 -359 0
-4641 4640 360 0
-4641 -4640 -360 0
4641 -4640 360 0
4641 4640 -360 0
-255 -4641 0
-4642 325 326 0
-4642 -325 -326 0
4642 -325 326 0
4642 325 -326 0
-4643 4642 328 0
-4643 -4642 -328 0
4643 -4642 328 0
4643 4642 -328 0
-4644 4643 329 0
-4644 -4643 -329 0
4644 -4643 329 0
4644 4643 -329 0
-4645 4644 330 0
-4645 -4644 -330 0
4645 -4644 330 0
4645 4644 -330 0
-256 -4645 0
-4646 340 341 0
-4646 -340 -341 0
4646 -340 341 0
4646 340 -341 0
-4647 4646 343 0
-4647 -4646 -343 0
4647 -4646 343 0
4647 4646 -343 0
-4648 4647 344 0
-4648 -4647 -344 0
4648 -4647 344 0
4648 4647 -344 0
-4649 4648 345 0
-4649 -4648 -345 0
4649 -4648 345 0
4649 4648 -345 0
-256 -4649 0
-4650 355 356 0
-4650 -355 -356 0
4650 -355 356 0
4650 355 -356 0
-4651 4650 358 0
-4651 -4650 -358 0
4651 -4650 358 0
4651 4650 -358 0
-4652 4651 359 0
-4652 -4651 -359 0
4652 -4651 359 0
4652 4651 -359 0
-4653 4652 360 0
-4653 -4652 -360 0
4653 -4652 360 0
4653 4652 -360 0
-256 -4653 0
-4654 318 319 0
-4654 -318 -319 0
4654 -318 319 0
4654 318 -319 0
-4655 4654 325 0
-4655 -4654 -325 0
4655 -4654 325 0
4655 4654 -325 0
-4656 4655 326 0
-4656 -4655 -326 0
4656 -4655 326 0
4656 4655 -326 0
-4657 4656 328 0
-4657 -4656 -328 0
4657 -4656 328 0
4657 4656 -328 0
-4658 4657 329 0
-4658 -4657 -329 0
4658 -4657 329 0
4658 4657 -329 0
-4659 4658 330 0
-4659 -4658 -330 0
4659 -4658 330 0
4659 4658 -330 0
-257 -4659 0
-4660 333 334 0
-4660 -333 -334 0
4660 -333 334 0
4660 333 -334 0
-4661 4660 340 0
-4661 -4660 -340 0
4661 -4660 340 0
4661 4660 -340 0
-4662 4661 341 0
-4662 -4661 -341 0
4662 -4661 341 0
4662 4661 -341 0
-4663 4662 343 0
-4663 -4662 -343 0
4663 -4662 343 0
4663 4662 -343 0
-4664 4663 344 0
-4664 -4663 -344 0
4664 -4663 344 0
4664 4663 -344 0
-4665 4664 345 0
-4665 -4664 -345 0
4665 -4664 345 0
4665 4664 -345 0
-257 -4665 0
-4666 348 349 0
-4666 -348 -349 0
4666 -348 349 0
4666 348 -349 0
-4667 4666 355 0
-4667 -4666 -355 0
4667 -4666 355 0
4667 4666 -355 0
-4668 4667 356 0
-4668 -4667 -356 0
4668 -4667 356 0
4668 4667 -356 0
-4669 4668 358 0
-4669 -4668 -358 0
4669 -4668 358 0
4669 4668 -358 0
-4670 4669 359 0
-4670 -4669 -359 0
4670 -4669 359 0
4670 4669 -359 0
-4671 4670 360 0
-4671 -4670 -360 0
4671 -4670 360 0
4671 4670 -360 0
-257 -4671 0
-4672 322 323 0
-4672 -322 -323 0
4672 -322 323 0
4672 322 -323 0
-4673 4672 325 0
-4673 -4672 -325 0
4673 -4672 325 0
4673 4672 -325 0
-4674 4673 326 0
-4674 -4673 -326 0
4674 -4673 326 0
4674 4673 -326 0
-4675 4674 328 0
-4675 -4674 -328 0
4675 -4674 328 0
4675 4674 -328 0
-4676 4675 329 0
-4676 -4675 -329 0
4676 -4675 329 0
4676 4675 -329 0
-4677 4676 330 0
-4677 -4676 -330 0
4677 -4676 330 0
4677 4676 -330 0
-258 -4677 0
-4678 337 338 0
-4678 -337 -338 0
4678 -337 338 0
4678 337 -338 0
-4679 4678 340 0
-4679 -4678 -340 0
4679 -4678 340 0
4679 4678 -340 0
-4680 4679 341 0
-4680 -4679 -341 0
4680 -4679 341 0
4680 4679 -341 0
-4681 4680 343 0
-4681 -4680 -343 0
4681 -4680 343 0
4681 4680 -343 0
-4682 4681 344 0
-4682 -4681 -344 0
4682 -4681 344 0
4682 4681 -344 0
-4683 4682 345 0
-4683 -4682 -345 0
4683 -4682 345 0
4683 4682 -345 0
-258 -4683 0
-4684 352 353 0
-4684 -352 -353 0
4684 -352 353 0
4684 352 -353 0
-4685 4684 355 0
-4685 -4684 -355 0
4685 -4684 355 0
4685 4684 -355 0
-4686 4685 356 0
-4686 -4685 -356 0
4686 -4685 356 0
4686 4685 -356 0
-4687 4686 358 0
-4687 -4686 -358 0
4687 -4686 358 0
4687 4686 -358 0
-4688 4687 359 0
-4688 -4687 -359 0
4688 -4687 359 0
4688 4687 -359 0
-4689 4688 360 0
-4689 -4688 -360 0
4689 -4688 360 0
4689 4688 -360 0
-258 -4689 0
-4690 318 319 0
-4690 -318 -319 0
4690 -318 319 0
4690 318 -319 0
-4691 4690 322 0
-4691 -4690 -322 0
4691 -4690 322 0
4691 4690 -322 0
-4692 4691 323 0
-4692 -4691 -323 0
4692 -4691 323 0
4692 4691 -323 0
-4693 4692 325 0
-4693 -4692 -325 0
4693 -4692 325 0
4693 4692 -325 0
-4694 4693 326 0
-4694 -4693 -326 0
4694 -4693 326 0
4694 4693 -326 0
-4695 4694 328 0
-4695 -4694 -328 0
4695 -4694 328 0
4695 4694 -328 0
-4696 4695 329 0
-4696 -4695 -329 0
4696 -4695 329 0
4696 4695 -329 0
-4697 4696 330 0
-4697 -4696 -330 0
4697 -4696 330 0
4697 4696 -330 0
-259 -4697 0
-4698 333 334 0
-4698 -333 -334 0
4698 -333 334 0
4698 333 -334 0
-4699 4698 337 0
-4699 -4698 -337 0
4699 -4698 337 0
4699 4698 -337 0
-4700 4699 338 0
-4700 -4699 -338 0
4700 -4699 338 0
4700 4699 -338 0
-4701 4700 340 0
-4701 -4700 -340 0
4701 -4700 340 0
4701 4700 -340 0
-4702 4701 341 0
-4702 -4701 -341 0
4702 -4701 341 0
4702 4701 -341 0
-4703 4702 343 0
-4703 -4702 -343 0
4703 -4702 343 0
4703 4702 -343 0
-4704 4703 344 0
-4704 -4703 -344 0
4704 -4703 344 0
4704 4703 -344 0
-4705 4704 345 0
-4705 -4704 -345 0
4705 -4704 345 0
4705 4704 -345 0
-259 -4705 0
-4706 348 349 0
-4706 -348 -349 0
4706 -348 349 0
4706 348 -349 0
-4707 4706 352 0
-4707 -4706 -352 0
4707 -4706 352 0
4707 4706 -352 0
-4708 4707 353 0
-4708 -4707 -353 0
4708 -4707 353 0
4708 4707 -353 0
-4709 4708 355 0
-4709 -4708 -355 0
4709 -4708 355 0
4709 4708 -355 0
-4710 4709 356 0
-4710 -4709 -356 0
4710 -4709 356 0
4710 4709 -356 0
-4711 4710 358 0
-4711 -4710 -358 0
4711 -4710 358 0
4711 4710 -358 0
-4712 4711 359 0
-4712 -4711 -359 0
4712 -4711 359 0
4712 4711 -359 0
-4713 4712 360 0
-4713 -4712 -360 0
4713 -4712 360 0
4713 4712 -360 0
-259 -4713 0
-4714 316 320 0
-4714 -316 -320 0
4714 -316 320 0
4714 316 -320 0
-4715 4714 322 0
-4715 -4714 -322 0
4715 -4714 322 0
4715 4714 -322 0
-4716 4715 323 0
-4716 -4715 -323 0
4716 -4715 323 0
4716 4715 -323 0
-4717 4716 329 0
-4717 -4716 -329 0
4717 -4716 329 0
4717 4716 -329 0
-4718 4717 330 0
-4718 -4717 -330 0
4718 -4717 330 0
4718 4717 -330 0
-260 -4718 0
-4719 331 335 0
-4719 -331 -335 0
4719 -331 335 0
4719 331 -335 0
-4720 4719 337 0
-4720 -4719 -337 0
4720 -4719 337 0
4720 4719 -337 0
-4721 4720 338 0
-4721 -4720 -338 0
4721 -4720 338 0
4721 4720 -338 0
-4722 4721 344 0
-4722 -4721 -344 0
4722 -4721 344 0
4722 4721 -344 0
-4723 4722 345 0
-4723 -4722 -345 0
4723 -4722 345 0
4723 4722 -345 0
-260 -4723 0
-4724 346 350 0
-4724 -346 -350 0
4724 -346 350 0
4724 346 -350 0
-4725 4724 352 0
-4725 -4724 -352 0
4725 -4724 352 0
4725 4724 -352 0
-4726 4725 353 0
-4726 -4725 -353 0
4726 -4725 353 0
4726 4725 -353 0
-4727 4726 359 0
-4727 -4726 -359 0
4727 -4726 359 0
4727 4726 -359 0
-4728 4727 360 0
-4728 -4727 -360 0
4728 -4727 360 0
4728 4727 -360 0
-260 -4728 0
-4729 316 318 0
-4729 -316 -318 0
4729 -316 318 0
4729 316 -318 0
-4730 4729 319 0
-4730 -4729 -319 0
4730 -4729 319 0
4730 4729 -319 0
-4731 4730 320 0
-4731 -4730 -320 0
4731 -4730 320 0
4731 4730 -320 0
-4732 4731 322 0
-4732 -4731 -322 0
4732 -4731 322 0
4732 4731 -322 0
-4733 4732 323 0
-4733 -4732 -323 0
4733 -4732 323 0
4733 4732 -323 0
-4734 4733 329 0
-4734 -4733 -329 0
4734 -4733 329 0
4734 4733 -329 0
-4735 4734 330 0
-4735 -4734 -330 0
4735 -4734 330 0
4735 4734 -330 0
-261 -4735 0
-4736 331 333 0
-4736 -331 -333 0
4736 -331 333 0
4736 331 -333 0
-4737 4736 334 0
-4737 -4736 -334 0
4737 -4736 334 0
4737 4736 -334 0
-4738 4737 335 0
-4738 -4737 -335 0
4738 -4737 335 0
4738 4737 -335 0
-4739 4738 337 0
-4739 -4738 -337 0
4739 -4738 337 0
4739 4738 -337 0
-4740 4739 338 0
-4740 -4739 -338 0
4740 -4739 338 0
4740 4739 -338 0
-4741 4740 344 0
-4741 -4740 -344 0
4741 -4740 344 0
4741 4740 -344 0
-4742 4741 345 0
-4742 -4741 -345 0
4742 -4741 345 0
4742 4741 -345 0
-261 -4742 0
-4743 346 348 0
-4743 -346 -348 0
4743 -346 348 0
4743 346 -348 0
-4744 4743 349 0
-4744 -4743 -349 0
4744 -4743 349 0
4744 4743 -349 0
-4745 4744 350 0
-4745 -4744 -350 0
4745 -4744 350 0
4745 4744 -350 0
-4746 4745 352 0
-4746 -4745 -352 0
4746 -4745 352 0
4746 4745 -352 0
-4747 4746 353 0
-4747 -4746 -353 0
4747 -4746 353 0
4747 4746 -353 0
-4748 4747 359 0
-4748 -4747 -359 0
4748 -4747 359 0
4748 4747 -359 0
-4749 4748 360 0
-4749 -4748 -360 0
4749 -4748 360 0
4749 4748 -360 0
-261 -4749 0
-4750 317 320 0
-4750 -317 -320 0
4750 -317 320 0
4750 317 -320 0
-4751 4750 325 0
-4751 -4750 -325 0
4751 -4750 325 0
4751 4750 -325 0
-4752 4751 326 0
-4752 -4751 -326 0
4752 -4751 326 0
4752 4751 -326 0
-4753 4752 329 0
-4753 -4752 -329 0
4753 -4752 329 0
4753 4752 -329 0
-4754 4753 330 0
-4754 -4753 -330 0
4754 -4753 330 0
4754 4753 -330 0
-262 -4754 0
-4755 332 335 0
-4755 -332 -335 0
4755 -332 335 0
4755 332 -335 0
-4756 4755 340 0
-4756 -4755 -340 0
4756 -4755 340 0
4756 4755 -340 0
-4757 4756 341 0
-4757 -4756 -341 0
4757 -4756 341 0
4757 4756 -341 0
-4758 4757 344 0
-4758 -4757 -344 0
4758 -4757 344 0
4758 4757 -344 0
-4759 4758 345 0
-4759 -4758 -345 0
4759 -4758 345 0
4759 4758 -345 0
-262 -4759 0
-4760 347 350 0
-4760 -347 -350 0
4760 -347 350 0
4760 347 -350 0
-4761 4760 355 0
-4761 -4760 -355 0
4761 -4760 355 0
4761 4760 -355 0
-4762 4761 356 0
-4762 -4761 -356 0
4762 -4761 356 0
4762 4761 -356 0
-4763 4762 359 0
-4763 -4762 -359 0
4763 -4762 359 0
4763 4762 -359 0
-4764 4763 360 0
-4764 -4763 -360 0
4764 -4763 360 0
4764 4763 -360 0
-262 -4764 0
-4765 317 318 0
-4765 -317 -318 0
4765 -317 318 0
4765 317 -318 0
-4766 4765 319 0
-4766 -4765 -319 0
4766 -4765 319 0
4766 4765 -319 0
-4767 4766 320 0
-4767 -4766 -320 0
4767 -4766 320 0
4767 4766 -320 0
-4768 4767 325 0
-4768 -4767 -325 0
4768 -4767 325 0
4768 4767 -325 0
-4769 4768 326 0
-4769 -4768 -326 0
4769 -4768 326 0
4769 4768 -326 0
-4770 4769 329 0
-4770 -4769 -329 0
4770 -4769 329 0
4770 4769 -329 0
-4771 4770 330 0
-4771 -4770 -330 0
4771 -4770 330 0
4771 4770 -330 0
-263 -4771 0
-4772 332 333 0
-4772 -332 -333 0
4772 -332 333 0
4772 332 -333 0
-4773 4772 334 0
-4773 -4772 -334 0
4773 -4772 334 0
4773 4772 -334 0
-4774 4773 335 0
-4774 -4773 -335 0
4774 -4773 335 0
4774 4773 -335 0
-4775 4774 340 0
-4775 -4774 -340 0
4775 -4774 340 0
4775 4774 -340 0
-4776 4775 341 0
-4776 -4775 -341 0
4776 -4775 341 0
4776 4775 -341 0
-4777 4776 344 0
-4777 -4776 -344 0
4777 -4776 344 0
4777 4776 -344 0
-4778 4777 345 0
-4778 -4777 -345 0
4778 -4777 345 0
4778 4777 -345 0
-263 -4778 0
-4779 347 348 0
-4779 -347 -348 0
4779 -347 348 0
4779 347 -348 0
-4780 4779 349 0
-4780 -4779 -349 0
4780 -4779 349 0
4780 4779 -349 0
-4781 4780 350 0
-4781 -4780 -350 0
4781 -4780 350 0
4781 4780 -350 0
-4782 4781 355 0
-4782 -4781 -355 0
4782 -4781 355 0
4782 4781 -355 0
-4783 4782 356 0
-4783 -4782 -356 0
4783 -4782 356 0
4783 4782 -356 0
-4784 4783 359 0
-4784 -4783 -359 0
4784 -4783 359 0
4784 4783 -359 0
-4785 4784 360 0
-4785 -4784 -360 0
4785 -4784 360 0
4785 4784 -360 0
-263 -4785 0
-4786 316 318 0
-4786 -316 -318 0
4786 -316 318 0
4786 316 -318 0
-4787 4786 320 0
-4787 -4786 -320 0
4787 -4786 320 0
4787 4786 -320 0
-4788 4787 322 0
-4788 -4787 -322 0
4788 -4787 322 0
4788 4787 -322 0
-4789 4788 323 0
-4789 -4788 -323 0
4789 -4788 323 0
4789 4788 -323 0
-4790 4789 328 0
-4790 -4789 -328 0
4790 -4789 328 0
4790 4789 -328 0
-4791 4790 329 0
-4791 -4790 -329 0
4791 -4790 329 0
4791 4790 -329 0
-4792 4791 330 0
-4792 -4791 -330 0
4792 -4791 330 0
4792 4791 -330 0
-264 -4792 0
-4793 331 333 0
-4793 -331 -333 0
4793 -331 333 0
4793 331 -333 0
-4794 4793 335 0
-4794 -4793 -335 0
4794 -4793 335 0
4794 4793 -335 0
-4795 4794 337 0
-4795 -4794 -337 0
4795 -4794 337 0
4795 4794 -337 0
-4796 4795 338 0
-4796 -4795 -338 0
4796 -4795 338 0
4796 4795 -338 0
-4797 4796 343 0
-4797 -4796 -343 0
4797 -4796 343 0
4797 4796 -343 0
-4798 4797 344 0
-4798 -4797 -344 0
4798 -4797 344 0
4798 4797 -344 0
-4799 4798 345 0
-4799 -4798 -345 0
4799 -4798 345 0
4799 4798 -345 0
-264 -4799 0
-4800 346 348 0
-4800 -346 -348 0
4800 -346 348 0
4800 346 -348 0
-4801 4800 350 0
-4801 -4800 -350 0
4801 -4800 350 0
4801 4800 -350 0
-4802 4801 352 0
-4802 -4801 -352 0
4802 -4801 352 0
4802 4801 -352 0
-4803 4802 353 0
-4803 -4802 -353 0
4803 -4802 353 0
4803 4802 -353 0
-4804 4803 358 0
-4804 -4803 -358 0
4804 -4803 358 0
4804 4803 -358 0
-4805 4804 359 0
-4805 -4804 -359 0
4805 -4804 359 0
4805 4804 -359 0
-4806 4805 360 0
-4806 -4805 -360 0
4806 -4805 360 0
4806 4805 -360 0
-264 -4806 0
-4807 316 319 0
-4807 -316 -319 0
4807 -316 319 0
4807 316 -319 0
-4808 4807 320 0
-4808 -4807 -320 0
4808 -4807 320 0
4808 4807 -320 0
-4809 4808 322 0
-4809 -4808 -322 0
4809 -4808 322 0
4809 4808 -322 0
-4810 4809 323 0
-4810 -4809 -323 0
4810 -4809 323 0
4810 4809 -323 0
-4811 4810 328 0
-4811 -4810 -328 0
4811 -4810 328 0
4811 4810 -328 0
-4812 4811 329 0
-4812 -4811 -329 0
4812 -4811 329 0
4812 4811 -329 0
-4813 4812 330 0
-4813 -4812 -330 0
4813 -4812 330 0
4813 4812 -330 0
-265 -4813 0
-4814 331 334 0
-4814 -331 -334 0
4814 -331 334 0
4814 331 -334 0
-4815 4814 335 0
-4815 -4814 -335 0
4815 -4814 335 0
4815 4814 -335 0
-4816 4815 337 0
-4816 -4815 -337 0
4816 -4815 337 0
4816 4815 -337 0
-4817 4816 338 0
-4817 -4816 -338 0
4817 -4816 338 0
4817 4816 -338 0
-4818 4817 343 0
-4818 -4817 -343 0
4818 -4817 343 0
4818 4817 -343 0
-4819 4818 344 0
-4819 -4818 -344 0
4819 -4818 344 0
4819 4818 -344 0
-4820 4819 345 0
-4820 -4819 -345 0
4820 -4819 345 0
4820 4819 -345 0
-265 -4820 0
-4821 346 349 0
-4821 -346 -349 0
4821 -346 349 0
4821 346 -349 0
-4822 4821 350 0
-4822 -4821 -350 0
4822 -4821 350 0
4822 4821 -350 0
-4823 4822 352 0
-4823 -4822 -352 0
4823 -4822 352 0
4823 4822 -352 0
-4824 4823 353 0
-4824 -4823 -353 0
4824 -4823 353 0
4824 4823 -353 0
-4825 4824 358 0
-4825 -4824 -358 0
4825 -4824 358 0
4825 4824 -358 0
-4826 4825 359 0
-4826 -4825 -359 0
4826 -4825 359 0
4826 4825 -359 0
-4827 4826 360 0
-4827 -4826 -360 0
4827 -4826 360 0
4827 4826 -360 0
-265 -4827 0
-4828 317 318 0
-4828 -317 -318 0
4828 -317 318 0
4828 317 -318 0
-4829 4828 320 0
-4829 -4828 -320 0
4829 -4828 320 0
4829 4828 -320 0
-4830 4829 325 0
-4830 -4829 -325 0
4830 -4829 325 0
4830 4829 -325 0
-4831 4830 326 0
-4831 -4830 -326 0
4831 -4830 326 0
4831 4830 -326 0
-4832 4831 328 0
-4832 -4831 -328 0
4832 -4831 328 0
4832 4831 -328 0
-4833 4832 329 0
-4833 -4832 -329 0
4833 -4832 329 0
4833 4832 -329 0
-4834 4833 330 0
-4834 -4833 -330 0
4834 -4833 330 0
4834 4833 -330 0
-266 -4834 0
-4835 332 333 0
-4835 -332 -333 0
4835 -332 333 0
4835 332 -333 0
-4836 4835 335 0
-4836 -4835 -335 0
4836 -4835 335 0
4836 4835 -335 0
-4837 4836 340 0
-4837 -4836 -340 0
4837 -4836 340 0
4837 4836 -340 0
-4838 4837 341 0
-4838 -4837 -341 0
4838 -4837 341 0
4838 4837 -341 0
-4839 4838 343 0
-4839 -4838 -343 0
4839 -4838 343 0
4839 4838 -343 0
-4840 4839 344 0
-4840 -4839 -344 0
4840 -4839 344 0
4840 4839 -344 0
-4841 4840 345 0
-4841 -4840 -345 0
4841 -4840 345 0
4841 4840 -345 0
-266 -4841 0
-4842 347 348 0
-4842 -347 -348 0
4842 -347 348 0
4842 347 -348 0
-4843 4842 350 0
-4843 -4842 -350 0
4843 -4842 350 0
4843 4842 -350 0
-4844 4843 355 0
-4844 -4843 -355 0
4844 -4843 355 0
4844 4843 -355 0
-4845 4844 356 0
-4845 -4844 -356 0
4845 -4844 356 0
4845 4844 -356 0
-4846 4845 358 0
-4846 -4845 -358 0
4846 -4845 358 0
4846 4845 -358 0
-4847 4846 359 0
-4847 -4846 -359 0
4847 -4846 359 0
4847 4846 -359 0
-4848 4847 360 0
-4848 -4847 -360 0
4848 -4847 360 0
4848 4847 -360 0
-266 -4848 0
-4849 317 319 0
-4849 -317 -319 0
4849 -317 319 0
4849 317 -319 0
-4850 4849 320 0
-4850 -4849 -320 0
4850 -4849 320 0
4850 4849 -320 0
-4851 4850 325 0
-4851 -4850 -325 0
4851 -4850 325 0
4851 4850 -325 0
-4852 4851 326 0
-4852 -4851 -326 0
4852 -4851 326 0
4852 4851 -326 0
-4853 4852 328 0
-4853 -4852 -328 0
4853 -4852 328 0
4853 4852 -328 0
-4854 4853 329 0
-4854 -4853 -329 0
4854 -4853 329 0
4854 4853 -329 0
-4855 4854 330 0
-4855 -4854 -330 0
4855 -4854 330 0
4855 4854 -330 0
-267 -4855 0
-4856 332 334 0
-4856 -332 -334 0
4856 -332 334 0
4856 332 -334 0
-4857 4856 335 0
-4857 -4856 -335 0
4857 -4856 335 0
4857 4856 -335 0
-4858 4857 340 0
-4858 -4857 -340 0
4858 -4857 340 0
4858 4857 -340 0
-4859 4858 341 0
-4859 -4858 -341 0
4859 -4858 341 0
4859 4858 -341 0
-4860 4859 343 0
-4860 -4859 -343 0
4860 -4859 343 0
4860 4859 -343 0
-4861 4860 344 0
-4861 -4860 -344 0
4861 -4860 344 0
4861 4860 -344 0
-4862 4861 345 0
-4862 -4861 -345 0
4862 -4861 345 0
4862 4861 -345 0
-267 -4862 0
-4863 347 349 0
-4863 -347 -349 0
4863 -347 349 0
4863 347 -349 0
-4864 4863 350 0
-4864 -4863 -350 0
4864 -4863 350 0
4864 4863 -350 0
-4865 4864 355 0
-4865 -4864 -355 0
4865 -4864 355 0
4865 4864 -355 0
-4866 4865 356 0
-4866 -4865 -356 0
4866 -4865 356 0
4866 4865 -356 0
-4867 4866 358 0
-4867 -4866 -358 0
4867 -4866 358 0
4867 4866 -358 0
-4868 4867 359 0
-4868 -4867 -359 0
4868 -4867 359 0
4868 4867 -359 0
-4869 4868 360 0
-4869 -4868 -360 0
4869 -4868 360 0
4869 4868 -360 0
-267 -4869 0
-4870 316 318 0
-4870 -316 -318 0
4870 -316 318 0
4870 316 -318 0
-4871 4870 319 0
-4871 -4870 -319 0
4871 -4870 319 0
4871 4870 -319 0
-4872 4871 324 0
-4872 -4871 -324 0
4872 -4871 324 0
4872 4871 -324 0
-4873 4872 329 0
-4873 -4872 -329 0
4873 -4872 329 0
4873 4872 -329 0
-4874 4873 330 0
-4874 -4873 -330 0
4874 -4873 330 0
4874 4873 -330 0
-268 -4874 0
-4875 331 333 0
-4875 -331 -333 0
4875 -331 333 0
4875 331 -333 0
-4876 4875 334 0
-4876 -4875 -334 0
4876 -4875 334 0
4876 4875 -334 0
-4877 4876 339 0
-4877 -4876 -339 0
4877 -4876 339 0
4877 4876 -339 0
-4878 4877 344 0
-4878 -4877 -344 0
4878 -4877 344 0
4878 4877 -344 0
-4879 4878 345 0
-4879 -4878 -345 0
4879 -4878 345 0
4879 4878 -345 0
-268 -4879 0
-4880 346 348 0
-4880 -346 -348 0
4880 -346 348 0
4880 346 -348 0
-4881 4880 349 0
-4881 -4880 -349 0
4881 -4880 349 0
4881 4880 -349 0
-4882 4881 354 0
-4882 -4881 -354 0
4882 -4881 354 0
4882 4881 -354 0
-4883 4882 359 0
-4883 -4882 -359 0
4883 -4882 359 0
4883 4882 -359 0
-4884 4883 360 0
-4884 -4883 -360 0
4884 -4883 360 0
4884 4883 -360 0
-268 -4884 0
-4885 316 318 0
-4885 -316 -318 0
4885 -316 318 0
4885 316 -318 0
-4886 4885 319 0
-4886 -4885 -319 0
4886 -4885 319 0
4886 4885 -319 0
-4887 4886 322 0
-4887 -4886 -322 0
4887 -4886 322 0
4887 4886 -322 0
-4888 4887 323 0
-4888 -4887 -323 0
4888 -4887 323 0
4888 4887 -323 0
-4889 4888 324 0
-4889 -4888 -324 0
4889 -4888 324 0
4889 4888 -324 0
-4890 4889 329 0
-4890 -4889 -329 0
4890 -4889 329 0
4890 4889 -329 0
-4891 4890 330 0
-4891 -4890 -330 0
4891 -4890 330 0
4891 4890 -330 0
-269 -4891 0
-4892 331 333 0
-4892 -331 -333 0
4892 -331 333 0
4892 331 -333 0
-4893 4892 334 0
-4893 -4892 -334 0
4893 -4892 334 0
4893 4892 -334 0
-4894 4893 337 0
-4894 -4893 -337 0
4894 -4893 337 0
4894 4893 -337 0
-4895 4894 338 0
-4895 -4894 -338 0
4895 -4894 338 0
4895 4894 -338 0
-4896 4895 339 0
-4896 -4895 -339 0
4896 -4895 339 0
4896 4895 -339 0
-4897 4896 344 0
-4897 -4896 -344 0
4897 -4896 344 0
4897 4896 -344 0
-4898 4897 345 0
-4898 -4897 -345 0
4898 -4897 345 0
4898 4897 -345 0
-269 -4898 0
-4899 346 348 0
-4899 -346 -348 0
4899 -346 348 0
4899 346 -348 0
-4900 4899 349 0
-4900 -4899 -349 0
4900 -4899 349 0
4900 4899 -349 0
-4901 4900 352 0
-4901 -4900 -352 0
4901 -4900 352 0
4901 4900 -352 0
-4902 4901 353 0
-4902 -4901 -353 0
4902 -4901 353 0
4902 4901 -353 0
-4903 4902 354 0
-4903 -4902 -354 0
4903 -4902 354 0
4903 4902 -354 0
-4904 4903 359 0
-4904 -4903 -359 0
4904 -4903 359 0
4904 4903 -359 0
-4905 4904 360 0
-4905 -4904 -360 0
4905 -4904 360 0
4905 4904 -360 0
-269 -4905 0
-4906 321 324 0
-4906 -321 -324 0
4906 -321 324 0
4906 321 -324 0
-4907 4906 325 0
-4907 -4906 -325 0
4907 -4906 325 0
4907 4906 -325 0
-4908 4907 326 0
-4908 -4907 -326 0
4908 -4907 326 0
4908 4907 -326 0
-4909 4908 329 0
-4909 -4908 -329 0
4909 -4908 329 0
4909 4908 -329 0
-4910 4909 330 0
-4910 -4909 -330 0
4910 -4909 330 0
4910 4909 -330 0
-270 -4910 0
-4911 336 339 0
-4911 -336 -339 0
4911 -336 339 0
4911 336 -339 0
-4912 4911 340 0
-4912 -4911 -340 0
4912 -4911 340 0
4912 4911 -340 0
-4913 4912 341 0
-4913 -4912 -341 0
4913 -4912 341 0
4913 4912 -341 0
-4914 4913 344 0
-4914 -4913 -344 0
4914 -4913 344 0
4914 4913 -344 0
-4915 4914 345 0
-4915 -4914 -345 0
4915 -4914 345 0
4915 4914 -345 0
-270 -4915 0
-4916 351 354 0
-4916 -351 -354 0
4916 -351 354 0
4916 351 -354 0
-4917 4916 355 0
-4917 -4916 -355 0
4917 -4916 355 0
4917 4916 -355 0
-4918 4917 356 0
-4918 -4917 -356 0
4918 -4917 356 0
4918 4917 -356 0
-4919 4918 359 0
-4919 -4918 -359 0
4919 -4918 359 0
4919 4918 -359 0
-4920 4919 360 0
-4920 -4919 -360 0
4920 -4919 360 0
4920 4919 -360 0
-270 -4920 0
-4921 321 322 0
-4921 -321 -322 0
4921 -321 322 0
4921 321 -322 0
-4922 4921 323 0
-4922 -4921 -323 0
4922 -4921 323 0
4922 4921 -323 0
-4923 4922 324 0
-4923 -4922 -324 0
4923 -4922 324 0
4923 4922 -324 0
-4924 4923 325 0
-4924 -4923 -325 0
4924 -4923 325 0
4924 4923 -325 0
-4925 4924 326 0
-4925 -4924 -326 0
4925 -4924 326 0
4925 4924 -326 0
-4926 4925 329 0
-4926 -4925 -329 0
4926 -4925 329 0
4926 4925 -329 0
-4927 4926 330 0
-4927 -4926 -330 0
4927 -4926 330 0
4927 4926 -330 0
-271 -4927 0
-4928 336 337 0
-4928 -336 -337 0
4928 -336 337 0
4928 336 -337 0
-4929 4928 338 0
-4929 -4928 -338 0
4929 -4928 338 0
4929 4928 -338 0
-4930 4929 339 0
-4930 -4929 -339 0
4930 -4929 339 0
4930 4929 -339 0
-4931 4930 340 0
-4931 -4930 -340 0
4931 -4930 340 0
4931 4930 -340 0
-4932 4931 341 0
-4932 -4931 -341 0
4932 -4931 341 0
4932 4931 -341 0
-4933 4932 344 0
-4933 -4932 -344 0
4933 -4932 344 0
4933 4932 -344 0
-4934 4933 345 0
-4934 -4933 -345 0
4934 -4933 345 0
4934 4933 -345 0
-271 -4934 0
-4935 351 352 0
-4935 -351 -352 0
4935 -351 352 0
4935 351 -352 0
-4936 4935 353 0
-4936 -4935 -353 0
4936 -4935 353 0
4936 4935 -353 0
-4937 4936 354 0
-4937 -4936 -354 0
4937 -4936 354 0
4937 4936 -354 0
-4938 4937 355 0
-4938 -4937 -355 0
4938 -4937 355 0
4938 4937 -355 0
-4939 4938 356 0
-4939 -4938 -356 0
4939 -4938 356 0
4939 4938 -356 0
-4940 4939 359 0
-4940 -4939 -359 0
4940 -4939 359 0
4940 4939 -359 0
-4941 4940 360 0
-4941 -4940 -360 0
4941 -4940 360 0
4941 4940 -360 0
-271 -4941 0
-4942 316 318 0
-4942 -316 -318 0
4942 -316 318 0
4942 316 -318 0
-4943 4942 319 0
-4943 -4942 -319 0
4943 -4942 319 0
4943 4942 -319 0
-4944 4943 322 0
-4944 -4943 -322 0
4944 -4943 322 0
4944 4943 -322 0
-4945 4944 324 0
-4945 -4944 -324 0
4945 -4944 324 0
4945 4944 -324 0
-4946 4945 328 0
-4946 -4945 -328 0
4946 -4945 328 0
4946 4945 -328 0
-4947 4946 329 0
-4947 -4946 -329 0
4947 -4946 329 0
4947 4946 -329 0
-4948 4947 330 0
-4948 -4947 -330 0
4948 -4947 330 0
4948 4947 -330 0
-272 -4948 0
-4949 331 333 0
-4949 -331 -333 0
4949 -331 333 0
4949 331 -333 0
-4950 4949 334 0
-4950 -4949 -334 0
4950 -4949 334 0
4950 4949 -334 0
-4951 4950 337 0
-4951 -4950 -337 0
4951 -4950 337 0
4951 4950 -337 0
-4952 4951 339 0
-4952 -4951 -339 0
4952 -4951 339 0
4952 4951 -339 0
-4953 4952 343 0
-4953 -4952 -343 0
4953 -4952 343 0
4953 4952 -343 0
-4954 4953 344 0
-4954 -4953 -344 0
4954 -4953 344 0
4954 4953 -344 0
-4955 4954 345 0
-4955 -4954 -345 0
4955 -4954 345 0
4955 4954 -345 0
-272 -4955 0
-4956 346 348 0
-4956 -346 -348 0
4956 -346 348 0
4956 346 -348 0
-4957 4956 349 0
-4957 -4956 -349 0
4957 -4956 349 0
4957 4956 -349 0
-4958 4957 352 0
-4958 -4957 -352 0
4958 -4957 352 0
4958 4957 -352 0
-4959 4958 354 0
-4959 -4958 -354 0
4959 -4958 354 0
4959 4958 -354 0
-4960 4959 358 0
-4960 -4959 -358 0
4960 -4959 358 0
4960 4959 -358 0
-4961 4960 359 0
-4961 -4960 -359 0
4961 -4960 359 0
4961 4960 -359 0
-4962 4961 360 0
-4962 -4961 -360 0
4962 -4961 360 0
4962 4961 -360 0
-272 -4962 0
-4963 316 318 0
-4963 -316 -318 0
4963 -316 318 0
4963 316 -318 0
-4964 4963 319 0
-4964 -4963 -319 0
4964 -4963 319 0
4964 4963 -319 0
-4965 4964 323 0
-4965 -4964 -323 0
4965 -4964 323 0
4965 4964 -323 0
-4966 4965 324 0
-4966 -4965 -324 0
4966 -4965 324 0
4966 4965 -324 0
-4967 4966 328 0
-4967 -4966 -328 0
4967 -4966 328 0
4967 4966 -328 0
-4968 4967 329 0
-4968 -4967 -329 0
4968 -4967 329 0
4968 4967 -329 0
-4969 4968 330 0
-4969 -4968 -330 0
4969 -4968 330 0
4969 4968 -330 0
-273 -4969 0
-4970 331 333 0
-4970 -331 -333 0
4970 -331 333 0
4970 331 -333 0
-4971 4970 334 0
-4971 -4970 -334 0
4971 -4970 334 0
4971 4970 -334 0
-4972 4971 338 0
-4972 -4971 -338 0
4972 -4971 338 0
4972 4971 -338 0
-4973 4972 339 0
-4973 -4972 -339 0
4973 -4972 339 0
4973 4972 -339 0
-4974 4973 343 0
-4974 -4973 -343 0
4974 -4973 343 0
4974 4973 -343 0
-4975 4974 344 0
-4975 -4974 -344 0
4975 -4974 344 0
4975 4974 -344 0
-4976 4975 345 0
-4976 -4975 -345 0
4976 -4975 345 0
4976 4975 -345 0
-273 -4976 0
-4977 346 348 0
-4977 -346 -348 0
4977 -346 348 0
4977 346 -348 0
-4978 4977 349 0
-4978 -4977 -349 0
4978 -4977 349 0
4978 4977 -349 0
-4979 4978 353 0
-4979 -4978 -353 0
4979 -4978 353 0
4979 4978 -353 0
-4980 4979 354 0
-4980 -4979 -354 0
4980 -4979 354 0
4980 4979 -354 0
-4981 4980 358 0
-4981 -4980 -358 0
4981 -4980 358 0
4981 4980 -358 0
-4982 4981 359 0
-4982 -4981 -359 0
4982 -4981 359 0
4982 4981 -359 0
-4983 4982 360 0
-4983 -4982 -360 0
4983 -4982 360 0
4983 4982 -360 0
-273 -4983 0
-4984 321 322 0
-4984 -321 -322 0
4984 -321 322 0
4984 321 -322 0
-4985 4984 324 0
-4985 -4984 -324 0
4985 -4984 324 0
4985 4984 -324 0
-4986 4985 325 0
-4986 -4985 -325 0
4986 -4985 325 0
4986 4985 -325 0
-4987 4986 326 0
-4987 -4986 -326 0
4987 -4986 326 0
4987 4986 -326 0
-4988 4987 328 0
-4988 -4987 -328 0
4988 -4987 328 0
4988 4987 -328 0
-4989 4988 329 0
-4989 -4988 -329 0
4989 -4988 329 0
4989 4988 -329 0
-4990 4989 330 0
-4990 -4989 -330 0
4990 -4989 330 0
4990 4989 -330 0
-274 -4990 0
-4991 336 337 0
-4991 -336 -337 0
4991 -336 337 0
4991 336 -337 0
-4992 4991 339 0
-4992 -4991 -339 0
4992 -4991 339 0
4992 4991 -339 0
-4993 4992 340 0
-4993 -4992 -340 0
4993 -4992 340 0
4993 4992 -340 0
-4994 4993 341 0
-4994 -4993 -341 0
4994 -4993 341 0
4994 4993 -341 0
-4995 4994 343 0
-4995 -4994 -343 0
4995 -4994 343 0
4995 4994 -343 0
-4996 4995 344 0
-4996 -4995 -344 0
4996 -4995 344 0
4996 4995 -344 0
-4997 4996 345 0
-4997 -4996 -345 0
4997 -4996 345 0
4997 4996 -345 0
-274 -4997 0
-4998 351 352 0
-4998 -351 -352 0
4998 -351 352 0
4998 351 -352 0
-4999 4998 354 0
-4999 -4998 -354 0
4999 -4998 354 0
4999 4998 -354 0
-5000 4999 355 0
-5000 -4999 -355 0
5000 -4999 355 0
5000 4999 -355 0
-5001 5000 356 0
-5001 -5000 -356 0
5001 -5000 356 0
5001 5000 -356 0
-5002 5001 358 0
-5002 -5001 -358 0
5002 -5001 358 0
5002 5001 -358 0
-5003 5002 359 0
-5003 -5002 -359 0
5003 -5002 359 0
5003 5002 -359 0
-5004 5003 360 0
-5004 -5003 -360 0
5004 -5003 360 0
5004 5003 -360 0
-274 -5004 0
-5005 321 323 0
-5005 -321 -323 0
5005 -321 323 0
5005 321 -323 0
-5006 5005 324 0
-5006 -5005 -324 0
5006 -5005 324 0
5006 5005 -324 0
-5007 5006 325 0
-5007 -5006 -325 0
5007 -5006 325 0
5007 5006 -325 0
-5008 5007 326 0
-5008 -5007 -326 0
5008 -5007 326 0
5008 5007 -326 0
-5009 5008 328 0
-5009 -5008 -328 0
5009 -5008 328 0
5009 5008 -328 0
-5010 5009 329 0
-5010 -5009 -329 0
5010 -5009 329 0
5010 5009 -329 0
-5011 5010 330 0
-5011 -5010 -330 0
5011 -5010 330 0
5011 5010 -330 0
-275 -5011 0
-5012 336 338 0
-5012 -336 -338 0
5012 -336 338 0
5012 336 -338 0
-5013 5012 339 0
-5013 -5012 -339 0
5013 -5012 339 0
5013 5012 -339 0
-5014 5013 340 0
-5014 -5013 -340 0
5014 -5013 340 0
5014 5013 -340 0
-5015 5014 341 0
-5015 -5014 -341 0
5015 -5014 341 0
5015 5014 -341 0
-5016 5015 343 0
-5016 -5015 -343 0
5016 -5015 343 0
5016 5015 -343 0
-5017 5016 344 0
-5017 -5016 -344 0
5017 -5016 344 0
5017 5016 -344 0
-5018 5017 345 0
-5018 -5017 -345 0
5018 -5017 345 0
5018 5017 -345 0
-275 -5018 0
-5019 351 353 0
-5019 -351 -353 0
5019 -351 353 0
5019 351 -353 0
-5020 5019 354 0
-5020 -5019 -354 0
5020 -5019 354 0
5020 5019 -354 0
-5021 5020 355 0
-5021 -5020 -355 0
5021 -5020 355 0
5021 5020 -355 0
-5022 5021 356 0
-5022 -5021 -356 0
5022 -5021 356 0
5022 5021 -356 0
-5023 5022 358 0
-5023 -5022 -358 0
5023 -5022 358 0
5023 5022 -358 0
-5024 5023 359 0
-5024 -5023 -359 0
5024 -5023 359 0
5024 5023 -359 0
-5025 5024 360 0
-5025 -5024 -360 0
5025 -5024 360 0
5025 5024 -360 0
-275 -5025 0
-5026 316 318 0
-5026 -316 -318 0
5026 -316 318 0
5026 316 -318 0
-5027 5026 319 0
-5027 -5026 -319 0
5027 -5026 319 0
5027 5026 -319 0
-5028 5027 320 0
-5028 -5027 -320 0
5028 -5027 320 0
5028 5027 -320 0
-5029 5028 324 0
-5029 -5028 -324 0
5029 -5028 324 0
5029 5028 -324 0
-5030 5029 329 0
-5030 -5029 -329 0
5030 -5029 329 0
5030 5029 -329 0
-5031 5030 330 0
-5031 -5030 -330 0
5031 -5030 330 0
5031 5030 -330 0
-276 -5031 0
-5032 331 333 0
-5032 -331 -333 0
5032 -331 333 0
5032 331 -333 0
-5033 5032 334 0
-5033 -5032 -334 0
5033 -5032 334 0
5033 5032 -334 0
-5034 5033 335 0
-5034 -5033 -335 0
5034 -5033 335 0
5034 5033 -335 0
-5035 5034 339 0
-5035 -5034 -339 0
5035 -5034 339 0
5035 5034 -339 0
-5036 5035 344 0
-5036 -5035 -344 0
5036 -5035 344 0
5036 5035 -344 0
-5037 5036 345 0
-5037 -5036 -345 0
5037 -5036 345 0
5037 5036 -345 0
-276 -5037 0
-5038 346 348 0
-5038 -346 -348 0
5038 -346 348 0
5038 346 -348 0
-5039 5038 349 0
-5039 -5038 -349 0
5039 -5038 349 0
5039 5038 -349 0
-5040 5039 350 0
-5040 -5039 -350 0
5040 -5039 350 0
5040 5039 -350 0
-5041 5040 354 0
-5041 -5040 -354 0
5041 -5040 354 0
5041 5040 -354 0
-5042 5041 359 0
-5042 -5041 -359 0
5042 -5041 359 0
5042 5041 -359 0
-5043 5042 360 0
-5043 -5042 -360 0
5043 -5042 360 0
5043 5042 -360 0
-276 -5043 0
-5044 316 320 0
-5044 -316 -320 0
5044 -316 320 0
5044 316 -320 0
-5045 5044 322 0
-5045 -5044 -322 0
5045 -5044 322 0
5045 5044 -322 0
-5046 5045 323 0
-5046 -5045 -323 0
5046 -5045 323 0
5046 5045 -323 0
-5047 5046 324 0
-5047 -5046 -324 0
5047 -5046 324 0
5047 5046 -324 0
-5048 5047 329 0
-5048 -5047 -329 0
5048 -5047 329 0
5048 5047 -329 0
-5049 5048 330 0
-5049 -5048 -330 0
5049 -5048 330 0
5049 5048 -330 0
-277 -5049 0
-5050 331 335 0
-5050 -331 -335 0
5050 -331 335 0
5050 331 -335 0
-5051 5050 337 0
-5051 -5050 -337 0
5051 -5050 337 0
5051 5050 -337 0
-5052 5051 338 0
-5052 -5051 -338 0
5052 -5051 338 0
5052 5051 -338 0
-5053 5052 339 0
-5053 -5052 -339 0
5053 -5052 339 0
5053 5052 -339 0
-5054 5053 344 0
-5054 -5053 -344 0
5054 -5053 344 0
5054 5053 -344 0
-5055 5054 345 0
-5055 -5054 -345 0
5055 -5054 345 0
5055 5054 -345 0
-277 -5055 0
-5056 346 350 0
-5056 -346 -350 0
5056 -346 350 0
5056 346 -350 0
-5057 5056 352 0
-5057 -5056 -352 0
5057 -5056 352 0
5057 5056 -352 0
-5058 5057 353 0
-5058 -5057 -353 0
5058 -5057 353 0
5058 5057 -353 0
-5059 5058 354 0
-5059 -5058 -354 0
5059 -5058 354 0
5059 5058 -354 0
-5060 5059 359 0
-5060 -5059 -359 0
5060 -5059 359 0
5060 5059 -359 0
-5061 5060 360 0
-5061 -5060 -360 0
5061 -5060 360 0
5061 5060 -360 0
-277 -5061 0
-5062 317 320 0
-5062 -317 -320 0
5062 -317 320 0
5062 317 -320 0
-5063 5062 321 0
-5063 -5062 -321 0
5063 -5062 321 0
5063 5062 -321 0
-5064 5063 324 0
-5064 -5063 -324 0
5064 -5063 324 0
5064 5063 -324 0
-5065 5064 325 0
-5065 -5064 -325 0
5065 -5064 325 0
5065 5064 -325 0
-5066 5065 326 0
-5066 -5065 -326 0
5066 -5065 326 0
5066 5065 -326 0
-5067 5066 329 0
-5067 -5066 -329 0
5067 -5066 329 0
5067 5066 -329 0
-5068 5067 330 0
-5068 -5067 -330 0
5068 -5067 330 0
5068 5067 -330 0
-278 -5068 0
-5069 332 335 0
-5069 -332 -335 0
5069 -332 335 0
5069 332 -335 0
-5070 5069 336 0
-5070 -5069 -336 0
5070 -5069 336 0
5070 5069 -336 0
-5071 5070 339 0
-5071 -5070 -339 0
5071 -5070 339 0
5071 5070 -339 0
-5072 5071 340 0
-5072 -5071 -340 0
5072 -5071 340 0
5072 5071 -340 0
-5073 5072 341 0
-5073 -5072 -341 0
5073 -5072 341 0
5073 5072 -341 0
-5074 5073 344 0
-5074 -5073 -344 0
5074 -5073 344 0
5074 5073 -344 0
-5075 5074 345 0
-5075 -5074 -345 0
5075 -5074 345 0
5075 5074 -345 0
-278 -5075 0
-5076 347 350 0
-5076 -347 -350 0
5076 -347 350 0
5076 347 -350 0
-5077 5076 351 0
-5077 -5076 -351 0
5077 -5076 351 0
5077 5076 -351 0
-5078 5077 354 0
-5078 -5077 -354 0
5078 -5077 354 0
5078 5077 -354 0
-5079 5078 355 0
-5079 -5078 -355 0
5079 -5078 355 0
5079 5078 -355 0
-5080 5079 356 0
-5080 -5079 -356 0
5080 -5079 356 0
5080 5079 -356 0
-5081 5080 359 0
-5081 -5080 -359 0
5081 -5080 359 0
5081 5080 -359 0
-5082 5081 360 0
-5082 -5081 -360 0
5082 -5081 360 0
5082 5081 -360 0
-278 -5082 0
-5083 317 318 0
-5083 -317 -318 0
5083 -317 318 0
5083 317 -318 0
-5084 5083 319 0
-5084 -5083 -319 0
5084 -5083 319 0
5084 5083 -319 0
-5085 5084 320 0
-5085 -5084 -320 0
5085 -5084 320 0
5085 5084 -320 0
-5086 5085 321 0
-5086 -5085 -321 0
5086 -5085 321 0
5086 5085 -321 0
-5087 5086 322 0
-5087 -5086 -322 0
5087 -5086 322 0
5087 5086 -322 0
-5088 5087 323 0
-5088 -5087 -323 0
5088 -5087 323 0
5088 5087 -323 0
-5089 5088 324 0
-5089 -5088 -324 0
5089 -5088 324 0
5089 5088 -324 0
-5090 5089 325 0
-5090 -5089 -325 0
5090 -5089 325 0
5090 5089 -325 0
-5091 5090 326 0
-5091 -5090 -326 0
5091 -5090 326 0
5091 5090 -326 0
-5092 5091 329 0
-5092 -5091 -329 0
5092 -5091 329 0
5092 5091 -329 0
-5093 5092 330 0
-5093 -5092 -330 0
5093 -5092 330 0
5093 5092 -330 0
-279 -5093 0
-5094 332 333 0
-5094 -332 -333 0
5094 -332 333 0
5094 332 -333 0
-5095 5094 334 0
-5095 -5094 -334 0
5095 -5094 334 0
5095 5094 -334 0
-5096 5095 335 0
-5096 -5095 -335 0
5096 -5095 335 0
5096 5095 -335 0
-5097 5096 336 0
-5097 -5096 -336 0
5097 -5096 336 0
5097 5096 -336 0
-5098 5097 337 0
-5098 -5097 -337 0
5098 -5097 337 0
5098 5097 -337 0
-5099 5098 338 0
-5099 -5098 -338 0
5099 -5098 338 0
5099 5098 -338 0
-5100 5099 339 0
-5100 -5099 -339 0
5100 -5099 339 0
5100 5099 -339 0
-5101 5100 340 0
-5101 -5100 -340 0
5101 -5100 340 0
5101 5100 -340 0
-5102 5101 341 0
-5102 -5101 -341 0
5102 -5101 341 0
5102 5101 -341 0
-5103 5102 344 0
-5103 -5102 -344 0
5103 -5102 344 0
5103 5102 -344 0
-5104 5103 345 0
-5104 -5103 -345 0
5104 -5103 345 0
5104 5103 -345 0
-279 -5104 0
-5105 347 348 0
-5105 -347 -348 0
5105 -347 348 0
5105 347 -348 0
-5106 5105 349 0
-5106 -5105 -349 0
5106 -5105 349 0
5106 5105 -349 0
-5107 5106 350 0
-5107 -5106 -350 0
5107 -5106 350 0
5107 5106 -350 0
-5108 5107 351 0
-5108 -5107 -351 0
5108 -5107 351 0
5108 5107 -351 0
-5109 5108 352 0
-5109 -5108 -352 0
5109 -5108 352 0
5109 5108 -352 0
-5110 5109 353 0
-5110 -5109 -353 0
5110 -5109 353 0
5110 5109 -353 0
-5111 5110 354 0
-5111 -5110 -354 0
5111 -5110 354 0
5111 5110 -354 0
-5112 5111 355 0
-5112 -5111 -355 0
5112 -5111 355 0
5112 5111 -355 0
-5113 5112 356 0
-5113 -5112 -356 0
5113 -5112 356 0
5113 5112 -356 0
-5114 5113 359 0
-5114 -5113 -359 0
5114 -5113 359 0
5114 5113 -359 0
-5115 5114 360 0
-5115 -5114 -360 0
5115 -5114 360 0
5115 5114 -360 0
-279 -5115 0
-5116 316 319 0
-5116 -316 -319 0
5116 -316 319 0
5116 316 -319 0
-5117 5116 320 0
-5117 -5116 -320 0
5117 -5116 320 0
5117 5116 -320 0
-5118 5117 322 0
-5118 -5117 -322 0
5118 -5117 322 0
5118 5117 -322 0
-5119 5118 324 0
-5119 -5118 -324 0
5119 -5118 324 0
5119 5118 -324 0
-5120 5119 328 0
-5120 -5119 -328 0
5120 -5119 328 0
5120 5119 -328 0
-5121 5120 329 0
-5121 -5120 -329 0
5121 -5120 329 0
5121 5120 -329 0
-5122 5121 330 0
-5122 -5121 -330 0
5122 -5121 330 0
5122 5121 -330 0
-280 -5122 0
-5123 331 334 0
-5123 -331 -334 0
5123 -331 334 0
5123 331 -334 0
-5124 5123 335 0
-5124 -5123 -335 0
5124 -5123 335 0
5124 5123 -335 0
-5125 5124 337 0
-5125 -5124 -337 0
5125 -5124 337 0
5125 5124 -337 0
-5126 5125 339 0
-5126 -5125 -339 0
5126 -5125 339 0
5126 5125 -339 0
-5127 5126 343 0
-5127 -5126 -343 0
5127 -5126 343 0
5127 5126 -343 0
-5128 5127 344 0
-5128 -5127 -344 0
5128 -5127 344 0
5128 5127 -344 0
-5129 5128 345 0
-5129 -5128 -345 0
5129 -5128 345 0
5129 5128 -345 0
-280 -5129 0
-5130 346 349 0
-5130 -346 -349 0
5130 -346 349 0
5130 346 -349 0
-5131 5130 350 0
-5131 -5130 -350 0
5131 -5130 350 0
5131 5130 -350 0
-5132 5131 352 0
-5132 -5131 -352 0
5132 -5131 352 0
5132 5131 -352 0
-5133 5132 354 0
-5133 -5132 -354 0
5133 -5132 354 0
5133 5132 -354 0
-5134 5133 358 0
-5134 -5133 -358 0
5134 -5133 358 0
5134 5133 -358 0
-5135 5134 359 0
-5135 -5134 -359 0
5135 -5134 359 0
5135 5134 -359 0
-5136 5135 360 0
-5136 -5135 -360 0
5136 -5135 360 0
5136 5135 -360 0
-280 -5136 0
-5137 316 318 0
-5137 -316 -318 0
5137 -316 318 0
5137 316 -318 0
-5138 5137 320 0
-5138 -5137 -320 0
5138 -5137 320 0
5138 5137 -320 0
-5139 5138 323 0
-5139 -5138 -323 0
5139 -5138 323 0
5139 5138 -323 0
-5140 5139 324 0
-5140 -5139 -324 0
5140 -5139 324 0
5140 5139 -324 0
-5141 5140 328 0
-5141 -5140 -328 0
5141 -5140 328 0
5141 5140 -328 0
-5142 5141 329 0
-5142 -5141 -329 0
5142 -5141 329 0
5142 5141 -329 0
-5143 5142 330 0
-5143 -5142 -330 0
5143 -5142 330 0
5143 5142 -330 0
-281 -5143 0
-5144 331 333 0
-5144 -331 -333 0
5144 -331 333 0
5144 331 -333 0
-5145 5144 335 0
-5145 -5144 -335 0
5145 -5144 335 0
5145 5144 -335 0
-5146 5145 338 0
-5146 -5145 -338 0
5146 -5145 338 0
5146 5145 -338 0
-5147 5146 339 0
-5147 -5146 -339 0
5147 -5146 339 0
5147 5146 -339 0
-5148 5147 343 0
-5148 -5147 -343 0
5148 -5147 343 0
5148 5147 -343 0
-5149 5148 344 0
-5149 -5148 -344 0
5149 -5148 344 0
5149 5148 -344 0
-5150 5149 345 0
-5150 -5149 -345 0
5150 -5149 345 0
5150 5149 -345 0
-281 -5150 0
-5151 346 348 0
-5151 -346 -348 0
5151 -346 348 0
5151 346 -348 0
-5152 5151 350 0
-5152 -5151 -350 0
5152 -5151 350 0
5152 5151 -350 0
-5153 5152 353 0
-5153 -5152 -353 0
5153 -5152 353 0
5153 5152 -353 0
-5154 5153 354 0
-5154 -5153 -354 0
5154 -5153 354 0
5154 5153 -354 0
-5155 5154 358 0
-5155 -5154 -358 0
5155 -5154 358 0
5155 5154 -358 0
-5156 5155 359 0
-5156 -5155 -359 0
5156 -5155 359 0
5156 5155 -359 0
-5157 5156 360 0
-5157 -5156 -360 0
5157 -5156 360 0
5157 5156 -360 0
-281 -5157 0
-5158 317 318 0
-5158 -317 -318 0
5158 -317 318 0
5158 317 -318 0
-5159 5158 320 0
-5159 -5158 -320 0
5159 -5158 320 0
5159 5158 -320 0
-5160 5159 321 0
-5160 -5159 -321 0
5160 -5159 321 0
5160 5159 -321 0
-5161 5160 322 0
-5161 -5160 -322 0
5161 -5160 322 0
5161 5160 -322 0
-5162 5161 324 0
-5162 -5161 -324 0
5162 -5161 324 0
5162 5161 -324 0
-5163 5162 325 0
-5163 -5162 -325 0
5163 -5162 325 0
5163 5162 -325 0
-5164 5163 326 0
-5164 -5163 -326 0
5164 -5163 326 0
5164 5163 -326 0
-5165 5164 328 0
-5165 -5164 -328 0
5165 -5164 328 0
5165 5164 -328 0
-5166 5165 329 0
-5166 -5165 -329 0
5166 -5165 329 0
5166 5165 -329 0
-5167 5166 330 0
-5167 -5166 -330 0
5167 -5166 330 0
5167 5166 -330 0
-282 -5167 0
-5168 332 333 0
-5168 -332 -333 0
5168 -332 333 0
5168 332 -333 0
-5169 5168 335 0
-5169 -5168 -335 0
5169 -5168 335 0
5169 5168 -335 0
-5170 5169 336 0
-5170 -5169 -336 0
5170 -5169 336 0
5170 5169 -336 0
-5171 5170 337 0
-5171 -5170 -337 0
5171 -5170 337 0
5171 5170 -337 0
-5172 5171 339 0
-5172 -5171 -339 0
5172 -5171 339 0
5172 5171 -339 0
-5173 5172 340 0
-5173 -5172 -340 0
5173 -5172 340 0
5173 5172 -340 0
-5174 5173 341 0
-5174 -5173 -341 0
5174 -5173 341 0
5174 5173 -341 0
-5175 5174 343 0
-5175 -5174 -343 0
5175 -5174 343 0
5175 5174 -343 0
-5176 5175 344 0
-5176 -5175 -344 0
5176 -5175 344 0
5176 5175 -344 0
-5177 5176 345 0
-5177 -5176 -345 0
5177 -5176 345 0
5177 5176 -345 0
-282 -5177 0
-5178 347 348 0
-5178 -347 -348 0
5178 -347 348 0
5178 347 -348 0
-5179 5178 350 0
-5179 -5178 -350 0
5179 -5178 350 0
5179 5178 -350 0
-5180 5179 351 0
-5180 -5179 -351 0
5180 -5179 351 0
5180 5179 -351 0
-5181 5180 352 0
-5181 -5180 -352 0
5181 -5180 352 0
5181 5180 -352 0
-5182 5181 354 0
-5182 -5181 -354 0
5182 -5181 354 0
5182 5181 -354 0
-5183 5182 355 0
-5183 -5182 -355 0
5183 -5182 355 0
5183 5182 -355 0
-5184 5183 356 0
-5184 -5183 -356 0
5184 -5183 356 0
5184 5183 -356 0
-5185 5184 358 0
-5185 -5184 -358 0
5185 -5184 358 0
5185 5184 -358 0
-5186 5185 359 0
-5186 -5185 -359 0
5186 -5185 359 0
5186 5185 -359 0
-5187 5186 360 0
-5187 -5186 -360 0
5187 -5186 360 0
5187 5186 -360 0
-282 -5187 0
-5188 317 319 0
-5188 -317 -319 0
5188 -317 319 0
5188 317 -319 0
-5189 5188 320 0
-5189 -5188 -320 0
5189 -5188 320 0
5189 5188 -320 0
-5190 5189 321 0
-5190 -5189 -321 0
5190 -5189 321 0
5190 5189 -321 0
-5191 5190 323 0
-5191 -5190 -323 0
5191 -5190 323 0
5191 5190 -323 0
-5192 5191 324 0
-5192 -5191 -324 0
5192 -5191 324 0
5192 5191 -324 0
-5193 5192 325 0
-5193 -5192 -325 0
5193 -5192 325 0
5193 5192 -325 0
-5194 5193 326 0
-5194 -5193 -326 0
5194 -5193 326 0
5194 5193 -326 0
-5195 5194 328 0
-5195 -5194 -328 0
5195 -5194 328 0
5195 5194 -328 0
-5196 5195 329 0
-5196 -5195 -329 0
5196 -5195 329 0
5196 5195 -329 0
-5197 5196 330 0
-5197 -5196 -330 0
5197 -5196 330 0
5197 5196 -330 0
-283 -5197 0
-5198 332 334 0
-5198 -332 -334 0
5198 -332 334 0
5198 332 -334 0
-5199 5198 335 0
-5199 -5198 -335 0
5199 -5198 335 0
5199 5198 -335 0
-5200 5199 336 0
-5200 -5199 -336 0
5200 -5199 336 0
5200 5199 -336 0
-5201 5200 338 0
-5201 -5200 -338 0
5201 -5200 338 0
5201 5200 -338 0
-5202 5201 339 0
-5202 -5201 -339 0
5202 -5201 339 0
5202 5201 -339 0
-5203 5202 340 0
-5203 -5202 -340 0
5203 -5202 340 0
5203 5202 -340 0
-5204 5203 341 0
-5204 -5203 -341 0
5204 -5203 341 0
5204 5203 -341 0
-5205 5204 343 0
-5205 -5204 -343 0
5205 -5204 343 0
5205 5204 -343 0
-5206 5205 344 0
-5206 -5205 -344 0
5206 -5205 344 0
5206 5205 -344 0
-5207 5206 345 0
-5207 -5206 -345 0
5207 -5206 345 0
5207 5206 -345 0
-283 -5207 0
-5208 347 349 0
-5208 -347 -349 0
5208 -347 349 0
5208 347 -349 0
-5209 5208 350 0
-5209 -5208 -350 0
5209 -5208 350 0
5209 5208 -350 0
-5210 5209 351 0
-5210 -5209 -351 0
5210 -5209 351 0
5210 5209 -351 0
-5211 5210 353 0
-5211 -5210 -353 0
5211 -5210 353 0
5211 5210 -353 0
-5212 5211 354 0
-5212 -5211 -354 0
5212 -5211 354 0
5212 5211 -354 0
-5213 5212 355 0
-5213 -5212 -355 0
5213 -5212 355 0
5213 5212 -355 0
-5214 5213 356 0
-5214 -5213 -356 0
5214 -5213 356 0
5214 5213 -356 0
-5215 5214 358 0
-5215 -5214 -358 0
5215 -5214 358 0
5215 5214 -358 0
-5216 5215 359 0
-5216 -5215 -359 0
5216 -5215 359 0
5216 5215 -359 0
-5217 5216 360 0
-5217 -5216 -360 0
5217 -5216 360 0
5217 5216 -360 0
-283 -5217 0
-5218 325 326 0
-5218 -325 -326 0
5218 -325 326 0
5218 325 -326 0
-5219 5218 327 0
-5219 -5218 -327 0
5219 -5218 327 0
5219 5218 -327 0
-5220 5219 329 0
-5220 -5219 -329 0
5220 -5219 329 0
5220 5219 -329 0
-5221 5220 330 0
-5221 -5220 -330 0
5221 -5220 330 0
5221 5220 -330 0
-284 -5221 0
-5222 340 341 0
-5222 -340 -341 0
5222 -340 341 0
5222 340 -341 0
-5223 5222 342 0
-5223 -5222 -342 0
5223 -5222 342 0
5223 5222 -342 0
-5224 5223 344 0
-5224 -5223 -344 0
5224 -5223 344 0
5224 5223 -344 0
-5225 5224 345 0
-5225 -5224 -345 0
5225 -5224 345 0
5225 5224 -345 0
-284 -5225 0
-5226 355 356 0
-5226 -355 -356 0
5226 -355 356 0
5226 355 -356 0
-5227 5226 357 0
-5227 -5226 -357 0
5227 -5226 357 0
5227 5226 -357 0
-5228 5227 359 0
-5228 -5227 -359 0
5228 -5227 359 0
5228 5227 -359 0
-5229 5228 360 0
-5229 -5228 -360 0
5229 -5228 360 0
5229 5228 -360 0
-284 -5229 0
-5230 317 318 0
-5230 -317 -318 0
5230 -317 318 0
5230 317 -318 0
-5231 5230 319 0
-5231 -5230 -319 0
5231 -5230 319 0
5231 5230 -319 0
-5232 5231 325 0
-5232 -5231 -325 0
5232 -5231 325 0
5232 5231 -325 0
-5233 5232 326 0
-5233 -5232 -326 0
5233 -5232 326 0
5233 5232 -326 0
-5234 5233 327 0
-5234 -5233 -327 0
5234 -5233 327 0
5234 5233 -327 0
-5235 5234 329 0
-5235 -5234 -329 0
5235 -5234 329 0
5235 5234 -329 0
-5236 5235 330 0
-5236 -5235 -330 0
5236 -5235 330 0
5236 5235 -330 0
-285 -5236 0
-5237 332 333 0
-5237 -332 -333 0
5237 -332 333 0
5237 332 -333 0
-5238 5237 334 0
-5238 -5237 -334 0
5238 -5237 334 0
5238 5237 -334 0
-5239 5238 340 0
-5239 -5238 -340 0
5239 -5238 340 0
5239 5238 -340 0
-5240 5239 341 0
-5240 -5239 -341 0
5240 -5239 341 0
5240 5239 -341 0
-5241 5240 342 0
-5241 -5240 -342 0
5241 -5240 342 0
5241 5240 -342 0
-5242 5241 344 0
-5242 -5241 -344 0
5242 -5241 344 0
5242 5241 -344 0
-5243 5242 345 0
-5243 -5242 -345 0
5243 -5242 345 0
5243 5242 -345 0
-285 -5243 0
-5244 347 348 0
-5244 -347 -348 0
5244 -347 348 0
5244 347 -348 0
-5245 5244 349 0
-5245 -5244 -349 0
5245 -5244 349 0
5245 5244 -349 0
-5246 5245 355 0
-5246 -5245 -355 0
5246 -5245 355 0
5246 5245 -355 0
-5247 5246 356 0
-5247 -5246 -356 0
5247 -5246 356 0
5247 5246 -356 0
-5248 5247 357 0
-5248 -5247 -357 0
5248 -5247 357 0
5248 5247 -357 0
-5249 5248 359 0
-5249 -5248 -359 0
5249 -5248 359 0
5249 5248 -359 0
-5250 5249 360 0
-5250 -5249 -360 0
5250 -5249 360 0
5250 5249 -360 0
-285 -5250 0
-5251 321 322 0
-5251 -321 -322 0
5251 -321 322 0
5251 321 -322 0
-5252 5251 323 0
-5252 -5251 -323 0
5252 -5251 323 0
5252 5251 -323 0
-5253 5252 325 0
-5253 -5252 -325 0
5253 -5252 325 0
5253 5252 -325 0
-5254 5253 326 0
-5254 -5253 -326 0
5254 -5253 326 0
5254 5253 -326 0
-5255 5254 327 0
-5255 -5254 -327 0
5255 -5254 327 0
5255 5254 -327 0
-5256 5255 329 0
-5256 -5255 -329 0
5256 -5255 329 0
5256 5255 -329 0
-5257 5256 330 0
-5257 -5256 -330 0
5257 -5256 330 0
5257 5256 -330 0
-286 -5257 0
-5258 336 337 0
-5258 -336 -337 0
5258 -336 337 0
5258 336 -337 0
-5259 5258 338 0
-5259 -5258 -338 0
5259 -5258 338 0
5259 5258 -338 0
-5260 5259 340 0
-5260 -5259 -340 0
5260 -5259 340 0
5260 5259 -340 0
-5261 5260 341 0
-5261 -5260 -341 0
5261 -5260 341 0
5261 5260 -341 0
-5262 5261 342 0
-5262 -5261 -342 0
5262 -5261 342 0
5262 5261 -342 0
-5263 5262 344 0
-5263 -5262 -344 0
5263 -5262 344 0
5263 5262 -344 0
-5264 5263 345 0
-5264 -5263 -345 0
5264 -5263 345 0
5264 5263 -345 0
-286 -5264 0
-5265 351 352 0
-5265 -351 -352 0
5265 -351 352 0
5265 351 -352 0
-5266 5265 353 0
-5266 -5265 -353 0
5266 -5265 353 0
5266 5265 -353 0
-5267 5266 355 0
-5267 -5266 -355 0
5267 -5266 355 0
5267 5266 -355 0
-5268 5267 356 0
-5268 -5267 -356 0
5268 -5267 356 0
5268 5267 -356 0
-5269 5268 357 0
-5269 -5268 -357 0
5269 -5268 357 0
5269 5268 -357 0
-5270 5269 359 0
-5270 -5269 -359 0
5270 -5269 359 0
5270 5269 -359 0
-5271 5270 360 0
-5271 -5270 -360 0
5271 -5270 360 0
5271 5270 -360 0
-286 -5271 0
-5272 317 318 0
-5272 -317 -318 0
5272 -317 318 0
5272 317 -318 0
-5273 5272 319 0
-5273 -5272 -319 0
5273 -5272 319 0
5273 5272 -319 0
-5274 5273 321 0
-5274 -5273 -321 0
5274 -5273 321 0
5274 5273 -321 0
-5275 5274 322 0
-5275 -5274 -322 0
5275 -5274 322 0
5275 5274 -322 0
-5276 5275 323 0
-5276 -5275 -323 0
5276 -5275 323 0
5276 5275 -323 0
-5277 5276 325 0
-5277 -5276 -325 0
5277 -5276 325 0
5277 5276 -325 0
-5278 5277 326 0
-5278 -5277 -326 0
5278 -5277 326 0
5278 5277 -326 0
-5279 5278 327 0
-5279 -5278 -327 0
5279 -5278 327 0
5279 5278 -327 0
-5280 5279 329 0
-5280 -5279 -329 0
5280 -5279 329 0
5280 5279 -329 0
-5281 5280 330 0
-5281 -5280 -330 0
5281 -5280 330 0
5281 5280 -330 0
-287 -5281 0
-5282 332 333 0
-5282 -332 -333 0
5282 -332 333 0
5282 332 -333 0
-5283 5282 334 0
-5283 -5282 -334 0
5283 -5282 334 0
5283 5282 -334 0
-5284 5283 336 0
-5284 -5283 -336 0
5284 -5283 336 0
5284 5283 -336 0
-5285 5284 337 0
-5285 -5284 -337 0
5285 -5284 337 0
5285 5284 -337 0
-5286 5285 338 0
-5286 -5285 -338 0
5286 -5285 338 0
5286 5285 -338 0
-5287 5286 340 0
-5287 -5286 -340 0
5287 -5286 340 0
5287 5286 -340 0
-5288 5287 341 0
-5288 -5287 -341 0
5288 -5287 341 0
5288 5287 -341 0
-5289 5288 342 0
-5289 -5288 -342 0
5289 -5288 342 0
5289 5288 -342 0
-5290 5289 344 0
-5290 -5289 -344 0
5290 -5289 344 0
5290 5289 -344 0
-5291 5290 345 0
-5291 -5290 -345 0
5291 -5290 345 0
5291 5290 -345 0
-287 -5291 0
-5292 347 348 0
-5292 -347 -348 0
5292 -347 348 0
5292 347 -348 0
-5293 5292 349 0
-5293 -5292 -349 0
5293 -5292 349 0
5293 5292 -349 0
-5294 5293 351 0
-5294 -5293 -351 0
5294 -5293 351 0
5294 5293 -351 0
-5295 5294 352 0
-5295 -5294 -352 0
5295 -5294 352 0
5295 5294 -352 0
-5296 5295 353 0
-5296 -5295 -353 0
5296 -5295 353 0
5296 5295 -353 0
-5297 5296 355 0
-5297 -5296 -355 0
5297 -5296 355 0
5297 5296 -355 0
-5298 5297 356 0
-5298 -5297 -356 0
5298 -5297 356 0
5298 5297 -356 0
-5299 5298 357 0
-5299 -5298 -357 0
5299 -5298 357 0
5299 5298 -357 0
-5300 5299 359 0
-5300 -5299 -359 0
5300 -5299 359 0
5300 5299 -359 0
-5301 5300 360 0
-5301 -5300 -360 0
5301 -5300 360 0
5301 5300 -360 0
-287 -5301 0
-5302 325 327 0
-5302 -325 -327 0
5302 -325 327 0
5302 325 -327 0
-5303 5302 328 0
-5303 -5302 -328 0
5303 -5302 328 0
5303 5302 -328 0
-5304 5303 329 0
-5304 -5303 -329 0
5304 -5303 329 0
5304 5303 -329 0
-5305 5304 330 0
-5305 -5304 -330 0
5305 -5304 330 0
5305 5304 -330 0
-288 -5305 0
-5306 340 342 0
-5306 -340 -342 0
5306 -340 342 0
5306 340 -342 0
-5307 5306 343 0
-5307 -5306 -343 0
5307 -5306 343 0
5307 5306 -343 0
-5308 5307 344 0
-5308 -5307 -344 0
5308 -5307 344 0
5308 5307 -344 0
-5309 5308 345 0
-5309 -5308 -345 0
5309 -5308 345 0
5309 5308 -345 0
-288 -5309 0
-5310 355 357 0
-5310 -355 -357 0
5310 -355 357 0
5310 355 -357 0
-5311 5310 358 0
-5311 -5310 -358 0
5311 -5310 358 0
5311 5310 -358 0
-5312 5311 359 0
-5312 -5311 -359 0
5312 -5311 359 0
5312 5311 -359 0
-5313 5312 360 0
-5313 -5312 -360 0
5313 -5312 360 0
5313 5312 -360 0
-288 -5313 0
-5314 317 318 0
-5314 -317 -318 0
5314 -317 318 0
5314 317 -318 0
-5315 5314 319 0
-5315 -5314 -319 0
5315 -5314 319 0
5315 5314 -319 0
-5316 5315 325 0
-5316 -5315 -325 0
5316 -5315 325 0
5316 5315 -325 0
-5317 5316 327 0
-5317 -5316 -327 0
5317 -5316 327 0
5317 5316 -327 0
-5318 5317 328 0
-5318 -5317 -328 0
5318 -5317 328 0
5318 5317 -328 0
-5319 5318 329 0
-5319 -5318 -329 0
5319 -5318 329 0
5319 5318 -329 0
-5320 5319 330 0
-5320 -5319 -330 0
5320 -5319 330 0
5320 5319 -330 0
-289 -5320 0
-5321 332 333 0
-5321 -332 -333 0
5321 -332 333 0
5321 332 -333 0
-5322 5321 334 0
-5322 -5321 -334 0
5322 -5321 334 0
5322 5321 -334 0
-5323 5322 340 0
-5323 -5322 -340 0
5323 -5322 340 0
5323 5322 -340 0
-5324 5323 342 0
-5324 -5323 -342 0
5324 -5323 342 0
5324 5323 -342 0
-5325 5324 343 0
-5325 -5324 -343 0
5325 -5324 343 0
5325 5324 -343 0
-5326 5325 344 0
-5326 -5325 -344 0
5326 -5325 344 0
5326 5325 -344 0
-5327 5326 345 0
-5327 -5326 -345 0
5327 -5326 345 0
5327 5326 -345 0
-289 -5327 0
-5328 347 348 0
-5328 -347 -348 0
5328 -347 348 0
5328 347 -348 0
-5329 5328 349 0
-5329 -5328 -349 0
5329 -5328 349 0
5329 5328 -349 0
-5330 5329 355 0
-5330 -5329 -355 0
5330 -5329 355 0
5330 5329 -355 0
-5331 5330 357 0
-5331 -5330 -357 0
5331 -5330 357 0
5331 5330 -357 0
-5332 5331 358 0
-5332 -5331 -358 0
5332 -5331 358 0
5332 5331 -358 0
-5333 5332 359 0
-5333 -5332 -359 0
5333 -5332 359 0
5333 5332 -359 0
-5334 5333 360 0
-5334 -5333 -360 0
5334 -5333 360 0
5334 5333 -360 0
-289 -5334 0
-5335 321 322 0
-5335 -321 -322 0
5335 -321 322 0
5335 321 -322 0
-5336 5335 323 0
-5336 -5335 -323 0
5336 -5335 323 0
5336 5335 -323 0
-5337 5336 325 0
-5337 -5336 -325 0
5337 -5336 325 0
5337 5336 -325 0
-5338 5337 327 0
-5338 -5337 -327 0
5338 -5337 327 0
5338 5337 -327 0
-5339 5338 328 0
-5339 -5338 -328 0
5339 -5338 328 0
5339 5338 -328 0
-5340 5339 329 0
-5340 -5339 -329 0
5340 -5339 329 0
5340 5339 -329 0
-5341 5340 330 0
-5341 -5340 -330 0
5341 -5340 330 0
5341 5340 -330 0
-290 -5341 0
-5342 336 337 0
-5342 -336 -337 0
5342 -336 337 0
5342 336 -337 0
-5343 5342 338 0
-5343 -5342 -338 0
5343 -5342 338 0
5343 5342 -338 0
-5344 5343 340 0
-5344 -5343 -340 0
5344 -5343 340 0
5344 5343 -340 0
-5345 5344 342 0
-5345 -5344 -342 0
5345 -5344 342 0
5345 5344 -342 0
-5346 5345 343 0
-5346 -5345 -343 0
5346 -5345 343 0
5346 5345 -343 0
-5347 5346 344 0
-5347 -5346 -344 0
5347 -5346 344 0
5347 5346 -344 0
-5348 5347 345 0
-5348 -5347 -345 0
5348 -5347 345 0
5348 5347 -345 0
-290 -5348 0
-5349 351 352 0
-5349 -351 -352 0
5349 -351 352 0
5349 351 -352 0
-5350 5349 353 0
-5350 -5349 -353 0
5350 -5349 353 0
5350 5349 -353 0
-5351 5350 355 0
-5351 -5350 -355 0
5351 -5350 355 0
5351 5350 -355 0
-5352 5351 357 0
-5352 -5351 -357 0
5352 -5351 357 0
5352 5351 -357 0
-5353 5352 358 0
-5353 -5352 -358 0
5353 -5352 358 0
5353 5352 -358 0
-5354 5353 359 0
-5354 -5353 -359 0
5354 -5353 359 0
5354 5353 -359 0
-5355 5354 360 0
-5355 -5354 -360 0
5355 -5354 360 0
5355 5354 -360 0
-290 -5355 0
-5356 317 318 0
-5356 -317 -318 0
5356 -317 318 0
5356 317 -318 0
-5357 5356 319 0
-5357 -5356 -319 0
5357 -5356 319 0
5357 5356 -319 0
-5358 5357 321 0
-5358 -5357 -321 0
5358 -5357 321 0
5358 5357 -321 0
-5359 5358 322 0
-5359 -5358 -322 0
5359 -5358 322 0
5359 5358 -322 0
-5360 5359 323 0
-5360 -5359 -323 0
5360 -5359 323 0
5360 5359 -323 0
-5361 5360 325 0
-5361 -5360 -325 0
5361 -5360 325 0
5361 5360 -325 0
-5362 5361 327 0
-5362 -5361 -327 0
5362 -5361 327 0
5362 5361 -327 0
-5363 5362 328 0
-5363 -5362 -328 0
5363 -5362 328 0
5363 5362 -328 0
-5364 5363 329 0
-5364 -5363 -329 0
5364 -5363 329 0
5364 5363 -329 0
-5365 5364 330 0
-5365 -5364 -330 0
5365 -5364 330 0
5365 5364 -330 0
-291 -5365 0
-5366 332 333 0
-5366 -332 -333 0
5366 -332 333 0
5366 332 -333 0
-5367 5366 334 0
-5367 -5366 -334 0
5367 -5366 334 0
5367 5366 -334 0
-5368 5367 336 0
-5368 -5367 -336 0
5368 -5367 336 0
5368 5367 -336 0
-5369 5368 337 0
-5369 -5368 -337 0
5369 -5368 337 0
5369 5368 -337 0
-5370 5369 338 0
-5370 -5369 -338 0
5370 -5369 338 0
5370 5369 -338 0
-5371 5370 340 0
-5371 -5370 -340 0
5371 -5370 340 0
5371 5370 -340 0
-5372 5371 342 0
-5372 -5371 -342 0
5372 -5371 342 0
5372 5371 -342 0
-5373 5372 343 0
-5373 -5372 -343 0
5373 -5372 343 0
5373 5372 -343 0
-5374 5373 344 0
-5374 -5373 -344 0
5374 -5373 344 0
5374 5373 -344 0
-5375 5374 345 0
-5375 -5374 -345 0
5375 -5374 345 0
5375 5374 -345 0
-291 -5375 0
-5376 347 348 0
-5376 -347 -348 0
5376 -347 348 0
5376 347 -348 0
-5377 5376 349 0
-5377 -5376 -349 0
5377 -5376 349 0
5377 5376 -349 0
-5378 5377 351 0
-5378 -5377 -351 0
5378 -5377 351 0
5378 5377 -351 0
-5379 5378 352 0
-5379 -5378 -352 0
5379 -5378 352 0
5379 5378 -352 0
-5380 5379 353 0
-5380 -5379 -353 0
5380 -5379 353 0
5380 5379 -353 0
-5381 5380 355 0
-5381 -5380 -355 0
5381 -5380 355 0
5381 5380 -355 0
-5382 5381 357 0
-5382 -5381 -357 0
5382 -5381 357 0
5382 5381 -357 0
-5383 5382 358 0
-5383 -5382 -358 0
5383 -5382 358 0
5383 5382 -358 0
-5384 5383 359 0
-5384 -5383 -359 0
5384 -5383 359 0
5384 5383 -359 0
-5385 5384 360 0
-5385 -5384 -360 0
5385 -5384 360 0
5385 5384 -360 0
-291 -5385 0
-5386 316 320 0
-5386 -316 -320 0
5386 -316 320 0
5386 316 -320 0
-5387 5386 321 0
-5387 -5386 -321 0
5387 -5386 321 0
5387 5386 -321 0
-5388 5387 322 0
-5388 -5387 -322 0
5388 -5387 322 0
5388 5387 -322 0
-5389 5388 323 0
-5389 -5388 -323 0
5389 -5388 323 0
5389 5388 -323 0
-5390 5389 327 0
-5390 -5389 -327 0
5390 -5389 327 0
5390 5389 -327 0
-5391 5390 329 0
-5391 -5390 -329 0
5391 -5390 329 0
5391 5390 -329 0
-5392 5391 330 0
-5392 -5391 -330 0
5392 -5391 330 0
5392 5391 -330 0
-292 -5392 0
-5393 331 335 0
-5393 -331 -335 0
5393 -331 335 0
5393 331 -335 0
-5394 5393 336 0
-5394 -5393 -336 0
5394 -5393 336 0
5394 5393 -336 0
-5395 5394 337 0
-5395 -5394 -337 0
5395 -5394 337 0
5395 5394 -337 0
-5396 5395 338 0
-5396 -5395 -338 0
5396 -5395 338 0
5396 5395 -338 0
-5397 5396 342 0
-5397 -5396 -342 0
5397 -5396 342 0
5397 5396 -342 0
-5398 5397 344 0
-5398 -5397 -344 0
5398 -5397 344 0
5398 5397 -344 0
-5399 5398 345 0
-5399 -5398 -345 0
5399 -5398 345 0
5399 5398 -345 0
-292 -5399 0
-5400 346 350 0
-5400 -346 -350 0
5400 -346 350 0
5400 346 -350 0
-5401 5400 351 0
-5401 -5400 -351 0
5401 -5400 351 0
5401 5400 -351 0
-5402 5401 352 0
-5402 -5401 -352 0
5402 -5401 352 0
5402 5401 -352 0
-5403 5402 353 0
-5403 -5402 -353 0
5403 -5402 353 0
5403 5402 -353 0
-5404 5403 357 0
-5404 -5403 -357 0
5404 -5403 357 0
5404 5403 -357 0
-5405 5404 359 0
-5405 -5404 -359 0
5405 -5404 359 0
5405 5404 -359 0
-5406 5405 360 0
-5406 -5405 -360 0
5406 -5405 360 0
5406 5405 -360 0
-292 -5406 0
-5407 316 317 0
-5407 -316 -317 0
5407 -316 317 0
5407 316 -317 0
-5408 5407 318 0
-5408 -5407 -318 0
5408 -5407 318 0
5408 5407 -318 0
-5409 5408 319 0
-5409 -5408 -319 0
5409 -5408 319 0
5409 5408 -319 0
-5410 5409 320 0
-5410 -5409 -320 0
5410 -5409 320 0
5410 5409 -320 0
-5411 5410 321 0
-5411 -5410 -321 0
5411 -5410 321 0
5411 5410 -321 0
-5412 5411 322 0
-5412 -5411 -322 0
5412 -5411 322 0
5412 5411 -322 0
-5413 5412 323 0
-5413 -5412 -323 0
5413 -5412 323 0
5413 5412 -323 0
-5414 5413 327 0
-5414 -5413 -327 0
5414 -5413 327 0
5414 5413 -327 0
-5415 5414 329 0
-5415 -5414 -329 0
5415 -5414 329 0
5415 5414 -329 0
-5416 5415 330 0
-5416 -5415 -330 0
5416 -5415 330 0
5416 5415 -330 0
-293 -5416 0
-5417 331 332 0
-5417 -331 -332 0
5417 -331 332 0
5417 331 -332 0
-5418 5417 333 0
-5418 -5417 -333 0
5418 -5417 333 0
5418 5417 -333 0
-5419 5418 334 0
-5419 -5418 -334 0
5419 -5418 334 0
5419 5418 -334 0
-5420 5419 335 0
-5420 -5419 -335 0
5420 -5419 335 0
5420 5419 -335 0
-5421 5420 336 0
-5421 -5420 -336 0
5421 -5420 336 0
5421 5420 -336 0
-5422 5421 337 0
-5422 -5421 -337 0
5422 -5421 337 0
5422 5421 -337 0
-5423 5422 338 0
-5423 -5422 -338 0
5423 -5422 338 0
5423 5422 -338 0
-5424 5423 342 0
-5424 -5423 -342 0
5424 -5423 342 0
5424 5423 -342 0
-5425 5424 344 0
-5425 -5424 -344 0
5425 -5424 344 0
5425 5424 -344 0
-5426 5425 345 0
-5426 -5425 -345 0
5426 -5425 345 0
5426 5425 -345 0
-293 -5426 0
-5427 346 347 0
-5427 -346 -347 0
5427 -346 347 0
5427 346 -347 0
-5428 5427 348 0
-5428 -5427 -348 0
5428 -5427 348 0
5428 5427 -348 0
-5429 5428 349 0
-5429 -5428 -349 0
5429 -5428 349 0
5429 5428 -349 0
-5430 5429 350 0
-5430 -5429 -350 0
5430 -5429 350 0
5430 5429 -350 0
-5431 5430 351 0
-5431 -5430 -351 0
5431 -5430 351 0
5431 5430 -351 0
-5432 5431 352 0
-5432 -5431 -352 0
5432 -5431 352 0
5432 5431 -352 0
-5433 5432 353 0
-5433 -5432 -353 0
5433 -5432 353 0
5433 5432 -353 0
-5434 5433 357 0
-5434 -5433 -357 0
5434 -5433 357 0
5434 5433 -357 0
-5435 5434 359 0
-5435 -5434 -359 0
5435 -5434 359 0
5435 5434 -359 0
-5436 5435 360 0
-5436 -5435 -360 0
5436 -5435 360 0
5436 5435 -360 0
-293 -5436 0
-5437 317 320 0
-5437 -317 -320 0
5437 -317 320 0
5437 317 -320 0
-5438 5437 325 0
-5438 -5437 -325 0
5438 -5437 325 0
5438 5437 -325 0
-5439 5438 326 0
-5439 -5438 -326 0
5439 -5438 326 0
5439 5438 -326 0
-5440 5439 327 0
-5440 -5439 -327 0
5440 -5439 327 0
5440 5439 -327 0
-5441 5440 329 0
-5441 -5440 -329 0
5441 -5440 329 0
5441 5440 -329 0
-5442 5441 330 0
-5442 -5441 -330 0
5442 -5441 330 0
5442 5441 -330 0
-294 -5442 0
-5443 332 335 0
-5443 -332 -335 0
5443 -332 335 0
5443 332 -335 0
-5444 5443 340 0
-5444 -5443 -340 0
5444 -5443 340 0
5444 5443 -340 0
-5445 5444 341 0
-5445 -5444 -341 0
5445 -5444 341 0
5445 5444 -341 0
-5446 5445 342 0
-5446 -5445 -342 0
5446 -5445 342 0
5446 5445 -342 0
-5447 5446 344 0
-5447 -5446 -344 0
5447 -5446 344 0
5447 5446 -344 0
-5448 5447 345 0
-5448 -5447 -345 0
5448 -5447 345 0
5448 5447 -345 0
-294 -5448 0
-5449 347 350 0
-5449 -347 -350 0
5449 -347 350 0
5449 347 -350 0
-5450 5449 355 0
-5450 -5449 -355 0
5450 -5449 355 0
5450 5449 -355 0
-5451 5450 356 0
-5451 -5450 -356 0
5451 -5450 356 0
5451 5450 -356 0
-5452 5451 357 0
-5452 -5451 -357 0
5452 -5451 357 0
5452 5451 -357 0
-5453 5452 359 0
-5453 -5452 -359 0
5453 -5452 359 0
5453 5452 -359 0
-5454 5453 360 0
-5454 -5453 -360 0
5454 -5453 360 0
5454 5453 -360 0
-294 -5454 0
-5455 318 319 0
-5455 -318 -319 0
5455 -318 319 0
5455 318 -319 0
-5456 5455 320 0
-5456 -5455 -320 0
5456 -5455 320 0
5456 5455 -320 0
-5457 5456 325 0
-5457 -5456 -325 0
5457 -5456 325 0
5457 5456 -325 0
-5458 5457 326 0
-5458 -5457 -326 0
5458 -5457 326 0
5458 5457 -326 0
-5459 5458 327 0
-5459 -5458 -327 0
5459 -5458 327 0
5459 5458 -327 0
-5460 5459 329 0
-5460 -5459 -329 0
5460 -5459 329 0
5460 5459 -329 0
-5461 5460 330 0
-5461 -5460 -330 0
5461 -5460 330 0
5461 5460 -330 0
-295 -5461 0
-5462 333 334 0
-5462 -333 -334 0
5462 -333 334 0
5462 333 -334 0
-5463 5462 335 0
-5463 -5462 -335 0
5463 -5462 335 0
5463 5462 -335 0
-5464 5463 340 0
-5464 -5463 -340 0
5464 -5463 340 0
5464 5463 -340 0
-5465 5464 341 0
-5465 -5464 -341 0
5465 -5464 341 0
5465 5464 -341 0
-5466 5465 342 0
-5466 -5465 -342 0
5466 -5465 342 0
5466 5465 -342 0
-5467 5466 344 0
-5467 -5466 -344 0
5467 -5466 344 0
5467 5466 -344 0
-5468 5467 345 0
-5468 -5467 -345 0
5468 -5467 345 0
5468 5467 -345 0
-295 -5468 0
-5469 348 349 0
-5469 -348 -349 0
5469 -348 349 0
5469 348 -349 0
-5470 5469 350 0
-5470 -5469 -350 0
5470 -5469 350 0
5470 5469 -350 0
-5471 5470 355 0
-5471 -5470 -355 0
5471 -5470 355 0
5471 5470 -355 0
-5472 5471 356 0
-5472 -5471 -356 0
5472 -5471 356 0
5472 5471 -356 0
-5473 5472 357 0
-5473 -5472 -357 0
5473 -5472 357 0
5473 5472 -357 0
-5474 5473 359 0
-5474 -5473 -359 0
5474 -5473 359 0
5474 5473 -359 0
-5475 5474 360 0
-5475 -5474 -360 0
5475 -5474 360 0
5475 5474 -360 0
-295 -5475 0
-5476 318 320 0
-5476 -318 -320 0
5476 -318 320 0
5476 318 -320 0
-5477 5476 325 0
-5477 -5476 -325 0
5477 -5476 325 0
5477 5476 -325 0
-5478 5477 327 0
-5478 -5477 -327 0
5478 -5477 327 0
5478 5477 -327 0
-5479 5478 328 0
-5479 -5478 -328 0
5479 -5478 328 0
5479 5478 -328 0
-5480 5479 329 0
-5480 -5479 -329 0
5480 -5479 329 0
5480 5479 -329 0
-5481 5480 330 0
-5481 -5480 -330 0
5481 -5480 330 0
5481 5480 -330 0
-296 -5481 0
-5482 333 335 0
-5482 -333 -335 0
5482 -333 335 0
5482 333 -335 0
-5483 5482 340 0
-5483 -5482 -340 0
5483 -5482 340 0
5483 5482 -340 0
-5484 5483 342 0
-5484 -5483 -342 0
5484 -5483 342 0
5484 5483 -342 0
-5485 5484 343 0
-5485 -5484 -343 0
5485 -5484 343 0
5485 5484 -343 0
-5486 5485 344 0
-5486 -5485 -344 0
5486 -5485 344 0
5486 5485 -344 0
-5487 5486 345 0
-5487 -5486 -345 0
5487 -5486 345 0
5487 5486 -345 0
-296 -5487 0
-5488 348 350 0
-5488 -348 -350 0
5488 -348 350 0
5488 348 -350 0
-5489 5488 355 0
-5489 -5488 -355 0
5489 -5488 355 0
5489 5488 -355 0
-5490 5489 357 0
-5490 -5489 -357 0
5490 -5489 357 0
5490 5489 -357 0
-5491 5490 358 0
-5491 -5490 -358 0
5491 -5490 358 0
5491 5490 -358 0
-5492 5491 359 0
-5492 -5491 -359 0
5492 -5491 359 0
5492 5491 -359 0
-5493 5492 360 0
-5493 -5492 -360 0
5493 -5492 360 0
5493 5492 -360 0
-296 -5493 0
-5494 317 319 0
-5494 -317 -319 0
5494 -317 319 0
5494 317 -319 0
-5495 5494 320 0
-5495 -5494 -320 0
5495 -5494 320 0
5495 5494 -320 0
-5496 5495 325 0
-5496 -5495 -325 0
5496 -5495 325 0
5496 5495 -325 0
-5497 5496 327 0
-5497 -5496 -327 0
5497 -5496 327 0
5497 5496 -327 0
-5498 5497 328 0
-5498 -5497 -328 0
5498 -5497 328 0
5498 5497 -328 0
-5499 5498 329 0
-5499 -5498 -329 0
5499 -5498 329 0
5499 5498 -329 0
-5500 5499 330 0
-5500 -5499 -330 0
5500 -5499 330 0
5500 5499 -330 0
-297 -5500 0
-5501 332 334 0
-5501 -332 -334 0
5501 -332 334 0
5501 332 -334 0
-5502 5501 335 0
-5502 -5501 -335 0
5502 -5501 335 0
5502 5501 -335 0
-5503 5502 340 0
-5503 -5502 -340 0
5503 -5502 340 0
5503 5502 -340 0
-5504 5503 342 0
-5504 -5503 -342 0
5504 -5503 342 0
5504 5503 -342 0
-5505 5504 343 0
-5505 -5504 -343 0
5505 -5504 343 0
5505 5504 -343 0
-5506 5505 344 0
-5506 -5505 -344 0
5506 -5505 344 0
5506 5505 -344 0
-5507 5506 345 0
-5507 -5506 -345 0
5507 -5506 345 0
5507 5506 -345 0
-297 -5507 0
-5508 347 349 0
-5508 -347 -349 0
5508 -347 349 0
5508 347 -349 0
-5509 5508 350 0
-5509 -5508 -350 0
5509 -5508 350 0
5509 5508 -350 0
-5510 5509 355 0
-5510 -5509 -355 0
5510 -5509 355 0
5510 5509 -355 0
-5511 5510 357 0
-5511 -5510 -357 0
5511 -5510 357 0
5511 5510 -357 0
-5512 5511 358 0
-5512 -5511 -358 0
5512 -5511 358 0
5512 5511 -358 0
-5513 5512 359 0
-5513 -5512 -359 0
5513 -5512 359 0
5513 5512 -359 0
-5514 5513 360 0
-5514 -5513 -360 0
5514 -5513 360 0
5514 5513 -360 0
-297 -5514 0
-5515 316 317 0
-5515 -316 -317 0
5515 -316 317 0
5515 316 -317 0
-5516 5515 318 0
-5516 -5515 -318 0
5516 -5515 318 0
5516 5515 -318 0
-5517 5516 320 0
-5517 -5516 -320 0
5517 -5516 320 0
5517 5516 -320 0
-5518 5517 321 0
-5518 -5517 -321 0
5518 -5517 321 0
5518 5517 -321 0
-5519 5518 322 0
-5519 -5518 -322 0
5519 -5518 322 0
5519 5518 -322 0
-5520 5519 323 0
-5520 -5519 -323 0
5520 -5519 323 0
5520 5519 -323 0
-5521 5520 326 0
-5521 -5520 -326 0
5521 -5520 326 0
5521 5520 -326 0
-5522 5521 327 0
-5522 -5521 -327 0
5522 -5521 327 0
5522 5521 -327 0
-5523 5522 328 0
-5523 -5522 -328 0
5523 -5522 328 0
5523 5522 -328 0
-5524 5523 329 0
-5524 -5523 -329 0
5524 -5523 329 0
5524 5523 -329 0
-5525 5524 330 0
-5525 -5524 -330 0
5525 -5524 330 0
5525 5524 -330 0
-298 -5525 0
-5526 331 332 0
-5526 -331 -332 0
5526 -331 332 0
5526 331 -332 0
-5527 5526 333 0
-5527 -5526 -333 0
5527 -5526 333 0
5527 5526 -333 0
-5528 5527 335 0
-5528 -5527 -335 0
5528 -5527 335 0
5528 5527 -335 0
-5529 5528 336 0
-5529 -5528 -336 0
5529 -5528 336 0
5529 5528 -336 0
-5530 5529 337 0
-5530 -5529 -337 0
5530 -5529 337 0
5530 5529 -337 0
-5531 5530 338 0
-5531 -5530 -338 0
5531 -5530 338 0
5531 5530 -338 0
-5532 5531 341 0
-5532 -5531 -341 0
5532 -5531 341 0
5532 5531 -341 0
-5533 5532 342 0
-5533 -5532 -342 0
5533 -5532 342 0
5533 5532 -342 0
-5534 5533 343 0
-5534 -5533 -343 0
5534 -5533 343 0
5534 5533 -343 0
-5535 5534 344 0
-5535 -5534 -344 0
5535 -5534 344 0
5535 5534 -344 0
-5536 5535 345 0
-5536 -5535 -345 0
5536 -5535 345 0
5536 5535 -345 0
-298 -5536 0
-5537 346 347 0
-5537 -346 -347 0
5537 -346 347 0
5537 346 -347 0
-5538 5537 348 0
-5538 -5537 -348 0
5538 -5537 348 0
5538 5537 -348 0
-5539 5538 350 0
-5539 -5538 -350 0
5539 -5538 350 0
5539 5538 -350 0
-5540 5539 351 0
-5540 -5539 -351 0
5540 -5539 351 0
5540 5539 -351 0
-5541 5540 352 0
-5541 -5540 -352 0
5541 -5540 352 0
5541 5540 -352 0
-5542 5541 353 0
-5542 -5541 -353 0
5542 -5541 353 0
5542 5541 -353 0
-5543 5542 356 0
-5543 -5542 -356 0
5543 -5542 356 0
5543 5542 -356 0
-5544 5543 357 0
-5544 -5543 -357 0
5544 -5543 357 0
5544 5543 -357 0
-5545 5544 358 0
-5545 -5544 -358 0
5545 -5544 358 0
5545 5544 -358 0
-5546 5545 359 0
-5546 -5545 -359 0
5546 -5545 359 0
5546 5545 -359 0
-5547 5546 360 0
-5547 -5546 -360 0
5547 -5546 360 0
5547 5546 -360 0
-298 -5547 0
-5548 316 319 0
-5548 -316 -319 0
5548 -316 319 0
5548 316 -319 0
-5549 5548 320 0
-5549 -5548 -320 0
5549 -5548 320 0
5549 5548 -320 0
-5550 5549 321 0
-5550 -5549 -321 0
5550 -5549 321 0
5550 5549 -321 0
-5551 5550 322 0
-5551 -5550 -322 0
5551 -5550 322 0
5551 5550 -322 0
-5552 5551 323 0
-5552 -5551 -323 0
5552 -5551 323 0
5552 5551 -323 0
-5553 5552 326 0
-5553 -5552 -326 0
5553 -5552 326 0
5553 5552 -326 0
-5554 5553 327 0
-5554 -5553 -327 0
5554 -5553 327 0
5554 5553 -327 0
-5555 5554 328 0
-5555 -5554 -328 0
5555 -5554 328 0
5555 5554 -328 0
-5556 5555 329 0
-5556 -5555 -329 0
5556 -5555 329 0
5556 5555 -329 0
-5557 5556 330 0
-5557 -5556 -330 0
5557 -5556 330 0
5557 5556 -330 0
-299 -5557 0
-5558 331 334 0
-5558 -331 -334 0
5558 -331 334 0
5558 331 -334 0
-5559 5558 335 0
-5559 -5558 -335 0
5559 -5558 335 0
5559 5558 -335 0
-5560 5559 336 0
-5560 -5559 -336 0
5560 -5559 336 0
5560 5559 -336 0
-5561 5560 337 0
-5561 -5560 -337 0
5561 -5560 337 0
5561 5560 -337 0
-5562 5561 338 0
-5562 -5561 -338 0
5562 -5561 338 0
5562 5561 -338 0
-5563 5562 341 0
-5563 -5562 -341 0
5563 -5562 341 0
5563 5562 -341 0
-5564 5563 342 0
-5564 -5563 -342 0
5564 -5563 342 0
5564 5563 -342 0
-5565 5564 343 0
-5565 -5564 -343 0
5565 -5564 343 0
5565 5564 -343 0
-5566 5565 344 0
-5566 -5565 -344 0
5566 -5565 344 0
5566 5565 -344 0
-5567 5566 345 0
-5567 -5566 -345 0
5567 -5566 345 0
5567 5566 -345 0
-299 -5567 0
-5568 346 349 0
-5568 -346 -349 0
5568 -346 349 0
5568 346 -349 0
-5569 5568 350 0
-5569 -5568 -350 0
5569 -5568 350 0
5569 5568 -350 0
-5570 5569 351 0
-5570 -5569 -351 0
5570 -5569 351 0
5570 5569 -351 0
-5571 5570 352 0
-5571 -5570 -352 0
5571 -5570 352 0
5571 5570 -352 0
-5572 5571 353 0
-5572 -5571 -353 0
5572 -5571 353 0
5572 5571 -353 0
-5573 5572 356 0
-5573 -5572 -356 0
5573 -5572 356 0
5573 5572 -356 0
-5574 5573 357 0
-5574 -5573 -357 0
5574 -5573 357 0
5574 5573 -357 0
-5575 5574 358 0
-5575 -5574 -358 0
5575 -5574 358 0
5575 5574 -358 0
-5576 5575 359 0
-5576 -5575 -359 0
5576 -5575 359 0
5576 5575 -359 0
-5577 5576 360 0
-5577 -5576 -360 0
5577 -5576 360 0
5577 5576 -360 0
-299 -5577 0
-5578 316 317 0
-5578 -316 -317 0
5578 -316 317 0
5578 316 -317 0
-5579 5578 318 0
-5579 -5578 -318 0
5579 -5578 318 0
5579 5578 -318 0
-5580 5579 319 0
-5580 -5579 -319 0
5580 -5579 319 0
5580 5579 -319 0
-5581 5580 324 0
-5581 -5580 -324 0
5581 -5580 324 0
5581 5580 -324 0
-5582 5581 327 0
-5582 -5581 -327 0
5582 -5581 327 0
5582 5581 -327 0
-5583 5582 329 0
-5583 -5582 -329 0
5583 -5582 329 0
5583 5582 -329 0
-5584 5583 330 0
-5584 -5583 -330 0
5584 -5583 330 0
5584 5583 -330 0
-300 -5584 0
-5585 331 332 0
-5585 -331 -332 0
5585 -331 332 0
5585 331 -332 0
-5586 5585 333 0
-5586 -5585 -333 0
5586 -5585 333 0
5586 5585 -333 0
-5587 5586 334 0
-5587 -5586 -334 0
5587 -5586 334 0
5587 5586 -334 0
-5588 5587 339 0
-5588 -5587 -339 0
5588 -5587 339 0
5588 5587 -339 0
-5589 5588 342 0
-5589 -5588 -342 0
5589 -5588 342 0
5589 5588 -342 0
-5590 5589 344 0
-5590 -5589 -344 0
5590 -5589 344 0
5590 5589 -344 0
-5591 5590 345 0
-5591 -5590 -345 0
5591 -5590 345 0
5591 5590 -345 0
-300 -5591 0
-5592 346 347 0
-5592 -346 -347 0
5592 -346 347 0
5592 346 -347 0
-5593 5592 348 0
-5593 -5592 -348 0
5593 -5592 348 0
5593 5592 -348 0
-5594 5593 349 0
-5594 -5593 -349 0
5594 -5593 349 0
5594 5593 -349 0
-5595 5594 354 0
-5595 -5594 -354 0
5595 -5594 354 0
5595 5594 -354 0
-5596 5595 357 0
-5596 -5595 -357 0
5596 -5595 357 0
5596 5595 -357 0
-5597 5596 359 0
-5597 -5596 -359 0
5597 -5596 359 0
5597 5596 -359 0
-5598 5597 360 0
-5598 -5597 -360 0
5598 -5597 360 0
5598 5597 -360 0
-300 -5598 0
-5599 316 317 0
-5599 -316 -317 0
5599 -316 317 0
5599 316 -317 0
-5600 5599 318 0
-5600 -5599 -318 0
5600 -5599 318 0
5600 5599 -318 0
-5601 5600 319 0
-5601 -5600 -319 0
5601 -5600 319 0
5601 5600 -319 0
-5602 5601 321 0
-5602 -5601 -321 0
5602 -5601 321 0
5602 5601 -321 0
-5603 5602 322 0
-5603 -5602 -322 0
5603 -5602 322 0
5603 5602 -322 0
-5604 5603 323 0
-5604 -5603 -323 0
5604 -5603 323 0
5604 5603 -323 0
-5605 5604 324 0
-5605 -5604 -324 0
5605 -5604 324 0
5605 5604 -324 0
-5606 5605 327 0
-5606 -5605 -327 0
5606 -5605 327 0
5606 5605 -327 0
-5607 5606 329 0
-5607 -5606 -329 0
5607 -5606 329 0
5607 5606 -329 0
-5608 5607 330 0
-5608 -5607 -330 0
5608 -5607 330 0
5608 5607 -330 0
-301 -5608 0
-5609 331 332 0
-5609 -331 -332 0
5609 -331 332 0
5609 331 -332 0
-5610 5609 333 0
-5610 -5609 -333 0
5610 -5609 333 0
5610 5609 -333 0
-5611 5610 334 0
-5611 -5610 -334 0
5611 -5610 334 0
5611 5610 -334 0
-5612 5611 336 0
-5612 -5611 -336 0
5612 -5611 336 0
5612 5611 -336 0
-5613 5612 337 0
-5613 -5612 -337 0
5613 -5612 337 0
5613 5612 -337 0
-5614 5613 338 0
-5614 -5613 -338 0
5614 -5613 338 0
5614 5613 -338 0
-5615 5614 339 0
-5615 -5614 -339 0
5615 -5614 339 0
5615 5614 -339 0
-5616 5615 342 0
-5616 -5615 -342 0
5616 -5615 342 0
5616 5615 -342 0
-5617 5616 344 0
-5617 -5616 -344 0
5617 -5616 344 0
5617 5616 -344 0
-5618 5617 345 0
-5618 -5617 -345 0
5618 -5617 345 0
5618 5617 -345 0
-301 -5618 0
-5619 346 347 0
-5619 -346 -347 0
5619 -346 347 0
5619 346 -347 0
-5620 5619 348 0
-5620 -5619 -348 0
5620 -5619 348 0
5620 5619 -348 0
-5621 5620 349 0
-5621 -5620 -349 0
5621 -5620 349 0
5621 5620 -349 0
-5622 5621 351 0
-5622 -5621 -351 0
5622 -5621 351 0
5622 5621 -351 0
-5623 5622 352 0
-5623 -5622 -352 0
5623 -5622 352 0
5623 5622 -352 0
-5624 5623 353 0
-5624 -5623 -353 0
5624 -5623 353 0
5624 5623 -353 0
-5625 5624 354 0
-5625 -5624 -354 0
5625 -5624 354 0
5625 5624 -354 0
-5626 5625 357 0
-5626 -5625 -357 0
5626 -5625 357 0
5626 5625 -357 0
-5627 5626 359 0
-5627 -5626 -359 0
5627 -5626 359 0
5627 5626 -359 0
-5628 5627 360 0
-5628 -5627 -360 0
5628 -5627 360 0
5628 5627 -360 0
-301 -5628 0
-5629 321 324 0
-5629 -321 -324 0
5629 -321 324 0
5629 321 -324 0
-5630 5629 325 0
-5630 -5629 -325 0
5630 -5629 325 0
5630 5629 -325 0
-5631 5630 326 0
-5631 -5630 -326 0
5631 -5630 326 0
5631 5630 -326 0
-5632 5631 327 0
-5632 -5631 -327 0
5632 -5631 327 0
5632 5631 -327 0
-5633 5632 329 0
-5633 -5632 -329 0
5633 -5632 329 0
5633 5632 -329 0
-5634 5633 330 0
-5634 -5633 -330 0
5634 -5633 330 0
5634 5633 -330 0
-302 -5634 0
-5635 336 339 0
-5635 -336 -339 0
5635 -336 339 0
5635 336 -339 0
-5636 5635 340 0
-5636 -5635 -340 0
5636 -5635 340 0
5636 5635 -340 0
-5637 5636 341 0
-5637 -5636 -341 0
5637 -5636 341 0
5637 5636 -341 0
-5638 5637 342 0
-5638 -5637 -342 0
5638 -5637 342 0
5638 5637 -342 0
-5639 5638 344 0
-5639 -5638 -344 0
5639 -5638 344 0
5639 5638 -344 0
-5640 5639 345 0
-5640 -5639 -345 0
5640 -5639 345 0
5640 5639 -345 0
-302 -5640 0
-5641 351 354 0
-5641 -351 -354 0
5641 -351 354 0
5641 351 -354 0
-5642 5641 355 0
-5642 -5641 -355 0
5642 -5641 355 0
5642 5641 -355 0
-5643 5642 356 0
-5643 -5642 -356 0
5643 -5642 356 0
5643 5642 -356 0
-5644 5643 357 0
-5644 -5643 -357 0
5644 -5643 357 0
5644 5643 -357 0
-5645 5644 359 0
-5645 -5644 -359 0
5645 -5644 359 0
5645 5644 -359 0
-5646 5645 360 0
-5646 -5645 -360 0
5646 -5645 360 0
5646 5645 -360 0
-302 -5646 0
-5647 322 323 0
-5647 -322 -323 0
5647 -322 323 0
5647 322 -323 0
-5648 5647 324 0
-5648 -5647 -324 0
5648 -5647 324 0
5648 5647 -324 0
-5649 5648 325 0
-5649 -5648 -325 0
5649 -5648 325 0
5649 5648 -325 0
-5650 5649 326 0
-5650 -5649 -326 0
5650 -5649 326 0
5650 5649 -326 0
-5651 5650 327 0
-5651 -5650 -327 0
5651 -5650 327 0
5651 5650 -327 0
-5652 5651 329 0
-5652 -5651 -329 0
5652 -5651 329 0
5652 5651 -329 0
-5653 5652 330 0
-5653 -5652 -330 0
5653 -5652 330 0
5653 5652 -330 0
-303 -5653 0
-5654 337 338 0
-5654 -337 -338 0
5654 -337 338 0
5654 337 -338 0
-5655 5654 339 0
-5655 -5654 -339 0
5655 -5654 339 0
5655 5654 -339 0
-5656 5655 340 0
-5656 -5655 -340 0
5656 -5655 340 0
5656 5655 -340 0
-5657 5656 341 0
-5657 -5656 -341 0
5657 -5656 341 0
5657 5656 -341 0
-5658 5657 342 0
-5658 -5657 -342 0
5658 -5657 342 0
5658 5657 -342 0
-5659 5658 344 0
-5659 -5658 -344 0
5659 -5658 344 0
5659 5658 -344 0
-5660 5659 345 0
-5660 -5659 -345 0
5660 -5659 345 0
5660 5659 -345 0
-303 -5660 0
-5661 352 353 0
-5661 -352 -353 0
5661 -352 353 0
5661 352 -353 0
-5662 5661 354 0
-5662 -5661 -354 0
5662 -5661 354 0
5662 5661 -354 0
-5663 5662 355 0
-5663 -5662 -355 0
5663 -5662 355 0
5663 5662 -355 0
-5664 5663 356 0
-5664 -5663 -356 0
5664 -5663 356 0
5664 5663 -356 0
-5665 5664 357 0
-5665 -5664 -357 0
5665 -5664 357 0
5665 5664 -357 0
-5666 5665 359 0
-5666 -5665 -359 0
5666 -5665 359 0
5666 5665 -359 0
-5667 5666 360 0
-5667 -5666 -360 0
5667 -5666 360 0
5667 5666 -360 0
-303 -5667 0
-5668 322 324 0
-5668 -322 -324 0
5668 -322 324 0
5668 322 -324 0
-5669 5668 325 0
-5669 -5668 -325 0
5669 -5668 325 0
5669 5668 -325 0
-5670 5669 327 0
-5670 -5669 -327 0
5670 -5669 327 0
5670 5669 -327 0
-5671 5670 328 0
-5671 -5670 -328 0
5671 -5670 328 0
5671 5670 -328 0
-5672 5671 329 0
-5672 -5671 -329 0
5672 -5671 329 0
5672 5671 -329 0
-5673 5672 330 0
-5673 -5672 -330 0
5673 -5672 330 0
5673 5672 -330 0
-304 -5673 0
-5674 337 339 0
-5674 -337 -339 0
5674 -337 339 0
5674 337 -339 0
-5675 5674 340 0
-5675 -5674 -340 0
5675 -5674 340 0
5675 5674 -340 0
-5676 5675 342 0
-5676 -5675 -342 0
5676 -5675 342 0
5676 5675 -342 0
-5677 5676 343 0
-5677 -5676 -343 0
5677 -5676 343 0
5677 5676 -343 0
-5678 5677 344 0
-5678 -5677 -344 0
5678 -5677 344 0
5678 5677 -344 0
-5679 5678 345 0
-5679 -5678 -345 0
5679 -5678 345 0
5679 5678 -345 0
-304 -5679 0
-5680 352 354 0
-5680 -352 -354 0
5680 -352 354 0
5680 352 -354 0
-5681 5680 355 0
-5681 -5680 -355 0
5681 -5680 355 0
5681 5680 -355 0
-5682 5681 357 0
-5682 -5681 -357 0
5682 -5681 357 0
5682 5681 -357 0
-5683 5682 358 0
-5683 -5682 -358 0
5683 -5682 358 0
5683 5682 -358 0
-5684 5683 359 0
-5684 -5683 -359 0
5684 -5683 359 0
5684 5683 -359 0
-5685 5684 360 0
-5685 -5684 -360 0
5685 -5684 360 0
5685 5684 -360 0
-304 -5685 0
-5686 321 323 0
-5686 -321 -323 0
5686 -321 323 0
5686 321 -323 0
-5687 5686 324 0
-5687 -5686 -324 0
5687 -5686 324 0
5687 5686 -324 0
-5688 5687 325 0
-5688 -5687 -325 0
5688 -5687 325 0
5688 5687 -325 0
-5689 5688 327 0
-5689 -5688 -327 0
5689 -5688 327 0
5689 5688 -327 0
-5690 5689 328 0
-5690 -5689 -328 0
5690 -5689 328 0
5690 5689 -328 0
-5691 5690 329 0
-5691 -5690 -329 0
5691 -5690 329 0
5691 5690 -329 0
-5692 5691 330 0
-5692 -5691 -330 0
5692 -5691 330 0
5692 5691 -330 0
-305 -5692 0
-5693 336 338 0
-5693 -336 -338 0
5693 -336 338 0
5693 336 -338 0
-5694 5693 339 0
-5694 -5693 -339 0
5694 -5693 339 0
5694 5693 -339 0
-5695 5694 340 0
-5695 -5694 -340 0
5695 -5694 340 0
5695 5694 -340 0
-5696 5695 342 0
-5696 -5695 -342 0
5696 -5695 342 0
5696 5695 -342 0
-5697 5696 343 0
-5697 -5696 -343 0
5697 -5696 343 0
5697 5696 -343 0
-5698 5697 344 0
-5698 -5697 -344 0
5698 -5697 344 0
5698 5697 -344 0
-5699 5698 345 0
-5699 -5698 -345 0
5699 -5698 345 0
5699 5698 -345 0
-305 -5699 0
-5700 351 353 0
-5700 -351 -353 0
5700 -351 353 0
5700 351 -353 0
-5701 5700 354 0
-5701 -5700 -354 0
5701 -5700 354 0
5701 5700 -354 0
-5702 5701 355 0
-5702 -5701 -355 0
5702 -5701 355 0
5702 5701 -355 0
-5703 5702 357 0
-5703 -5702 -357 0
5703 -5702 357 0
5703 5702 -357 0
-5704 5703 358 0
-5704 -5703 -358 0
5704 -5703 358 0
5704 5703 -358 0
-5705 5704 359 0
-5705 -5704 -359 0
5705 -5704 359 0
5705 5704 -359 0
-5706 5705 360 0
-5706 -5705 -360 0
5706 -5705 360 0
5706 5705 -360 0
-305 -5706 0
-5707 316 317 0
-5707 -316 -317 0
5707 -316 317 0
5707 316 -317 0
-5708 5707 318 0
-5708 -5707 -318 0
5708 -5707 318 0
5708 5707 -318 0
-5709 5708 319 0
-5709 -5708 -319 0
5709 -5708 319 0
5709 5708 -319 0
-5710 5709 321 0
-5710 -5709 -321 0
5710 -5709 321 0
5710 5709 -321 0
-5711 5710 322 0
-5711 -5710 -322 0
5711 -5710 322 0
5711 5710 -322 0
-5712 5711 324 0
-5712 -5711 -324 0
5712 -5711 324 0
5712 5711 -324 0
-5713 5712 326 0
-5713 -5712 -326 0
5713 -5712 326 0
5713 5712 -326 0
-5714 5713 327 0
-5714 -5713 -327 0
5714 -5713 327 0
5714 5713 -327 0
-5715 5714 328 0
-5715 -5714 -328 0
5715 -5714 328 0
5715 5714 -328 0
-5716 5715 329 0
-5716 -5715 -329 0
5716 -5715 329 0
5716 5715 -329 0
-5717 5716 330 0
-5717 -5716 -330 0
5717 -5716 330 0
5717 5716 -330 0
-306 -5717 0
-5718 331 332 0
-5718 -331 -332 0
5718 -331 332 0
5718 331 -332 0
-5719 5718 333 0
-5719 -5718 -333 0
5719 -5718 333 0
5719 5718 -333 0
-5720 5719 334 0
-5720 -5719 -334 0
5720 -5719 334 0
5720 5719 -334 0
-5721 5720 336 0
-5721 -5720 -336 0
5721 -5720 336 0
5721 5720 -336 0
-5722 5721 337 0
-5722 -5721 -337 0
5722 -5721 337 0
5722 5721 -337 0
-5723 5722 339 0
-5723 -5722 -339 0
5723 -5722 339 0
5723 5722 -339 0
-5724 5723 341 0
-5724 -5723 -341 0
5724 -5723 341 0
5724 5723 -341 0
-5725 5724 342 0
-5725 -5724 -342 0
5725 -5724 342 0
5725 5724 -342 0
-5726 5725 343 0
-5726 -5725 -343 0
5726 -5725 343 0
5726 5725 -343 0
-5727 5726 344 0
-5727 -5726 -344 0
5727 -5726 344 0
5727 5726 -344 0
-5728 5727 345 0
-5728 -5727 -345 0
5728 -5727 345 0
5728 5727 -345 0
-306 -5728 0
-5729 346 347 0
-5729 -346 -347 0
5729 -346 347 0
5729 346 -347 0
-5730 5729 348 0
-5730 -5729 -348 0
5730 -5729 348 0
5730 5729 -348 0
-5731 5730 349 0
-5731 -5730 -349 0
5731 -5730 349 0
5731 5730 -349 0
-5732 5731 351 0
-5732 -5731 -351 0
5732 -5731 351 0
5732 5731 -351 0
-5733 5732 352 0
-5733 -5732 -352 0
5733 -5732 352 0
5733 5732 -352 0
-5734 5733 354 0
-5734 -5733 -354 0
5734 -5733 354 0
5734 5733 -354 0
-5735 5734 356 0
-5735 -5734 -356 0
5735 -5734 356 0
5735 5734 -356 0
-5736 5735 357 0
-5736 -5735 -357 0
5736 -5735 357 0
5736 5735 -357 0
-5737 5736 358 0
-5737 -5736 -358 0
5737 -5736 358 0
5737 5736 -358 0
-5738 5737 359 0
-5738 -5737 -359 0
5738 -5737 359 0
5738 5737 -359 0
-5739 5738 360 0
-5739 -5738 -360 0
5739 -5738 360 0
5739 5738 -360 0
-306 -5739 0
-5740 316 317 0
-5740 -316 -317 0
5740 -316 317 0
5740 316 -317 0
-5741 5740 318 0
-5741 -5740 -318 0
5741 -5740 318 0
5741 5740 -318 0
-5742 5741 319 0
-5742 -5741 -319 0
5742 -5741 319 0
5742 5741 -319 0
-5743 5742 323 0
-5743 -5742 -323 0
5743 -5742 323 0
5743 5742 -323 0
-5744 5743 324 0
-5744 -5743 -324 0
5744 -5743 324 0
5744 5743 -324 0
-5745 5744 326 0
-5745 -5744 -326 0
5745 -5744 326 0
5745 5744 -326 0
-5746 5745 327 0
-5746 -5745 -327 0
5746 -5745 327 0
5746 5745 -327 0
-5747 5746 328 0
-5747 -5746 -328 0
5747 -5746 328 0
5747 5746 -328 0
-5748 5747 329 0
-5748 -5747 -329 0
5748 -5747 329 0
5748 5747 -329 0
-5749 5748 330 0
-5749 -5748 -330 0
5749 -5748 330 0
5749 5748 -330 0
-307 -5749 0
-5750 331 332 0
-5750 -331 -332 0
5750 -331 332 0
5750 331 -332 0
-5751 5750 333 0
-5751 -5750 -333 0
5751 -5750 333 0
5751 5750 -333 0
-5752 5751 334 0
-5752 -5751 -334 0
5752 -5751 334 0
5752 5751 -334 0
-5753 5752 338 0
-5753 -5752 -338 0
5753 -5752 338 0
5753 5752 -338 0
-5754 5753 339 0
-5754 -5753 -339 0
5754 -5753 339 0
5754 5753 -339 0
-5755 5754 341 0
-5755 -5754 -341 0
5755 -5754 341 0
5755 5754 -341 0
-5756 5755 342 0
-5756 -5755 -342 0
5756 -5755 342 0
5756 5755 -342 0
-5757 5756 343 0
-5757 -5756 -343 0
5757 -5756 343 0
5757 5756 -343 0
-5758 5757 344 0
-5758 -5757 -344 0
5758 -5757 344 0
5758 5757 -344 0
-5759 5758 345 0
-5759 -5758 -345 0
5759 -5758 345 0
5759 5758 -345 0
-307 -5759 0
-5760 346 347 0
-5760 -346 -347 0
5760 -346 347 0
5760 346 -347 0
-5761 5760 348 0
-5761 -5760 -348 0
5761 -5760 348 0
5761 5760 -348 0
-5762 5761 349 0
-5762 -5761 -349 0
5762 -5761 349 0
5762 5761 -349 0
-5763 5762 353 0
-5763 -5762 -353 0
5763 -5762 353 0
5763 5762 -353 0
-5764 5763 354 0
-5764 -5763 -354 0
5764 -5763 354 0
5764 5763 -354 0
-5765 5764 356 0
-5765 -5764 -356 0
5765 -5764 356 0
5765 5764 -356 0
-5766 5765 357 0
-5766 -5765 -357 0
5766 -5765 357 0
5766 5765 -357 0
-5767 5766 358 0
-5767 -5766 -358 0
5767 -5766 358 0
5767 5766 -358 0
-5768 5767 359 0
-5768 -5767 -359 0
5768 -5767 359 0
5768 5767 -359 0
-5769 5768 360 0
-5769 -5768 -360 0
5769 -5768 360 0
5769 5768 -360 0
-307 -5769 0
-5770 316 317 0
-5770 -316 -317 0
5770 -316 317 0
5770 316 -317 0
-5771 5770 318 0
-5771 -5770 -318 0
5771 -5770 318 0
5771 5770 -318 0
-5772 5771 319 0
-5772 -5771 -319 0
5772 -5771 319 0
5772 5771 -319 0
-5773 5772 320 0
-5773 -5772 -320 0
5773 -5772 320 0
5773 5772 -320 0
-5774 5773 324 0
-5774 -5773 -324 0
5774 -5773 324 0
5774 5773 -324 0
-5775 5774 327 0
-5775 -5774 -327 0
5775 -5774 327 0
5775 5774 -327 0
-5776 5775 329 0
-5776 -5775 -329 0
5776 -5775 329 0
5776 5775 -329 0
-5777 5776 330 0
-5777 -5776 -330 0
5777 -5776 330 0
5777 5776 -330 0
-308 -5777 0
-5778 331 332 0
-5778 -331 -332 0
5778 -331 332 0
5778 331 -332 0
-5779 5778 333 0
-5779 -5778 -333 0
5779 -5778 333 0
5779 5778 -333 0
-5780 5779 334 0
-5780 -5779 -334 0
5780 -5779 334 0
5780 5779 -334 0
-5781 5780 335 0
-5781 -5780 -335 0
5781 -5780 335 0
5781 5780 -335 0
-5782 5781 339 0
-5782 -5781 -339 0
5782 -5781 339 0
5782 5781 -339 0
-5783 5782 342 0
-5783 -5782 -342 0
5783 -5782 342 0
5783 5782 -342 0
-5784 5783 344 0
-5784 -5783 -344 0
5784 -5783 344 0
5784 5783 -344 0
-5785 5784 345 0
-5785 -5784 -345 0
5785 -5784 345 0
5785 5784 -345 0
-308 -5785 0
-5786 346 347 0
-5786 -346 -347 0
5786 -346 347 0
5786 346 -347 0
-5787 5786 348 0
-5787 -5786 -348 0
5787 -5786 348 0
5787 5786 -348 0
-5788 5787 349 0
-5788 -5787 -349 0
5788 -5787 349 0
5788 5787 -349 0
-5789 5788 350 0
-5789 -5788 -350 0
5789 -5788 350 0
5789 5788 -350 0
-5790 5789 354 0
-5790 -5789 -354 0
5790 -5789 354 0
5790 5789 -354 0
-5791 5790 357 0
-5791 -5790 -357 0
5791 -5790 357 0
5791 5790 -357 0
-5792 5791 359 0
-5792 -5791 -359 0
5792 -5791 359 0
5792 5791 -359 0
-5793 5792 360 0
-5793 -5792 -360 0
5793 -5792 360 0
5793 5792 -360 0
-308 -5793 0
-5794 316 320 0
-5794 -316 -320 0
5794 -316 320 0
5794 316 -320 0
-5795 5794 321 0
-5795 -5794 -321 0
5795 -5794 321 0
5795 5794 -321 0
-5796 5795 322 0
-5796 -5795 -322 0
5796 -5795 322 0
5796 5795 -322 0
-5797 5796 323 0
-5797 -5796 -323 0
5797 -5796 323 0
5797 5796 -323 0
-5798 5797 324 0
-5798 -5797 -324 0
5798 -5797 324 0
5798 5797 -324 0
-5799 5798 327 0
-5799 -5798 -327 0
5799 -5798 327 0
5799 5798 -327 0
-5800 5799 329 0
-5800 -5799 -329 0
5800 -5799 329 0
5800 5799 -329 0
-5801 5800 330 0
-5801 -5800 -330 0
5801 -5800 330 0
5801 5800 -330 0
-309 -5801 0
-5802 331 335 0
-5802 -331 -335 0
5802 -331 335 0
5802 331 -335 0
-5803 5802 336 0
-5803 -5802 -336 0
5803 -5802 336 0
5803 5802 -336 0
-5804 5803 337 0
-5804 -5803 -337 0
5804 -5803 337 0
5804 5803 -337 0
-5805 5804 338 0
-5805 -5804 -338 0
5805 -5804 338 0
5805 5804 -338 0
-5806 5805 339 0
-5806 -5805 -339 0
5806 -5805 339 0
5806 5805 -339 0
-5807 5806 342 0
-5807 -5806 -342 0
5807 -5806 342 0
5807 5806 -342 0
-5808 5807 344 0
-5808 -5807 -344 0
5808 -5807 344 0
5808 5807 -344 0
-5809 5808 345 0
-5809 -5808 -345 0
5809 -5808 345 0
5809 5808 -345 0
-309 -5809 0
-5810 346 350 0
-5810 -346 -350 0
5810 -346 350 0
5810 346 -350 0
-5811 5810 351 0
-5811 -5810 -351 0
5811 -5810 351 0
5811 5810 -351 0
-5812 5811 352 0
-5812 -5811 -352 0
5812 -5811 352 0
5812 5811 -352 0
-5813 5812 353 0
-5813 -5812 -353 0
5813 -5812 353 0
5813 5812 -353 0
-5814 5813 354 0
-5814 -5813 -354 0
5814 -5813 354 0
5814 5813 -354 0
-5815 5814 357 0
-5815 -5814 -357 0
5815 -5814 357 0
5815 5814 -357 0
-5816 5815 359 0
-5816 -5815 -359 0
5816 -5815 359 0
5816 5815 -359 0
-5817 5816 360 0
-5817 -5816 -360 0
5817 -5816 360 0
5817 5816 -360 0
-309 -5817 0
-5818 317 320 0
-5818 -317 -320 0
5818 -317 320 0
5818 317 -320 0
-5819 5818 321 0
-5819 -5818 -321 0
5819 -5818 321 0
5819 5818 -321 0
-5820 5819 324 0
-5820 -5819 -324 0
5820 -5819 324 0
5820 5819 -324 0
-5821 5820 325 0
-5821 -5820 -325 0
5821 -5820 325 0
5821 5820 -325 0
-5822 5821 326 0
-5822 -5821 -326 0
5822 -5821 326 0
5822 5821 -326 0
-5823 5822 327 0
-5823 -5822 -327 0
5823 -5822 327 0
5823 5822 -327 0
-5824 5823 329 0
-5824 -5823 -329 0
5824 -5823 329 0
5824 5823 -329 0
-5825 5824 330 0
-5825 -5824 -330 0
5825 -5824 330 0
5825 5824 -330 0
-310 -5825 0
-5826 332 335 0
-5826 -332 -335 0
5826 -332 335 0
5826 332 -335 0
-5827 5826 336 0
-5827 -5826 -336 0
5827 -5826 336 0
5827 5826 -336 0
-5828 5827 339 0
-5828 -5827 -339 0
5828 -5827 339 0
5828 5827 -339 0
-5829 5828 340 0
-5829 -5828 -340 0
5829 -5828 340 0
5829 5828 -340 0
-5830 5829 341 0
-5830 -5829 -341 0
5830 -5829 341 0
5830 5829 -341 0
-5831 5830 342 0
-5831 -5830 -342 0
5831 -5830 342 0
5831 5830 -342 0
-5832 5831 344 0
-5832 -5831 -344 0
5832 -5831 344 0
5832 5831 -344 0
-5833 5832 345 0
-5833 -5832 -345 0
5833 -5832 345 0
5833 5832 -345 0
-310 -5833 0
-5834 347 350 0
-5834 -347 -350 0
5834 -347 350 0
5834 347 -350 0
-5835 5834 351 0
-5835 -5834 -351 0
5835 -5834 351 0
5835 5834 -351 0
-5836 5835 354 0
-5836 -5835 -354 0
5836 -5835 354 0
5836 5835 -354 0
-5837 5836 355 0
-5837 -5836 -355 0
5837 -5836 355 0
5837 5836 -355 0
-5838 5837 356 0
-5838 -5837 -356 0
5838 -5837 356 0
5838 5837 -356 0
-5839 5838 357 0
-5839 -5838 -357 0
5839 -5838 357 0
5839 5838 -357 0
-5840 5839 359 0
-5840 -5839 -359 0
5840 -5839 359 0
5840 5839 -359 0
-5841 5840 360 0
-5841 -5840 -360 0
5841 -5840 360 0
5841 5840 -360 0
-310 -5841 0
-5842 318 319 0
-5842 -318 -319 0
5842 -318 319 0
5842 318 -319 0
-5843 5842 320 0
-5843 -5842 -320 0
5843 -5842 320 0
5843 5842 -320 0
-5844 5843 322 0
-5844 -5843 -322 0
5844 -5843 322 0
5844 5843 -322 0
-5845 5844 323 0
-5845 -5844 -323 0
5845 -5844 323 0
5845 5844 -323 0
-5846 5845 324 0
-5846 -5845 -324 0
5846 -5845 324 0
5846 5845 -324 0
-5847 5846 325 0
-5847 -5846 -325 0
5847 -5846 325 0
5847 5846 -325 0
-5848 5847 326 0
-5848 -5847 -326 0
5848 -5847 326 0
5848 5847 -326 0
-5849 5848 327 0
-5849 -5848 -327 0
5849 -5848 327 0
5849 5848 -327 0
-5850 5849 329 0
-5850 -5849 -329 0
5850 -5849 329 0
5850 5849 -329 0
-5851 5850 330 0
-5851 -5850 -330 0
5851 -5850 330 0
5851 5850 -330 0
-311 -5851 0
-5852 333 334 0
-5852 -333 -334 0
5852 -333 334 0
5852 333 -334 0
-5853 5852 335 0
-5853 -5852 -335 0
5853 -5852 335 0
5853 5852 -335 0
-5854 5853 337 0
-5854 -5853 -337 0
5854 -5853 337 0
5854 5853 -337 0
-5855 5854 338 0
-5855 -5854 -338 0
5855 -5854 338 0
5855 5854 -338 0
-5856 5855 339 0
-5856 -5855 -339 0
5856 -5855 339 0
5856 5855 -339 0
-5857 5856 340 0
-5857 -5856 -340 0
5857 -5856 340 0
5857 5856 -340 0
-5858 5857 341 0
-5858 -5857 -341 0
5858 -5857 341 0
5858 5857 -341 0
-5859 5858 342 0
-5859 -5858 -342 0
5859 -5858 342 0
5859 5858 -342 0
-5860 5859 344 0
-5860 -5859 -344 0
5860 -5859 344 0
5860 5859 -344 0
-5861 5860 345 0
-5861 -5860 -345 0
5861 -5860 345 0
5861 5860 -345 0
-311 -5861 0
-5862 348 349 0
-5862 -348 -349 0
5862 -348 349 0
5862 348 -349 0
-5863 5862 350 0
-5863 -5862 -350 0
5863 -5862 350 0
5863 5862 -350 0
-5864 5863 352 0
-5864 -5863 -352 0
5864 -5863 352 0
5864 5863 -352 0
-5865 5864 353 0
-5865 -5864 -353 0
5865 -5864 353 0
5865 5864 -353 0
-5866 5865 354 0
-5866 -5865 -354 0
5866 -5865 354 0
5866 5865 -354 0
-5867 5866 355 0
-5867 -5866 -355 0
5867 -5866 355 0
5867 5866 -355 0
-5868 5867 356 0
-5868 -5867 -356 0
5868 -5867 356 0
5868 5867 -356 0
-5869 5868 357 0
-5869 -5868 -357 0
5869 -5868 357 0
5869 5868 -357 0
-5870 5869 359 0
-5870 -5869 -359 0
5870 -5869 359 0
5870 5869 -359 0
-5871 5870 360 0
-5871 -5870 -360 0
5871 -5870 360 0
5871 5870 -360 0
-311 -5871 0
-5872 318 320 0
-5872 -318 -320 0
5872 -318 320 0
5872 318 -320 0
-5873 5872 322 0
-5873 -5872 -322 0
5873 -5872 322 0
5873 5872 -322 0
-5874 5873 324 0
-5874 -5873 -324 0
5874 -5873 324 0
5874 5873 -324 0
-5875 5874 325 0
-5875 -5874 -325 0
5875 -5874 325 0
5875 5874 -325 0
-5876 5875 327 0
-5876 -5875 -327 0
5876 -5875 327 0
5876 5875 -327 0
-5877 5876 328 0
-5877 -5876 -328 0
5877 -5876 328 0
5877 5876 -328 0
-5878 5877 329 0
-5878 -5877 -329 0
5878 -5877 329 0
5878 5877 -329 0
-5879 5878 330 0
-5879 -5878 -330 0
5879 -5878 330 0
5879 5878 -330 0
-312 -5879 0
-5880 333 335 0
-5880 -333 -335 0
5880 -333 335 0
5880 333 -335 0
-5881 5880 337 0
-5881 -5880 -337 0
5881 -5880 337 0
5881 5880 -337 0
-5882 5881 339 0
-5882 -5881 -339 0
5882 -5881 339 0
5882 5881 -339 0
-5883 5882 340 0
-5883 -5882 -340 0
5883 -5882 340 0
5883 5882 -340 0
-5884 5883 342 0
-5884 -5883 -342 0
5884 -5883 342 0
5884 5883 -342 0
-5885 5884 343 0
-5885 -5884 -343 0
5885 -5884 343 0
5885 5884 -343 0
-5886 5885 344 0
-5886 -5885 -344 0
5886 -5885 344 0
5886 5885 -344 0
-5887 5886 345 0
-5887 -5886 -345 0
5887 -5886 345 0
5887 5886 -345 0
-312 -5887 0
-5888 348 350 0
-5888 -348 -350 0
5888 -348 350 0
5888 348 -350 0
-5889 5888 352 0
-5889 -5888 -352 0
5889 -5888 352 0
5889 5888 -352 0
-5890 5889 354 0
-5890 -5889 -354 0
5890 -5889 354 0
5890 5889 -354 0
-5891 5890 355 0
-5891 -5890 -355 0
5891 -5890 355 0
5891 5890 -355 0
-5892 5891 357 0
-5892 -5891 -357 0
5892 -5891 357 0
5892 5891 -357 0
-5893 5892 358 0
-5893 -5892 -358 0
5893 -5892 358 0
5893 5892 -358 0
-5894 5893 359 0
-5894 -5893 -359 0
5894 -5893 359 0
5894 5893 -359 0
-5895 5894 360 0
-5895 -5894 -360 0
5895 -5894 360 0
5895 5894 -360 0
-312 -5895 0
-5896 317 319 0
-5896 -317 -319 0
5896 -317 319 0
5896 317 -319 0
-5897 5896 320 0
-5897 -5896 -320 0
5897 -5896 320 0
5897 5896 -320 0
-5898 5897 321 0
-5898 -5897 -321 0
5898 -5897 321 0
5898 5897 -321 0
-5899 5898 323 0
-5899 -5898 -323 0
5899 -5898 323 0
5899 5898 -323 0
-5900 5899 324 0
-5900 -5899 -324 0
5900 -5899 324 0
5900 5899 -324 0
-5901 5900 325 0
-5901 -5900 -325 0
5901 -5900 325 0
5901 5900 -325 0
-5902 5901 327 0
-5902 -5901 -327 0
5902 -5901 327 0
5902 5901 -327 0
-5903 5902 328 0
-5903 -5902 -328 0
5903 -5902 328 0
5903 5902 -328 0
-5904 5903 329 0
-5904 -5903 -329 0
5904 -5903 329 0
5904 5903 -329 0
-5905 5904 330 0
-5905 -5904 -330 0
5905 -5904 330 0
5905 5904 -330 0
-313 -5905 0
-5906 332 334 0
-5906 -332 -334 0
5906 -332 334 0
5906 332 -334 0
-5907 5906 335 0
-5907 -5906 -335 0
5907 -5906 335 0
5907 5906 -335 0
-5908 5907 336 0
-5908 -5907 -336 0
5908 -5907 336 0
5908 5907 -336 0
-5909 5908 338 0
-5909 -5908 -338 0
5909 -5908 338 0
5909 5908 -338 0
-5910 5909 339 0
-5910 -5909 -339 0
5910 -5909 339 0
5910 5909 -339 0
-5911 5910 340 0
-5911 -5910 -340 0
5911 -5910 340 0
5911 5910 -340 0
-5912 5911 342 0
-5912 -5911 -342 0
5912 -5911 342 0
5912 5911 -342 0
-5913 5912 343 0
-5913 -5912 -343 0
5913 -5912 343 0
5913 5912 -343 0
-5914 5913 344 0
-5914 -5913 -344 0
5914 -5913 344 0
5914 5913 -344 0
-5915 5914 345 0
-5915 -5914 -345 0
5915 -5914 345 0
5915 5914 -345 0
-313 -5915 0
-5916 347 349 0
-5916 -347 -349 0
5916 -347 349 0
5916 347 -349 0
-5917 5916 350 0
-5917 -5916 -350 0
5917 -5916 350 0
5917 5916 -350 0
-5918 5917 351 0
-5918 -5917 -351 0
5918 -5917 351 0
5918 5917 -351 0
-5919 5918 353 0
-5919 -5918 -353 0
5919 -5918 353 0
5919 5918 -353 0
-5920 5919 354 0
-5920 -5919 -354 0
5920 -5919 354 0
5920 5919 -354 0
-5921 5920 355 0
-5921 -5920 -355 0
5921 -5920 355 0
5921 5920 -355 0
-5922 5921 357 0
-5922 -5921 -357 0
5922 -5921 357 0
5922 5921 -357 0
-5923 5922 358 0
-5923 -5922 -358 0
5923 -5922 358 0
5923 5922 -358 0
-5924 5923 359 0
-5924 -5923 -359 0
5924 -5923 359 0
5924 5923 -359 0
-5925 5924 360 0
-5925 -5924 -360 0
5925 -5924 360 0
5925 5924 -360 0
-313 -5925 0
-5926 316 319 0
-5926 -316 -319 0
5926 -316 319 0
5926 316 -319 0
-5927 5926 320 0
-5927 -5926 -320 0
5927 -5926 320 0
5927 5926 -320 0
-5928 5927 321 0
-5928 -5927 -321 0
5928 -5927 321 0
5928 5927 -321 0
-5929 5928 322 0
-5929 -5928 -322 0
5929 -5928 322 0
5929 5928 -322 0
-5930 5929 324 0
-5930 -5929 -324 0
5930 -5929 324 0
5930 5929 -324 0
-5931 5930 326 0
-5931 -5930 -326 0
5931 -5930 326 0
5931 5930 -326 0
-5932 5931 327 0
-5932 -5931 -327 0
5932 -5931 327 0
5932 5931 -327 0
-5933 5932 328 0
-5933 -5932 -328 0
5933 -5932 328 0
5933 5932 -328 0
-5934 5933 329 0
-5934 -5933 -329 0
5934 -5933 329 0
5934 5933 -329 0
-5935 5934 330 0
-5935 -5934 -330 0
5935 -5934 330 0
5935 5934 -330 0
-314 -5935 0
-5936 331 334 0
-5936 -331 -334 0
5936 -331 334 0
5936 331 -334 0
-5937 5936 335 0
-5937 -5936 -335 0
5937 -5936 335 0
5937 5936 -335 0
-5938 5937 336 0
-5938 -5937 -336 0
5938 -5937 336 0
5938 5937 -336 0
-5939 5938 337 0
-5939 -5938 -337 0
5939 -5938 337 0
5939 5938 -337 0
-5940 5939 339 0
-5940 -5939 -339 0
5940 -5939 339 0
5940 5939 -339 0
-5941 5940 341 0
-5941 -5940 -341 0
5941 -5940 341 0
5941 5940 -341 0
-5942 5941 342 0
-5942 -5941 -342 0
5942 -5941 342 0
5942 5941 -342 0
-5943 5942 343 0
-5943 -5942 -343 0
5943 -5942 343 0
5943 5942 -343 0
-5944 5943 344 0
-5944 -5943 -344 0
5944 -5943 344 0
5944 5943 -344 0
-5945 5944 345 0
-5945 -5944 -345 0
5945 -5944 345 0
5945 5944 -345 0
-314 -5945 0
-5946 346 349 0
-5946 -346 -349 0
5946 -346 349 0
5946 346 -349 0
-5947 5946 350 0
-5947 -5946 -350 0
5947 -5946 350 0
5947 5946 -350 0
-5948 5947 351 0
-5948 -5947 -351 0
5948 -5947 351 0
5948 5947 -351 0
-5949 5948 352 0
-5949 -5948 -352 0
5949 -5948 352 0
5949 5948 -352 0
-5950 5949 354 0
-5950 -5949 -354 0
5950 -5949 354 0
5950 5949 -354 0
-5951 5950 356 0
-5951 -5950 -356 0
5951 -5950 356 0
5951 5950 -356 0
-5952 5951 357 0
-5952 -5951 -357 0
5952 -5951 357 0
5952 5951 -357 0
-5953 5952 358 0
-5953 -5952 -358 0
5953 -5952 358 0
5953 5952 -358 0
-5954 5953 359 0
-5954 -5953 -359 0
5954 -5953 359 0
5954 5953 -359 0
-5955 5954 360 0
-5955 -5954 -360 0
5955 -5954 360 0
5955 5954 -360 0
-314 -5955 0
-5956 316 317 0
-5956 -316 -317 0
5956 -316 317 0
5956 316 -317 0
-5957 5956 318 0
-5957 -5956 -318 0
5957 -5956 318 0
5957 5956 -318 0
-5958 5957 320 0
-5958 -5957 -320 0
5958 -5957 320 0
5958 5957 -320 0
-5959 5958 323 0
-5959 -5958 -323 0
5959 -5958 323 0
5959 5958 -323 0
-5960 5959 324 0
-5960 -5959 -324 0
5960 -5959 324 0
5960 5959 -324 0
-5961 5960 326 0
-5961 -5960 -326 0
5961 -5960 326 0
5961 5960 -326 0
-5962 5961 327 0
-5962 -5961 -327 0
5962 -5961 327 0
5962 5961 -327 0
-5963 5962 328 0
-5963 -5962 -328 0
5963 -5962 328 0
5963 5962 -328 0
-5964 5963 329 0
-5964 -5963 -329 0
5964 -5963 329 0
5964 5963 -329 0
-5965 5964 330 0
-5965 -5964 -330 0
5965 -5964 330 0
5965 5964 -330 0
-315 -5965 0
-5966 331 332 0
-5966 -331 -332 0
5966 -331 332 0
5966 331 -332 0
-5967 5966 333 0
-5967 -5966 -333 0
5967 -5966 333 0
5967 5966 -333 0
-5968 5967 335 0
-5968 -5967 -335 0
5968 -5967 335 0
5968 5967 -335 0
-5969 5968 338 0
-5969 -5968 -338 0
5969 -5968 338 0
5969 5968 -338 0
-5970 5969 339 0
-5970 -5969 -339 0
5970 -5969 339 0
5970 5969 -339 0
-5971 5970 341 0
-5971 -5970 -341 0
5971 -5970 341 0
5971 5970 -341 0
-5972 5971 342 0
-5972 -5971 -342 0
5972 -5971 342 0
5972 5971 -342 0
-5973 5972 343 0
-5973 -5972 -343 0
5973 -5972 343 0
5973 5972 -343 0
-5974 5973 344 0
-5974 -5973 -344 0
5974 -5973 344 0
5974 5973 -344 0
-5975 5974 345 0
-5975 -5974 -345 0
5975 -5974 345 0
5975 5974 -345 0
-315 -5975 0
-5976 346 347 0
-5976 -346 -347 0
5976 -346 347 0
5976 346 -347 0
-5977 5976 348 0
-5977 -5976 -348 0
5977 -5976 348 0
5977 5976 -348 0
-5978 5977 350 0
-5978 -5977 -350 0
5978 -5977 350 0
5978 5977 -350 0
-5979 5978 353 0
-5979 -5978 -353 0
5979 -5978 353 0
5979 5978 -353 0
-5980 5979 354 0
-5980 -5979 -354 0
5980 -5979 354 0
5980 5979 -354 0
-5981 5980 356 0
-5981 -5980 -356 0
5981 -5980 356 0
5981 5980 -356 0
-5982 5981 357 0
-5982 -5981 -357 0
5982 -5981 357 0
5982 5981 -357 0
-5983 5982 358 0
-5983 -5982 -358 0
5983 -5982 358 0
5983 5982 -358 0
-5984 5983 359 0
-5984 -5983 -359 0
5984 -5983 359 0
5984 5983 -359 0
-5985 5984 360 0
-5985 -5984 -360 0
5985 -5984 360 0
5985 5984 -360 0
-315 -5985 0
316 317 318 319 320 321 322 323 324 325 326 327 328 329 330 0
-316 317 318 319 320 321 322 323 324 -325 326 327 328 329 -330 0
331 332 333 334 335 336 337 338 339 340 341 342 343 344 345 0
-331 332 333 334 335 336 337 338 339 -340 341 342 343 344 -345 0
-5986 316 331 0
-5986 -316 -331 0
5986 -316 331 0
5986 316 -331 0
-5987 317 332 0
-5987 -317 -332 0
5987 -317 332 0
5987 317 -332 0
-5988 318 333 0
-5988 -318 -333 0
5988 -318 333 0
5988 318 -333 0
-5989 319 334 0
-5989 -319 -334 0
5989 -319 334 0
5989 319 -334 0
-5990 320 335 0
-5990 -320 -335 0
5990 -320 335 0
5990 320 -335 0
-5991 321 336 0
-5991 -321 -336 0
5991 -321 336 0
5991 321 -336 0
-5992 322 337 0
-5992 -322 -337 0
5992 -322 337 0
5992 322 -337 0
-5993 323 338 0
-5993 -323 -338 0
5993 -323 338 0
5993 323 -338 0
-5994 324 339 0
-5994 -324 -339 0
5994 -324 339 0
5994 324 -339 0
-5995 325 340 0
-5995 -325 -340 0
5995 -325 340 0
5995 325 -340 0
-5996 326 341 0
-5996 -326 -341 0
5996 -326 341 0
5996 326 -341 0
-5997 327 342 0
-5997 -327 -342 0
5997 -327 342 0
5997 327 -342 0
-5998 328 343 0
-5998 -328 -343 0
5998 -328 343 0
5998 328 -343 0
-5999 329 344 0
-5999 -329 -344 0
5999 -329 344 0
5999 329 -344 0
-6000 330 345 0
-6000 -330 -345 0
6000 -330 345 0
6000 330 -345 0
5986 5987 5988 5989 5990 5991 5992 5993 5994 5995 5996 5997 5998 5999 6000 0
-6001 316 331 0
-6001 -316 -331 0
6001 -316 331 0
6001 316 -331 0
-6002 317 332 0
-6002 -317 -332 0
6002 -317 332 0
6002 317 -332 0
-6003 318 333 0
-6003 -318 -333 0
6003 -318 333 0
6003 318 -333 0
-6004 319 334 0
-6004 -319 -334 0
6004 -319 334 0
6004 319 -334 0
-6005 320 335 0
-6005 -320 -335 0
6005 -320 335 0
6005 320 -335 0
-6006 321 336 0
-6006 -321 -336 0
6006 -321 336 0
6006 321 -336 0
-6007 322 337 0
-6007 -322 -337 0
6007 -322 337 0
6007 322 -337 0
-6008 323 338 0
-6008 -323 -338 0
6008 -323 338 0
6008 323 -338 0
-6009 324 339 0
-6009 -324 -339 0
6009 -324 339 0
6009 324 -339 0
-6010 325 340 0
-6010 -325 -340 0
6010 -325 340 0
6010 325 -340 0
-6011 326 341 0
-6011 -326 -341 0
6011 -326 341 0
6011 326 -341 0
-6012 327 342 0
-6012 -327 -342 0
6012 -327 342 0
6012 327 -342 0
-6013 328 343 0
-6013 -328 -343 0
6013 -328 343 0
6013 328 -343 0
-6014 329 344 0
-6014 -329 -344 0
6014 -329 344 0
6014 329 -344 0
-6015 330 345 0
-6015 -330 -345 0
6015 -330 345 0
6015 330 -345 0
-6001 6002 6003 6004 6005 6006 6007 6008 6009 -6010 6011 6012 6013 6014 -6015 0
346 347 348 349 350 351 352 353 354 355 356 357 358 359 360 0
-346 347 348 349 350 351 352 353 354 -355 356 357 358 359 -360 0
-6016 316 346 0
-6016 -316 -346 0
6016 -316 346 0
6016 316 -346 0
-6017 317 347 0
-6017 -317 -347 0
6017 -317 347 0
6017 317 -347 0
-6018 318 348 0
-6018 -318 -348 0
6018 -318 348 0
6018 318 -348 0
-6019 319 349 0
-6019 -319 -349 0
6019 -319 349 0
6019 319 -349 0
-6020 320 350 0
-6020 -320 -350 0
6020 -320 350 0
6020 320 -350 0
-6021 321 351 0
-6021 -321 -351 0
6021 -321 351 0
6021 321 -351 0
-6022 322 352 0
-6022 -322 -352 0
6022 -322 352 0
6022 322 -352 0
-6023 323 353 0
-6023 -323 -353 0
6023 -323 353 0
6023 323 -353 0
-6024 324 354 0
-6024 -324 -354 0
6024 -324 354 0
6024 324 -354 0
-6025 325 355 0
-6025 -325 -355 0
6025 -325 355 0
6025 325 -355 0
-6026 326 356 0
-6026 -326 -356 0
6026 -326 356 0
6026 326 -356 0
-6027 327 357 0
-6027 -327 -357 0
6027 -327 357 0
6027 327 -357 0
-6028 328 358 0
-6028 -328 -358 0
6028 -328 358 0
6028 328 -358 0
-6029 329 359 0
-6029 -329 -359 0
6029 -329 359 0
6029 329 -359 0
-6030 330 360 0
-6030 -330 -360 0
6030 -330 360 0
6030 330 -360 0
6016 6017 6018 6019 6020 6021 6022 6023 6024 6025 6026 6027 6028 6029 6030 0
-6031 316 346 0
-6031 -316 -346 0
6031 -316 346 0
6031 316 -346 0
-6032 317 347 0
-6032 -317 -347 0
6032 -317 347 0
6032 317 -347 0
-6033 318 348 0
-6033 -318 -348 0
6033 -318 348 0
6033 318 -348 0
-6034 319 349 0
-6034 -319 -349 0
6034 -319 349 0
6034 319 -349 0
-6035 320 350 0
-6035 -320 -350 0
6035 -320 350 0
6035 320 -350 0
-6036 321 351 0
-6036 -321 -351 0
6036 -321 351 0
6036 321 -351 0
-6037 322 352 0
-6037 -322 -352 0
6037 -322 352 0
6037 322 -352 0
-6038 323 353 0
-6038 -323 -353 0
6038 -323 353 0
6038 323 -353 0
-6039 324 354 0
-6039 -324 -354 0
6039 -324 354 0
6039 324 -354 0
-6040 325 355 0
-6040 -325 -355 0
6040 -325 355 0
6040 325 -355 0
-6041 326 356 0
-6041 -326 -356 0
6041 -326 356 0
6041 326 -356 0
-6042 327 357 0
-6042 -327 -357 0
6042 -327 357 0
6042 327 -357 0
-6043 328 358 0
-6043 -328 -358 0
6043 -328 358 0
6043 328 -358 0
-6044 329 359 0
-6044 -329 -359 0
6044 -329 359 0
6044 329 -359 0
-6045 330 360 0
-6045 -330 -360 0
6045 -330 360 0
6045 330 -360 0
-6031 6032 6033 6034 6035 6036 6037 6038 6039 -6040 6041 6042 6043 6044 -6045 0
-6046 331 346 0
-6046 -331 -346 0
6046 -331 346 0
6046 331 -346 0
-6047 332 347 0
-6047 -332 -347 0
6047 -332 347 0
6047 332 -347 0
-6048 333 348 0
-6048 -333 -348 0
6048 -333 348 0
6048 333 -348 0
-6049 334 349 0
-6049 -334 -349 0
6049 -334 349 0
6049 334 -349 0
-6050 335 350 0
-6050 -335 -350 0
6050 -335 350 0
6050 335 -350 0
-6051 336 351 0
-6051 -336 -351 0
6051 -336 351 0
6051 336 -351 0
-6052 337 352 0
-6052 -337 -352 0
6052 -337 352 0
6052 337 -352 0
-6053 338 353 0
-6053 -338 -353 0
6053 -338 353 0
6053 338 -353 0
-6054 339 354 0
-6054 -339 -354 0
6054 -339 354 0
6054 339 -354 0
-6055 340 355 0
-6055 -340 -355 0
6055 -340 355 0
6055 340 -355 0
-6056 341 356 0
-6056 -341 -356 0
6056 -341 356 0
6056 341 -356 0
-6057 342 357 0
-6057 -342 -357 0
6057 -342 357 0
6057 342 -357 0
-6058 343 358 0
-6058 -343 -358 0
6058 -343 358 0
6058 343 -358 0
-6059 344 359 0
-6059 -344 -359 0
6059 -344 359 0
6059 344 -359 0
-6060 345 360 0
-6060 -345 -360 0
6060 -345 360 0
6060 345 -360 0
6046 6047 6048 6049 6050 6051 6052 6053 6054 6055 6056 6057 6058 6059 6060 0
-6061 331 346 0
-6061 -331 -346 0
6061 -331 346 0
6061 331 -346 0
-6062 332 347 0
-6062 -332 -347 0
6062 -332 347 0
6062 332 -347 0
-6063 333 348 0
-6063 -333 -348 0
6063 -333 348 0
6063 333 -348 0
-6064 334 349 0
-6064 -334 -349 0
6064 -334 349 0
6064 334 -349 0
-6065 335 350 0
-6065 -335 -350 0
6065 -335 350 0
6065 335 -350 0
-6066 336 351 0
-6066 -336 -351 0
6066 -336 351 0
6066 336 -351 0
-6067 337 352 0
-6067 -337 -352 0
6067 -337 352 0
6067 337 -352 0
-6068 338 353 0
-6068 -338 -353 0
6068 -338 353 0
6068 338 -353 0
-6069 339 354 0
-6069 -339 -354 0
6069 -339 354 0
6069 339 -354 0
-6070 340 355 0
-6070 -340 -355 0
6070 -340 355 0
6070 340 -355 0
-6071 341 356 0
-6071 -341 -356 0
6071 -341 356 0
6071 341 -356 0
-6072 342 357 0
-6072 -342 -357 0
6072 -342 357 0
6072 342 -357 0
-6073 343 358 0
-6073 -343 -358 0
6073 -343 358 0
6073 343 -358 0
-6074 344 359 0
-6074 -344 -359 0
6074 -344 359 0
6074 344 -359 0
-6075 345 360 0
-6075 -345 -360 0
6075 -345 360 0
6075 345 -360 0
-6061 6062 6063 6064 6065 6066 6067 6068 6069 -6070 6071 6072 6073 6074 -6075 0
-6076 316 331 0
-6076 -316 -331 0
6076 -316 331 0
6076 316 -331 0
-6077 6076 346 0
-6077 -6076 -346 0
6077 -6076 346 0
6077 6076 -346 0
-6078 317 332 0
-6078 -317 -332 0
6078 -317 332 0
6078 317 -332 0
-6079 6078 347 0
-6079 -6078 -347 0
6079 -6078 347 0
6079 6078 -347 0
-6080 318 333 0
-6080 -318 -333 0
6080 -318 333 0
6080 318 -333 0
-6081 6080 348 0
-6081 -6080 -348 0
6081 -6080 348 0
6081 6080 -348 0
-6082 319 334 0
-6082 -319 -334 0
6082 -319 334 0
6082 319 -334 0
-6083 6082 349 0
-6083 -6082 -349 0
6083 -6082 349 0
6083 6082 -349 0
-6084 320 335 0
-6084 -320 -335 0
6084 -320 335 0
6084 320 -335 0
-6085 6084 350 0
-6085 -6084 -350 0
6085 -6084 350 0
6085 6084 -350 0
-6086 321 336 0
-6086 -321 -336 0
6086 -321 336 0
6086 321 -336 0
-6087 6086 351 0
-6087 -6086 -351 0
6087 -6086 351 0
6087 6086 -351 0
-6088 322 337 0
-6088 -322 -337 0
6088 -322 337 0
6088 322 -337 0
-6089 6088 352 0
-6089 -6088 -352 0
6089 -6088 352 0
6089 6088 -352 0
-6090 323 338 0
-6090 -323 -338 0
6090 -323 338 0
6090 323 -338 0
-6091 6090 353 0
-6091 -6090 -353 0
6091 -6090 353 0
6091 6090 -353 0
-6092 324 339 0
-6092 -324 -339 0
6092 -324 339 0
6092 324 -339 0
-6093 6092 354 0
-6093 -6092 -354 0
6093 -6092 354 0
6093 6092 -354 0
-6094 325 340 0
-6094 -325 -340 0
6094 -325 340 0
6094 325 -340 0
-6095 6094 355 0
-6095 -6094 -355 0
6095 -6094 355 0
6095 6094 -355 0
-6096 326 341 0
-6096 -326 -341 0
6096 -326 341 0
6096 326 -341 0
-6097 6096 356 0
-6097 -6096 -356 0
6097 -6096 356 0
6097 6096 -356 0
-6098 327 342 0
-6098 -327 -342 0
6098 -327 342 0
6098 327 -342 0
-6099 6098 357 0
-6099 -6098 -357 0
6099 -6098 357 0
6099 6098 -357 0
-6100 328 343 0
-6100 -328 -343 0
6100 -328 343 0
6100 328 -343 0
-6101 6100 358 0
-6101 -6100 -358 0
6101 -6100 358 0
6101 6100 -358 0
-6102 329 344 0
-6102 -329 -344 0
6102 -329 344 0
6102 329 -344 0
-6103 6102 359 0
-6103 -6102 -359 0
6103 -6102 359 0
6103 6102 -359 0
-6104 330 345 0
-6104 -330 -345 0
6104 -330 345 0
6104 330 -345 0
-6105 6104 360 0
-6105 -6104 -360 0
6105 -6104 360 0
6105 6104 -360 0
6077 6079 6081 6083 6085 6087 6089 6091 6093 6095 6097 6099 6101 6103 6105 0
-6106 316 331 0
-6106 -316 -331 0
6106 -316 331 0
6106 316 -331 0
-6107 6106 346 0
-6107 -6106 -346 0
6107 -6106 346 0
6107 6106 -346 0
-6108 317 332 0
-6108 -317 -332 0
6108 -317 332 0
6108 317 -332 0
-6109 6108 347 0
-6109 -6108 -347 0
6109 -6108 347 0
6109 6108 -347 0
-6110 318 333 0
-6110 -318 -333 0
6110 -318 333 0
6110 318 -333 0
-6111 6110 348 0
-6111 -6110 -348 0
6111 -6110 348 0
6111 6110 -348 0
-6112 319 334 0
-6112 -319 -334 0
6112 -319 334 0
6112 319 -334 0
-6113 6112 349 0
-6113 -6112 -349 0
6113 -6112 349 0
6113 6112 -349 0
-6114 320 335 0
-6114 -320 -335 0
6114 -320 335 0
6114 320 -335 0
-6115 6114 350 0
-6115 -6114 -350 0
6115 -6114 350 0
6115 6114 -350 0
-6116 321 336 0
-6116 -321 -336 0
6116 -321 336 0
6116 321 -336 0
-6117 6116 351 0
-6117 -6116 -351 0
6117 -6116 351 0
6117 6116 -351 0
-6118 322 337 0
-6118 -322 -337 0
6118 -322 337 0
6118 322 -337 0
-6119 6118 352 0
-6119 -6118 -352 0
6119 -6118 352 0
6119 6118 -352 0
-6120 323 338 0
-6120 -323 -338 0
6120 -323 338 0
6120 323 -338 0
-6121 6120 353 0
-6121 -6120 -353 0
6121 -6120 353 0
6121 6120 -353 0
-6122 324 339 0
-6122 -324 -339 0
6122 -324 339 0
6122 324 -339 0
-6123 6122 354 0
-6123 -6122 -354 0
6123 -6122 354 0
6123 6122 -354 0
-6124 325 340 0
-6124 -325 -340 0
6124 -325 340 0
6124 325 -340 0
-6125 6124 355 0
-6125 -6124 -355 0
6125 -6124 355 0
6125 6124 -355 0
-6126 326 341 0
-6126 -326 -341 0
6126 -326 341 0
6126 326 -341 0
-6127 6126 356 0
-6127 -6126 -356 0
6127 -6126 356 0
6127 6126 -356 0
-6128 327 342 0
-6128 -327 -342 0
6128 -327 342 0
6128 327 -342 0
-6129 6128 357 0
-6129 -6128 -357 0
6129 -6128 357 0
6129 6128 -357 0
-6130 328 343 0
-6130 -328 -343 0
6130 -328 343 0
6130 328 -343 0
-6131 6130 358 0
-6131 -6130 -358 0
6131 -6130 358 0
6131 6130 -358 0
-6132 329 344 0
-6132 -329 -344 0
6132 -329 344 0
6132 329 -344 0
-6133 6132 359 0
-6133 -6132 -359 0
6133 -6132 359 0
6133 6132 -359 0
-6134 330 345 0
-6134 -330 -345 0
6134 -330 345 0
6134 330 -345 0
-6135 6134 360 0
-6135 -6134 -360 0
6135 -6134 360 0
6135 6134 -360 0
-6107 6109 6111 6113 6115 6117 6119 6121 6123 -6125 6127 6129 6131 6133 -6135 0
