p cnf 10647 41783
1 2 3 4 5 6 7 8 9 10 11 12 13 14 15 0
-1 391 0
-2 392 0
-391 392 0
-2 -391 0
-3 393 0
-392 393 0
-3 -392 0
-4 394 0
-393 394 0
-4 -393 0
-5 395 0
-394 395 0
-5 -394 0
-6 396 0
-395 396 0
-6 -395 0
-7 397 0
-396 397 0
-7 -396 0
-8 398 0
-397 398 0
-8 -397 0
-9 399 0
-398 399 0
-9 -398 0
-10 400 0
-399 400 0
-10 -399 0
-11 401 0
-400 401 0
-11 -400 0
-12 402 0
-401 402 0
-12 -401 0
-13 403 0
-402 403 0
-13 -402 0
-14 404 0
-403 404 0
-14 -403 0
-15 -404 0
16 17 18 19 20 21 22 23 24 25 26 27 28 29 30 0
-16 405 0
-17 406 0
-405 406 0
-17 -405 0
-18 407 0
-406 407 0
-18 -406 0
-19 408 0
-407 408 0
-19 -407 0
-20 409 0
-408 409 0
-20 -408 0
-21 410 0
-409 410 0
-21 -409 0
-22 411 0
-410 411 0
-22 -410 0
-23 412 0
-411 412 0
-23 -411 0
-24 413 0
-412 413 0
-24 -412 0
-25 414 0
-413 414 0
-25 -413 0
-26 415 0
-414 415 0
-26 -414 0
-27 416 0
-415 416 0
-27 -415 0
-28 417 0
-416 417 0
-28 -416 0
-29 418 0
-417 418 0
-29 -417 0
-30 -418 0
31 32 33 34 35 36 37 38 39 40 41 42 43 44 45 0
-31 419 0
-32 420 0
-419 420 0
-32 -419 0
-33 421 0
-420 421 0
-33 -420 0
-34 422 0
-421 422 0
-34 -421 0
-35 423 0
-422 423 0
-35 -422 0
-36 424 0
-423 424 0
-36 -423 0
-37 425 0
-424 425 0
-37 -424 0
-38 426 0
-425 426 0
-38 -425 0
-39 427 0
-426 427 0
-39 -426 0
-40 428 0
-427 428 0
-40 -427 0
-41 429 0
-428 429 0
-41 -428 0
-42 430 0
-429 430 0
-42 -429 0
-43 431 0
-430 431 0
-43 -430 0
-44 432 0
-431 432 0
-44 -431 0
-45 -432 0
1 16 31 46 47 48 49 50 51 52 53 54 55 56 57 0
-1 433 0
-16 434 0
-433 434 0
-16 -433 0
-31 435 0
-434 435 0
-31 -434 0
-46 436 0
-435 436 0
-46 -435 0
-47 437 0
-436 437 0
-47 -436 0
-48 438 0
-437 438 0
-48 -437 0
-49 439 0
-438 439 0
-49 -438 0
-50 440 0
-439 440 0
-50 -439 0
-51 441 0
-440 441 0
-51 -440 0
-52 442 0
-441 442 0
-52 -441 0
-53 443 0
-442 443 0
-53 -442 0
-54 444 0
-443 444 0
-54 -443 0
-55 445 0
-444 445 0
-55 -444 0
-56 446 0
-445 446 0
-56 -445 0
-57 -446 0
1 58 59 60 61 62 63 64 65 66 67 68 69 70 71 0
-1 447 0
-58 448 0
-447 448 0
-58 -447 0
-59 449 0
-448 449 0
-59 -448 0
-60 450 0
-449 450 0
-60 -449 0
-61 451 0
-450 451 0
-61 -450 0
-62 452 0
-451 452 0
-62 -451 0
-63 453 0
-452 453 0
-63 -452 0
-64 454 0
-453 454 0
-64 -453 0
-65 455 0
-454 455 0
-65 -454 0
-66 456 0
-455 456 0
-66 -455 0
-67 457 0
-456 457 0
-67 -456 0
-68 458 0
-457 458 0
-68 -457 0
-69 459 0
-458 459 0
-69 -458 0
-70 460 0
-459 460 0
-70 -459 0
-71 -460 0
16 72 73 74 75 76 77 78 79 80 81 82 83 84 85 0
-16 461 0
-72 462 0
-461 462 0
-72 -461 0
-73 463 0
-462 463 0
-73 -462 0
-74 464 0
-463 464 0
-74 -463 0
-75 465 0
-464 465 0
-75 -464 0
-76 466 0
-465 466 0
-76 -465 0
-77 467 0
-466 467 0
-77 -466 0
-78 468 0
-467 468 0
-78 -467 0
-79 469 0
-468 469 0
-79 -468 0
-80 470 0
-469 470 0
-80 -469 0
-81 471 0
-470 471 0
-81 -470 0
-82 472 0
-471 472 0
-82 -471 0
-83 473 0
-472 473 0
-83 -472 0
-84 474 0
-473 474 0
-84 -473 0
-85 -474 0
31 86 87 88 89 90 91 92 93 94 95 96 97 98 99 0
-31 475 0
-86 476 0
-475 476 0
-86 -475 0
-87 477 0
-476 477 0
-87 -476 0
-88 478 0
-477 478 0
-88 -477 0
-89 479 0
-478 479 0
-89 -478 0
-90 480 0
-479 480 0
-90 -479 0
-91 481 0
-480 481 0
-91 -480 0
-92 482 0
-481 482 0
-92 -481 0
-93 483 0
-482 483 0
-93 -482 0
-94 484 0
-483 484 0
-94 -483 0
-95 485 0
-484 485 0
-95 -484 0
-96 486 0
-485 486 0
-96 -485 0
-97 487 0
-486 487 0
-97 -486 0
-98 488 0
-487 488 0
-98 -487 0
-99 -488 0
2 17 32 100 101 102 103 104 105 106 107 108 109 110 111 0
-2 489 0
-17 490 0
-489 490 0
-17 -489 0
-32 491 0
-490 491 0
-32 -490 0
-100 492 0
-491 492 0
-100 -491 0
-101 493 0
-492 493 0
-101 -492 0
-102 494 0
-493 494 0
-102 -493 0
-103 495 0
-494 495 0
-103 -494 0
-104 496 0
-495 496 0
-104 -495 0
-105 497 0
-496 497 0
-105 -496 0
-106 498 0
-497 498 0
-106 -497 0
-107 499 0
-498 499 0
-107 -498 0
-108 500 0
-499 500 0
-108 -499 0
-109 501 0
-500 501 0
-109 -500 0
-110 502 0
-501 502 0
-110 -501 0
-111 -502 0
2 72 86 112 113 114 115 116 117 118 119 120 121 122 123 0
-2 503 0
-72 504 0
-503 504 0
-72 -503 0
-86 505 0
-504 505 0
-86 -504 0
-112 506 0
-505 506 0
-112 -505 0
-113 507 0
-506 507 0
-113 -506 0
-114 508 0
-507 508 0
-114 -507 0
-115 509 0
-508 509 0
-115 -508 0
-116 510 0
-509 510 0
-116 -509 0
-117 511 0
-510 511 0
-117 -510 0
-118 512 0
-511 512 0
-118 -511 0
-119 513 0
-512 513 0
-119 -512 0
-120 514 0
-513 514 0
-120 -513 0
-121 515 0
-514 515 0
-121 -514 0
-122 516 0
-515 516 0
-122 -515 0
-123 -516 0
17 58 87 124 125 126 127 128 129 130 131 132 133 134 135 0
-17 517 0
-58 518 0
-517 518 0
-58 -517 0
-87 519 0
-518 519 0
-87 -518 0
-124 520 0
-519 520 0
-124 -519 0
-125 521 0
-520 521 0
-125 -520 0
-126 522 0
-521 522 0
-126 -521 0
-127 523 0
-522 523 0
-127 -522 0
-128 524 0
-523 524 0
-128 -523 0
-129 525 0
-524 525 0
-129 -524 0
-130 526 0
-525 526 0
-130 -525 0
-131 527 0
-526 527 0
-131 -526 0
-132 528 0
-527 528 0
-132 -527 0
-133 529 0
-528 529 0
-133 -528 0
-134 530 0
-529 530 0
-134 -529 0
-135 -530 0
32 59 73 136 137 138 139 140 141 142 143 144 145 146 147 0
-32 531 0
-59 532 0
-531 532 0
-59 -531 0
-73 533 0
-532 533 0
-73 -532 0
-136 534 0
-533 534 0
-136 -533 0
-137 535 0
-534 535 0
-137 -534 0
-138 536 0
-535 536 0
-138 -535 0
-139 537 0
-536 537 0
-139 -536 0
-140 538 0
-537 538 0
-140 -537 0
-141 539 0
-538 539 0
-141 -538 0
-142 540 0
-539 540 0
-142 -539 0
-143 541 0
-540 541 0
-143 -540 0
-144 542 0
-541 542 0
-144 -541 0
-145 543 0
-542 543 0
-145 -542 0
-146 544 0
-543 544 0
-146 -543 0
-147 -544 0
3 18 33 148 149 150 151 152 153 154 155 156 157 158 159 0
-3 545 0
-18 546 0
-545 546 0
-18 -545 0
-33 547 0
-546 547 0
-33 -546 0
-148 548 0
-547 548 0
-148 -547 0
-149 549 0
-548 549 0
-149 -548 0
-150 550 0
-549 550 0
-150 -549 0
-151 551 0
-550 551 0
-151 -550 0
-152 552 0
-551 552 0
-152 -551 0
-153 553 0
-552 553 0
-153 -552 0
-154 554 0
-553 554 0
-154 -553 0
-155 555 0
-554 555 0
-155 -554 0
-156 556 0
-555 556 0
-156 -555 0
-157 557 0
-556 557 0
-157 -556 0
-158 558 0
-557 558 0
-158 -557 0
-159 -558 0
3 73 87 160 161 162 163 164 165 166 167 168 169 170 171 0
-3 559 0
-73 560 0
-559 560 0
-73 -559 0
-87 561 0
-560 561 0
-87 -560 0
-160 562 0
-561 562 0
-160 -561 0
-161 563 0
-562 563 0
-161 -562 0
-162 564 0
-563 564 0
-162 -563 0
-163 565 0
-564 565 0
-163 -564 0
-164 566 0
-565 566 0
-164 -565 0
-165 567 0
-566 567 0
-165 -566 0
-166 568 0
-567 568 0
-166 -567 0
-167 569 0
-568 569 0
-167 -568 0
-168 570 0
-569 570 0
-168 -569 0
-169 571 0
-570 571 0
-169 -570 0
-170 572 0
-571 572 0
-170 -571 0
-171 -572 0
18 59 86 172 173 174 175 176 177 178 179 180 181 182 183 0
-18 573 0
-59 574 0
-573 574 0
-59 -573 0
-86 575 0
-574 575 0
-86 -574 0
-172 576 0
-575 576 0
-172 -575 0
-173 577 0
-576 577 0
-173 -576 0
-174 578 0
-577 578 0
-174 -577 0
-175 579 0
-578 579 0
-175 -578 0
-176 580 0
-579 580 0
-176 -579 0
-177 581 0
-580 581 0
-177 -580 0
-178 582 0
-581 582 0
-178 -581 0
-179 583 0
-582 583 0
-179 -582 0
-180 584 0
-583 584 0
-180 -583 0
-181 585 0
-584 585 0
-181 -584 0
-182 586 0
-585 586 0
-182 -585 0
-183 -586 0
33 58 72 184 185 186 187 188 189 190 191 192 193 194 195 0
-33 587 0
-58 588 0
-587 588 0
-58 -587 0
-72 589 0
-588 589 0
-72 -588 0
-184 590 0
-589 590 0
-184 -589 0
-185 591 0
-590 591 0
-185 -590 0
-186 592 0
-591 592 0
-186 -591 0
-187 593 0
-592 593 0
-187 -592 0
-188 594 0
-593 594 0
-188 -593 0
-189 595 0
-594 595 0
-189 -594 0
-190 596 0
-595 596 0
-190 -595 0
-191 597 0
-596 597 0
-191 -596 0
-192 598 0
-597 598 0
-192 -597 0
-193 599 0
-598 599 0
-193 -598 0
-194 600 0
-599 600 0
-194 -599 0
-195 -600 0
4 19 34 46 60 74 88 100 112 124 136 148 160 172 184 0
-4 601 0
-19 602 0
-601 602 0
-19 -601 0
-34 603 0
-602 603 0
-34 -602 0
-46 604 0
-603 604 0
-46 -603 0
-60 605 0
-604 605 0
-60 -604 0
-74 606 0
-605 606 0
-74 -605 0
-88 607 0
-606 607 0
-88 -606 0
-100 608 0
-607 608 0
-100 -607 0
-112 609 0
-608 609 0
-112 -608 0
-124 610 0
-609 610 0
-124 -609 0
-136 611 0
-610 611 0
-136 -610 0
-148 612 0
-611 612 0
-148 -611 0
-160 613 0
-612 613 0
-160 -612 0
-172 614 0
-613 614 0
-172 -613 0
-184 -614 0
4 47 61 101 113 149 161 196 197 198 199 200 201 202 203 0
-4 615 0
-47 616 0
-615 616 0
-47 -615 0
-61 617 0
-616 617 0
-61 -616 0
-101 618 0
-617 618 0
-101 -617 0
-113 619 0
-618 619 0
-113 -618 0
-149 620 0
-619 620 0
-149 -619 0
-161 621 0
-620 621 0
-161 -620 0
-196 622 0
-621 622 0
-196 -621 0
-197 623 0
-622 623 0
-197 -622 0
-198 624 0
-623 624 0
-198 -623 0
-199 625 0
-624 625 0
-199 -624 0
-200 626 0
-625 626 0
-200 -625 0
-201 627 0
-626 627 0
-201 -626 0
-202 628 0
-627 628 0
-202 -627 0
-203 -628 0
19 48 75 102 125 150 173 204 205 206 207 208 209 210 211 0
-19 629 0
-48 630 0
-629 630 0
-48 -629 0
-75 631 0
-630 631 0
-75 -630 0
-102 632 0
-631 632 0
-102 -631 0
-125 633 0
-632 633 0
-125 -632 0
-150 634 0
-633 634 0
-150 -633 0
-173 635 0
-634 635 0
-173 -634 0
-204 636 0
-635 636 0
-204 -635 0
-205 637 0
-636 637 0
-205 -636 0
-206 638 0
-637 638 0
-206 -637 0
-207 639 0
-638 639 0
-207 -638 0
-208 640 0
-639 640 0
-208 -639 0
-209 641 0
-640 641 0
-209 -640 0
-210 642 0
-641 642 0
-210 -641 0
-211 -642 0
34 49 89 103 137 151 185 212 213 214 215 216 217 218 219 0
-34 643 0
-49 644 0
-643 644 0
-49 -643 0
-89 645 0
-644 645 0
-89 -644 0
-103 646 0
-645 646 0
-103 -645 0
-137 647 0
-646 647 0
-137 -646 0
-151 648 0
-647 648 0
-151 -647 0
-185 649 0
-648 649 0
-185 -648 0
-212 650 0
-649 650 0
-212 -649 0
-213 651 0
-650 651 0
-213 -650 0
-214 652 0
-651 652 0
-214 -651 0
-215 653 0
-652 653 0
-215 -652 0
-216 654 0
-653 654 0
-216 -653 0
-217 655 0
-654 655 0
-217 -654 0
-218 656 0
-655 656 0
-218 -655 0
-219 -656 0
5 20 35 46 61 75 89 220 221 222 223 224 225 226 227 0
-5 657 0
-20 658 0
-657 658 0
-20 -657 0
-35 659 0
-658 659 0
-35 -658 0
-46 660 0
-659 660 0
-46 -659 0
-61 661 0
-660 661 0
-61 -660 0
-75 662 0
-661 662 0
-75 -661 0
-89 663 0
-662 663 0
-89 -662 0
-220 664 0
-663 664 0
-220 -663 0
-221 665 0
-664 665 0
-221 -664 0
-222 666 0
-665 666 0
-222 -665 0
-223 667 0
-666 667 0
-223 -666 0
-224 668 0
-667 668 0
-224 -667 0
-225 669 0
-668 669 0
-225 -668 0
-226 670 0
-669 670 0
-226 -669 0
-227 -670 0
5 47 60 126 138 174 186 228 229 230 231 232 233 234 235 0
-5 671 0
-47 672 0
-671 672 0
-47 -671 0
-60 673 0
-672 673 0
-60 -672 0
-126 674 0
-673 674 0
-126 -673 0
-138 675 0
-674 675 0
-138 -674 0
-174 676 0
-675 676 0
-174 -675 0
-186 677 0
-676 677 0
-186 -676 0
-228 678 0
-677 678 0
-228 -677 0
-229 679 0
-678 679 0
-229 -678 0
-230 680 0
-679 680 0
-230 -679 0
-231 681 0
-680 681 0
-231 -680 0
-232 682 0
-681 682 0
-232 -681 0
-233 683 0
-682 683 0
-233 -682 0
-234 684 0
-683 684 0
-234 -683 0
-235 -684 0
20 48 74 114 139 162 187 236 237 238 239 240 241 242 243 0
-20 685 0
-48 686 0
-685 686 0
-48 -685 0
-74 687 0
-686 687 0
-74 -686 0
-114 688 0
-687 688 0
-114 -687 0
-139 689 0
-688 689 0
-139 -688 0
-162 690 0
-689 690 0
-162 -689 0
-187 691 0
-690 691 0
-187 -690 0
-236 692 0
-691 692 0
-236 -691 0
-237 693 0
-692 693 0
-237 -692 0
-238 694 0
-693 694 0
-238 -693 0
-239 695 0
-694 695 0
-239 -694 0
-240 696 0
-695 696 0
-240 -695 0
-241 697 0
-696 697 0
-241 -696 0
-242 698 0
-697 698 0
-242 -697 0
-243 -698 0
35 49 88 115 127 163 175 244 245 246 247 248 249 250 251 0
-35 699 0
-49 700 0
-699 700 0
-49 -699 0
-88 701 0
-700 701 0
-88 -700 0
-115 702 0
-701 702 0
-115 -701 0
-127 703 0
-702 703 0
-127 -702 0
-163 704 0
-703 704 0
-163 -703 0
-175 705 0
-704 705 0
-175 -704 0
-244 706 0
-705 706 0
-244 -705 0
-245 707 0
-706 707 0
-245 -706 0
-246 708 0
-707 708 0
-246 -707 0
-247 709 0
-708 709 0
-247 -708 0
-248 710 0
-709 710 0
-248 -709 0
-249 711 0
-710 711 0
-249 -710 0
-250 712 0
-711 712 0
-250 -711 0
-251 -712 0
6 21 36 100 113 125 137 252 253 254 255 256 257 258 259 0
-6 713 0
-21 714 0
-713 714 0
-21 -713 0
-36 715 0
-714 715 0
-36 -714 0
-100 716 0
-715 716 0
-100 -715 0
-113 717 0
-716 717 0
-113 -716 0
-125 718 0
-717 718 0
-125 -717 0
-137 719 0
-718 719 0
-137 -718 0
-252 720 0
-719 720 0
-252 -719 0
-253 721 0
-720 721 0
-253 -720 0
-254 722 0
-721 722 0
-254 -721 0
-255 723 0
-722 723 0
-255 -722 0
-256 724 0
-723 724 0
-256 -723 0
-257 725 0
-724 725 0
-257 -724 0
-258 726 0
-725 726 0
-258 -725 0
-259 -726 0
6 76 90 101 112 175 187 260 261 262 263 264 265 266 267 0
-6 727 0
-76 728 0
-727 728 0
-76 -727 0
-90 729 0
-728 729 0
-90 -728 0
-101 730 0
-729 730 0
-101 -729 0
-112 731 0
-730 731 0
-112 -730 0
-175 732 0
-731 732 0
-175 -731 0
-187 733 0
-732 733 0
-187 -732 0
-260 734 0
-733 734 0
-260 -733 0
-261 735 0
-734 735 0
-261 -734 0
-262 736 0
-735 736 0
-262 -735 0
-263 737 0
-736 737 0
-263 -736 0
-264 738 0
-737 738 0
-264 -737 0
-265 739 0
-738 739 0
-265 -738 0
-266 740 0
-739 740 0
-266 -739 0
-267 -740 0
21 62 91 102 124 163 186 268 269 270 271 272 273 274 275 0
-21 741 0
-62 742 0
-741 742 0
-62 -741 0
-91 743 0
-742 743 0
-91 -742 0
-102 744 0
-743 744 0
-102 -743 0
-124 745 0
-744 745 0
-124 -744 0
-163 746 0
-745 746 0
-163 -745 0
-186 747 0
-746 747 0
-186 -746 0
-268 748 0
-747 748 0
-268 -747 0
-269 749 0
-748 749 0
-269 -748 0
-270 750 0
-749 750 0
-270 -749 0
-271 751 0
-750 751 0
-271 -750 0
-272 752 0
-751 752 0
-272 -751 0
-273 753 0
-752 753 0
-273 -752 0
-274 754 0
-753 754 0
-274 -753 0
-275 -754 0
36 63 77 103 136 162 174 276 277 278 279 280 281 282 283 0
-36 755 0
-63 756 0
-755 756 0
-63 -755 0
-77 757 0
-756 757 0
-77 -756 0
-103 758 0
-757 758 0
-103 -757 0
-136 759 0
-758 759 0
-136 -758 0
-162 760 0
-759 760 0
-162 -759 0
-174 761 0
-760 761 0
-174 -760 0
-276 762 0
-761 762 0
-276 -761 0
-277 763 0
-762 763 0
-277 -762 0
-278 764 0
-763 764 0
-278 -763 0
-279 765 0
-764 765 0
-279 -764 0
-280 766 0
-765 766 0
-280 -765 0
-281 767 0
-766 767 0
-281 -766 0
-282 768 0
-767 768 0
-282 -767 0
-283 -768 0
7 22 37 148 161 173 185 284 285 286 287 288 289 290 291 0
-7 769 0
-22 770 0
-769 770 0
-22 -769 0
-37 771 0
-770 771 0
-37 -770 0
-148 772 0
-771 772 0
-148 -771 0
-161 773 0
-772 773 0
-161 -772 0
-173 774 0
-773 774 0
-173 -773 0
-185 775 0
-774 775 0
-185 -774 0
-284 776 0
-775 776 0
-284 -775 0
-285 777 0
-776 777 0
-285 -776 0
-286 778 0
-777 778 0
-286 -777 0
-287 779 0
-778 779 0
-287 -778 0
-288 780 0
-779 780 0
-288 -779 0
-289 781 0
-780 781 0
-289 -780 0
-290 782 0
-781 782 0
-290 -781 0
-291 -782 0
7 77 91 127 139 149 160 292 293 294 295 296 297 298 299 0
-7 783 0
-77 784 0
-783 784 0
-77 -783 0
-91 785 0
-784 785 0
-91 -784 0
-127 786 0
-785 786 0
-127 -785 0
-139 787 0
-786 787 0
-139 -786 0
-149 788 0
-787 788 0
-149 -787 0
-160 789 0
-788 789 0
-160 -788 0
-292 790 0
-789 790 0
-292 -789 0
-293 791 0
-790 791 0
-293 -790 0
-294 792 0
-791 792 0
-294 -791 0
-295 793 0
-792 793 0
-295 -792 0
-296 794 0
-793 794 0
-296 -793 0
-297 795 0
-794 795 0
-297 -794 0
-298 796 0
-795 796 0
-298 -795 0
-299 -796 0
22 63 90 115 138 150 172 300 301 302 303 304 305 306 307 0
-22 797 0
-63 798 0
-797 798 0
-63 -797 0
-90 799 0
-798 799 0
-90 -798 0
-115 800 0
-799 800 0
-115 -799 0
-138 801 0
-800 801 0
-138 -800 0
-150 802 0
-801 802 0
-150 -801 0
-172 803 0
-802 803 0
-172 -802 0
-300 804 0
-803 804 0
-300 -803 0
-301 805 0
-804 805 0
-301 -804 0
-302 806 0
-805 806 0
-302 -805 0
-303 807 0
-806 807 0
-303 -806 0
-304 808 0
-807 808 0
-304 -807 0
-305 809 0
-808 809 0
-305 -808 0
-306 810 0
-809 810 0
-306 -809 0
-307 -810 0
37 62 76 114 126 151 184 308 309 310 311 312 313 314 315 0
-37 811 0
-62 812 0
-811 812 0
-62 -811 0
-76 813 0
-812 813 0
-76 -812 0
-114 814 0
-813 814 0
-114 -813 0
-126 815 0
-814 815 0
-126 -814 0
-151 816 0
-815 816 0
-151 -815 0
-184 817 0
-816 817 0
-184 -816 0
-308 818 0
-817 818 0
-308 -817 0
-309 819 0
-818 819 0
-309 -818 0
-310 820 0
-819 820 0
-310 -819 0
-311 821 0
-820 821 0
-311 -820 0
-312 822 0
-821 822 0
-312 -821 0
-313 823 0
-822 823 0
-313 -822 0
-314 824 0
-823 824 0
-314 -823 0
-315 -824 0
8 23 38 50 64 78 92 104 116 128 140 152 164 176 188 0
-8 825 0
-23 826 0
-825 826 0
-23 -825 0
-38 827 0
-826 827 0
-38 -826 0
-50 828 0
-827 828 0
-50 -827 0
-64 829 0
-828 829 0
-64 -828 0
-78 830 0
-829 830 0
-78 -829 0
-92 831 0
-830 831 0
-92 -830 0
-104 832 0
-831 832 0
-104 -831 0
-116 833 0
-832 833 0
-116 -832 0
-128 834 0
-833 834 0
-128 -833 0
-140 835 0
-834 835 0
-140 -834 0
-152 836 0
-835 836 0
-152 -835 0
-164 837 0
-836 837 0
-164 -836 0
-176 838 0
-837 838 0
-176 -837 0
-188 -838 0
8 51 65 105 117 153 165 204 212 236 244 268 276 300 308 0
-8 839 0
-51 840 0
-839 840 0
-51 -839 0
-65 841 0
-840 841 0
-65 -840 0
-105 842 0
-841 842 0
-105 -841 0
-117 843 0
-842 843 0
-117 -842 0
-153 844 0
-843 844 0
-153 -843 0
-165 845 0
-844 845 0
-165 -844 0
-204 846 0
-845 846 0
-204 -845 0
-212 847 0
-846 847 0
-212 -846 0
-236 848 0
-847 848 0
-236 -847 0
-244 849 0
-848 849 0
-244 -848 0
-268 850 0
-849 850 0
-268 -849 0
-276 851 0
-850 851 0
-276 -850 0
-300 852 0
-851 852 0
-300 -851 0
-308 -852 0
23 52 79 106 129 154 177 196 213 228 245 260 277 292 309 0
-23 853 0
-52 854 0
-853 854 0
-52 -853 0
-79 855 0
-854 855 0
-79 -854 0
-106 856 0
-855 856 0
-106 -855 0
-129 857 0
-856 857 0
-129 -856 0
-154 858 0
-857 858 0
-154 -857 0
-177 859 0
-858 859 0
-177 -858 0
-196 860 0
-859 860 0
-196 -859 0
-213 861 0
-860 861 0
-213 -860 0
-228 862 0
-861 862 0
-228 -861 0
-245 863 0
-862 863 0
-245 -862 0
-260 864 0
-863 864 0
-260 -863 0
-277 865 0
-864 865 0
-277 -864 0
-292 866 0
-865 866 0
-292 -865 0
-309 -866 0
38 53 93 107 141 155 189 197 205 229 237 261 269 293 301 0
-38 867 0
-53 868 0
-867 868 0
-53 -867 0
-93 869 0
-868 869 0
-93 -868 0
-107 870 0
-869 870 0
-107 -869 0
-141 871 0
-870 871 0
-141 -870 0
-155 872 0
-871 872 0
-155 -871 0
-189 873 0
-872 873 0
-189 -872 0
-197 874 0
-873 874 0
-197 -873 0
-205 875 0
-874 875 0
-205 -874 0
-229 876 0
-875 876 0
-229 -875 0
-237 877 0
-876 877 0
-237 -876 0
-261 878 0
-877 878 0
-261 -877 0
-269 879 0
-878 879 0
-269 -878 0
-293 880 0
-879 880 0
-293 -879 0
-301 -880 0
9 24 39 50 65 79 93 252 262 270 278 284 294 302 310 0
-9 881 0
-24 882 0
-881 882 0
-24 -881 0
-39 883 0
-882 883 0
-39 -882 0
-50 884 0
-883 884 0
-50 -883 0
-65 885 0
-884 885 0
-65 -884 0
-79 886 0
-885 886 0
-79 -885 0
-93 887 0
-886 887 0
-93 -886 0
-252 888 0
-887 888 0
-252 -887 0
-262 889 0
-888 889 0
-262 -888 0
-270 890 0
-889 890 0
-270 -889 0
-278 891 0
-890 891 0
-278 -890 0
-284 892 0
-891 892 0
-284 -891 0
-294 893 0
-892 893 0
-294 -892 0
-302 894 0
-893 894 0
-302 -893 0
-310 -894 0
9 51 64 130 142 178 190 206 214 238 246 253 263 285 295 0
-9 895 0
-51 896 0
-895 896 0
-51 -895 0
-64 897 0
-896 897 0
-64 -896 0
-130 898 0
-897 898 0
-130 -897 0
-142 899 0
-898 899 0
-142 -898 0
-178 900 0
-899 900 0
-178 -899 0
-190 901 0
-900 901 0
-190 -900 0
-206 902 0
-901 902 0
-206 -901 0
-214 903 0
-902 903 0
-214 -902 0
-238 904 0
-903 904 0
-238 -903 0
-246 905 0
-904 905 0
-246 -904 0
-253 906 0
-905 906 0
-253 -905 0
-263 907 0
-906 907 0
-263 -906 0
-285 908 0
-907 908 0
-285 -907 0
-295 -908 0
24 52 78 118 143 166 191 198 215 230 247 254 271 286 303 0
-24 909 0
-52 910 0
-909 910 0
-52 -909 0
-78 911 0
-910 911 0
-78 -910 0
-118 912 0
-911 912 0
-118 -911 0
-143 913 0
-912 913 0
-143 -912 0
-166 914 0
-913 914 0
-166 -913 0
-191 915 0
-914 915 0
-191 -914 0
-198 916 0
-915 916 0
-198 -915 0
-215 917 0
-916 917 0
-215 -916 0
-230 918 0
-917 918 0
-230 -917 0
-247 919 0
-918 919 0
-247 -918 0
-254 920 0
-919 920 0
-254 -919 0
-271 921 0
-920 921 0
-271 -920 0
-286 922 0
-921 922 0
-286 -921 0
-303 -922 0
39 53 92 119 131 167 179 199 207 231 239 255 279 287 311 0
-39 923 0
-53 924 0
-923 924 0
-53 -923 0
-92 925 0
-924 925 0
-92 -924 0
-119 926 0
-925 926 0
-119 -925 0
-131 927 0
-926 927 0
-131 -926 0
-167 928 0
-927 928 0
-167 -927 0
-179 929 0
-928 929 0
-179 -928 0
-199 930 0
-929 930 0
-199 -929 0
-207 931 0
-930 931 0
-207 -930 0
-231 932 0
-931 932 0
-231 -931 0
-239 933 0
-932 933 0
-239 -932 0
-255 934 0
-933 934 0
-255 -933 0
-279 935 0
-934 935 0
-279 -934 0
-287 936 0
-935 936 0
-287 -935 0
-311 -936 0
10 25 40 104 117 129 141 220 232 240 248 288 296 304 312 0
-10 937 0
-25 938 0
-937 938 0
-25 -937 0
-40 939 0
-938 939 0
-40 -938 0
-104 940 0
-939 940 0
-104 -939 0
-117 941 0
-940 941 0
-117 -940 0
-129 942 0
-941 942 0
-129 -941 0
-141 943 0
-942 943 0
-141 -942 0
-220 944 0
-943 944 0
-220 -943 0
-232 945 0
-944 945 0
-232 -944 0
-240 946 0
-945 946 0
-240 -945 0
-248 947 0
-946 947 0
-248 -946 0
-288 948 0
-947 948 0
-288 -947 0
-296 949 0
-948 949 0
-296 -948 0
-304 950 0
-949 950 0
-304 -949 0
-312 -950 0
10 80 94 105 116 179 191 208 216 221 233 272 280 289 297 0
-10 951 0
-80 952 0
-951 952 0
-80 -951 0
-94 953 0
-952 953 0
-94 -952 0
-105 954 0
-953 954 0
-105 -953 0
-116 955 0
-954 955 0
-116 -954 0
-179 956 0
-955 956 0
-179 -955 0
-191 957 0
-956 957 0
-191 -956 0
-208 958 0
-957 958 0
-208 -957 0
-216 959 0
-958 959 0
-216 -958 0
-221 960 0
-959 960 0
-221 -959 0
-233 961 0
-960 961 0
-233 -960 0
-272 962 0
-961 962 0
-272 -961 0
-280 963 0
-962 963 0
-280 -962 0
-289 964 0
-963 964 0
-289 -963 0
-297 -964 0
25 66 95 106 128 167 190 200 217 222 241 264 281 290 305 0
-25 965 0
-66 966 0
-965 966 0
-66 -965 0
-95 967 0
-966 967 0
-95 -966 0
-106 968 0
-967 968 0
-106 -967 0
-128 969 0
-968 969 0
-128 -968 0
-167 970 0
-969 970 0
-167 -969 0
-190 971 0
-970 971 0
-190 -970 0
-200 972 0
-971 972 0
-200 -971 0
-217 973 0
-972 973 0
-217 -972 0
-222 974 0
-973 974 0
-222 -973 0
-241 975 0
-974 975 0
-241 -974 0
-264 976 0
-975 976 0
-264 -975 0
-281 977 0
-976 977 0
-281 -976 0
-290 978 0
-977 978 0
-290 -977 0
-305 -978 0
40 67 81 107 140 166 178 201 209 223 249 265 273 291 313 0
-40 979 0
-67 980 0
-979 980 0
-67 -979 0
-81 981 0
-980 981 0
-81 -980 0
-107 982 0
-981 982 0
-107 -981 0
-140 983 0
-982 983 0
-140 -982 0
-166 984 0
-983 984 0
-166 -983 0
-178 985 0
-984 985 0
-178 -984 0
-201 986 0
-985 986 0
-201 -985 0
-209 987 0
-986 987 0
-209 -986 0
-223 988 0
-987 988 0
-223 -987 0
-249 989 0
-988 989 0
-249 -988 0
-265 990 0
-989 990 0
-265 -989 0
-273 991 0
-990 991 0
-273 -990 0
-291 992 0
-991 992 0
-291 -991 0
-313 -992 0
11 26 41 152 165 177 189 224 234 242 250 256 266 274 282 0
-11 993 0
-26 994 0
-993 994 0
-26 -993 0
-41 995 0
-994 995 0
-41 -994 0
-152 996 0
-995 996 0
-152 -995 0
-165 997 0
-996 997 0
-165 -996 0
-177 998 0
-997 998 0
-177 -997 0
-189 999 0
-998 999 0
-189 -998 0
-224 1000 0
-999 1000 0
-224 -999 0
-234 1001 0
-1000 1001 0
-234 -1000 0
-242 1002 0
-1001 1002 0
-242 -1001 0
-250 1003 0
-1002 1003 0
-250 -1002 0
-256 1004 0
-1003 1004 0
-256 -1003 0
-266 1005 0
-1004 1005 0
-266 -1004 0
-274 1006 0
-1005 1006 0
-274 -1005 0
-282 -1006 0
11 81 95 131 143 153 164 210 218 225 235 257 267 306 314 0
-11 1007 0
-81 1008 0
-1007 1008 0
-81 -1007 0
-95 1009 0
-1008 1009 0
-95 -1008 0
-131 1010 0
-1009 1010 0
-131 -1009 0
-143 1011 0
-1010 1011 0
-143 -1010 0
-153 1012 0
-1011 1012 0
-153 -1011 0
-164 1013 0
-1012 1013 0
-164 -1012 0
-210 1014 0
-1013 1014 0
-210 -1013 0
-218 1015 0
-1014 1015 0
-218 -1014 0
-225 1016 0
-1015 1016 0
-225 -1015 0
-235 1017 0
-1016 1017 0
-235 -1016 0
-257 1018 0
-1017 1018 0
-257 -1017 0
-267 1019 0
-1018 1019 0
-267 -1018 0
-306 1020 0
-1019 1020 0
-306 -1019 0
-314 -1020 0
26 67 94 119 142 154 176 202 219 226 243 258 275 298 315 0
-26 1021 0
-67 1022 0
-1021 1022 0
-67 -1021 0
-94 1023 0
-1022 1023 0
-94 -1022 0
-119 1024 0
-1023 1024 0
-119 -1023 0
-142 1025 0
-1024 1025 0
-142 -1024 0
-154 1026 0
-1025 1026 0
-154 -1025 0
-176 1027 0
-1026 1027 0
-176 -1026 0
-202 1028 0
-1027 1028 0
-202 -1027 0
-219 1029 0
-1028 1029 0
-219 -1028 0
-226 1030 0
-1029 1030 0
-226 -1029 0
-243 1031 0
-1030 1031 0
-243 -1030 0
-258 1032 0
-1031 1032 0
-258 -1031 0
-275 1033 0
-1032 1033 0
-275 -1032 0
-298 1034 0
-1033 1034 0
-298 -1033 0
-315 -1034 0
41 66 80 118 130 155 188 203 211 227 251 259 283 299 307 0
-41 1035 0
-66 1036 0
-1035 1036 0
-66 -1035 0
-80 1037 0
-1036 1037 0
-80 -1036 0
-118 1038 0
-1037 1038 0
-118 -1037 0
-130 1039 0
-1038 1039 0
-130 -1038 0
-155 1040 0
-1039 1040 0
-155 -1039 0
-188 1041 0
-1040 1041 0
-188 -1040 0
-203 1042 0
-1041 1042 0
-203 -1041 0
-211 1043 0
-1042 1043 0
-211 -1042 0
-227 1044 0
-1043 1044 0
-227 -1043 0
-251 1045 0
-1044 1045 0
-251 -1044 0
-259 1046 0
-1045 1046 0
-259 -1045 0
-283 1047 0
-1046 1047 0
-283 -1046 0
-299 1048 0
-1047 1048 0
-299 -1047 0
-307 -1048 0
12 27 42 54 68 82 96 108 120 132 144 156 168 180 192 0
-12 1049 0
-27 1050 0
-1049 1050 0
-27 -1049 0
-42 1051 0
-1050 1051 0
-42 -1050 0
-54 1052 0
-1051 1052 0
-54 -1051 0
-68 1053 0
-1052 1053 0
-68 -1052 0
-82 1054 0
-1053 1054 0
-82 -1053 0
-96 1055 0
-1054 1055 0
-96 -1054 0
-108 1056 0
-1055 1056 0
-108 -1055 0
-120 1057 0
-1056 1057 0
-120 -1056 0
-132 1058 0
-1057 1058 0
-132 -1057 0
-144 1059 0
-1058 1059 0
-144 -1058 0
-156 1060 0
-1059 1060 0
-156 -1059 0
-168 1061 0
-1060 1061 0
-168 -1060 0
-180 1062 0
-1061 1062 0
-180 -1061 0
-192 -1062 0
12 55 69 109 121 157 169 205 213 239 247 273 281 307 315 0
-12 1063 0
-55 1064 0
-1063 1064 0
-55 -1063 0
-69 1065 0
-1064 1065 0
-69 -1064 0
-109 1066 0
-1065 1066 0
-109 -1065 0
-121 1067 0
-1066 1067 0
-121 -1066 0
-157 1068 0
-1067 1068 0
-157 -1067 0
-169 1069 0
-1068 1069 0
-169 -1068 0
-205 1070 0
-1069 1070 0
-205 -1069 0
-213 1071 0
-1070 1071 0
-213 -1070 0
-239 1072 0
-1071 1072 0
-239 -1071 0
-247 1073 0
-1072 1073 0
-247 -1072 0
-273 1074 0
-1073 1074 0
-273 -1073 0
-281 1075 0
-1074 1075 0
-281 -1074 0
-307 1076 0
-1075 1076 0
-307 -1075 0
-315 -1076 0
27 56 83 110 133 158 181 197 212 231 246 265 280 299 314 0
-27 1077 0
-56 1078 0
-1077 1078 0
-56 -1077 0
-83 1079 0
-1078 1079 0
-83 -1078 0
-110 1080 0
-1079 1080 0
-110 -1079 0
-133 1081 0
-1080 1081 0
-133 -1080 0
-158 1082 0
-1081 1082 0
-158 -1081 0
-181 1083 0
-1082 1083 0
-181 -1082 0
-197 1084 0
-1083 1084 0
-197 -1083 0
-212 1085 0
-1084 1085 0
-212 -1084 0
-231 1086 0
-1085 1086 0
-231 -1085 0
-246 1087 0
-1086 1087 0
-246 -1086 0
-265 1088 0
-1087 1088 0
-265 -1087 0
-280 1089 0
-1088 1089 0
-280 -1088 0
-299 1090 0
-1089 1090 0
-299 -1089 0
-314 -1090 0
42 57 97 111 145 159 193 196 204 230 238 264 272 298 306 0
-42 1091 0
-57 1092 0
-1091 1092 0
-57 -1091 0
-97 1093 0
-1092 1093 0
-97 -1092 0
-111 1094 0
-1093 1094 0
-111 -1093 0
-145 1095 0
-1094 1095 0
-145 -1094 0
-159 1096 0
-1095 1096 0
-159 -1095 0
-193 1097 0
-1096 1097 0
-193 -1096 0
-196 1098 0
-1097 1098 0
-196 -1097 0
-204 1099 0
-1098 1099 0
-204 -1098 0
-230 1100 0
-1099 1100 0
-230 -1099 0
-238 1101 0
-1100 1101 0
-238 -1100 0
-264 1102 0
-1101 1102 0
-264 -1101 0
-272 1103 0
-1102 1103 0
-272 -1102 0
-298 1104 0
-1103 1104 0
-298 -1103 0
-306 -1104 0
13 28 43 54 69 83 97 256 267 275 283 288 297 305 313 0
-13 1105 0
-28 1106 0
-1105 1106 0
-28 -1105 0
-43 1107 0
-1106 1107 0
-43 -1106 0
-54 1108 0
-1107 1108 0
-54 -1107 0
-69 1109 0
-1108 1109 0
-69 -1108 0
-83 1110 0
-1109 1110 0
-83 -1109 0
-97 1111 0
-1110 1111 0
-97 -1110 0
-256 1112 0
-1111 1112 0
-256 -1111 0
-267 1113 0
-1112 1113 0
-267 -1112 0
-275 1114 0
-1113 1114 0
-275 -1113 0
-283 1115 0
-1114 1115 0
-283 -1114 0
-288 1116 0
-1115 1116 0
-288 -1115 0
-297 1117 0
-1116 1117 0
-297 -1116 0
-305 1118 0
-1117 1118 0
-305 -1117 0
-313 -1118 0
13 55 68 134 146 182 194 207 215 237 245 257 266 289 296 0
-13 1119 0
-55 1120 0
-1119 1120 0
-55 -1119 0
-68 1121 0
-1120 1121 0
-68 -1120 0
-134 1122 0
-1121 1122 0
-134 -1121 0
-146 1123 0
-1122 1123 0
-146 -1122 0
-182 1124 0
-1123 1124 0
-182 -1123 0
-194 1125 0
-1124 1125 0
-194 -1124 0
-207 1126 0
-1125 1126 0
-207 -1125 0
-215 1127 0
-1126 1127 0
-215 -1126 0
-237 1128 0
-1127 1128 0
-237 -1127 0
-245 1129 0
-1128 1129 0
-245 -1128 0
-257 1130 0
-1129 1130 0
-257 -1129 0
-266 1131 0
-1130 1131 0
-266 -1130 0
-289 1132 0
-1131 1132 0
-289 -1131 0
-296 -1132 0
28 56 82 122 147 170 195 199 214 229 244 258 274 290 304 0
-28 1133 0
-56 1134 0
-1133 1134 0
-56 -1133 0
-82 1135 0
-1134 1135 0
-82 -1134 0
-122 1136 0
-1135 1136 0
-122 -1135 0
-147 1137 0
-1136 1137 0
-147 -1136 0
-170 1138 0
-1137 1138 0
-170 -1137 0
-195 1139 0
-1138 1139 0
-195 -1138 0
-199 1140 0
-1139 1140 0
-199 -1139 0
-214 1141 0
-1140 1141 0
-214 -1140 0
-229 1142 0
-1141 1142 0
-229 -1141 0
-244 1143 0
-1142 1143 0
-244 -1142 0
-258 1144 0
-1143 1144 0
-258 -1143 0
-274 1145 0
-1144 1145 0
-274 -1144 0
-290 1146 0
-1145 1146 0
-290 -1145 0
-304 -1146 0
43 57 96 123 135 171 183 198 206 228 236 259 282 291 312 0
-43 1147 0
-57 1148 0
-1147 1148 0
-57 -1147 0
-96 1149 0
-1148 1149 0
-96 -1148 0
-123 1150 0
-1149 1150 0
-123 -1149 0
-135 1151 0
-1150 1151 0
-135 -1150 0
-171 1152 0
-1151 1152 0
-171 -1151 0
-183 1153 0
-1152 1153 0
-183 -1152 0
-198 1154 0
-1153 1154 0
-198 -1153 0
-206 1155 0
-1154 1155 0
-206 -1154 0
-228 1156 0
-1155 1156 0
-228 -1155 0
-236 1157 0
-1156 1157 0
-236 -1156 0
-259 1158 0
-1157 1158 0
-259 -1157 0
-282 1159 0
-1158 1159 0
-282 -1158 0
-291 1160 0
-1159 1160 0
-291 -1159 0
-312 -1160 0
14 29 44 108 121 133 145 224 235 243 251 284 295 303 311 0
-14 1161 0
-29 1162 0
-1161 1162 0
-29 -1161 0
-44 1163 0
-1162 1163 0
-44 -1162 0
-108 1164 0
-1163 1164 0
-108 -1163 0
-121 1165 0
-1164 1165 0
-121 -1164 0
-133 1166 0
-1165 1166 0
-133 -1165 0
-145 1167 0
-1166 1167 0
-145 -1166 0
-224 1168 0
-1167 1168 0
-224 -1167 0
-235 1169 0
-1168 1169 0
-235 -1168 0
-243 1170 0
-1169 1170 0
-243 -1169 0
-251 1171 0
-1170 1171 0
-251 -1170 0
-284 1172 0
-1171 1172 0
-284 -1171 0
-295 1173 0
-1172 1173 0
-295 -1172 0
-303 1174 0
-1173 1174 0
-303 -1173 0
-311 -1174 0
14 84 98 109 120 183 195 209 217 225 234 269 277 285 294 0
-14 1175 0
-84 1176 0
-1175 1176 0
-84 -1175 0
-98 1177 0
-1176 1177 0
-98 -1176 0
-109 1178 0
-1177 1178 0
-109 -1177 0
-120 1179 0
-1178 1179 0
-120 -1178 0
-183 1180 0
-1179 1180 0
-183 -1179 0
-195 1181 0
-1180 1181 0
-195 -1180 0
-209 1182 0
-1181 1182 0
-209 -1181 0
-217 1183 0
-1182 1183 0
-217 -1182 0
-225 1184 0
-1183 1184 0
-225 -1183 0
-234 1185 0
-1184 1185 0
-234 -1184 0
-269 1186 0
-1185 1186 0
-269 -1185 0
-277 1187 0
-1186 1187 0
-277 -1186 0
-285 1188 0
-1187 1188 0
-285 -1187 0
-294 -1188 0
29 70 99 110 132 171 194 201 216 226 242 261 276 286 302 0
-29 1189 0
-70 1190 0
-1189 1190 0
-70 -1189 0
-99 1191 0
-1190 1191 0
-99 -1190 0
-110 1192 0
-1191 1192 0
-110 -1191 0
-132 1193 0
-1192 1193 0
-132 -1192 0
-171 1194 0
-1193 1194 0
-171 -1193 0
-194 1195 0
-1194 1195 0
-194 -1194 0
-201 1196 0
-1195 1196 0
-201 -1195 0
-216 1197 0
-1196 1197 0
-216 -1196 0
-226 1198 0
-1197 1198 0
-226 -1197 0
-242 1199 0
-1198 1199 0
-242 -1198 0
-261 1200 0
-1199 1200 0
-261 -1199 0
-276 1201 0
-1200 1201 0
-276 -1200 0
-286 1202 0
-1201 1202 0
-286 -1201 0
-302 -1202 0
44 71 85 111 144 170 182 200 208 227 250 260 268 287 310 0
-44 1203 0
-71 1204 0
-1203 1204 0
-71 -1203 0
-85 1205 0
-1204 1205 0
-85 -1204 0
-111 1206 0
-1205 1206 0
-111 -1205 0
-144 1207 0
-1206 1207 0
-144 -1206 0
-170 1208 0
-1207 1208 0
-170 -1207 0
-182 1209 0
-1208 1209 0
-182 -1208 0
-200 1210 0
-1209 1210 0
-200 -1209 0
-208 1211 0
-1210 1211 0
-208 -1210 0
-227 1212 0
-1211 1212 0
-227 -1211 0
-250 1213 0
-1212 1213 0
-250 -1212 0
-260 1214 0
-1213 1214 0
-260 -1213 0
-268 1215 0
-1214 1215 0
-268 -1214 0
-287 1216 0
-1215 1216 0
-287 -1215 0
-310 -1216 0
15 30 45 156 169 181 193 220 233 241 249 252 263 271 279 0
-15 1217 0
-30 1218 0
-1217 1218 0
-30 -1217 0
-45 1219 0
-1218 1219 0
-45 -1218 0
-156 1220 0
-1219 1220 0
-156 -1219 0
-169 1221 0
-1220 1221 0
-169 -1220 0
-181 1222 0
-1221 1222 0
-181 -1221 0
-193 1223 0
-1222 1223 0
-193 -1222 0
-220 1224 0
-1223 1224 0
-220 -1223 0
-233 1225 0
-1224 1225 0
-233 -1224 0
-241 1226 0
-1225 1226 0
-241 -1225 0
-249 1227 0
-1226 1227 0
-249 -1226 0
-252 1228 0
-1227 1228 0
-252 -1227 0
-263 1229 0
-1228 1229 0
-263 -1228 0
-271 1230 0
-1229 1230 0
-271 -1229 0
-279 -1230 0
15 85 99 135 147 157 168 211 219 221 232 253 262 301 309 0
-15 1231 0
-85 1232 0
-1231 1232 0
-85 -1231 0
-99 1233 0
-1232 1233 0
-99 -1232 0
-135 1234 0
-1233 1234 0
-135 -1233 0
-147 1235 0
-1234 1235 0
-147 -1234 0
-157 1236 0
-1235 1236 0
-157 -1235 0
-168 1237 0
-1236 1237 0
-168 -1236 0
-211 1238 0
-1237 1238 0
-211 -1237 0
-219 1239 0
-1238 1239 0
-219 -1238 0
-221 1240 0
-1239 1240 0
-221 -1239 0
-232 1241 0
-1240 1241 0
-232 -1240 0
-253 1242 0
-1241 1242 0
-253 -1241 0
-262 1243 0
-1242 1243 0
-262 -1242 0
-301 1244 0
-1243 1244 0
-301 -1243 0
-309 -1244 0
30 71 98 123 146 158 180 203 218 222 240 254 270 293 308 0
-30 1245 0
-71 1246 0
-1245 1246 0
-71 -1245 0
-98 1247 0
-1246 1247 0
-98 -1246 0
-123 1248 0
-1247 1248 0
-123 -1247 0
-146 1249 0
-1248 1249 0
-146 -1248 0
-158 1250 0
-1249 1250 0
-158 -1249 0
-180 1251 0
-1250 1251 0
-180 -1250 0
-203 1252 0
-1251 1252 0
-203 -1251 0
-218 1253 0
-1252 1253 0
-218 -1252 0
-222 1254 0
-1253 1254 0
-222 -1253 0
-240 1255 0
-1254 1255 0
-240 -1254 0
-254 1256 0
-1255 1256 0
-254 -1255 0
-270 1257 0
-1256 1257 0
-270 -1256 0
-293 1258 0
-1257 1258 0
-293 -1257 0
-308 -1258 0
45 70 84 122 134 159 192 202 210 223 248 255 278 292 300 0
-45 1259 0
-70 1260 0
-1259 1260 0
-70 -1259 0
-84 1261 0
-1260 1261 0
-84 -1260 0
-122 1262 0
-1261 1262 0
-122 -1261 0
-134 1263 0
-1262 1263 0
-134 -1262 0
-159 1264 0
-1263 1264 0
-159 -1263 0
-192 1265 0
-1264 1265 0
-192 -1264 0
-202 1266 0
-1265 1266 0
-202 -1265 0
-210 1267 0
-1266 1267 0
-210 -1266 0
-223 1268 0
-1267 1268 0
-223 -1267 0
-248 1269 0
-1268 1269 0
-248 -1268 0
-255 1270 0
-1269 1270 0
-255 -1269 0
-278 1271 0
-1270 1271 0
-278 -1270 0
-292 1272 0
-1271 1272 0
-292 -1271 0
-300 -1272 0
-1 -317 0
-1 -332 0
-1 -347 0
-1 -362 0
-1 -377 0
-2 -318 0
-2 -333 0
-2 -348 0
-2 -363 0
-2 -378 0
-1273 317 318 0
-1273 -317 -318 0
1273 -317 318 0
1273 317 -318 0
-3 -1273 0
-1274 332 333 0
-1274 -332 -333 0
1274 -332 333 0
1274 332 -333 0
-3 -1274 0
-1275 347 348 0
-1275 -347 -348 0
1275 -347 348 0
1275 347 -348 0
-3 -1275 0
-1276 362 363 0
-1276 -362 -363 0
1276 -362 363 0
1276 362 -363 0
-3 -1276 0
-1277 377 378 0
-1277 -377 -378 0
1277 -377 378 0
1277 377 -378 0
-3 -1277 0
-4 -319 0
-4 -334 0
-4 -349 0
-4 -364 0
-4 -379 0
-1278 317 319 0
-1278 -317 -319 0
1278 -317 319 0
1278 317 -319 0
-5 -1278 0
-1279 332 334 0
-1279 -332 -334 0
1279 -332 334 0
1279 332 -334 0
-5 -1279 0
-1280 347 349 0
-1280 -347 -349 0
1280 -347 349 0
1280 347 -349 0
-5 -1280 0
-1281 362 364 0
-1281 -362 -364 0
1281 -362 364 0
1281 362 -364 0
-5 -1281 0
-1282 377 379 0
-1282 -377 -379 0
1282 -377 379 0
1282 377 -379 0
-5 -1282 0
-1283 318 319 0
-1283 -318 -319 0
1283 -318 319 0
1283 318 -319 0
-6 -1283 0
-1284 333 334 0
-1284 -333 -334 0
1284 -333 334 0
1284 333 -334 0
-6 -1284 0
-1285 348 349 0
-1285 -348 -349 0
1285 -348 349 0
1285 348 -349 0
-6 -1285 0
-1286 363 364 0
-1286 -363 -364 0
1286 -363 364 0
1286 363 -364 0
-6 -1286 0
-1287 378 379 0
-1287 -378 -379 0
1287 -378 379 0
1287 378 -379 0
-6 -1287 0
-1288 317 318 0
-1288 -317 -318 0
1288 -317 318 0
1288 317 -318 0
-1289 1288 319 0
-1289 -1288 -319 0
1289 -1288 319 0
1289 1288 -319 0
-7 -1289 0
-1290 332 333 0
-1290 -332 -333 0
1290 -332 333 0
1290 332 -333 0
-1291 1290 334 0
-1291 -1290 -334 0
1291 -1290 334 0
1291 1290 -334 0
-7 -1291 0
-1292 347 348 0
-1292 -347 -348 0
1292 -347 348 0
1292 347 -348 0
-1293 1292 349 0
-1293 -1292 -349 0
1293 -1292 349 0
1293 1292 -349 0
-7 -1293 0
-1294 362 363 0
-1294 -362 -363 0
1294 -362 363 0
1294 362 -363 0
-1295 1294 364 0
-1295 -1294 -364 0
1295 -1294 364 0
1295 1294 -364 0
-7 -1295 0
-1296 377 378 0
-1296 -377 -378 0
1296 -377 378 0
1296 377 -378 0
-1297 1296 379 0
-1297 -1296 -379 0
1297 -1296 379 0
1297 1296 -379 0
-7 -1297 0
-8 -320 0
-8 -335 0
-8 -350 0
-8 -365 0
-8 -380 0
-1298 317 320 0
-1298 -317 -320 0
1298 -317 320 0
1298 317 -320 0
-9 -1298 0
-1299 332 335 0
-1299 -332 -335 0
1299 -332 335 0
1299 332 -335 0
-9 -1299 0
-1300 347 350 0
-1300 -347 -350 0
1300 -347 350 0
1300 347 -350 0
-9 -1300 0
-1301 362 365 0
-1301 -362 -365 0
1301 -362 365 0
1301 362 -365 0
-9 -1301 0
-1302 377 380 0
-1302 -377 -380 0
1302 -377 380 0
1302 377 -380 0
-9 -1302 0
-1303 318 320 0
-1303 -318 -320 0
1303 -318 320 0
1303 318 -320 0
-10 -1303 0
-1304 333 335 0
-1304 -333 -335 0
1304 -333 335 0
1304 333 -335 0
-10 -1304 0
-1305 348 350 0
-1305 -348 -350 0
1305 -348 350 0
1305 348 -350 0
-10 -1305 0
-1306 363 365 0
-1306 -363 -365 0
1306 -363 365 0
1306 363 -365 0
-10 -1306 0
-1307 378 380 0
-1307 -378 -380 0
1307 -378 380 0
1307 378 -380 0
-10 -1307 0
-1308 317 318 0
-1308 -317 -318 0
1308 -317 318 0
1308 317 -318 0
-1309 1308 320 0
-1309 -1308 -320 0
1309 -1308 320 0
1309 1308 -320 0
-11 -1309 0
-1310 332 333 0
-1310 -332 -333 0
1310 -332 333 0
1310 332 -333 0
-1311 1310 335 0
-1311 -1310 -335 0
1311 -1310 335 0
1311 1310 -335 0
-11 -1311 0
-1312 347 348 0
-1312 -347 -348 0
1312 -347 348 0
1312 347 -348 0
-1313 1312 350 0
-1313 -1312 -350 0
1313 -1312 350 0
1313 1312 -350 0
-11 -1313 0
-1314 362 363 0
-1314 -362 -363 0
1314 -362 363 0
1314 362 -363 0
-1315 1314 365 0
-1315 -1314 -365 0
1315 -1314 365 0
1315 1314 -365 0
-11 -1315 0
-1316 377 378 0
-1316 -377 -378 0
1316 -377 378 0
1316 377 -378 0
-1317 1316 380 0
-1317 -1316 -380 0
1317 -1316 380 0
1317 1316 -380 0
-11 -1317 0
-1318 319 320 0
-1318 -319 -320 0
1318 -319 320 0
1318 319 -320 0
-12 -1318 0
-1319 334 335 0
-1319 -334 -335 0
1319 -334 335 0
1319 334 -335 0
-12 -1319 0
-1320 349 350 0
-1320 -349 -350 0
1320 -349 350 0
1320 349 -350 0
-12 -1320 0
-1321 364 365 0
-1321 -364 -365 0
1321 -364 365 0
1321 364 -365 0
-12 -1321 0
-1322 379 380 0
-1322 -379 -380 0
1322 -379 380 0
1322 379 -380 0
-12 -1322 0
-1323 317 319 0
-1323 -317 -319 0
1323 -317 319 0
1323 317 -319 0
-1324 1323 320 0
-1324 -1323 -320 0
1324 -1323 320 0
1324 1323 -320 0
-13 -1324 0
-1325 332 334 0
-1325 -332 -334 0
1325 -332 334 0
1325 332 -334 0
-1326 1325 335 0
-1326 -1325 -335 0
1326 -1325 335 0
1326 1325 -335 0
-13 -1326 0
-1327 347 349 0
-1327 -347 -349 0
1327 -347 349 0
1327 347 -349 0
-1328 1327 350 0
-1328 -1327 -350 0
1328 -1327 350 0
1328 1327 -350 0
-13 -1328 0
-1329 362 364 0
-1329 -362 -364 0
1329 -362 364 0
1329 362 -364 0
-1330 1329 365 0
-1330 -1329 -365 0
1330 -1329 365 0
1330 1329 -365 0
-13 -1330 0
-1331 377 379 0
-1331 -377 -379 0
1331 -377 379 0
1331 377 -379 0
-1332 1331 380 0
-1332 -1331 -380 0
1332 -1331 380 0
1332 1331 -380 0
-13 -1332 0
-1333 318 319 0
-1333 -318 -319 0
1333 -318 319 0
1333 318 -319 0
-1334 1333 320 0
-1334 -1333 -320 0
1334 -1333 320 0
1334 1333 -320 0
-14 -1334 0
-1335 333 334 0
-1335 -333 -334 0
1335 -333 334 0
1335 333 -334 0
-1336 1335 335 0
-1336 -1335 -335 0
1336 -1335 335 0
1336 1335 -335 0
-14 -1336 0
-1337 348 349 0
-1337 -348 -349 0
1337 -348 349 0
1337 348 -349 0
-1338 1337 350 0
-1338 -1337 -350 0
1338 -1337 350 0
1338 1337 -350 0
-14 -1338 0
-1339 363 364 0
-1339 -363 -364 0
1339 -363 364 0
1339 363 -364 0
-1340 1339 365 0
-1340 -1339 -365 0
1340 -1339 365 0
1340 1339 -365 0
-14 -1340 0
-1341 378 379 0
-1341 -378 -379 0
1341 -378 379 0
1341 378 -379 0
-1342 1341 380 0
-1342 -1341 -380 0
1342 -1341 380 0
1342 1341 -380 0
-14 -1342 0
-1343 317 318 0
-1343 -317 -318 0
1343 -317 318 0
1343 317 -318 0
-1344 1343 319 0
-1344 -1343 -319 0
1344 -1343 319 0
1344 1343 -319 0
-1345 1344 320 0
-1345 -1344 -320 0
1345 -1344 320 0
1345 1344 -320 0
-15 -1345 0
-1346 332 333 0
-1346 -332 -333 0
1346 -332 333 0
1346 332 -333 0
-1347 1346 334 0
-1347 -1346 -334 0
1347 -1346 334 0
1347 1346 -334 0
-1348 1347 335 0
-1348 -1347 -335 0
1348 -1347 335 0
1348 1347 -335 0
-15 -1348 0
-1349 347 348 0
-1349 -347 -348 0
1349 -347 348 0
1349 347 -348 0
-1350 1349 349 0
-1350 -1349 -349 0
1350 -1349 349 0
1350 1349 -349 0
-1351 1350 350 0
-1351 -1350 -350 0
1351 -1350 350 0
1351 1350 -350 0
-15 -1351 0
-1352 362 363 0
-1352 -362 -363 0
1352 -362 363 0
1352 362 -363 0
-1353 1352 364 0
-1353 -1352 -364 0
1353 -1352 364 0
1353 1352 -364 0
-1354 1353 365 0
-1354 -1353 -365 0
1354 -1353 365 0
1354 1353 -365 0
-15 -1354 0
-1355 377 378 0
-1355 -377 -378 0
1355 -377 378 0
1355 377 -378 0
-1356 1355 379 0
-1356 -1355 -379 0
1356 -1355 379 0
1356 1355 -379 0
-1357 1356 380 0
-1357 -1356 -380 0
1357 -1356 380 0
1357 1356 -380 0
-15 -1357 0
-16 -321 0
-16 -336 0
-16 -351 0
-16 -366 0
-16 -381 0
-17 -322 0
-17 -337 0
-17 -352 0
-17 -367 0
-17 -382 0
-1358 321 322 0
-1358 -321 -322 0
1358 -321 322 0
1358 321 -322 0
-18 -1358 0
-1359 336 337 0
-1359 -336 -337 0
1359 -336 337 0
1359 336 -337 0
-18 -1359 0
-1360 351 352 0
-1360 -351 -352 0
1360 -351 352 0
1360 351 -352 0
-18 -1360 0
-1361 366 367 0
-1361 -366 -367 0
1361 -366 367 0
1361 366 -367 0
-18 -1361 0
-1362 381 382 0
-1362 -381 -382 0
1362 -381 382 0
1362 381 -382 0
-18 -1362 0
-19 -323 0
-19 -338 0
-19 -353 0
-19 -368 0
-19 -383 0
-1363 321 323 0
-1363 -321 -323 0
1363 -321 323 0
1363 321 -323 0
-20 -1363 0
-1364 336 338 0
-1364 -336 -338 0
1364 -336 338 0
1364 336 -338 0
-20 -1364 0
-1365 351 353 0
-1365 -351 -353 0
1365 -351 353 0
1365 351 -353 0
-20 -1365 0
-1366 366 368 0
-1366 -366 -368 0
1366 -366 368 0
1366 366 -368 0
-20 -1366 0
-1367 381 383 0
-1367 -381 -383 0
1367 -381 383 0
1367 381 -383 0
-20 -1367 0
-1368 322 323 0
-1368 -322 -323 0
1368 -322 323 0
1368 322 -323 0
-21 -1368 0
-1369 337 338 0
-1369 -337 -338 0
1369 -337 338 0
1369 337 -338 0
-21 -1369 0
-1370 352 353 0
-1370 -352 -353 0
1370 -352 353 0
1370 352 -353 0
-21 -1370 0
-1371 367 368 0
-1371 -367 -368 0
1371 -367 368 0
1371 367 -368 0
-21 -1371 0
-1372 382 383 0
-1372 -382 -383 0
1372 -382 383 0
1372 382 -383 0
-21 -1372 0
-1373 321 322 0
-1373 -321 -322 0
1373 -321 322 0
1373 321 -322 0
-1374 1373 323 0
-1374 -1373 -323 0
1374 -1373 323 0
1374 1373 -323 0
-22 -1374 0
-1375 336 337 0
-1375 -336 -337 0
1375 -336 337 0
1375 336 -337 0
-1376 1375 338 0
-1376 -1375 -338 0
1376 -1375 338 0
1376 1375 -338 0
-22 -1376 0
-1377 351 352 0
-1377 -351 -352 0
1377 -351 352 0
1377 351 -352 0
-1378 1377 353 0
-1378 -1377 -353 0
1378 -1377 353 0
1378 1377 -353 0
-22 -1378 0
-1379 366 367 0
-1379 -366 -367 0
1379 -366 367 0
1379 366 -367 0
-1380 1379 368 0
-1380 -1379 -368 0
1380 -1379 368 0
1380 1379 -368 0
-22 -1380 0
-1381 381 382 0
-1381 -381 -382 0
1381 -381 382 0
1381 381 -382 0
-1382 1381 383 0
-1382 -1381 -383 0
1382 -1381 383 0
1382 1381 -383 0
-22 -1382 0
-23 -324 0
-23 -339 0
-23 -354 0
-23 -369 0
-23 -384 0
-1383 321 324 0
-1383 -321 -324 0
1383 -321 324 0
1383 321 -324 0
-24 -1383 0
-1384 336 339 0
-1384 -336 -339 0
1384 -336 339 0
1384 336 -339 0
-24 -1384 0
-1385 351 354 0
-1385 -351 -354 0
1385 -351 354 0
1385 351 -354 0
-24 -1385 0
-1386 366 369 0
-1386 -366 -369 0
1386 -366 369 0
1386 366 -369 0
-24 -1386 0
-1387 381 384 0
-1387 -381 -384 0
1387 -381 384 0
1387 381 -384 0
-24 -1387 0
-1388 322 324 0
-1388 -322 -324 0
1388 -322 324 0
1388 322 -324 0
-25 -1388 0
-1389 337 339 0
-1389 -337 -339 0
1389 -337 339 0
1389 337 -339 0
-25 -1389 0
-1390 352 354 0
-1390 -352 -354 0
1390 -352 354 0
1390 352 -354 0
-25 -1390 0
-1391 367 369 0
-1391 -367 -369 0
1391 -367 369 0
1391 367 -369 0
-25 -1391 0
-1392 382 384 0
-1392 -382 -384 0
1392 -382 384 0
1392 382 -384 0
-25 -1392 0
-1393 321 322 0
-1393 -321 -322 0
1393 -321 322 0
1393 321 -322 0
-1394 1393 324 0
-1394 -1393 -324 0
1394 -1393 324 0
1394 1393 -324 0
-26 -1394 0
-1395 336 337 0
-1395 -336 -337 0
1395 -336 337 0
1395 336 -337 0
-1396 1395 339 0
-1396 -1395 -339 0
1396 -1395 339 0
1396 1395 -339 0
-26 -1396 0
-1397 351 352 0
-1397 -351 -352 0
1397 -351 352 0
1397 351 -352 0
-1398 1397 354 0
-1398 -1397 -354 0
1398 -1397 354 0
1398 1397 -354 0
-26 -1398 0
-1399 366 367 0
-1399 -366 -367 0
1399 -366 367 0
1399 366 -367 0
-1400 1399 369 0
-1400 -1399 -369 0
1400 -1399 369 0
1400 1399 -369 0
-26 -1400 0
-1401 381 382 0
-1401 -381 -382 0
1401 -381 382 0
1401 381 -382 0
-1402 1401 384 0
-1402 -1401 -384 0
1402 -1401 384 0
1402 1401 -384 0
-26 -1402 0
-1403 323 324 0
-1403 -323 -324 0
1403 -323 324 0
1403 323 -324 0
-27 -1403 0
-1404 338 339 0
-1404 -338 -339 0
1404 -338 339 0
1404 338 -339 0
-27 -1404 0
-1405 353 354 0
-1405 -353 -354 0
1405 -353 354 0
1405 353 -354 0
-27 -1405 0
-1406 368 369 0
-1406 -368 -369 0
1406 -368 369 0
1406 368 -369 0
-27 -1406 0
-1407 383 384 0
-1407 -383 -384 0
1407 -383 384 0
1407 383 -384 0
-27 -1407 0
-1408 321 323 0
-1408 -321 -323 0
1408 -321 323 0
1408 321 -323 0
-1409 1408 324 0
-1409 -1408 -324 0
1409 -1408 324 0
1409 1408 -324 0
-28 -1409 0
-1410 336 338 0
-1410 -336 -338 0
1410 -336 338 0
1410 336 -338 0
-1411 1410 339 0
-1411 -1410 -339 0
1411 -1410 339 0
1411 1410 -339 0
-28 -1411 0
-1412 351 353 0
-1412 -351 -353 0
1412 -351 353 0
1412 351 -353 0
-1413 1412 354 0
-1413 -1412 -354 0
1413 -1412 354 0
1413 1412 -354 0
-28 -1413 0
-1414 366 368 0
-1414 -366 -368 0
1414 -366 368 0
1414 366 -368 0
-1415 1414 369 0
-1415 -1414 -369 0
1415 -1414 369 0
1415 1414 -369 0
-28 -1415 0
-1416 381 383 0
-1416 -381 -383 0
1416 -381 383 0
1416 381 -383 0
-1417 1416 384 0
-1417 -1416 -384 0
1417 -1416 384 0
1417 1416 -384 0
-28 -1417 0
-1418 322 323 0
-1418 -322 -323 0
1418 -322 323 0
1418 322 -323 0
-1419 1418 324 0
-1419 -1418 -324 0
1419 -1418 324 0
1419 1418 -324 0
-29 -1419 0
-1420 337 338 0
-1420 -337 -338 0
1420 -337 338 0
1420 337 -338 0
-1421 1420 339 0
-1421 -1420 -339 0
1421 -1420 339 0
1421 1420 -339 0
-29 -1421 0
-1422 352 353 0
-1422 -352 -353 0
1422 -352 353 0
1422 352 -353 0
-1423 1422 354 0
-1423 -1422 -354 0
1423 -1422 354 0
1423 1422 -354 0
-29 -1423 0
-1424 367 368 0
-1424 -367 -368 0
1424 -367 368 0
1424 367 -368 0
-1425 1424 369 0
-1425 -1424 -369 0
1425 -1424 369 0
1425 1424 -369 0
-29 -1425 0
-1426 382 383 0
-1426 -382 -383 0
1426 -382 383 0
1426 382 -383 0
-1427 1426 384 0
-1427 -1426 -384 0
1427 -1426 384 0
1427 1426 -384 0
-29 -1427 0
-1428 321 322 0
-1428 -321 -322 0
1428 -321 322 0
1428 321 -322 0
-1429 1428 323 0
-1429 -1428 -323 0
1429 -1428 323 0
1429 1428 -323 0
-1430 1429 324 0
-1430 -1429 -324 0
1430 -1429 324 0
1430 1429 -324 0
-30 -1430 0
-1431 336 337 0
-1431 -336 -337 0
1431 -336 337 0
1431 336 -337 0
-1432 1431 338 0
-1432 -1431 -338 0
1432 -1431 338 0
1432 1431 -338 0
-1433 1432 339 0
-1433 -1432 -339 0
1433 -1432 339 0
1433 1432 -339 0
-30 -1433 0
-1434 351 352 0
-1434 -351 -352 0
1434 -351 352 0
1434 351 -352 0
-1435 1434 353 0
-1435 -1434 -353 0
1435 -1434 353 0
1435 1434 -353 0
-1436 1435 354 0
-1436 -1435 -354 0
1436 -1435 354 0
1436 1435 -354 0
-30 -1436 0
-1437 366 367 0
-1437 -366 -367 0
1437 -366 367 0
1437 366 -367 0
-1438 1437 368 0
-1438 -1437 -368 0
1438 -1437 368 0
1438 1437 -368 0
-1439 1438 369 0
-1439 -1438 -369 0
1439 -1438 369 0
1439 1438 -369 0
-30 -1439 0
-1440 381 382 0
-1440 -381 -382 0
1440 -381 382 0
1440 381 -382 0
-1441 1440 383 0
-1441 -1440 -383 0
1441 -1440 383 0
1441 1440 -383 0
-1442 1441 384 0
-1442 -1441 -384 0
1442 -1441 384 0
1442 1441 -384 0
-30 -1442 0
-1443 317 321 0
-1443 -317 -321 0
1443 -317 321 0
1443 317 -321 0
-31 -1443 0
-1444 332 336 0
-1444 -332 -336 0
1444 -332 336 0
1444 332 -336 0
-31 -1444 0
-1445 347 351 0
-1445 -347 -351 0
1445 -347 351 0
1445 347 -351 0
-31 -1445 0
-1446 362 366 0
-1446 -362 -366 0
1446 -362 366 0
1446 362 -366 0
-31 -1446 0
-1447 377 381 0
-1447 -377 -381 0
1447 -377 381 0
1447 377 -381 0
-31 -1447 0
-1448 318 322 0
-1448 -318 -322 0
1448 -318 322 0
1448 318 -322 0
-32 -1448 0
-1449 333 337 0
-1449 -333 -337 0
1449 -333 337 0
1449 333 -337 0
-32 -1449 0
-1450 348 352 0
-1450 -348 -352 0
1450 -348 352 0
1450 348 -352 0
-32 -1450 0
-1451 363 367 0
-1451 -363 -367 0
1451 -363 367 0
1451 363 -367 0
-32 -1451 0
-1452 378 382 0
-1452 -378 -382 0
1452 -378 382 0
1452 378 -382 0
-32 -1452 0
-1453 317 318 0
-1453 -317 -318 0
1453 -317 318 0
1453 317 -318 0
-1454 1453 321 0
-1454 -1453 -321 0
1454 -1453 321 0
1454 1453 -321 0
-1455 1454 322 0
-1455 -1454 -322 0
1455 -1454 322 0
1455 1454 -322 0
-33 -1455 0
-1456 332 333 0
-1456 -332 -333 0
1456 -332 333 0
1456 332 -333 0
-1457 1456 336 0
-1457 -1456 -336 0
1457 -1456 336 0
1457 1456 -336 0
-1458 1457 337 0
-1458 -1457 -337 0
1458 -1457 337 0
1458 1457 -337 0
-33 -1458 0
-1459 347 348 0
-1459 -347 -348 0
1459 -347 348 0
1459 347 -348 0
-1460 1459 351 0
-1460 -1459 -351 0
1460 -1459 351 0
1460 1459 -351 0
-1461 1460 352 0
-1461 -1460 -352 0
1461 -1460 352 0
1461 1460 -352 0
-33 -1461 0
-1462 362 363 0
-1462 -362 -363 0
1462 -362 363 0
1462 362 -363 0
-1463 1462 366 0
-1463 -1462 -366 0
1463 -1462 366 0
1463 1462 -366 0
-1464 1463 367 0
-1464 -1463 -367 0
1464 -1463 367 0
1464 1463 -367 0
-33 -1464 0
-1465 377 378 0
-1465 -377 -378 0
1465 -377 378 0
1465 377 -378 0
-1466 1465 381 0
-1466 -1465 -381 0
1466 -1465 381 0
1466 1465 -381 0
-1467 1466 382 0
-1467 -1466 -382 0
1467 -1466 382 0
1467 1466 -382 0
-33 -1467 0
-1468 319 323 0
-1468 -319 -323 0
1468 -319 323 0
1468 319 -323 0
-34 -1468 0
-1469 334 338 0
-1469 -334 -338 0
1469 -334 338 0
1469 334 -338 0
-34 -1469 0
-1470 349 353 0
-1470 -349 -353 0
1470 -349 353 0
1470 349 -353 0
-34 -1470 0
-1471 364 368 0
-1471 -364 -368 0
1471 -364 368 0
1471 364 -368 0
-34 -1471 0
-1472 379 383 0
-1472 -379 -383 0
1472 -379 383 0
1472 379 -383 0
-34 -1472 0
-1473 317 319 0
-1473 -317 -319 0
1473 -317 319 0
1473 317 -319 0
-1474 1473 321 0
-1474 -1473 -321 0
1474 -1473 321 0
1474 1473 -321 0
-1475 1474 323 0
-1475 -1474 -323 0
1475 -1474 323 0
1475 1474 -323 0
-35 -1475 0
-1476 332 334 0
-1476 -332 -334 0
1476 -332 334 0
1476 332 -334 0
-1477 1476 336 0
-1477 -1476 -336 0
1477 -1476 336 0
1477 1476 -336 0
-1478 1477 338 0
-1478 -1477 -338 0
1478 -1477 338 0
1478 1477 -338 0
-35 -1478 0
-1479 347 349 0
-1479 -347 -349 0
1479 -347 349 0
1479 347 -349 0
-1480 1479 351 0
-1480 -1479 -351 0
1480 -1479 351 0
1480 1479 -351 0
-1481 1480 353 0
-1481 -1480 -353 0
1481 -1480 353 0
1481 1480 -353 0
-35 -1481 0
-1482 362 364 0
-1482 -362 -364 0
1482 -362 364 0
1482 362 -364 0
-1483 1482 366 0
-1483 -1482 -366 0
1483 -1482 366 0
1483 1482 -366 0
-1484 1483 368 0
-1484 -1483 -368 0
1484 -1483 368 0
1484 1483 -368 0
-35 -1484 0
-1485 377 379 0
-1485 -377 -379 0
1485 -377 379 0
1485 377 -379 0
-1486 1485 381 0
-1486 -1485 -381 0
1486 -1485 381 0
1486 1485 -381 0
-1487 1486 383 0
-1487 -1486 -383 0
1487 -1486 383 0
1487 1486 -383 0
-35 -1487 0
-1488 318 319 0
-1488 -318 -319 0
1488 -318 319 0
1488 318 -319 0
-1489 1488 322 0
-1489 -1488 -322 0
1489 -1488 322 0
1489 1488 -322 0
-1490 1489 323 0
-1490 -1489 -323 0
1490 -1489 323 0
1490 1489 -323 0
-36 -1490 0
-1491 333 334 0
-1491 -333 -334 0
1491 -333 334 0
1491 333 -334 0
-1492 1491 337 0
-1492 -1491 -337 0
1492 -1491 337 0
1492 1491 -337 0
-1493 1492 338 0
-1493 -1492 -338 0
1493 -1492 338 0
1493 1492 -338 0
-36 -1493 0
-1494 348 349 0
-1494 -348 -349 0
1494 -348 349 0
1494 348 -349 0
-1495 1494 352 0
-1495 -1494 -352 0
1495 -1494 352 0
1495 1494 -352 0
-1496 1495 353 0
-1496 -1495 -353 0
1496 -1495 353 0
1496 1495 -353 0
-36 -1496 0
-1497 363 364 0
-1497 -363 -364 0
1497 -363 364 0
1497 363 -364 0
-1498 1497 367 0
-1498 -1497 -367 0
1498 -1497 367 0
1498 1497 -367 0
-1499 1498 368 0
-1499 -1498 -368 0
1499 -1498 368 0
1499 1498 -368 0
-36 -1499 0
-1500 378 379 0
-1500 -378 -379 0
1500 -378 379 0
1500 378 -379 0
-1501 1500 382 0
-1501 -1500 -382 0
1501 -1500 382 0
1501 1500 -382 0
-1502 1501 383 0
-1502 -1501 -383 0
1502 -1501 383 0
1502 1501 -383 0
-36 -1502 0
-1503 317 318 0
-1503 -317 -318 0
1503 -317 318 0
1503 317 -318 0
-1504 1503 319 0
-1504 -1503 -319 0
1504 -1503 319 0
1504 1503 -319 0
-1505 1504 321 0
-1505 -1504 -321 0
1505 -1504 321 0
1505 1504 -321 0
-1506 1505 322 0
-1506 -1505 -322 0
1506 -1505 322 0
1506 1505 -322 0
-1507 1506 323 0
-1507 -1506 -323 0
1507 -1506 323 0
1507 1506 -323 0
-37 -1507 0
-1508 332 333 0
-1508 -332 -333 0
1508 -332 333 0
1508 332 -333 0
-1509 1508 334 0
-1509 -1508 -334 0
1509 -1508 334 0
1509 1508 -334 0
-1510 1509 336 0
-1510 -1509 -336 0
1510 -1509 336 0
1510 1509 -336 0
-1511 1510 337 0
-1511 -1510 -337 0
1511 -1510 337 0
1511 1510 -337 0
-1512 1511 338 0
-1512 -1511 -338 0
1512 -1511 338 0
1512 1511 -338 0
-37 -1512 0
-1513 347 348 0
-1513 -347 -348 0
1513 -347 348 0
1513 347 -348 0
-1514 1513 349 0
-1514 -1513 -349 0
1514 -1513 349 0
1514 1513 -349 0
-1515 1514 351 0
-1515 -1514 -351 0
1515 -1514 351 0
1515 1514 -351 0
-1516 1515 352 0
-1516 -1515 -352 0
1516 -1515 352 0
1516 1515 -352 0
-1517 1516 353 0
-1517 -1516 -353 0
1517 -1516 353 0
1517 1516 -353 0
-37 -1517 0
-1518 362 363 0
-1518 -362 -363 0
1518 -362 363 0
1518 362 -363 0
-1519 1518 364 0
-1519 -1518 -364 0
1519 -1518 364 0
1519 1518 -364 0
-1520 1519 366 0
-1520 -1519 -366 0
1520 -1519 366 0
1520 1519 -366 0
-1521 1520 367 0
-1521 -1520 -367 0
1521 -1520 367 0
1521 1520 -367 0
-1522 1521 368 0
-1522 -1521 -368 0
1522 -1521 368 0
1522 1521 -368 0
-37 -1522 0
-1523 377 378 0
-1523 -377 -378 0
1523 -377 378 0
1523 377 -378 0
-1524 1523 379 0
-1524 -1523 -379 0
1524 -1523 379 0
1524 1523 -379 0
-1525 1524 381 0
-1525 -1524 -381 0
1525 -1524 381 0
1525 1524 -381 0
-1526 1525 382 0
-1526 -1525 -382 0
1526 -1525 382 0
1526 1525 -382 0
-1527 1526 383 0
-1527 -1526 -383 0
1527 -1526 383 0
1527 1526 -383 0
-37 -1527 0
-1528 320 324 0
-1528 -320 -324 0
1528 -320 324 0
1528 320 -324 0
-38 -1528 0
-1529 335 339 0
-1529 -335 -339 0
1529 -335 339 0
1529 335 -339 0
-38 -1529 0
-1530 350 354 0
-1530 -350 -354 0
1530 -350 354 0
1530 350 -354 0
-38 -1530 0
-1531 365 369 0
-1531 -365 -369 0
1531 -365 369 0
1531 365 -369 0
-38 -1531 0
-1532 380 384 0
-1532 -380 -384 0
1532 -380 384 0
1532 380 -384 0
-38 -1532 0
-1533 317 320 0
-1533 -317 -320 0
1533 -317 320 0
1533 317 -320 0
-1534 1533 321 0
-1534 -1533 -321 0
1534 -1533 321 0
1534 1533 -321 0
-1535 1534 324 0
-1535 -1534 -324 0
1535 -1534 324 0
1535 1534 -324 0
-39 -1535 0
-1536 332 335 0
-1536 -332 -335 0
1536 -332 335 0
1536 332 -335 0
-1537 1536 336 0
-1537 -1536 -336 0
1537 -1536 336 0
1537 1536 -336 0
-1538 1537 339 0
-1538 -1537 -339 0
1538 -1537 339 0
1538 1537 -339 0
-39 -1538 0
-1539 347 350 0
-1539 -347 -350 0
1539 -347 350 0
1539 347 -350 0
-1540 1539 351 0
-1540 -1539 -351 0
1540 -1539 351 0
1540 1539 -351 0
-1541 1540 354 0
-1541 -1540 -354 0
1541 -1540 354 0
1541 1540 -354 0
-39 -1541 0
-1542 362 365 0
-1542 -362 -365 0
1542 -362 365 0
1542 362 -365 0
-1543 1542 366 0
-1543 -1542 -366 0
1543 -1542 366 0
1543 1542 -366 0
-1544 1543 369 0
-1544 -1543 -369 0
1544 -1543 369 0
1544 1543 -369 0
-39 -1544 0
-1545 377 380 0
-1545 -377 -380 0
1545 -377 380 0
1545 377 -380 0
-1546 1545 381 0
-1546 -1545 -381 0
1546 -1545 381 0
1546 1545 -381 0
-1547 1546 384 0
-1547 -1546 -384 0
1547 -1546 384 0
1547 1546 -384 0
-39 -1547 0
-1548 318 320 0
-1548 -318 -320 0
1548 -318 320 0
1548 318 -320 0
-1549 1548 322 0
-1549 -1548 -322 0
1549 -1548 322 0
1549 1548 -322 0
-1550 1549 324 0
-1550 -1549 -324 0
1550 -1549 324 0
1550 1549 -324 0
-40 -1550 0
-1551 333 335 0
-1551 -333 -335 0
1551 -333 335 0
1551 333 -335 0
-1552 1551 337 0
-1552 -1551 -337 0
1552 -1551 337 0
1552 1551 -337 0
-1553 1552 339 0
-1553 -1552 -339 0
1553 -1552 339 0
1553 1552 -339 0
-40 -1553 0
-1554 348 350 0
-1554 -348 -350 0
1554 -348 350 0
1554 348 -350 0
-1555 1554 352 0
-1555 -1554 -352 0
1555 -1554 352 0
1555 1554 -352 0
-1556 1555 354 0
-1556 -1555 -354 0
1556 -1555 354 0
1556 1555 -354 0
-40 -1556 0
-1557 363 365 0
-1557 -363 -365 0
1557 -363 365 0
1557 363 -365 0
-1558 1557 367 0
-1558 -1557 -367 0
1558 -1557 367 0
1558 1557 -367 0
-1559 1558 369 0
-1559 -1558 -369 0
1559 -1558 369 0
1559 1558 -369 0
-40 -1559 0
-1560 378 380 0
-1560 -378 -380 0
1560 -378 380 0
1560 378 -380 0
-1561 1560 382 0
-1561 -1560 -382 0
1561 -1560 382 0
1561 1560 -382 0
-1562 1561 384 0
-1562 -1561 -384 0
1562 -1561 384 0
1562 1561 -384 0
-40 -1562 0
-1563 317 318 0
-1563 -317 -318 0
1563 -317 318 0
1563 317 -318 0
-1564 1563 320 0
-1564 -1563 -320 0
1564 -1563 320 0
1564 1563 -320 0
-1565 1564 321 0
-1565 -1564 -321 0
1565 -1564 321 0
1565 1564 -321 0
-1566 1565 322 0
-1566 -1565 -322 0
1566 -1565 322 0
1566 1565 -322 0
-1567 1566 324 0
-1567 -1566 -324 0
1567 -1566 324 0
1567 1566 -324 0
-41 -1567 0
-1568 332 333 0
-1568 -332 -333 0
1568 -332 333 0
1568 332 -333 0
-1569 1568 335 0
-1569 -1568 -335 0
1569 -1568 335 0
1569 1568 -335 0
-1570 1569 336 0
-1570 -1569 -336 0
1570 -1569 336 0
1570 1569 -336 0
-1571 1570 337 0
-1571 -1570 -337 0
1571 -1570 337 0
1571 1570 -337 0
-1572 1571 339 0
-1572 -1571 -339 0
1572 -1571 339 0
1572 1571 -339 0
-41 -1572 0
-1573 347 348 0
-1573 -347 -348 0
1573 -347 348 0
1573 347 -348 0
-1574 1573 350 0
-1574 -1573 -350 0
1574 -1573 350 0
1574 1573 -350 0
-1575 1574 351 0
-1575 -1574 -351 0
1575 -1574 351 0
1575 1574 -351 0
-1576 1575 352 0
-1576 -1575 -352 0
1576 -1575 352 0
1576 1575 -352 0
-1577 1576 354 0
-1577 -1576 -354 0
1577 -1576 354 0
1577 1576 -354 0
-41 -1577 0
-1578 362 363 0
-1578 -362 -363 0
1578 -362 363 0
1578 362 -363 0
-1579 1578 365 0
-1579 -1578 -365 0
1579 -1578 365 0
1579 1578 -365 0
-1580 1579 366 0
-1580 -1579 -366 0
1580 -1579 366 0
1580 1579 -366 0
-1581 1580 367 0
-1581 -1580 -367 0
1581 -1580 367 0
1581 1580 -367 0
-1582 1581 369 0
-1582 -1581 -369 0
1582 -1581 369 0
1582 1581 -369 0
-41 -1582 0
-1583 377 378 0
-1583 -377 -378 0
1583 -377 378 0
1583 377 -378 0
-1584 1583 380 0
-1584 -1583 -380 0
1584 -1583 380 0
1584 1583 -380 0
-1585 1584 381 0
-1585 -1584 -381 0
1585 -1584 381 0
1585 1584 -381 0
-1586 1585 382 0
-1586 -1585 -382 0
1586 -1585 382 0
1586 1585 -382 0
-1587 1586 384 0
-1587 -1586 -384 0
1587 -1586 384 0
1587 1586 -384 0
-41 -1587 0
-1588 319 320 0
-1588 -319 -320 0
1588 -319 320 0
1588 319 -320 0
-1589 1588 323 0
-1589 -1588 -323 0
1589 -1588 323 0
1589 1588 -323 0
-1590 1589 324 0
-1590 -1589 -324 0
1590 -1589 324 0
1590 1589 -324 0
-42 -1590 0
-1591 334 335 0
-1591 -334 -335 0
1591 -334 335 0
1591 334 -335 0
-1592 1591 338 0
-1592 -1591 -338 0
1592 -1591 338 0
1592 1591 -338 0
-1593 1592 339 0
-1593 -1592 -339 0
1593 -1592 339 0
1593 1592 -339 0
-42 -1593 0
-1594 349 350 0
-1594 -349 -350 0
1594 -349 350 0
1594 349 -350 0
-1595 1594 353 0
-1595 -1594 -353 0
1595 -1594 353 0
1595 1594 -353 0
-1596 1595 354 0
-1596 -1595 -354 0
1596 -1595 354 0
1596 1595 -354 0
-42 -1596 0
-1597 364 365 0
-1597 -364 -365 0
1597 -364 365 0
1597 364 -365 0
-1598 1597 368 0
-1598 -1597 -368 0
1598 -1597 368 0
1598 1597 -368 0
-1599 1598 369 0
-1599 -1598 -369 0
1599 -1598 369 0
1599 1598 -369 0
-42 -1599 0
-1600 379 380 0
-1600 -379 -380 0
1600 -379 380 0
1600 379 -380 0
-1601 1600 383 0
-1601 -1600 -383 0
1601 -1600 383 0
1601 1600 -383 0
-1602 1601 384 0
-1602 -1601 -384 0
1602 -1601 384 0
1602 1601 -384 0
-42 -1602 0
-1603 317 319 0
-1603 -317 -319 0
1603 -317 319 0
1603 317 -319 0
-1604 1603 320 0
-1604 -1603 -320 0
1604 -1603 320 0
1604 1603 -320 0
-1605 1604 321 0
-1605 -1604 -321 0
1605 -1604 321 0
1605 1604 -321 0
-1606 1605 323 0
-1606 -1605 -323 0
1606 -1605 323 0
1606 1605 -323 0
-1607 1606 324 0
-1607 -1606 -324 0
1607 -1606 324 0
1607 1606 -324 0
-43 -1607 0
-1608 332 334 0
-1608 -332 -334 0
1608 -332 334 0
1608 332 -334 0
-1609 1608 335 0
-1609 -1608 -335 0
1609 -1608 335 0
1609 1608 -335 0
-1610 1609 336 0
-1610 -1609 -336 0
1610 -1609 336 0
1610 1609 -336 0
-1611 1610 338 0
-1611 -1610 -338 0
1611 -1610 338 0
1611 1610 -338 0
-1612 1611 339 0
-1612 -1611 -339 0
1612 -1611 339 0
1612 1611 -339 0
-43 -1612 0
-1613 347 349 0
-1613 -347 -349 0
1613 -347 349 0
1613 347 -349 0
-1614 1613 350 0
-1614 -1613 -350 0
1614 -1613 350 0
1614 1613 -350 0
-1615 1614 351 0
-1615 -1614 -351 0
1615 -1614 351 0
1615 1614 -351 0
-1616 1615 353 0
-1616 -1615 -353 0
1616 -1615 353 0
1616 1615 -353 0
-1617 1616 354 0
-1617 -1616 -354 0
1617 -1616 354 0
1617 1616 -354 0
-43 -1617 0
-1618 362 364 0
-1618 -362 -364 0
1618 -362 364 0
1618 362 -364 0
-1619 1618 365 0
-1619 -1618 -365 0
1619 -1618 365 0
1619 1618 -365 0
-1620 1619 366 0
-1620 -1619 -366 0
1620 -1619 366 0
1620 1619 -366 0
-1621 1620 368 0
-1621 -1620 -368 0
1621 -1620 368 0
1621 1620 -368 0
-1622 1621 369 0
-1622 -1621 -369 0
1622 -1621 369 0
1622 1621 -369 0
-43 -1622 0
-1623 377 379 0
-1623 -377 -379 0
1623 -377 379 0
1623 377 -379 0
-1624 1623 380 0
-1624 -1623 -380 0
1624 -1623 380 0
1624 1623 -380 0
-1625 1624 381 0
-1625 -1624 -381 0
1625 -1624 381 0
1625 1624 -381 0
-1626 1625 383 0
-1626 -1625 -383 0
1626 -1625 383 0
1626 1625 -383 0
-1627 1626 384 0
-1627 -1626 -384 0
1627 -1626 384 0
1627 1626 -384 0
-43 -1627 0
-1628 318 319 0
-1628 -318 -319 0
1628 -318 319 0
1628 318 -319 0
-1629 1628 320 0
-1629 -1628 -320 0
1629 -1628 320 0
1629 1628 -320 0
-1630 1629 322 0
-1630 -1629 -322 0
1630 -1629 322 0
1630 1629 -322 0
-1631 1630 323 0
-1631 -1630 -323 0
1631 -1630 323 0
1631 1630 -323 0
-1632 1631 324 0
-1632 -1631 -324 0
1632 -1631 324 0
1632 1631 -324 0
-44 -1632 0
-1633 333 334 0
-1633 -333 -334 0
1633 -333 334 0
1633 333 -334 0
-1634 1633 335 0
-1634 -1633 -335 0
1634 -1633 335 0
1634 1633 -335 0
-1635 1634 337 0
-1635 -1634 -337 0
1635 -1634 337 0
1635 1634 -337 0
-1636 1635 338 0
-1636 -1635 -338 0
1636 -1635 338 0
1636 1635 -338 0
-1637 1636 339 0
-1637 -1636 -339 0
1637 -1636 339 0
1637 1636 -339 0
-44 -1637 0
-1638 348 349 0
-1638 -348 -349 0
1638 -348 349 0
1638 348 -349 0
-1639 1638 350 0
-1639 -1638 -350 0
1639 -1638 350 0
1639 1638 -350 0
-1640 1639 352 0
-1640 -1639 -352 0
1640 -1639 352 0
1640 1639 -352 0
-1641 1640 353 0
-1641 -1640 -353 0
1641 -1640 353 0
1641 1640 -353 0
-1642 1641 354 0
-1642 -1641 -354 0
1642 -1641 354 0
1642 1641 -354 0
-44 -1642 0
-1643 363 364 0
-1643 -363 -364 0
1643 -363 364 0
1643 363 -364 0
-1644 1643 365 0
-1644 -1643 -365 0
1644 -1643 365 0
1644 1643 -365 0
-1645 1644 367 0
-1645 -1644 -367 0
1645 -1644 367 0
1645 1644 -367 0
-1646 1645 368 0
-1646 -1645 -368 0
1646 -1645 368 0
1646 1645 -368 0
-1647 1646 369 0
-1647 -1646 -369 0
1647 -1646 369 0
1647 1646 -369 0
-44 -1647 0
-1648 378 379 0
-1648 -378 -379 0
1648 -378 379 0
1648 378 -379 0
-1649 1648 380 0
-1649 -1648 -380 0
1649 -1648 380 0
1649 1648 -380 0
-1650 1649 382 0
-1650 -1649 -382 0
1650 -1649 382 0
1650 1649 -382 0
-1651 1650 383 0
-1651 -1650 -383 0
1651 -1650 383 0
1651 1650 -383 0
-1652 1651 384 0
-1652 -1651 -384 0
1652 -1651 384 0
1652 1651 -384 0
-44 -1652 0
-1653 317 318 0
-1653 -317 -318 0
1653 -317 318 0
1653 317 -318 0
-1654 1653 319 0
-1654 -1653 -319 0
1654 -1653 319 0
1654 1653 -319 0
-1655 1654 320 0
-1655 -1654 -320 0
1655 -1654 320 0
1655 1654 -320 0
-1656 1655 321 0
-1656 -1655 -321 0
1656 -1655 321 0
1656 1655 -321 0
-1657 1656 322 0
-1657 -1656 -322 0
1657 -1656 322 0
1657 1656 -322 0
-1658 1657 323 0
-1658 -1657 -323 0
1658 -1657 323 0
1658 1657 -323 0
-1659 1658 324 0
-1659 -1658 -324 0
1659 -1658 324 0
1659 1658 -324 0
-45 -1659 0
-1660 332 333 0
-1660 -332 -333 0
1660 -332 333 0
1660 332 -333 0
-1661 1660 334 0
-1661 -1660 -334 0
1661 -1660 334 0
1661 1660 -334 0
-1662 1661 335 0
-1662 -1661 -335 0
1662 -1661 335 0
1662 1661 -335 0
-1663 1662 336 0
-1663 -1662 -336 0
1663 -1662 336 0
1663 1662 -336 0
-1664 1663 337 0
-1664 -1663 -337 0
1664 -1663 337 0
1664 1663 -337 0
-1665 1664 338 0
-1665 -1664 -338 0
1665 -1664 338 0
1665 1664 -338 0
-1666 1665 339 0
-1666 -1665 -339 0
1666 -1665 339 0
1666 1665 -339 0
-45 -1666 0
-1667 347 348 0
-1667 -347 -348 0
1667 -347 348 0
1667 347 -348 0
-1668 1667 349 0
-1668 -1667 -349 0
1668 -1667 349 0
1668 1667 -349 0
-1669 1668 350 0
-1669 -1668 -350 0
1669 -1668 350 0
1669 1668 -350 0
-1670 1669 351 0
-1670 -1669 -351 0
1670 -1669 351 0
1670 1669 -351 0
-1671 1670 352 0
-1671 -1670 -352 0
1671 -1670 352 0
1671 1670 -352 0
-1672 1671 353 0
-1672 -1671 -353 0
1672 -1671 353 0
1672 1671 -353 0
-1673 1672 354 0
-1673 -1672 -354 0
1673 -1672 354 0
1673 1672 -354 0
-45 -1673 0
-1674 362 363 0
-1674 -362 -363 0
1674 -362 363 0
1674 362 -363 0
-1675 1674 364 0
-1675 -1674 -364 0
1675 -1674 364 0
1675 1674 -364 0
-1676 1675 365 0
-1676 -1675 -365 0
1676 -1675 365 0
1676 1675 -365 0
-1677 1676 366 0
-1677 -1676 -366 0
1677 -1676 366 0
1677 1676 -366 0
-1678 1677 367 0
-1678 -1677 -367 0
1678 -1677 367 0
1678 1677 -367 0
-1679 1678 368 0
-1679 -1678 -368 0
1679 -1678 368 0
1679 1678 -368 0
-1680 1679 369 0
-1680 -1679 -369 0
1680 -1679 369 0
1680 1679 -369 0
-45 -1680 0
-1681 377 378 0
-1681 -377 -378 0
1681 -377 378 0
1681 377 -378 0
-1682 1681 379 0
-1682 -1681 -379 0
1682 -1681 379 0
1682 1681 -379 0
-1683 1682 380 0
-1683 -1682 -380 0
1683 -1682 380 0
1683 1682 -380 0
-1684 1683 381 0
-1684 -1683 -381 0
1684 -1683 381 0
1684 1683 -381 0
-1685 1684 382 0
-1685 -1684 -382 0
1685 -1684 382 0
1685 1684 -382 0
-1686 1685 383 0
-1686 -1685 -383 0
1686 -1685 383 0
1686 1685 -383 0
-1687 1686 384 0
-1687 -1686 -384 0
1687 -1686 384 0
1687 1686 -384 0
-45 -1687 0
-46 -326 0
-46 -341 0
-46 -356 0
-46 -371 0
-46 -386 0
-1688 317 326 0
-1688 -317 -326 0
1688 -317 326 0
1688 317 -326 0
-47 -1688 0
-1689 332 341 0
-1689 -332 -341 0
1689 -332 341 0
1689 332 -341 0
-47 -1689 0
-1690 347 356 0
-1690 -347 -356 0
1690 -347 356 0
1690 347 -356 0
-47 -1690 0
-1691 362 371 0
-1691 -362 -371 0
1691 -362 371 0
1691 362 -371 0
-47 -1691 0
-1692 377 386 0
-1692 -377 -386 0
1692 -377 386 0
1692 377 -386 0
-47 -1692 0
-1693 321 326 0
-1693 -321 -326 0
1693 -321 326 0
1693 321 -326 0
-48 -1693 0
-1694 336 341 0
-1694 -336 -341 0
1694 -336 341 0
1694 336 -341 0
-48 -1694 0
-1695 351 356 0
-1695 -351 -356 0
1695 -351 356 0
1695 351 -356 0
-48 -1695 0
-1696 366 371 0
-1696 -366 -371 0
1696 -366 371 0
1696 366 -371 0
-48 -1696 0
-1697 381 386 0
-1697 -381 -386 0
1697 -381 386 0
1697 381 -386 0
-48 -1697 0
-1698 317 321 0
-1698 -317 -321 0
1698 -317 321 0
1698 317 -321 0
-1699 1698 326 0
-1699 -1698 -326 0
1699 -1698 326 0
1699 1698 -326 0
-49 -1699 0
-1700 332 336 0
-1700 -332 -336 0
1700 -332 336 0
1700 332 -336 0
-1701 1700 341 0
-1701 -1700 -341 0
1701 -1700 341 0
1701 1700 -341 0
-49 -1701 0
-1702 347 351 0
-1702 -347 -351 0
1702 -347 351 0
1702 347 -351 0
-1703 1702 356 0
-1703 -1702 -356 0
1703 -1702 356 0
1703 1702 -356 0
-49 -1703 0
-1704 362 366 0
-1704 -362 -366 0
1704 -362 366 0
1704 362 -366 0
-1705 1704 371 0
-1705 -1704 -371 0
1705 -1704 371 0
1705 1704 -371 0
-49 -1705 0
-1706 377 381 0
-1706 -377 -381 0
1706 -377 381 0
1706 377 -381 0
-1707 1706 386 0
-1707 -1706 -386 0
1707 -1706 386 0
1707 1706 -386 0
-49 -1707 0
-50 -327 0
-50 -342 0
-50 -357 0
-50 -372 0
-50 -387 0
-1708 317 327 0
-1708 -317 -327 0
1708 -317 327 0
1708 317 -327 0
-51 -1708 0
-1709 332 342 0
-1709 -332 -342 0
1709 -332 342 0
1709 332 -342 0
-51 -1709 0
-1710 347 357 0
-1710 -347 -357 0
1710 -347 357 0
1710 347 -357 0
-51 -1710 0
-1711 362 372 0
-1711 -362 -372 0
1711 -362 372 0
1711 362 -372 0
-51 -1711 0
-1712 377 387 0
-1712 -377 -387 0
1712 -377 387 0
1712 377 -387 0
-51 -1712 0
-1713 321 327 0
-1713 -321 -327 0
1713 -321 327 0
1713 321 -327 0
-52 -1713 0
-1714 336 342 0
-1714 -336 -342 0
1714 -336 342 0
1714 336 -342 0
-52 -1714 0
-1715 351 357 0
-1715 -351 -357 0
1715 -351 357 0
1715 351 -357 0
-52 -1715 0
-1716 366 372 0
-1716 -366 -372 0
1716 -366 372 0
1716 366 -372 0
-52 -1716 0
-1717 381 387 0
-1717 -381 -387 0
1717 -381 387 0
1717 381 -387 0
-52 -1717 0
-1718 317 321 0
-1718 -317 -321 0
1718 -317 321 0
1718 317 -321 0
-1719 1718 327 0
-1719 -1718 -327 0
1719 -1718 327 0
1719 1718 -327 0
-53 -1719 0
-1720 332 336 0
-1720 -332 -336 0
1720 -332 336 0
1720 332 -336 0
-1721 1720 342 0
-1721 -1720 -342 0
1721 -1720 342 0
1721 1720 -342 0
-53 -1721 0
-1722 347 351 0
-1722 -347 -351 0
1722 -347 351 0
1722 347 -351 0
-1723 1722 357 0
-1723 -1722 -357 0
1723 -1722 357 0
1723 1722 -357 0
-53 -1723 0
-1724 362 366 0
-1724 -362 -366 0
1724 -362 366 0
1724 362 -366 0
-1725 1724 372 0
-1725 -1724 -372 0
1725 -1724 372 0
1725 1724 -372 0
-53 -1725 0
-1726 377 381 0
-1726 -377 -381 0
1726 -377 381 0
1726 377 -381 0
-1727 1726 387 0
-1727 -1726 -387 0
1727 -1726 387 0
1727 1726 -387 0
-53 -1727 0
-1728 326 327 0
-1728 -326 -327 0
1728 -326 327 0
1728 326 -327 0
-54 -1728 0
-1729 341 342 0
-1729 -341 -342 0
1729 -341 342 0
1729 341 -342 0
-54 -1729 0
-1730 356 357 0
-1730 -356 -357 0
1730 -356 357 0
1730 356 -357 0
-54 -1730 0
-1731 371 372 0
-1731 -371 -372 0
1731 -371 372 0
1731 371 -372 0
-54 -1731 0
-1732 386 387 0
-1732 -386 -387 0
1732 -386 387 0
1732 386 -387 0
-54 -1732 0
-1733 317 326 0
-1733 -317 -326 0
1733 -317 326 0
1733 317 -326 0
-1734 1733 327 0
-1734 -1733 -327 0
1734 -1733 327 0
1734 1733 -327 0
-55 -1734 0
-1735 332 341 0
-1735 -332 -341 0
1735 -332 341 0
1735 332 -341 0
-1736 1735 342 0
-1736 -1735 -342 0
1736 -1735 342 0
1736 1735 -342 0
-55 -1736 0
-1737 347 356 0
-1737 -347 -356 0
1737 -347 356 0
1737 347 -356 0
-1738 1737 357 0
-1738 -1737 -357 0
1738 -1737 357 0
1738 1737 -357 0
-55 -1738 0
-1739 362 371 0
-1739 -362 -371 0
1739 -362 371 0
1739 362 -371 0
-1740 1739 372 0
-1740 -1739 -372 0
1740 -1739 372 0
1740 1739 -372 0
-55 -1740 0
-1741 377 386 0
-1741 -377 -386 0
1741 -377 386 0
1741 377 -386 0
-1742 1741 387 0
-1742 -1741 -387 0
1742 -1741 387 0
1742 1741 -387 0
-55 -1742 0
-1743 321 326 0
-1743 -321 -326 0
1743 -321 326 0
1743 321 -326 0
-1744 1743 327 0
-1744 -1743 -327 0
1744 -1743 327 0
1744 1743 -327 0
-56 -1744 0
-1745 336 341 0
-1745 -336 -341 0
1745 -336 341 0
1745 336 -341 0
-1746 1745 342 0
-1746 -1745 -342 0
1746 -1745 342 0
1746 1745 -342 0
-56 -1746 0
-1747 351 356 0
-1747 -351 -356 0
1747 -351 356 0
1747 351 -356 0
-1748 1747 357 0
-1748 -1747 -357 0
1748 -1747 357 0
1748 1747 -357 0
-56 -1748 0
-1749 366 371 0
-1749 -366 -371 0
1749 -366 371 0
1749 366 -371 0
-1750 1749 372 0
-1750 -1749 -372 0
1750 -1749 372 0
1750 1749 -372 0
-56 -1750 0
-1751 381 386 0
-1751 -381 -386 0
1751 -381 386 0
1751 381 -386 0
-1752 1751 387 0
-1752 -1751 -387 0
1752 -1751 387 0
1752 1751 -387 0
-56 -1752 0
-1753 317 321 0
-1753 -317 -321 0
1753 -317 321 0
1753 317 -321 0
-1754 1753 326 0
-1754 -1753 -326 0
1754 -1753 326 0
1754 1753 -326 0
-1755 1754 327 0
-1755 -1754 -327 0
1755 -1754 327 0
1755 1754 -327 0
-57 -1755 0
-1756 332 336 0
-1756 -332 -336 0
1756 -332 336 0
1756 332 -336 0
-1757 1756 341 0
-1757 -1756 -341 0
1757 -1756 341 0
1757 1756 -341 0
-1758 1757 342 0
-1758 -1757 -342 0
1758 -1757 342 0
1758 1757 -342 0
-57 -1758 0
-1759 347 351 0
-1759 -347 -351 0
1759 -347 351 0
1759 347 -351 0
-1760 1759 356 0
-1760 -1759 -356 0
1760 -1759 356 0
1760 1759 -356 0
-1761 1760 357 0
-1761 -1760 -357 0
1761 -1760 357 0
1761 1760 -357 0
-57 -1761 0
-1762 362 366 0
-1762 -362 -366 0
1762 -362 366 0
1762 362 -366 0
-1763 1762 371 0
-1763 -1762 -371 0
1763 -1762 371 0
1763 1762 -371 0
-1764 1763 372 0
-1764 -1763 -372 0
1764 -1763 372 0
1764 1763 -372 0
-57 -1764 0
-1765 377 381 0
-1765 -377 -381 0
1765 -377 381 0
1765 377 -381 0
-1766 1765 386 0
-1766 -1765 -386 0
1766 -1765 386 0
1766 1765 -386 0
-1767 1766 387 0
-1767 -1766 -387 0
1767 -1766 387 0
1767 1766 -387 0
-57 -1767 0
-1768 316 318 0
-1768 -316 -318 0
1768 -316 318 0
1768 316 -318 0
-1769 1768 321 0
-1769 -1768 -321 0
1769 -1768 321 0
1769 1768 -321 0
-1770 1769 325 0
-1770 -1769 -325 0
1770 -1769 325 0
1770 1769 -325 0
-58 -1770 0
-1771 331 333 0
-1771 -331 -333 0
1771 -331 333 0
1771 331 -333 0
-1772 1771 336 0
-1772 -1771 -336 0
1772 -1771 336 0
1772 1771 -336 0
-1773 1772 340 0
-1773 -1772 -340 0
1773 -1772 340 0
1773 1772 -340 0
-58 -1773 0
-1774 346 348 0
-1774 -346 -348 0
1774 -346 348 0
1774 346 -348 0
-1775 1774 351 0
-1775 -1774 -351 0
1775 -1774 351 0
1775 1774 -351 0
-1776 1775 355 0
-1776 -1775 -355 0
1776 -1775 355 0
1776 1775 -355 0
-58 -1776 0
-1777 361 363 0
-1777 -361 -363 0
1777 -361 363 0
1777 361 -363 0
-1778 1777 366 0
-1778 -1777 -366 0
1778 -1777 366 0
1778 1777 -366 0
-1779 1778 370 0
-1779 -1778 -370 0
1779 -1778 370 0
1779 1778 -370 0
-58 -1779 0
-1780 376 378 0
-1780 -376 -378 0
1780 -376 378 0
1780 376 -378 0
-1781 1780 381 0
-1781 -1780 -381 0
1781 -1780 381 0
1781 1780 -381 0
-1782 1781 385 0
-1782 -1781 -385 0
1782 -1781 385 0
1782 1781 -385 0
-58 -1782 0
-1783 316 317 0
-1783 -316 -317 0
1783 -316 317 0
1783 316 -317 0
-1784 1783 318 0
-1784 -1783 -318 0
1784 -1783 318 0
1784 1783 -318 0
-1785 1784 321 0
-1785 -1784 -321 0
1785 -1784 321 0
1785 1784 -321 0
-1786 1785 325 0
-1786 -1785 -325 0
1786 -1785 325 0
1786 1785 -325 0
-59 -1786 0
-1787 331 332 0
-1787 -331 -332 0
1787 -331 332 0
1787 331 -332 0
-1788 1787 333 0
-1788 -1787 -333 0
1788 -1787 333 0
1788 1787 -333 0
-1789 1788 336 0
-1789 -1788 -336 0
1789 -1788 336 0
1789 1788 -336 0
-1790 1789 340 0
-1790 -1789 -340 0
1790 -1789 340 0
1790 1789 -340 0
-59 -1790 0
-1791 346 347 0
-1791 -346 -347 0
1791 -346 347 0
1791 346 -347 0
-1792 1791 348 0
-1792 -1791 -348 0
1792 -1791 348 0
1792 1791 -348 0
-1793 1792 351 0
-1793 -1792 -351 0
1793 -1792 351 0
1793 1792 -351 0
-1794 1793 355 0
-1794 -1793 -355 0
1794 -1793 355 0
1794 1793 -355 0
-59 -1794 0
-1795 361 362 0
-1795 -361 -362 0
1795 -361 362 0
1795 361 -362 0
-1796 1795 363 0
-1796 -1795 -363 0
1796 -1795 363 0
1796 1795 -363 0
-1797 1796 366 0
-1797 -1796 -366 0
1797 -1796 366 0
1797 1796 -366 0
-1798 1797 370 0
-1798 -1797 -370 0
1798 -1797 370 0
1798 1797 -370 0
-59 -1798 0
-1799 376 377 0
-1799 -376 -377 0
1799 -376 377 0
1799 376 -377 0
-1800 1799 378 0
-1800 -1799 -378 0
1800 -1799 378 0
1800 1799 -378 0
-1801 1800 381 0
-1801 -1800 -381 0
1801 -1800 381 0
1801 1800 -381 0
-1802 1801 385 0
-1802 -1801 -385 0
1802 -1801 385 0
1802 1801 -385 0
-59 -1802 0
-1803 319 326 0
-1803 -319 -326 0
1803 -319 326 0
1803 319 -326 0
-60 -1803 0
-1804 334 341 0
-1804 -334 -341 0
1804 -334 341 0
1804 334 -341 0
-60 -1804 0
-1805 349 356 0
-1805 -349 -356 0
1805 -349 356 0
1805 349 -356 0
-60 -1805 0
-1806 364 371 0
-1806 -364 -371 0
1806 -364 371 0
1806 364 -371 0
-60 -1806 0
-1807 379 386 0
-1807 -379 -386 0
1807 -379 386 0
1807 379 -386 0
-60 -1807 0
-1808 317 319 0
-1808 -317 -319 0
1808 -317 319 0
1808 317 -319 0
-1809 1808 326 0
-1809 -1808 -326 0
1809 -1808 326 0
1809 1808 -326 0
-61 -1809 0
-1810 332 334 0
-1810 -332 -334 0
1810 -332 334 0
1810 332 -334 0
-1811 1810 341 0
-1811 -1810 -341 0
1811 -1810 341 0
1811 1810 -341 0
-61 -1811 0
-1812 347 349 0
-1812 -347 -349 0
1812 -347 349 0
1812 347 -349 0
-1813 1812 356 0
-1813 -1812 -356 0
1813 -1812 356 0
1813 1812 -356 0
-61 -1813 0
-1814 362 364 0
-1814 -362 -364 0
1814 -362 364 0
1814 362 -364 0
-1815 1814 371 0
-1815 -1814 -371 0
1815 -1814 371 0
1815 1814 -371 0
-61 -1815 0
-1816 377 379 0
-1816 -377 -379 0
1816 -377 379 0
1816 377 -379 0
-1817 1816 386 0
-1817 -1816 -386 0
1817 -1816 386 0
1817 1816 -386 0
-61 -1817 0
-1818 316 318 0
-1818 -316 -318 0
1818 -316 318 0
1818 316 -318 0
-1819 1818 319 0
-1819 -1818 -319 0
1819 -1818 319 0
1819 1818 -319 0
-1820 1819 321 0
-1820 -1819 -321 0
1820 -1819 321 0
1820 1819 -321 0
-1821 1820 325 0
-1821 -1820 -325 0
1821 -1820 325 0
1821 1820 -325 0
-1822 1821 326 0
-1822 -1821 -326 0
1822 -1821 326 0
1822 1821 -326 0
-62 -1822 0
-1823 331 333 0
-1823 -331 -333 0
1823 -331 333 0
1823 331 -333 0
-1824 1823 334 0
-1824 -1823 -334 0
1824 -1823 334 0
1824 1823 -334 0
-1825 1824 336 0
-1825 -1824 -336 0
1825 -1824 336 0
1825 1824 -336 0
-1826 1825 340 0
-1826 -1825 -340 0
1826 -1825 340 0
1826 1825 -340 0
-1827 1826 341 0
-1827 -1826 -341 0
1827 -1826 341 0
1827 1826 -341 0
-62 -1827 0
-1828 346 348 0
-1828 -346 -348 0
1828 -346 348 0
1828 346 -348 0
-1829 1828 349 0
-1829 -1828 -349 0
1829 -1828 349 0
1829 1828 -349 0
-1830 1829 351 0
-1830 -1829 -351 0
1830 -1829 351 0
1830 1829 -351 0
-1831 1830 355 0
-1831 -1830 -355 0
1831 -1830 355 0
1831 1830 -355 0
-1832 1831 356 0
-1832 -1831 -356 0
1832 -1831 356 0
1832 1831 -356 0
-62 -1832 0
-1833 361 363 0
-1833 -361 -363 0
1833 -361 363 0
1833 361 -363 0
-1834 1833 364 0
-1834 -1833 -364 0
1834 -1833 364 0
1834 1833 -364 0
-1835 1834 366 0
-1835 -1834 -366 0
1835 -1834 366 0
1835 1834 -366 0
-1836 1835 370 0
-1836 -1835 -370 0
1836 -1835 370 0
1836 1835 -370 0
-1837 1836 371 0
-1837 -1836 -371 0
1837 -1836 371 0
1837 1836 -371 0
-62 -1837 0
-1838 376 378 0
-1838 -376 -378 0
1838 -376 378 0
1838 376 -378 0
-1839 1838 379 0
-1839 -1838 -379 0
1839 -1838 379 0
1839 1838 -379 0
-1840 1839 381 0
-1840 -1839 -381 0
1840 -1839 381 0
1840 1839 -381 0
-1841 1840 385 0
-1841 -1840 -385 0
1841 -1840 385 0
1841 1840 -385 0
-1842 1841 386 0
-1842 -1841 -386 0
1842 -1841 386 0
1842 1841 -386 0
-62 -1842 0
-1843 316 317 0
-1843 -316 -317 0
1843 -316 317 0
1843 316 -317 0
-1844 1843 318 0
-1844 -1843 -318 0
1844 -1843 318 0
1844 1843 -318 0
-1845 1844 319 0
-1845 -1844 -319 0
1845 -1844 319 0
1845 1844 -319 0
-1846 1845 321 0
-1846 -1845 -321 0
1846 -1845 321 0
1846 1845 -321 0
-1847 1846 325 0
-1847 -1846 -325 0
1847 -1846 325 0
1847 1846 -325 0
-1848 1847 326 0
-1848 -1847 -326 0
1848 -1847 326 0
1848 1847 -326 0
-63 -1848 0
-1849 331 332 0
-1849 -331 -332 0
1849 -331 332 0
1849 331 -332 0
-1850 1849 333 0
-1850 -1849 -333 0
1850 -1849 333 0
1850 1849 -333 0
-1851 1850 334 0
-1851 -1850 -334 0
1851 -1850 334 0
1851 1850 -334 0
-1852 1851 336 0
-1852 -1851 -336 0
1852 -1851 336 0
1852 1851 -336 0
-1853 1852 340 0
-1853 -1852 -340 0
1853 -1852 340 0
1853 1852 -340 0
-1854 1853 341 0
-1854 -1853 -341 0
1854 -1853 341 0
1854 1853 -341 0
-63 -1854 0
-1855 346 347 0
-1855 -346 -347 0
1855 -346 347 0
1855 346 -347 0
-1856 1855 348 0
-1856 -1855 -348 0
1856 -1855 348 0
1856 1855 -348 0
-1857 1856 349 0
-1857 -1856 -349 0
1857 -1856 349 0
1857 1856 -349 0
-1858 1857 351 0
-1858 -1857 -351 0
1858 -1857 351 0
1858 1857 -351 0
-1859 1858 355 0
-1859 -1858 -355 0
1859 -1858 355 0
1859 1858 -355 0
-1860 1859 356 0
-1860 -1859 -356 0
1860 -1859 356 0
1860 1859 -356 0
-63 -1860 0
-1861 361 362 0
-1861 -361 -362 0
1861 -361 362 0
1861 361 -362 0
-1862 1861 363 0
-1862 -1861 -363 0
1862 -1861 363 0
1862 1861 -363 0
-1863 1862 364 0
-1863 -1862 -364 0
1863 -1862 364 0
1863 1862 -364 0
-1864 1863 366 0
-1864 -1863 -366 0
1864 -1863 366 0
1864 1863 -366 0
-1865 1864 370 0
-1865 -1864 -370 0
1865 -1864 370 0
1865 1864 -370 0
-1866 1865 371 0
-1866 -1865 -371 0
1866 -1865 371 0
1866 1865 -371 0
-63 -1866 0
-1867 376 377 0
-1867 -376 -377 0
1867 -376 377 0
1867 376 -377 0
-1868 1867 378 0
-1868 -1867 -378 0
1868 -1867 378 0
1868 1867 -378 0
-1869 1868 379 0
-1869 -1868 -379 0
1869 -1868 379 0
1869 1868 -379 0
-1870 1869 381 0
-1870 -1869 -381 0
1870 -1869 381 0
1870 1869 -381 0
-1871 1870 385 0
-1871 -1870 -385 0
1871 -1870 385 0
1871 1870 -385 0
-1872 1871 386 0
-1872 -1871 -386 0
1872 -1871 386 0
1872 1871 -386 0
-63 -1872 0
-1873 320 327 0
-1873 -320 -327 0
1873 -320 327 0
1873 320 -327 0
-64 -1873 0
-1874 335 342 0
-1874 -335 -342 0
1874 -335 342 0
1874 335 -342 0
-64 -1874 0
-1875 350 357 0
-1875 -350 -357 0
1875 -350 357 0
1875 350 -357 0
-64 -1875 0
-1876 365 372 0
-1876 -365 -372 0
1876 -365 372 0
1876 365 -372 0
-64 -1876 0
-1877 380 387 0
-1877 -380 -387 0
1877 -380 387 0
1877 380 -387 0
-64 -1877 0
-1878 317 320 0
-1878 -317 -320 0
1878 -317 320 0
1878 317 -320 0
-1879 1878 327 0
-1879 -1878 -327 0
1879 -1878 327 0
1879 1878 -327 0
-65 -1879 0
-1880 332 335 0
-1880 -332 -335 0
1880 -332 335 0
1880 332 -335 0
-1881 1880 342 0
-1881 -1880 -342 0
1881 -1880 342 0
1881 1880 -342 0
-65 -1881 0
-1882 347 350 0
-1882 -347 -350 0
1882 -347 350 0
1882 347 -350 0
-1883 1882 357 0
-1883 -1882 -357 0
1883 -1882 357 0
1883 1882 -357 0
-65 -1883 0
-1884 362 365 0
-1884 -362 -365 0
1884 -362 365 0
1884 362 -365 0
-1885 1884 372 0
-1885 -1884 -372 0
1885 -1884 372 0
1885 1884 -372 0
-65 -1885 0
-1886 377 380 0
-1886 -377 -380 0
1886 -377 380 0
1886 377 -380 0
-1887 1886 387 0
-1887 -1886 -387 0
1887 -1886 387 0
1887 1886 -387 0
-65 -1887 0
-1888 316 318 0
-1888 -316 -318 0
1888 -316 318 0
1888 316 -318 0
-1889 1888 320 0
-1889 -1888 -320 0
1889 -1888 320 0
1889 1888 -320 0
-1890 1889 321 0
-1890 -1889 -321 0
1890 -1889 321 0
1890 1889 -321 0
-1891 1890 325 0
-1891 -1890 -325 0
1891 -1890 325 0
1891 1890 -325 0
-1892 1891 327 0
-1892 -1891 -327 0
1892 -1891 327 0
1892 1891 -327 0
-66 -1892 0
-1893 331 333 0
-1893 -331 -333 0
1893 -331 333 0
1893 331 -333 0
-1894 1893 335 0
-1894 -1893 -335 0
1894 -1893 335 0
1894 1893 -335 0
-1895 1894 336 0
-1895 -1894 -336 0
1895 -1894 336 0
1895 1894 -336 0
-1896 1895 340 0
-1896 -1895 -340 0
1896 -1895 340 0
1896 1895 -340 0
-1897 1896 342 0
-1897 -1896 -342 0
1897 -1896 342 0
1897 1896 -342 0
-66 -1897 0
-1898 346 348 0
-1898 -346 -348 0
1898 -346 348 0
1898 346 -348 0
-1899 1898 350 0
-1899 -1898 -350 0
1899 -1898 350 0
1899 1898 -350 0
-1900 1899 351 0
-1900 -1899 -351 0
1900 -1899 351 0
1900 1899 -351 0
-1901 1900 355 0
-1901 -1900 -355 0
1901 -1900 355 0
1901 1900 -355 0
-1902 1901 357 0
-1902 -1901 -357 0
1902 -1901 357 0
1902 1901 -357 0
-66 -1902 0
-1903 361 363 0
-1903 -361 -363 0
1903 -361 363 0
1903 361 -363 0
-1904 1903 365 0
-1904 -1903 -365 0
1904 -1903 365 0
1904 1903 -365 0
-1905 1904 366 0
-1905 -1904 -366 0
1905 -1904 366 0
1905 1904 -366 0
-1906 1905 370 0
-1906 -1905 -370 0
1906 -1905 370 0
1906 1905 -370 0
-1907 1906 372 0
-1907 -1906 -372 0
1907 -1906 372 0
1907 1906 -372 0
-66 -1907 0
-1908 376 378 0
-1908 -376 -378 0
1908 -376 378 0
1908 376 -378 0
-1909 1908 380 0
-1909 -1908 -380 0
1909 -1908 380 0
1909 1908 -380 0
-1910 1909 381 0
-1910 -1909 -381 0
1910 -1909 381 0
1910 1909 -381 0
-1911 1910 385 0
-1911 -1910 -385 0
1911 -1910 385 0
1911 1910 -385 0
-1912 1911 387 0
-1912 -1911 -387 0
1912 -1911 387 0
1912 1911 -387 0
-66 -1912 0
-1913 316 317 0
-1913 -316 -317 0
1913 -316 317 0
1913 316 -317 0
-1914 1913 318 0
-1914 -1913 -318 0
1914 -1913 318 0
1914 1913 -318 0
-1915 1914 320 0
-1915 -1914 -320 0
1915 -1914 320 0
1915 1914 -320 0
-1916 1915 321 0
-1916 -1915 -321 0
1916 -1915 321 0
1916 1915 -321 0
-1917 1916 325 0
-1917 -1916 -325 0
1917 -1916 325 0
1917 1916 -325 0
-1918 1917 327 0
-1918 -1917 -327 0
1918 -1917 327 0
1918 1917 -327 0
-67 -1918 0
-1919 331 332 0
-1919 -331 -332 0
1919 -331 332 0
1919 331 -332 0
-1920 1919 333 0
-1920 -1919 -333 0
1920 -1919 333 0
1920 1919 -333 0
-1921 1920 335 0
-1921 -1920 -335 0
1921 -1920 335 0
1921 1920 -335 0
-1922 1921 336 0
-1922 -1921 -336 0
1922 -1921 336 0
1922 1921 -336 0
-1923 1922 340 0
-1923 -1922 -340 0
1923 -1922 340 0
1923 1922 -340 0
-1924 1923 342 0
-1924 -1923 -342 0
1924 -1923 342 0
1924 1923 -342 0
-67 -1924 0
-1925 346 347 0
-1925 -346 -347 0
1925 -346 347 0
1925 346 -347 0
-1926 1925 348 0
-1926 -1925 -348 0
1926 -1925 348 0
1926 1925 -348 0
-1927 1926 350 0
-1927 -1926 -350 0
1927 -1926 350 0
1927 1926 -350 0
-1928 1927 351 0
-1928 -1927 -351 0
1928 -1927 351 0
1928 1927 -351 0
-1929 1928 355 0
-1929 -1928 -355 0
1929 -1928 355 0
1929 1928 -355 0
-1930 1929 357 0
-1930 -1929 -357 0
1930 -1929 357 0
1930 1929 -357 0
-67 -1930 0
-1931 361 362 0
-1931 -361 -362 0
1931 -361 362 0
1931 361 -362 0
-1932 1931 363 0
-1932 -1931 -363 0
1932 -1931 363 0
1932 1931 -363 0
-1933 1932 365 0
-1933 -1932 -365 0
1933 -1932 365 0
1933 1932 -365 0
-1934 1933 366 0
-1934 -1933 -366 0
1934 -1933 366 0
1934 1933 -366 0
-1935 1934 370 0
-1935 -1934 -370 0
1935 -1934 370 0
1935 1934 -370 0
-1936 1935 372 0
-1936 -1935 -372 0
1936 -1935 372 0
1936 1935 -372 0
-67 -1936 0
-1937 376 377 0
-1937 -376 -377 0
1937 -376 377 0
1937 376 -377 0
-1938 1937 378 0
-1938 -1937 -378 0
1938 -1937 378 0
1938 1937 -378 0
-1939 1938 380 0
-1939 -1938 -380 0
1939 -1938 380 0
1939 1938 -380 0
-1940 1939 381 0
-1940 -1939 -381 0
1940 -1939 381 0
1940 1939 -381 0
-1941 1940 385 0
-1941 -1940 -385 0
1941 -1940 385 0
1941 1940 -385 0
-1942 1941 387 0
-1942 -1941 -387 0
1942 -1941 387 0
1942 1941 -387 0
-67 -1942 0
-1943 319 320 0
-1943 -319 -320 0
1943 -319 320 0
1943 319 -320 0
-1944 1943 326 0
-1944 -1943 -326 0
1944 -1943 326 0
1944 1943 -326 0
-1945 1944 327 0
-1945 -1944 -327 0
1945 -1944 327 0
1945 1944 -327 0
-68 -1945 0
-1946 334 335 0
-1946 -334 -335 0
1946 -334 335 0
1946 334 -335 0
-1947 1946 341 0
-1947 -1946 -341 0
1947 -1946 341 0
1947 1946 -341 0
-1948 1947 342 0
-1948 -1947 -342 0
1948 -1947 342 0
1948 1947 -342 0
-68 -1948 0
-1949 349 350 0
-1949 -349 -350 0
1949 -349 350 0
1949 349 -350 0
-1950 1949 356 0
-1950 -1949 -356 0
1950 -1949 356 0
1950 1949 -356 0
-1951 1950 357 0
-1951 -1950 -357 0
1951 -1950 357 0
1951 1950 -357 0
-68 -1951 0
-1952 364 365 0
-1952 -364 -365 0
1952 -364 365 0
1952 364 -365 0
-1953 1952 371 0
-1953 -1952 -371 0
1953 -1952 371 0
1953 1952 -371 0
-1954 1953 372 0
-1954 -1953 -372 0
1954 -1953 372 0
1954 1953 -372 0
-68 -1954 0
-1955 379 380 0
-1955 -379 -380 0
1955 -379 380 0
1955 379 -380 0
-1956 1955 386 0
-1956 -1955 -386 0
1956 -1955 386 0
1956 1955 -386 0
-1957 1956 387 0
-1957 -1956 -387 0
1957 -1956 387 0
1957 1956 -387 0
-68 -1957 0
-1958 317 319 0
-1958 -317 -319 0
1958 -317 319 0
1958 317 -319 0
-1959 1958 320 0
-1959 -1958 -320 0
1959 -1958 320 0
1959 1958 -320 0
-1960 1959 326 0
-1960 -1959 -326 0
1960 -1959 326 0
1960 1959 -326 0
-1961 1960 327 0
-1961 -1960 -327 0
1961 -1960 327 0
1961 1960 -327 0
-69 -1961 0
-1962 332 334 0
-1962 -332 -334 0
1962 -332 334 0
1962 332 -334 0
-1963 1962 335 0
-1963 -1962 -335 0
1963 -1962 335 0
1963 1962 -335 0
-1964 1963 341 0
-1964 -1963 -341 0
1964 -1963 341 0
1964 1963 -341 0
-1965 1964 342 0
-1965 -1964 -342 0
1965 -1964 342 0
1965 1964 -342 0
-69 -1965 0
-1966 347 349 0
-1966 -347 -349 0
1966 -347 349 0
1966 347 -349 0
-1967 1966 350 0
-1967 -1966 -350 0
1967 -1966 350 0
1967 1966 -350 0
-1968 1967 356 0
-1968 -1967 -356 0
1968 -1967 356 0
1968 1967 -356 0
-1969 1968 357 0
-1969 -1968 -357 0
1969 -1968 357 0
1969 1968 -357 0
-69 -1969 0
-1970 362 364 0
-1970 -362 -364 0
1970 -362 364 0
1970 362 -364 0
-1971 1970 365 0
-1971 -1970 -365 0
1971 -1970 365 0
1971 1970 -365 0
-1972 1971 371 0
-1972 -1971 -371 0
1972 -1971 371 0
1972 1971 -371 0
-1973 1972 372 0
-1973 -1972 -372 0
1973 -1972 372 0
1973 1972 -372 0
-69 -1973 0
-1974 377 379 0
-1974 -377 -379 0
1974 -377 379 0
1974 377 -379 0
-1975 1974 380 0
-1975 -1974 -380 0
1975 -1974 380 0
1975 1974 -380 0
-1976 1975 386 0
-1976 -1975 -386 0
1976 -1975 386 0
1976 1975 -386 0
-1977 1976 387 0
-1977 -1976 -387 0
1977 -1976 387 0
1977 1976 -387 0
-69 -1977 0
-1978 316 318 0
-1978 -316 -318 0
1978 -316 318 0
1978 316 -318 0
-1979 1978 319 0
-1979 -1978 -319 0
1979 -1978 319 0
1979 1978 -319 0
-1980 1979 320 0
-1980 -1979 -320 0
1980 -1979 320 0
1980 1979 -320 0
-1981 1980 321 0
-1981 -1980 -321 0
1981 -1980 321 0
1981 1980 -321 0
-1982 1981 325 0
-1982 -1981 -325 0
1982 -1981 325 0
1982 1981 -325 0
-1983 1982 326 0
-1983 -1982 -326 0
1983 -1982 326 0
1983 1982 -326 0
-1984 1983 327 0
-1984 -1983 -327 0
1984 -1983 327 0
1984 1983 -327 0
-70 -1984 0
-1985 331 333 0
-1985 -331 -333 0
1985 -331 333 0
1985 331 -333 0
-1986 1985 334 0
-1986 -1985 -334 0
1986 -1985 334 0
1986 1985 -334 0
-1987 1986 335 0
-1987 -1986 -335 0
1987 -1986 335 0
1987 1986 -335 0
-1988 1987 336 0
-1988 -1987 -336 0
1988 -1987 336 0
1988 1987 -336 0
-1989 1988 340 0
-1989 -1988 -340 0
1989 -1988 340 0
1989 1988 -340 0
-1990 1989 341 0
-1990 -1989 -341 0
1990 -1989 341 0
1990 1989 -341 0
-1991 1990 342 0
-1991 -1990 -342 0
1991 -1990 342 0
1991 1990 -342 0
-70 -1991 0
-1992 346 348 0
-1992 -346 -348 0
1992 -346 348 0
1992 346 -348 0
-1993 1992 349 0
-1993 -1992 -349 0
1993 -1992 349 0
1993 1992 -349 0
-1994 1993 350 0
-1994 -1993 -350 0
1994 -1993 350 0
1994 1993 -350 0
-1995 1994 351 0
-1995 -1994 -351 0
1995 -1994 351 0
1995 1994 -351 0
-1996 1995 355 0
-1996 -1995 -355 0
1996 -1995 355 0
1996 1995 -355 0
-1997 1996 356 0
-1997 -1996 -356 0
1997 -1996 356 0
1997 1996 -356 0
-1998 1997 357 0
-1998 -1997 -357 0
1998 -1997 357 0
1998 1997 -357 0
-70 -1998 0
-1999 361 363 0
-1999 -361 -363 0
1999 -361 363 0
1999 361 -363 0
-2000 1999 364 0
-2000 -1999 -364 0
2000 -1999 364 0
2000 1999 -364 0
-2001 2000 365 0
-2001 -2000 -365 0
2001 -2000 365 0
2001 2000 -365 0
-2002 2001 366 0
-2002 -2001 -366 0
2002 -2001 366 0
2002 2001 -366 0
-2003 2002 370 0
-2003 -2002 -370 0
2003 -2002 370 0
2003 2002 -370 0
-2004 2003 371 0
-2004 -2003 -371 0
2004 -2003 371 0
2004 2003 -371 0
-2005 2004 372 0
-2005 -2004 -372 0
2005 -2004 372 0
2005 2004 -372 0
-70 -2005 0
-2006 376 378 0
-2006 -376 -378 0
2006 -376 378 0
2006 376 -378 0
-2007 2006 379 0
-2007 -2006 -379 0
2007 -2006 379 0
2007 2006 -379 0
-2008 2007 380 0
-2008 -2007 -380 0
2008 -2007 380 0
2008 2007 -380 0
-2009 2008 381 0
-2009 -2008 -381 0
2009 -2008 381 0
2009 2008 -381 0
-2010 2009 385 0
-2010 -2009 -385 0
2010 -2009 385 0
2010 2009 -385 0
-2011 2010 386 0
-2011 -2010 -386 0
2011 -2010 386 0
2011 2010 -386 0
-2012 2011 387 0
-2012 -2011 -387 0
2012 -2011 387 0
2012 2011 -387 0
-70 -2012 0
-2013 316 317 0
-2013 -316 -317 0
2013 -316 317 0
2013 316 -317 0
-2014 2013 318 0
-2014 -2013 -318 0
2014 -2013 318 0
2014 2013 -318 0
-2015 2014 319 0
-2015 -2014 -319 0
2015 -2014 319 0
2015 2014 -319 0
-2016 2015 320 0
-2016 -2015 -320 0
2016 -2015 320 0
2016 2015 -320 0
-2017 2016 321 0
-2017 -2016 -321 0
2017 -2016 321 0
2017 2016 -321 0
-2018 2017 325 0
-2018 -2017 -325 0
2018 -2017 325 0
2018 2017 -325 0
-2019 2018 326 0
-2019 -2018 -326 0
2019 -2018 326 0
2019 2018 -326 0
-2020 2019 327 0
-2020 -2019 -327 0
2020 -2019 327 0
2020 2019 -327 0
-71 -2020 0
-2021 331 332 0
-2021 -331 -332 0
2021 -331 332 0
2021 331 -332 0
-2022 2021 333 0
-2022 -2021 -333 0
2022 -2021 333 0
2022 2021 -333 0
-2023 2022 334 0
-2023 -2022 -334 0
2023 -2022 334 0
2023 2022 -334 0
-2024 2023 335 0
-2024 -2023 -335 0
2024 -2023 335 0
2024 2023 -335 0
-2025 2024 336 0
-2025 -2024 -336 0
2025 -2024 336 0
2025 2024 -336 0
-2026 2025 340 0
-2026 -2025 -340 0
2026 -2025 340 0
2026 2025 -340 0
-2027 2026 341 0
-2027 -2026 -341 0
2027 -2026 341 0
2027 2026 -341 0
-2028 2027 342 0
-2028 -2027 -342 0
2028 -2027 342 0
2028 2027 -342 0
-71 -2028 0
-2029 346 347 0
-2029 -346 -347 0
2029 -346 347 0
2029 346 -347 0
-2030 2029 348 0
-2030 -2029 -348 0
2030 -2029 348 0
2030 2029 -348 0
-2031 2030 349 0
-2031 -2030 -349 0
2031 -2030 349 0
2031 2030 -349 0
-2032 2031 350 0
-2032 -2031 -350 0
2032 -2031 350 0
2032 2031 -350 0
-2033 2032 351 0
-2033 -2032 -351 0
2033 -2032 351 0
2033 2032 -351 0
-2034 2033 355 0
-2034 -2033 -355 0
2034 -2033 355 0
2034 2033 -355 0
-2035 2034 356 0
-2035 -2034 -356 0
2035 -2034 356 0
2035 2034 -356 0
-2036 2035 357 0
-2036 -2035 -357 0
2036 -2035 357 0
2036 2035 -357 0
-71 -2036 0
-2037 361 362 0
-2037 -361 -362 0
2037 -361 362 0
2037 361 -362 0
-2038 2037 363 0
-2038 -2037 -363 0
2038 -2037 363 0
2038 2037 -363 0
-2039 2038 364 0
-2039 -2038 -364 0
2039 -2038 364 0
2039 2038 -364 0
-2040 2039 365 0
-2040 -2039 -365 0
2040 -2039 365 0
2040 2039 -365 0
-2041 2040 366 0
-2041 -2040 -366 0
2041 -2040 366 0
2041 2040 -366 0
-2042 2041 370 0
-2042 -2041 -370 0
2042 -2041 370 0
2042 2041 -370 0
-2043 2042 371 0
-2043 -2042 -371 0
2043 -2042 371 0
2043 2042 -371 0
-2044 2043 372 0
-2044 -2043 -372 0
2044 -2043 372 0
2044 2043 -372 0
-71 -2044 0
-2045 376 377 0
-2045 -376 -377 0
2045 -376 377 0
2045 376 -377 0
-2046 2045 378 0
-2046 -2045 -378 0
2046 -2045 378 0
2046 2045 -378 0
-2047 2046 379 0
-2047 -2046 -379 0
2047 -2046 379 0
2047 2046 -379 0
-2048 2047 380 0
-2048 -2047 -380 0
2048 -2047 380 0
2048 2047 -380 0
-2049 2048 381 0
-2049 -2048 -381 0
2049 -2048 381 0
2049 2048 -381 0
-2050 2049 385 0
-2050 -2049 -385 0
2050 -2049 385 0
2050 2049 -385 0
-2051 2050 386 0
-2051 -2050 -386 0
2051 -2050 386 0
2051 2050 -386 0
-2052 2051 387 0
-2052 -2051 -387 0
2052 -2051 387 0
2052 2051 -387 0
-71 -2052 0
-2053 316 317 0
-2053 -316 -317 0
2053 -316 317 0
2053 316 -317 0
-2054 2053 322 0
-2054 -2053 -322 0
2054 -2053 322 0
2054 2053 -322 0
-2055 2054 325 0
-2055 -2054 -325 0
2055 -2054 325 0
2055 2054 -325 0
-72 -2055 0
-2056 331 332 0
-2056 -331 -332 0
2056 -331 332 0
2056 331 -332 0
-2057 2056 337 0
-2057 -2056 -337 0
2057 -2056 337 0
2057 2056 -337 0
-2058 2057 340 0
-2058 -2057 -340 0
2058 -2057 340 0
2058 2057 -340 0
-72 -2058 0
-2059 346 347 0
-2059 -346 -347 0
2059 -346 347 0
2059 346 -347 0
-2060 2059 352 0
-2060 -2059 -352 0
2060 -2059 352 0
2060 2059 -352 0
-2061 2060 355 0
-2061 -2060 -355 0
2061 -2060 355 0
2061 2060 -355 0
-72 -2061 0
-2062 361 362 0
-2062 -361 -362 0
2062 -361 362 0
2062 361 -362 0
-2063 2062 367 0
-2063 -2062 -367 0
2063 -2062 367 0
2063 2062 -367 0
-2064 2063 370 0
-2064 -2063 -370 0
2064 -2063 370 0
2064 2063 -370 0
-72 -2064 0
-2065 376 377 0
-2065 -376 -377 0
2065 -376 377 0
2065 376 -377 0
-2066 2065 382 0
-2066 -2065 -382 0
2066 -2065 382 0
2066 2065 -382 0
-2067 2066 385 0
-2067 -2066 -385 0
2067 -2066 385 0
2067 2066 -385 0
-72 -2067 0
-2068 316 317 0
-2068 -316 -317 0
2068 -316 317 0
2068 316 -317 0
-2069 2068 321 0
-2069 -2068 -321 0
2069 -2068 321 0
2069 2068 -321 0
-2070 2069 322 0
-2070 -2069 -322 0
2070 -2069 322 0
2070 2069 -322 0
-2071 2070 325 0
-2071 -2070 -325 0
2071 -2070 325 0
2071 2070 -325 0
-73 -2071 0
-2072 331 332 0
-2072 -331 -332 0
2072 -331 332 0
2072 331 -332 0
-2073 2072 336 0
-2073 -2072 -336 0
2073 -2072 336 0
2073 2072 -336 0
-2074 2073 337 0
-2074 -2073 -337 0
2074 -2073 337 0
2074 2073 -337 0
-2075 2074 340 0
-2075 -2074 -340 0
2075 -2074 340 0
2075 2074 -340 0
-73 -2075 0
-2076 346 347 0
-2076 -346 -347 0
2076 -346 347 0
2076 346 -347 0
-2077 2076 351 0
-2077 -2076 -351 0
2077 -2076 351 0
2077 2076 -351 0
-2078 2077 352 0
-2078 -2077 -352 0
2078 -2077 352 0
2078 2077 -352 0
-2079 2078 355 0
-2079 -2078 -355 0
2079 -2078 355 0
2079 2078 -355 0
-73 -2079 0
-2080 361 362 0
-2080 -361 -362 0
2080 -361 362 0
2080 361 -362 0
-2081 2080 366 0
-2081 -2080 -366 0
2081 -2080 366 0
2081 2080 -366 0
-2082 2081 367 0
-2082 -2081 -367 0
2082 -2081 367 0
2082 2081 -367 0
-2083 2082 370 0
-2083 -2082 -370 0
2083 -2082 370 0
2083 2082 -370 0
-73 -2083 0
-2084 376 377 0
-2084 -376 -377 0
2084 -376 377 0
2084 376 -377 0
-2085 2084 381 0
-2085 -2084 -381 0
2085 -2084 381 0
2085 2084 -381 0
-2086 2085 382 0
-2086 -2085 -382 0
2086 -2085 382 0
2086 2085 -382 0
-2087 2086 385 0
-2087 -2086 -385 0
2087 -2086 385 0
2087 2086 -385 0
-73 -2087 0
-2088 323 326 0
-2088 -323 -326 0
2088 -323 326 0
2088 323 -326 0
-74 -2088 0
-2089 338 341 0
-2089 -338 -341 0
2089 -338 341 0
2089 338 -341 0
-74 -2089 0
-2090 353 356 0
-2090 -353 -356 0
2090 -353 356 0
2090 353 -356 0
-74 -2090 0
-2091 368 371 0
-2091 -368 -371 0
2091 -368 371 0
2091 368 -371 0
-74 -2091 0
-2092 383 386 0
-2092 -383 -386 0
2092 -383 386 0
2092 383 -386 0
-74 -2092 0
-2093 321 323 0
-2093 -321 -323 0
2093 -321 323 0
2093 321 -323 0
-2094 2093 326 0
-2094 -2093 -326 0
2094 -2093 326 0
2094 2093 -326 0
-75 -2094 0
-2095 336 338 0
-2095 -336 -338 0
2095 -336 338 0
2095 336 -338 0
-2096 2095 341 0
-2096 -2095 -341 0
2096 -2095 341 0
2096 2095 -341 0
-75 -2096 0
-2097 351 353 0
-2097 -351 -353 0
2097 -351 353 0
2097 351 -353 0
-2098 2097 356 0
-2098 -2097 -356 0
2098 -2097 356 0
2098 2097 -356 0
-75 -2098 0
-2099 366 368 0
-2099 -366 -368 0
2099 -366 368 0
2099 366 -368 0
-2100 2099 371 0
-2100 -2099 -371 0
2100 -2099 371 0
2100 2099 -371 0
-75 -2100 0
-2101 381 383 0
-2101 -381 -383 0
2101 -381 383 0
2101 381 -383 0
-2102 2101 386 0
-2102 -2101 -386 0
2102 -2101 386 0
2102 2101 -386 0
-75 -2102 0
-2103 316 317 0
-2103 -316 -317 0
2103 -316 317 0
2103 316 -317 0
-2104 2103 322 0
-2104 -2103 -322 0
2104 -2103 322 0
2104 2103 -322 0
-2105 2104 323 0
-2105 -2104 -323 0
2105 -2104 323 0
2105 2104 -323 0
-2106 2105 325 0
-2106 -2105 -325 0
2106 -2105 325 0
2106 2105 -325 0
-2107 2106 326 0
-2107 -2106 -326 0
2107 -2106 326 0
2107 2106 -326 0
-76 -2107 0
-2108 331 332 0
-2108 -331 -332 0
2108 -331 332 0
2108 331 -332 0
-2109 2108 337 0
-2109 -2108 -337 0
2109 -2108 337 0
2109 2108 -337 0
-2110 2109 338 0
-2110 -2109 -338 0
2110 -2109 338 0
2110 2109 -338 0
-2111 2110 340 0
-2111 -2110 -340 0
2111 -2110 340 0
2111 2110 -340 0
-2112 2111 341 0
-2112 -2111 -341 0
2112 -2111 341 0
2112 2111 -341 0
-76 -2112 0
-2113 346 347 0
-2113 -346 -347 0
2113 -346 347 0
2113 346 -347 0
-2114 2113 352 0
-2114 -2113 -352 0
2114 -2113 352 0
2114 2113 -352 0
-2115 2114 353 0
-2115 -2114 -353 0
2115 -2114 353 0
2115 2114 -353 0
-2116 2115 355 0
-2116 -2115 -355 0
2116 -2115 355 0
2116 2115 -355 0
-2117 2116 356 0
-2117 -2116 -356 0
2117 -2116 356 0
2117 2116 -356 0
-76 -2117 0
-2118 361 362 0
-2118 -361 -362 0
2118 -361 362 0
2118 361 -362 0
-2119 2118 367 0
-2119 -2118 -367 0
2119 -2118 367 0
2119 2118 -367 0
-2120 2119 368 0
-2120 -2119 -368 0
2120 -2119 368 0
2120 2119 -368 0
-2121 2120 370 0
-2121 -2120 -370 0
2121 -2120 370 0
2121 2120 -370 0
-2122 2121 371 0
-2122 -2121 -371 0
2122 -2121 371 0
2122 2121 -371 0
-76 -2122 0
-2123 376 377 0
-2123 -376 -377 0
2123 -376 377 0
2123 376 -377 0
-2124 2123 382 0
-2124 -2123 -382 0
2124 -2123 382 0
2124 2123 -382 0
-2125 2124 383 0
-2125 -2124 -383 0
2125 -2124 383 0
2125 2124 -383 0
-2126 2125 385 0
-2126 -2125 -385 0
2126 -2125 385 0
2126 2125 -385 0
-2127 2126 386 0
-2127 -2126 -386 0
2127 -2126 386 0
2127 2126 -386 0
-76 -2127 0
-2128 316 317 0
-2128 -316 -317 0
2128 -316 317 0
2128 316 -317 0
-2129 2128 321 0
-2129 -2128 -321 0
2129 -2128 321 0
2129 2128 -321 0
-2130 2129 322 0
-2130 -2129 -322 0
2130 -2129 322 0
2130 2129 -322 0
-2131 2130 323 0
-2131 -2130 -323 0
2131 -2130 323 0
2131 2130 -323 0
-2132 2131 325 0
-2132 -2131 -325 0
2132 -2131 325 0
2132 2131 -325 0
-2133 2132 326 0
-2133 -2132 -326 0
2133 -2132 326 0
2133 2132 -326 0
-77 -2133 0
-2134 331 332 0
-2134 -331 -332 0
2134 -331 332 0
2134 331 -332 0
-2135 2134 336 0
-2135 -2134 -336 0
2135 -2134 336 0
2135 2134 -336 0
-2136 2135 337 0
-2136 -2135 -337 0
2136 -2135 337 0
2136 2135 -337 0
-2137 2136 338 0
-2137 -2136 -338 0
2137 -2136 338 0
2137 2136 -338 0
-2138 2137 340 0
-2138 -2137 -340 0
2138 -2137 340 0
2138 2137 -340 0
-2139 2138 341 0
-2139 -2138 -341 0
2139 -2138 341 0
2139 2138 -341 0
-77 -2139 0
-2140 346 347 0
-2140 -346 -347 0
2140 -346 347 0
2140 346 -347 0
-2141 2140 351 0
-2141 -2140 -351 0
2141 -2140 351 0
2141 2140 -351 0
-2142 2141 352 0
-2142 -2141 -352 0
2142 -2141 352 0
2142 2141 -352 0
-2143 2142 353 0
-2143 -2142 -353 0
2143 -2142 353 0
2143 2142 -353 0
-2144 2143 355 0
-2144 -2143 -355 0
2144 -2143 355 0
2144 2143 -355 0
-2145 2144 356 0
-2145 -2144 -356 0
2145 -2144 356 0
2145 2144 -356 0
-77 -2145 0
-2146 361 362 0
-2146 -361 -362 0
2146 -361 362 0
2146 361 -362 0
-2147 2146 366 0
-2147 -2146 -366 0
2147 -2146 366 0
2147 2146 -366 0
-2148 2147 367 0
-2148 -2147 -367 0
2148 -2147 367 0
2148 2147 -367 0
-2149 2148 368 0
-2149 -2148 -368 0
2149 -2148 368 0
2149 2148 -368 0
-2150 2149 370 0
-2150 -2149 -370 0
2150 -2149 370 0
2150 2149 -370 0
-2151 2150 371 0
-2151 -2150 -371 0
2151 -2150 371 0
2151 2150 -371 0
-77 -2151 0
-2152 376 377 0
-2152 -376 -377 0
2152 -376 377 0
2152 376 -377 0
-2153 2152 381 0
-2153 -2152 -381 0
2153 -2152 381 0
2153 2152 -381 0
-2154 2153 382 0
-2154 -2153 -382 0
2154 -2153 382 0
2154 2153 -382 0
-2155 2154 383 0
-2155 -2154 -383 0
2155 -2154 383 0
2155 2154 -383 0
-2156 2155 385 0
-2156 -2155 -385 0
2156 -2155 385 0
2156 2155 -385 0
-2157 2156 386 0
-2157 -2156 -386 0
2157 -2156 386 0
2157 2156 -386 0
-77 -2157 0
-2158 324 327 0
-2158 -324 -327 0
2158 -324 327 0
2158 324 -327 0
-78 -2158 0
-2159 339 342 0
-2159 -339 -342 0
2159 -339 342 0
2159 339 -342 0
-78 -2159 0
-2160 354 357 0
-2160 -354 -357 0
2160 -354 357 0
2160 354 -357 0
-78 -2160 0
-2161 369 372 0
-2161 -369 -372 0
2161 -369 372 0
2161 369 -372 0
-78 -2161 0
-2162 384 387 0
-2162 -384 -387 0
2162 -384 387 0
2162 384 -387 0
-78 -2162 0
-2163 321 324 0
-2163 -321 -324 0
2163 -321 324 0
2163 321 -324 0
-2164 2163 327 0
-2164 -2163 -327 0
2164 -2163 327 0
2164 2163 -327 0
-79 -2164 0
-2165 336 339 0
-2165 -336 -339 0
2165 -336 339 0
2165 336 -339 0
-2166 2165 342 0
-2166 -2165 -342 0
2166 -2165 342 0
2166 2165 -342 0
-79 -2166 0
-2167 351 354 0
-2167 -351 -354 0
2167 -351 354 0
2167 351 -354 0
-2168 2167 357 0
-2168 -2167 -357 0
2168 -2167 357 0
2168 2167 -357 0
-79 -2168 0
-2169 366 369 0
-2169 -366 -369 0
2169 -366 369 0
2169 366 -369 0
-2170 2169 372 0
-2170 -2169 -372 0
2170 -2169 372 0
2170 2169 -372 0
-79 -2170 0
-2171 381 384 0
-2171 -381 -384 0
2171 -381 384 0
2171 381 -384 0
-2172 2171 387 0
-2172 -2171 -387 0
2172 -2171 387 0
2172 2171 -387 0
-79 -2172 0
-2173 316 317 0
-2173 -316 -317 0
2173 -316 317 0
2173 316 -317 0
-2174 2173 322 0
-2174 -2173 -322 0
2174 -2173 322 0
2174 2173 -322 0
-2175 2174 324 0
-2175 -2174 -324 0
2175 -2174 324 0
2175 2174 -324 0
-2176 2175 325 0
-2176 -2175 -325 0
2176 -2175 325 0
2176 2175 -325 0
-2177 2176 327 0
-2177 -2176 -327 0
2177 -2176 327 0
2177 2176 -327 0
-80 -2177 0
-2178 331 332 0
-2178 -331 -332 0
2178 -331 332 0
2178 331 -332 0
-2179 2178 337 0
-2179 -2178 -337 0
2179 -2178 337 0
2179 2178 -337 0
-2180 2179 339 0
-2180 -2179 -339 0
2180 -2179 339 0
2180 2179 -339 0
-2181 2180 340 0
-2181 -2180 -340 0
2181 -2180 340 0
2181 2180 -340 0
-2182 2181 342 0
-2182 -2181 -342 0
2182 -2181 342 0
2182 2181 -342 0
-80 -2182 0
-2183 346 347 0
-2183 -346 -347 0
2183 -346 347 0
2183 346 -347 0
-2184 2183 352 0
-2184 -2183 -352 0
2184 -2183 352 0
2184 2183 -352 0
-2185 2184 354 0
-2185 -2184 -354 0
2185 -2184 354 0
2185 2184 -354 0
-2186 2185 355 0
-2186 -2185 -355 0
2186 -2185 355 0
2186 2185 -355 0
-2187 2186 357 0
-2187 -2186 -357 0
2187 -2186 357 0
2187 2186 -357 0
-80 -2187 0
-2188 361 362 0
-2188 -361 -362 0
2188 -361 362 0
2188 361 -362 0
-2189 2188 367 0
-2189 -2188 -367 0
2189 -2188 367 0
2189 2188 -367 0
-2190 2189 369 0
-2190 -2189 -369 0
2190 -2189 369 0
2190 2189 -369 0
-2191 2190 370 0
-2191 -2190 -370 0
2191 -2190 370 0
2191 2190 -370 0
-2192 2191 372 0
-2192 -2191 -372 0
2192 -2191 372 0
2192 2191 -372 0
-80 -2192 0
-2193 376 377 0
-2193 -376 -377 0
2193 -376 377 0
2193 376 -377 0
-2194 2193 382 0
-2194 -2193 -382 0
2194 -2193 382 0
2194 2193 -382 0
-2195 2194 384 0
-2195 -2194 -384 0
2195 -2194 384 0
2195 2194 -384 0
-2196 2195 385 0
-2196 -2195 -385 0
2196 -2195 385 0
2196 2195 -385 0
-2197 2196 387 0
-2197 -2196 -387 0
2197 -2196 387 0
2197 2196 -387 0
-80 -2197 0
-2198 316 317 0
-2198 -316 -317 0
2198 -316 317 0
2198 316 -317 0
-2199 2198 321 0
-2199 -2198 -321 0
2199 -2198 321 0
2199 2198 -321 0
-2200 2199 322 0
-2200 -2199 -322 0
2200 -2199 322 0
2200 2199 -322 0
-2201 2200 324 0
-2201 -2200 -324 0
2201 -2200 324 0
2201 2200 -324 0
-2202 2201 325 0
-2202 -2201 -325 0
2202 -2201 325 0
2202 2201 -325 0
-2203 2202 327 0
-2203 -2202 -327 0
2203 -2202 327 0
2203 2202 -327 0
-81 -2203 0
-2204 331 332 0
-2204 -331 -332 0
2204 -331 332 0
2204 331 -332 0
-2205 2204 336 0
-2205 -2204 -336 0
2205 -2204 336 0
2205 2204 -336 0
-2206 2205 337 0
-2206 -2205 -337 0
2206 -2205 337 0
2206 2205 -337 0
-2207 2206 339 0
-2207 -2206 -339 0
2207 -2206 339 0
2207 2206 -339 0
-2208 2207 340 0
-2208 -2207 -340 0
2208 -2207 340 0
2208 2207 -340 0
-2209 2208 342 0
-2209 -2208 -342 0
2209 -2208 342 0
2209 2208 -342 0
-81 -2209 0
-2210 346 347 0
-2210 -346 -347 0
2210 -346 347 0
2210 346 -347 0
-2211 2210 351 0
-2211 -2210 -351 0
2211 -2210 351 0
2211 2210 -351 0
-2212 2211 352 0
-2212 -2211 -352 0
2212 -2211 352 0
2212 2211 -352 0
-2213 2212 354 0
-2213 -2212 -354 0
2213 -2212 354 0
2213 2212 -354 0
-2214 2213 355 0
-2214 -2213 -355 0
2214 -2213 355 0
2214 2213 -355 0
-2215 2214 357 0
-2215 -2214 -357 0
2215 -2214 357 0
2215 2214 -357 0
-81 -2215 0
-2216 361 362 0
-2216 -361 -362 0
2216 -361 362 0
2216 361 -362 0
-2217 2216 366 0
-2217 -2216 -366 0
2217 -2216 366 0
2217 2216 -366 0
-2218 2217 367 0
-2218 -2217 -367 0
2218 -2217 367 0
2218 2217 -367 0
-2219 2218 369 0
-2219 -2218 -369 0
2219 -2218 369 0
2219 2218 -369 0
-2220 2219 370 0
-2220 -2219 -370 0
2220 -2219 370 0
2220 2219 -370 0
-2221 2220 372 0
-2221 -2220 -372 0
2221 -2220 372 0
2221 2220 -372 0
-81 -2221 0
-2222 376 377 0
-2222 -376 -377 0
2222 -376 377 0
2222 376 -377 0
-2223 2222 381 0
-2223 -2222 -381 0
2223 -2222 381 0
2223 2222 -381 0
-2224 2223 382 0
-2224 -2223 -382 0
2224 -2223 382 0
2224 2223 -382 0
-2225 2224 384 0
-2225 -2224 -384 0
2225 -2224 384 0
2225 2224 -384 0
-2226 2225 385 0
-2226 -2225 -385 0
2226 -2225 385 0
2226 2225 -385 0
-2227 2226 387 0
-2227 -2226 -387 0
2227 -2226 387 0
2227 2226 -387 0
-81 -2227 0
-2228 323 324 0
-2228 -323 -324 0
2228 -323 324 0
2228 323 -324 0
-2229 2228 326 0
-2229 -2228 -326 0
2229 -2228 326 0
2229 2228 -326 0
-2230 2229 327 0
-2230 -2229 -327 0
2230 -2229 327 0
2230 2229 -327 0
-82 -2230 0
-2231 338 339 0
-2231 -338 -339 0
2231 -338 339 0
2231 338 -339 0
-2232 2231 341 0
-2232 -2231 -341 0
2232 -2231 341 0
2232 2231 -341 0
-2233 2232 342 0
-2233 -2232 -342 0
2233 -2232 342 0
2233 2232 -342 0
-82 -2233 0
-2234 353 354 0
-2234 -353 -354 0
2234 -353 354 0
2234 353 -354 0
-2235 2234 356 0
-2235 -2234 -356 0
2235 -2234 356 0
2235 2234 -356 0
-2236 2235 357 0
-2236 -2235 -357 0
2236 -2235 357 0
2236 2235 -357 0
-82 -2236 0
-2237 368 369 0
-2237 -368 -369 0
2237 -368 369 0
2237 368 -369 0
-2238 2237 371 0
-2238 -2237 -371 0
2238 -2237 371 0
2238 2237 -371 0
-2239 2238 372 0
-2239 -2238 -372 0
2239 -2238 372 0
2239 2238 -372 0
-82 -2239 0
-2240 383 384 0
-2240 -383 -384 0
2240 -383 384 0
2240 383 -384 0
-2241 2240 386 0
-2241 -2240 -386 0
2241 -2240 386 0
2241 2240 -386 0
-2242 2241 387 0
-2242 -2241 -387 0
2242 -2241 387 0
2242 2241 -387 0
-82 -2242 0
-2243 321 323 0
-2243 -321 -323 0
2243 -321 323 0
2243 321 -323 0
-2244 2243 324 0
-2244 -2243 -324 0
2244 -2243 324 0
2244 2243 -324 0
-2245 2244 326 0
-2245 -2244 -326 0
2245 -2244 326 0
2245 2244 -326 0
-2246 2245 327 0
-2246 -2245 -327 0
2246 -2245 327 0
2246 2245 -327 0
-83 -2246 0
-2247 336 338 0
-2247 -336 -338 0
2247 -336 338 0
2247 336 -338 0
-2248 2247 339 0
-2248 -2247 -339 0
2248 -2247 339 0
2248 2247 -339 0
-2249 2248 341 0
-2249 -2248 -341 0
2249 -2248 341 0
2249 2248 -341 0
-2250 2249 342 0
-2250 -2249 -342 0
2250 -2249 342 0
2250 2249 -342 0
-83 -2250 0
-2251 351 353 0
-2251 -351 -353 0
2251 -351 353 0
2251 351 -353 0
-2252 2251 354 0
-2252 -2251 -354 0
2252 -2251 354 0
2252 2251 -354 0
-2253 2252 356 0
-2253 -2252 -356 0
2253 -2252 356 0
2253 2252 -356 0
-2254 2253 357 0
-2254 -2253 -357 0
2254 -2253 357 0
2254 2253 -357 0
-83 -2254 0
-2255 366 368 0
-2255 -366 -368 0
2255 -366 368 0
2255 366 -368 0
-2256 2255 369 0
-2256 -2255 -369 0
2256 -2255 369 0
2256 2255 -369 0
-2257 2256 371 0
-2257 -2256 -371 0
2257 -2256 371 0
2257 2256 -371 0
-2258 2257 372 0
-2258 -2257 -372 0
2258 -2257 372 0
2258 2257 -372 0
-83 -2258 0
-2259 381 383 0
-2259 -381 -383 0
2259 -381 383 0
2259 381 -383 0
-2260 2259 384 0
-2260 -2259 -384 0
2260 -2259 384 0
2260 2259 -384 0
-2261 2260 386 0
-2261 -2260 -386 0
2261 -2260 386 0
2261 2260 -386 0
-2262 2261 387 0
-2262 -2261 -387 0
2262 -2261 387 0
2262 2261 -387 0
-83 -2262 0
-2263 316 317 0
-2263 -316 -317 0
2263 -316 317 0
2263 316 -317 0
-2264 2263 322 0
-2264 -2263 -322 0
2264 -2263 322 0
2264 2263 -322 0
-2265 2264 323 0
-2265 -2264 -323 0
2265 -2264 323 0
2265 2264 -323 0
-2266 2265 324 0
-2266 -2265 -324 0
2266 -2265 324 0
2266 2265 -324 0
-2267 2266 325 0
-2267 -2266 -325 0
2267 -2266 325 0
2267 2266 -325 0
-2268 2267 326 0
-2268 -2267 -326 0
2268 -2267 326 0
2268 2267 -326 0
-2269 2268 327 0
-2269 -2268 -327 0
2269 -2268 327 0
2269 2268 -327 0
-84 -2269 0
-2270 331 332 0
-2270 -331 -332 0
2270 -331 332 0
2270 331 -332 0
-2271 2270 337 0
-2271 -2270 -337 0
2271 -2270 337 0
2271 2270 -337 0
-2272 2271 338 0
-2272 -2271 -338 0
2272 -2271 338 0
2272 2271 -338 0
-2273 2272 339 0
-2273 -2272 -339 0
2273 -2272 339 0
2273 2272 -339 0
-2274 2273 340 0
-2274 -2273 -340 0
2274 -2273 340 0
2274 2273 -340 0
-2275 2274 341 0
-2275 -2274 -341 0
2275 -2274 341 0
2275 2274 -341 0
-2276 2275 342 0
-2276 -2275 -342 0
2276 -2275 342 0
2276 2275 -342 0
-84 -2276 0
-2277 346 347 0
-2277 -346 -347 0
2277 -346 347 0
2277 346 -347 0
-2278 2277 352 0
-2278 -2277 -352 0
2278 -2277 352 0
2278 2277 -352 0
-2279 2278 353 0
-2279 -2278 -353 0
2279 -2278 353 0
2279 2278 -353 0
-2280 2279 354 0
-2280 -2279 -354 0
2280 -2279 354 0
2280 2279 -354 0
-2281 2280 355 0
-2281 -2280 -355 0
2281 -2280 355 0
2281 2280 -355 0
-2282 2281 356 0
-2282 -2281 -356 0
2282 -2281 356 0
2282 2281 -356 0
-2283 2282 357 0
-2283 -2282 -357 0
2283 -2282 357 0
2283 2282 -357 0
-84 -2283 0
-2284 361 362 0
-2284 -361 -362 0
2284 -361 362 0
2284 361 -362 0
-2285 2284 367 0
-2285 -2284 -367 0
2285 -2284 367 0
2285 2284 -367 0
-2286 2285 368 0
-2286 -2285 -368 0
2286 -2285 368 0
2286 2285 -368 0
-2287 2286 369 0
-2287 -2286 -369 0
2287 -2286 369 0
2287 2286 -369 0
-2288 2287 370 0
-2288 -2287 -370 0
2288 -2287 370 0
2288 2287 -370 0
-2289 2288 371 0
-2289 -2288 -371 0
2289 -2288 371 0
2289 2288 -371 0
-2290 2289 372 0
-2290 -2289 -372 0
2290 -2289 372 0
2290 2289 -372 0
-84 -2290 0
-2291 376 377 0
-2291 -376 -377 0
2291 -376 377 0
2291 376 -377 0
-2292 2291 382 0
-2292 -2291 -382 0
2292 -2291 382 0
2292 2291 -382 0
-2293 2292 383 0
-2293 -2292 -383 0
2293 -2292 383 0
2293 2292 -383 0
-2294 2293 384 0
-2294 -2293 -384 0
2294 -2293 384 0
2294 2293 -384 0
-2295 2294 385 0
-2295 -2294 -385 0
2295 -2294 385 0
2295 2294 -385 0
-2296 2295 386 0
-2296 -2295 -386 0
2296 -2295 386 0
2296 2295 -386 0
-2297 2296 387 0
-2297 -2296 -387 0
2297 -2296 387 0
2297 2296 -387 0
-84 -2297 0
-2298 316 317 0
-2298 -316 -317 0
2298 -316 317 0
2298 316 -317 0
-2299 2298 321 0
-2299 -2298 -321 0
2299 -2298 321 0
2299 2298 -321 0
-2300 2299 322 0
-2300 -2299 -322 0
2300 -2299 322 0
2300 2299 -322 0
-2301 2300 323 0
-2301 -2300 -323 0
2301 -2300 323 0
2301 2300 -323 0
-2302 2301 324 0
-2302 -2301 -324 0
2302 -2301 324 0
2302 2301 -324 0
-2303 2302 325 0
-2303 -2302 -325 0
2303 -2302 325 0
2303 2302 -325 0
-2304 2303 326 0
-2304 -2303 -326 0
2304 -2303 326 0
2304 2303 -326 0
-2305 2304 327 0
-2305 -2304 -327 0
2305 -2304 327 0
2305 2304 -327 0
-85 -2305 0
-2306 331 332 0
-2306 -331 -332 0
2306 -331 332 0
2306 331 -332 0
-2307 2306 336 0
-2307 -2306 -336 0
2307 -2306 336 0
2307 2306 -336 0
-2308 2307 337 0
-2308 -2307 -337 0
2308 -2307 337 0
2308 2307 -337 0
-2309 2308 338 0
-2309 -2308 -338 0
2309 -2308 338 0
2309 2308 -338 0
-2310 2309 339 0
-2310 -2309 -339 0
2310 -2309 339 0
2310 2309 -339 0
-2311 2310 340 0
-2311 -2310 -340 0
2311 -2310 340 0
2311 2310 -340 0
-2312 2311 341 0
-2312 -2311 -341 0
2312 -2311 341 0
2312 2311 -341 0
-2313 2312 342 0
-2313 -2312 -342 0
2313 -2312 342 0
2313 2312 -342 0
-85 -2313 0
-2314 346 347 0
-2314 -346 -347 0
2314 -346 347 0
2314 346 -347 0
-2315 2314 351 0
-2315 -2314 -351 0
2315 -2314 351 0
2315 2314 -351 0
-2316 2315 352 0
-2316 -2315 -352 0
2316 -2315 352 0
2316 2315 -352 0
-2317 2316 353 0
-2317 -2316 -353 0
2317 -2316 353 0
2317 2316 -353 0
-2318 2317 354 0
-2318 -2317 -354 0
2318 -2317 354 0
2318 2317 -354 0
-2319 2318 355 0
-2319 -2318 -355 0
2319 -2318 355 0
2319 2318 -355 0
-2320 2319 356 0
-2320 -2319 -356 0
2320 -2319 356 0
2320 2319 -356 0
-2321 2320 357 0
-2321 -2320 -357 0
2321 -2320 357 0
2321 2320 -357 0
-85 -2321 0
-2322 361 362 0
-2322 -361 -362 0
2322 -361 362 0
2322 361 -362 0
-2323 2322 366 0
-2323 -2322 -366 0
2323 -2322 366 0
2323 2322 -366 0
-2324 2323 367 0
-2324 -2323 -367 0
2324 -2323 367 0
2324 2323 -367 0
-2325 2324 368 0
-2325 -2324 -368 0
2325 -2324 368 0
2325 2324 -368 0
-2326 2325 369 0
-2326 -2325 -369 0
2326 -2325 369 0
2326 2325 -369 0
-2327 2326 370 0
-2327 -2326 -370 0
2327 -2326 370 0
2327 2326 -370 0
-2328 2327 371 0
-2328 -2327 -371 0
2328 -2327 371 0
2328 2327 -371 0
-2329 2328 372 0
-2329 -2328 -372 0
2329 -2328 372 0
2329 2328 -372 0
-85 -2329 0
-2330 376 377 0
-2330 -376 -377 0
2330 -376 377 0
2330 376 -377 0
-2331 2330 381 0
-2331 -2330 -381 0
2331 -2330 381 0
2331 2330 -381 0
-2332 2331 382 0
-2332 -2331 -382 0
2332 -2331 382 0
2332 2331 -382 0
-2333 2332 383 0
-2333 -2332 -383 0
2333 -2332 383 0
2333 2332 -383 0
-2334 2333 384 0
-2334 -2333 -384 0
2334 -2333 384 0
2334 2333 -384 0
-2335 2334 385 0
-2335 -2334 -385 0
2335 -2334 385 0
2335 2334 -385 0
-2336 2335 386 0
-2336 -2335 -386 0
2336 -2335 386 0
2336 2335 -386 0
-2337 2336 387 0
-2337 -2336 -387 0
2337 -2336 387 0
2337 2336 -387 0
-85 -2337 0
-2338 316 317 0
-2338 -316 -317 0
2338 -316 317 0
2338 316 -317 0
-2339 2338 318 0
-2339 -2338 -318 0
2339 -2338 318 0
2339 2338 -318 0
-2340 2339 322 0
-2340 -2339 -322 0
2340 -2339 322 0
2340 2339 -322 0
-2341 2340 325 0
-2341 -2340 -325 0
2341 -2340 325 0
2341 2340 -325 0
-86 -2341 0
-2342 331 332 0
-2342 -331 -332 0
2342 -331 332 0
2342 331 -332 0
-2343 2342 333 0
-2343 -2342 -333 0
2343 -2342 333 0
2343 2342 -333 0
-2344 2343 337 0
-2344 -2343 -337 0
2344 -2343 337 0
2344 2343 -337 0
-2345 2344 340 0
-2345 -2344 -340 0
2345 -2344 340 0
2345 2344 -340 0
-86 -2345 0
-2346 346 347 0
-2346 -346 -347 0
2346 -346 347 0
2346 346 -347 0
-2347 2346 348 0
-2347 -2346 -348 0
2347 -2346 348 0
2347 2346 -348 0
-2348 2347 352 0
-2348 -2347 -352 0
2348 -2347 352 0
2348 2347 -352 0
-2349 2348 355 0
-2349 -2348 -355 0
2349 -2348 355 0
2349 2348 -355 0
-86 -2349 0
-2350 361 362 0
-2350 -361 -362 0
2350 -361 362 0
2350 361 -362 0
-2351 2350 363 0
-2351 -2350 -363 0
2351 -2350 363 0
2351 2350 -363 0
-2352 2351 367 0
-2352 -2351 -367 0
2352 -2351 367 0
2352 2351 -367 0
-2353 2352 370 0
-2353 -2352 -370 0
2353 -2352 370 0
2353 2352 -370 0
-86 -2353 0
-2354 376 377 0
-2354 -376 -377 0
2354 -376 377 0
2354 376 -377 0
-2355 2354 378 0
-2355 -2354 -378 0
2355 -2354 378 0
2355 2354 -378 0
-2356 2355 382 0
-2356 -2355 -382 0
2356 -2355 382 0
2356 2355 -382 0
-2357 2356 385 0
-2357 -2356 -385 0
2357 -2356 385 0
2357 2356 -385 0
-86 -2357 0
-2358 316 318 0
-2358 -316 -318 0
2358 -316 318 0
2358 316 -318 0
-2359 2358 321 0
-2359 -2358 -321 0
2359 -2358 321 0
2359 2358 -321 0
-2360 2359 322 0
-2360 -2359 -322 0
2360 -2359 322 0
2360 2359 -322 0
-2361 2360 325 0
-2361 -2360 -325 0
2361 -2360 325 0
2361 2360 -325 0
-87 -2361 0
-2362 331 333 0
-2362 -331 -333 0
2362 -331 333 0
2362 331 -333 0
-2363 2362 336 0
-2363 -2362 -336 0
2363 -2362 336 0
2363 2362 -336 0
-2364 2363 337 0
-2364 -2363 -337 0
2364 -2363 337 0
2364 2363 -337 0
-2365 2364 340 0
-2365 -2364 -340 0
2365 -2364 340 0
2365 2364 -340 0
-87 -2365 0
-2366 346 348 0
-2366 -346 -348 0
2366 -346 348 0
2366 346 -348 0
-2367 2366 351 0
-2367 -2366 -351 0
2367 -2366 351 0
2367 2366 -351 0
-2368 2367 352 0
-2368 -2367 -352 0
2368 -2367 352 0
2368 2367 -352 0
-2369 2368 355 0
-2369 -2368 -355 0
2369 -2368 355 0
2369 2368 -355 0
-87 -2369 0
-2370 361 363 0
-2370 -361 -363 0
2370 -361 363 0
2370 361 -363 0
-2371 2370 366 0
-2371 -2370 -366 0
2371 -2370 366 0
2371 2370 -366 0
-2372 2371 367 0
-2372 -2371 -367 0
2372 -2371 367 0
2372 2371 -367 0
-2373 2372 370 0
-2373 -2372 -370 0
2373 -2372 370 0
2373 2372 -370 0
-87 -2373 0
-2374 376 378 0
-2374 -376 -378 0
2374 -376 378 0
2374 376 -378 0
-2375 2374 381 0
-2375 -2374 -381 0
2375 -2374 381 0
2375 2374 -381 0
-2376 2375 382 0
-2376 -2375 -382 0
2376 -2375 382 0
2376 2375 -382 0
-2377 2376 385 0
-2377 -2376 -385 0
2377 -2376 385 0
2377 2376 -385 0
-87 -2377 0
-2378 319 323 0
-2378 -319 -323 0
2378 -319 323 0
2378 319 -323 0
-2379 2378 326 0
-2379 -2378 -326 0
2379 -2378 326 0
2379 2378 -326 0
-88 -2379 0
-2380 334 338 0
-2380 -334 -338 0
2380 -334 338 0
2380 334 -338 0
-2381 2380 341 0
-2381 -2380 -341 0
2381 -2380 341 0
2381 2380 -341 0
-88 -2381 0
-2382 349 353 0
-2382 -349 -353 0
2382 -349 353 0
2382 349 -353 0
-2383 2382 356 0
-2383 -2382 -356 0
2383 -2382 356 0
2383 2382 -356 0
-88 -2383 0
-2384 364 368 0
-2384 -364 -368 0
2384 -364 368 0
2384 364 -368 0
-2385 2384 371 0
-2385 -2384 -371 0
2385 -2384 371 0
2385 2384 -371 0
-88 -2385 0
-2386 379 383 0
-2386 -379 -383 0
2386 -379 383 0
2386 379 -383 0
-2387 2386 386 0
-2387 -2386 -386 0
2387 -2386 386 0
2387 2386 -386 0
-88 -2387 0
-2388 317 319 0
-2388 -317 -319 0
2388 -317 319 0
2388 317 -319 0
-2389 2388 321 0
-2389 -2388 -321 0
2389 -2388 321 0
2389 2388 -321 0
-2390 2389 323 0
-2390 -2389 -323 0
2390 -2389 323 0
2390 2389 -323 0
-2391 2390 326 0
-2391 -2390 -326 0
2391 -2390 326 0
2391 2390 -326 0
-89 -2391 0
-2392 332 334 0
-2392 -332 -334 0
2392 -332 334 0
2392 332 -334 0
-2393 2392 336 0
-2393 -2392 -336 0
2393 -2392 336 0
2393 2392 -336 0
-2394 2393 338 0
-2394 -2393 -338 0
2394 -2393 338 0
2394 2393 -338 0
-2395 2394 341 0
-2395 -2394 -341 0
2395 -2394 341 0
2395 2394 -341 0
-89 -2395 0
-2396 347 349 0
-2396 -347 -349 0
2396 -347 349 0
2396 347 -349 0
-2397 2396 351 0
-2397 -2396 -351 0
2397 -2396 351 0
2397 2396 -351 0
-2398 2397 353 0
-2398 -2397 -353 0
2398 -2397 353 0
2398 2397 -353 0
-2399 2398 356 0
-2399 -2398 -356 0
2399 -2398 356 0
2399 2398 -356 0
-89 -2399 0
-2400 362 364 0
-2400 -362 -364 0
2400 -362 364 0
2400 362 -364 0
-2401 2400 366 0
-2401 -2400 -366 0
2401 -2400 366 0
2401 2400 -366 0
-2402 2401 368 0
-2402 -2401 -368 0
2402 -2401 368 0
2402 2401 -368 0
-2403 2402 371 0
-2403 -2402 -371 0
2403 -2402 371 0
2403 2402 -371 0
-89 -2403 0
-2404 377 379 0
-2404 -377 -379 0
2404 -377 379 0
2404 377 -379 0
-2405 2404 381 0
-2405 -2404 -381 0
2405 -2404 381 0
2405 2404 -381 0
-2406 2405 383 0
-2406 -2405 -383 0
2406 -2405 383 0
2406 2405 -383 0
-2407 2406 386 0
-2407 -2406 -386 0
2407 -2406 386 0
2407 2406 -386 0
-89 -2407 0
-2408 316 317 0
-2408 -316 -317 0
2408 -316 317 0
2408 316 -317 0
-2409 2408 318 0
-2409 -2408 -318 0
2409 -2408 318 0
2409 2408 -318 0
-2410 2409 319 0
-2410 -2409 -319 0
2410 -2409 319 0
2410 2409 -319 0
-2411 2410 322 0
-2411 -2410 -322 0
2411 -2410 322 0
2411 2410 -322 0
-2412 2411 323 0
-2412 -2411 -323 0
2412 -2411 323 0
2412 2411 -323 0
-2413 2412 325 0
-2413 -2412 -325 0
2413 -2412 325 0
2413 2412 -325 0
-2414 2413 326 0
-2414 -2413 -326 0
2414 -2413 326 0
2414 2413 -326 0
-90 -2414 0
-2415 331 332 0
-2415 -331 -332 0
2415 -331 332 0
2415 331 -332 0
-2416 2415 333 0
-2416 -2415 -333 0
2416 -2415 333 0
2416 2415 -333 0
-2417 2416 334 0
-2417 -2416 -334 0
2417 -2416 334 0
2417 2416 -334 0
-2418 2417 337 0
-2418 -2417 -337 0
2418 -2417 337 0
2418 2417 -337 0
-2419 2418 338 0
-2419 -2418 -338 0
2419 -2418 338 0
2419 2418 -338 0
-2420 2419 340 0
-2420 -2419 -340 0
2420 -2419 340 0
2420 2419 -340 0
-2421 2420 341 0
-2421 -2420 -341 0
2421 -2420 341 0
2421 2420 -341 0
-90 -2421 0
-2422 346 347 0
-2422 -346 -347 0
2422 -346 347 0
2422 346 -347 0
-2423 2422 348 0
-2423 -2422 -348 0
2423 -2422 348 0
2423 2422 -348 0
-2424 2423 349 0
-2424 -2423 -349 0
2424 -2423 349 0
2424 2423 -349 0
-2425 2424 352 0
-2425 -2424 -352 0
2425 -2424 352 0
2425 2424 -352 0
-2426 2425 353 0
-2426 -2425 -353 0
2426 -2425 353 0
2426 2425 -353 0
-2427 2426 355 0
-2427 -2426 -355 0
2427 -2426 355 0
2427 2426 -355 0
-2428 2427 356 0
-2428 -2427 -356 0
2428 -2427 356 0
2428 2427 -356 0
-90 -2428 0
-2429 361 362 0
-2429 -361 -362 0
2429 -361 362 0
2429 361 -362 0
-2430 2429 363 0
-2430 -2429 -363 0
2430 -2429 363 0
2430 2429 -363 0
-2431 2430 364 0
-2431 -2430 -364 0
2431 -2430 364 0
2431 2430 -364 0
-2432 2431 367 0
-2432 -2431 -367 0
2432 -2431 367 0
2432 2431 -367 0
-2433 2432 368 0
-2433 -2432 -368 0
2433 -2432 368 0
2433 2432 -368 0
-2434 2433 370 0
-2434 -2433 -370 0
2434 -2433 370 0
2434 2433 -370 0
-2435 2434 371 0
-2435 -2434 -371 0
2435 -2434 371 0
2435 2434 -371 0
-90 -2435 0
-2436 376 377 0
-2436 -376 -377 0
2436 -376 377 0
2436 376 -377 0
-2437 2436 378 0
-2437 -2436 -378 0
2437 -2436 378 0
2437 2436 -378 0
-2438 2437 379 0
-2438 -2437 -379 0
2438 -2437 379 0
2438 2437 -379 0
-2439 2438 382 0
-2439 -2438 -382 0
2439 -2438 382 0
2439 2438 -382 0
-2440 2439 383 0
-2440 -2439 -383 0
2440 -2439 383 0
2440 2439 -383 0
-2441 2440 385 0
-2441 -2440 -385 0
2441 -2440 385 0
2441 2440 -385 0
-2442 2441 386 0
-2442 -2441 -386 0
2442 -2441 386 0
2442 2441 -386 0
-90 -2442 0
-2443 316 318 0
-2443 -316 -318 0
2443 -316 318 0
2443 316 -318 0
-2444 2443 319 0
-2444 -2443 -319 0
2444 -2443 319 0
2444 2443 -319 0
-2445 2444 321 0
-2445 -2444 -321 0
2445 -2444 321 0
2445 2444 -321 0
-2446 2445 322 0
-2446 -2445 -322 0
2446 -2445 322 0
2446 2445 -322 0
-2447 2446 323 0
-2447 -2446 -323 0
2447 -2446 323 0
2447 2446 -323 0
-2448 2447 325 0
-2448 -2447 -325 0
2448 -2447 325 0
2448 2447 -325 0
-2449 2448 326 0
-2449 -2448 -326 0
2449 -2448 326 0
2449 2448 -326 0
-91 -2449 0
-2450 331 333 0
-2450 -331 -333 0
2450 -331 333 0
2450 331 -333 0
-2451 2450 334 0
-2451 -2450 -334 0
2451 -2450 334 0
2451 2450 -334 0
-2452 2451 336 0
-2452 -2451 -336 0
2452 -2451 336 0
2452 2451 -336 0
-2453 2452 337 0
-2453 -2452 -337 0
2453 -2452 337 0
2453 2452 -337 0
-2454 2453 338 0
-2454 -2453 -338 0
2454 -2453 338 0
2454 2453 -338 0
-2455 2454 340 0
-2455 -2454 -340 0
2455 -2454 340 0
2455 2454 -340 0
-2456 2455 341 0
-2456 -2455 -341 0
2456 -2455 341 0
2456 2455 -341 0
-91 -2456 0
-2457 346 348 0
-2457 -346 -348 0
2457 -346 348 0
2457 346 -348 0
-2458 2457 349 0
-2458 -2457 -349 0
2458 -2457 349 0
2458 2457 -349 0
-2459 2458 351 0
-2459 -2458 -351 0
2459 -2458 351 0
2459 2458 -351 0
-2460 2459 352 0
-2460 -2459 -352 0
2460 -2459 352 0
2460 2459 -352 0
-2461 2460 353 0
-2461 -2460 -353 0
2461 -2460 353 0
2461 2460 -353 0
-2462 2461 355 0
-2462 -2461 -355 0
2462 -2461 355 0
2462 2461 -355 0
-2463 2462 356 0
-2463 -2462 -356 0
2463 -2462 356 0
2463 2462 -356 0
-91 -2463 0
-2464 361 363 0
-2464 -361 -363 0
2464 -361 363 0
2464 361 -363 0
-2465 2464 364 0
-2465 -2464 -364 0
2465 -2464 364 0
2465 2464 -364 0
-2466 2465 366 0
-2466 -2465 -366 0
2466 -2465 366 0
2466 2465 -366 0
-2467 2466 367 0
-2467 -2466 -367 0
2467 -2466 367 0
2467 2466 -367 0
-2468 2467 368 0
-2468 -2467 -368 0
2468 -2467 368 0
2468 2467 -368 0
-2469 2468 370 0
-2469 -2468 -370 0
2469 -2468 370 0
2469 2468 -370 0
-2470 2469 371 0
-2470 -2469 -371 0
2470 -2469 371 0
2470 2469 -371 0
-91 -2470 0
-2471 376 378 0
-2471 -376 -378 0
2471 -376 378 0
2471 376 -378 0
-2472 2471 379 0
-2472 -2471 -379 0
2472 -2471 379 0
2472 2471 -379 0
-2473 2472 381 0
-2473 -2472 -381 0
2473 -2472 381 0
2473 2472 -381 0
-2474 2473 382 0
-2474 -2473 -382 0
2474 -2473 382 0
2474 2473 -382 0
-2475 2474 383 0
-2475 -2474 -383 0
2475 -2474 383 0
2475 2474 -383 0
-2476 2475 385 0
-2476 -2475 -385 0
2476 -2475 385 0
2476 2475 -385 0
-2477 2476 386 0
-2477 -2476 -386 0
2477 -2476 386 0
2477 2476 -386 0
-91 -2477 0
-2478 320 324 0
-2478 -320 -324 0
2478 -320 324 0
2478 320 -324 0
-2479 2478 327 0
-2479 -2478 -327 0
2479 -2478 327 0
2479 2478 -327 0
-92 -2479 0
-2480 335 339 0
-2480 -335 -339 0
2480 -335 339 0
2480 335 -339 0
-2481 2480 342 0
-2481 -2480 -342 0
2481 -2480 342 0
2481 2480 -342 0
-92 -2481 0
-2482 350 354 0
-2482 -350 -354 0
2482 -350 354 0
2482 350 -354 0
-2483 2482 357 0
-2483 -2482 -357 0
2483 -2482 357 0
2483 2482 -357 0
-92 -2483 0
-2484 365 369 0
-2484 -365 -369 0
2484 -365 369 0
2484 365 -369 0
-2485 2484 372 0
-2485 -2484 -372 0
2485 -2484 372 0
2485 2484 -372 0
-92 -2485 0
-2486 380 384 0
-2486 -380 -384 0
2486 -380 384 0
2486 380 -384 0
-2487 2486 387 0
-2487 -2486 -387 0
2487 -2486 387 0
2487 2486 -387 0
-92 -2487 0
-2488 317 320 0
-2488 -317 -320 0
2488 -317 320 0
2488 317 -320 0
-2489 2488 321 0
-2489 -2488 -321 0
2489 -2488 321 0
2489 2488 -321 0
-2490 2489 324 0
-2490 -2489 -324 0
2490 -2489 324 0
2490 2489 -324 0
-2491 2490 327 0
-2491 -2490 -327 0
2491 -2490 327 0
2491 2490 -327 0
-93 -2491 0
-2492 332 335 0
-2492 -332 -335 0
2492 -332 335 0
2492 332 -335 0
-2493 2492 336 0
-2493 -2492 -336 0
2493 -2492 336 0
2493 2492 -336 0
-2494 2493 339 0
-2494 -2493 -339 0
2494 -2493 339 0
2494 2493 -339 0
-2495 2494 342 0
-2495 -2494 -342 0
2495 -2494 342 0
2495 2494 -342 0
-93 -2495 0
-2496 347 350 0
-2496 -347 -350 0
2496 -347 350 0
2496 347 -350 0
-2497 2496 351 0
-2497 -2496 -351 0
2497 -2496 351 0
2497 2496 -351 0
-2498 2497 354 0
-2498 -2497 -354 0
2498 -2497 354 0
2498 2497 -354 0
-2499 2498 357 0
-2499 -2498 -357 0
2499 -2498 357 0
2499 2498 -357 0
-93 -2499 0
-2500 362 365 0
-2500 -362 -365 0
2500 -362 365 0
2500 362 -365 0
-2501 2500 366 0
-2501 -2500 -366 0
2501 -2500 366 0
2501 2500 -366 0
-2502 2501 369 0
-2502 -2501 -369 0
2502 -2501 369 0
2502 2501 -369 0
-2503 2502 372 0
-2503 -2502 -372 0
2503 -2502 372 0
2503 2502 -372 0
-93 -2503 0
-2504 377 380 0
-2504 -377 -380 0
2504 -377 380 0
2504 377 -380 0
-2505 2504 381 0
-2505 -2504 -381 0
2505 -2504 381 0
2505 2504 -381 0
-2506 2505 384 0
-2506 -2505 -384 0
2506 -2505 384 0
2506 2505 -384 0
-2507 2506 387 0
-2507 -2506 -387 0
2507 -2506 387 0
2507 2506 -387 0
-93 -2507 0
-2508 316 317 0
-2508 -316 -317 0
2508 -316 317 0
2508 316 -317 0
-2509 2508 318 0
-2509 -2508 -318 0
2509 -2508 318 0
2509 2508 -318 0
-2510 2509 320 0
-2510 -2509 -320 0
2510 -2509 320 0
2510 2509 -320 0
-2511 2510 322 0
-2511 -2510 -322 0
2511 -2510 322 0
2511 2510 -322 0
-2512 2511 324 0
-2512 -2511 -324 0
2512 -2511 324 0
2512 2511 -324 0
-2513 2512 325 0
-2513 -2512 -325 0
2513 -2512 325 0
2513 2512 -325 0
-2514 2513 327 0
-2514 -2513 -327 0
2514 -2513 327 0
2514 2513 -327 0
-94 -2514 0
-2515 331 332 0
-2515 -331 -332 0
2515 -331 332 0
2515 331 -332 0
-2516 2515 333 0
-2516 -2515 -333 0
2516 -2515 333 0
2516 2515 -333 0
-2517 2516 335 0
-2517 -2516 -335 0
2517 -2516 335 0
2517 2516 -335 0
-2518 2517 337 0
-2518 -2517 -337 0
2518 -2517 337 0
2518 2517 -337 0
-2519 2518 339 0
-2519 -2518 -339 0
2519 -2518 339 0
2519 2518 -339 0
-2520 2519 340 0
-2520 -2519 -340 0
2520 -2519 340 0
2520 2519 -340 0
-2521 2520 342 0
-2521 -2520 -342 0
2521 -2520 342 0
2521 2520 -342 0
-94 -2521 0
-2522 346 347 0
-2522 -346 -347 0
2522 -346 347 0
2522 346 -347 0
-2523 2522 348 0
-2523 -2522 -348 0
2523 -2522 348 0
2523 2522 -348 0
-2524 2523 350 0
-2524 -2523 -350 0
2524 -2523 350 0
2524 2523 -350 0
-2525 2524 352 0
-2525 -2524 -352 0
2525 -2524 352 0
2525 2524 -352 0
-2526 2525 354 0
-2526 -2525 -354 0
2526 -2525 354 0
2526 2525 -354 0
-2527 2526 355 0
-2527 -2526 -355 0
2527 -2526 355 0
2527 2526 -355 0
-2528 2527 357 0
-2528 -2527 -357 0
2528 -2527 357 0
2528 2527 -357 0
-94 -2528 0
-2529 361 362 0
-2529 -361 -362 0
2529 -361 362 0
2529 361 -362 0
-2530 2529 363 0
-2530 -2529 -363 0
2530 -2529 363 0
2530 2529 -363 0
-2531 2530 365 0
-2531 -2530 -365 0
2531 -2530 365 0
2531 2530 -365 0
-2532 2531 367 0
-2532 -2531 -367 0
2532 -2531 367 0
2532 2531 -367 0
-2533 2532 369 0
-2533 -2532 -369 0
2533 -2532 369 0
2533 2532 -369 0
-2534 2533 370 0
-2534 -2533 -370 0
2534 -2533 370 0
2534 2533 -370 0
-2535 2534 372 0
-2535 -2534 -372 0
2535 -2534 372 0
2535 2534 -372 0
-94 -2535 0
-2536 376 377 0
-2536 -376 -377 0
2536 -376 377 0
2536 376 -377 0
-2537 2536 378 0
-2537 -2536 -378 0
2537 -2536 378 0
2537 2536 -378 0
-2538 2537 380 0
-2538 -2537 -380 0
2538 -2537 380 0
2538 2537 -380 0
-2539 2538 382 0
-2539 -2538 -382 0
2539 -2538 382 0
2539 2538 -382 0
-2540 2539 384 0
-2540 -2539 -384 0
2540 -2539 384 0
2540 2539 -384 0
-2541 2540 385 0
-2541 -2540 -385 0
2541 -2540 385 0
2541 2540 -385 0
-2542 2541 387 0
-2542 -2541 -387 0
2542 -2541 387 0
2542 2541 -387 0
-94 -2542 0
-2543 316 318 0
-2543 -316 -318 0
2543 -316 318 0
2543 316 -318 0
-2544 2543 320 0
-2544 -2543 -320 0
2544 -2543 320 0
2544 2543 -320 0
-2545 2544 321 0
-2545 -2544 -321 0
2545 -2544 321 0
2545 2544 -321 0
-2546 2545 322 0
-2546 -2545 -322 0
2546 -2545 322 0
2546 2545 -322 0
-2547 2546 324 0
-2547 -2546 -324 0
2547 -2546 324 0
2547 2546 -324 0
-2548 2547 325 0
-2548 -2547 -325 0
2548 -2547 325 0
2548 2547 -325 0
-2549 2548 327 0
-2549 -2548 -327 0
2549 -2548 327 0
2549 2548 -327 0
-95 -2549 0
-2550 331 333 0
-2550 -331 -333 0
2550 -331 333 0
2550 331 -333 0
-2551 2550 335 0
-2551 -2550 -335 0
2551 -2550 335 0
2551 2550 -335 0
-2552 2551 336 0
-2552 -2551 -336 0
2552 -2551 336 0
2552 2551 -336 0
-2553 2552 337 0
-2553 -2552 -337 0
2553 -2552 337 0
2553 2552 -337 0
-2554 2553 339 0
-2554 -2553 -339 0
2554 -2553 339 0
2554 2553 -339 0
-2555 2554 340 0
-2555 -2554 -340 0
2555 -2554 340 0
2555 2554 -340 0
-2556 2555 342 0
-2556 -2555 -342 0
2556 -2555 342 0
2556 2555 -342 0
-95 -2556 0
-2557 346 348 0
-2557 -346 -348 0
2557 -346 348 0
2557 346 -348 0
-2558 2557 350 0
-2558 -2557 -350 0
2558 -2557 350 0
2558 2557 -350 0
-2559 2558 351 0
-2559 -2558 -351 0
2559 -2558 351 0
2559 2558 -351 0
-2560 2559 352 0
-2560 -2559 -352 0
2560 -2559 352 0
2560 2559 -352 0
-2561 2560 354 0
-2561 -2560 -354 0
2561 -2560 354 0
2561 2560 -354 0
-2562 2561 355 0
-2562 -2561 -355 0
2562 -2561 355 0
2562 2561 -355 0
-2563 2562 357 0
-2563 -2562 -357 0
2563 -2562 357 0
2563 2562 -357 0
-95 -2563 0
-2564 361 363 0
-2564 -361 -363 0
2564 -361 363 0
2564 361 -363 0
-2565 2564 365 0
-2565 -2564 -365 0
2565 -2564 365 0
2565 2564 -365 0
-2566 2565 366 0
-2566 -2565 -366 0
2566 -2565 366 0
2566 2565 -366 0
-2567 2566 367 0
-2567 -2566 -367 0
2567 -2566 367 0
2567 2566 -367 0
-2568 2567 369 0
-2568 -2567 -369 0
2568 -2567 369 0
2568 2567 -369 0
-2569 2568 370 0
-2569 -2568 -370 0
2569 -2568 370 0
2569 2568 -370 0
-2570 2569 372 0
-2570 -2569 -372 0
2570 -2569 372 0
2570 2569 -372 0
-95 -2570 0
-2571 376 378 0
-2571 -376 -378 0
2571 -376 378 0
2571 376 -378 0
-2572 2571 380 0
-2572 -2571 -380 0
2572 -2571 380 0
2572 2571 -380 0
-2573 2572 381 0
-2573 -2572 -381 0
2573 -2572 381 0
2573 2572 -381 0
-2574 2573 382 0
-2574 -2573 -382 0
2574 -2573 382 0
2574 2573 -382 0
-2575 2574 384 0
-2575 -2574 -384 0
2575 -2574 384 0
2575 2574 -384 0
-2576 2575 385 0
-2576 -2575 -385 0
2576 -2575 385 0
2576 2575 -385 0
-2577 2576 387 0
-2577 -2576 -387 0
2577 -2576 387 0
2577 2576 -387 0
-95 -2577 0
-2578 319 320 0
-2578 -319 -320 0
2578 -319 320 0
2578 319 -320 0
-2579 2578 323 0
-2579 -2578 -323 0
2579 -2578 323 0
2579 2578 -323 0
-2580 2579 324 0
-2580 -2579 -324 0
2580 -2579 324 0
2580 2579 -324 0
-2581 2580 326 0
-2581 -2580 -326 0
2581 -2580 326 0
2581 2580 -326 0
-2582 2581 327 0
-2582 -2581 -327 0
2582 -2581 327 0
2582 2581 -327 0
-96 -2582 0
-2583 334 335 0
-2583 -334 -335 0
2583 -334 335 0
2583 334 -335 0
-2584 2583 338 0
-2584 -2583 -338 0
2584 -2583 338 0
2584 2583 -338 0
-2585 2584 339 0
-2585 -2584 -339 0
2585 -2584 339 0
2585 2584 -339 0
-2586 2585 341 0
-2586 -2585 -341 0
2586 -2585 341 0
2586 2585 -341 0
-2587 2586 342 0
-2587 -2586 -342 0
2587 -2586 342 0
2587 2586 -342 0
-96 -2587 0
-2588 349 350 0
-2588 -349 -350 0
2588 -349 350 0
2588 349 -350 0
-2589 2588 353 0
-2589 -2588 -353 0
2589 -2588 353 0
2589 2588 -353 0
-2590 2589 354 0
-2590 -2589 -354 0
2590 -2589 354 0
2590 2589 -354 0
-2591 2590 356 0
-2591 -2590 -356 0
2591 -2590 356 0
2591 2590 -356 0
-2592 2591 357 0
-2592 -2591 -357 0
2592 -2591 357 0
2592 2591 -357 0
-96 -2592 0
-2593 364 365 0
-2593 -364 -365 0
2593 -364 365 0
2593 364 -365 0
-2594 2593 368 0
-2594 -2593 -368 0
2594 -2593 368 0
2594 2593 -368 0
-2595 2594 369 0
-2595 -2594 -369 0
2595 -2594 369 0
2595 2594 -369 0
-2596 2595 371 0
-2596 -2595 -371 0
2596 -2595 371 0
2596 2595 -371 0
-2597 2596 372 0
-2597 -2596 -372 0
2597 -2596 372 0
2597 2596 -372 0
-96 -2597 0
-2598 379 380 0
-2598 -379 -380 0
2598 -379 380 0
2598 379 -380 0
-2599 2598 383 0
-2599 -2598 -383 0
2599 -2598 383 0
2599 2598 -383 0
-2600 2599 384 0
-2600 -2599 -384 0
2600 -2599 384 0
2600 2599 -384 0
-2601 2600 386 0
-2601 -2600 -386 0
2601 -2600 386 0
2601 2600 -386 0
-2602 2601 387 0
-2602 -2601 -387 0
2602 -2601 387 0
2602 2601 -387 0
-96 -2602 0
-2603 317 319 0
-2603 -317 -319 0
2603 -317 319 0
2603 317 -319 0
-2604 2603 320 0
-2604 -2603 -320 0
2604 -2603 320 0
2604 2603 -320 0
-2605 2604 321 0
-2605 -2604 -321 0
2605 -2604 321 0
2605 2604 -321 0
-2606 2605 323 0
-2606 -2605 -323 0
2606 -2605 323 0
2606 2605 -323 0
-2607 2606 324 0
-2607 -2606 -324 0
2607 -2606 324 0
2607 2606 -324 0
-2608 2607 326 0
-2608 -2607 -326 0
2608 -2607 326 0
2608 2607 -326 0
-2609 2608 327 0
-2609 -2608 -327 0
2609 -2608 327 0
2609 2608 -327 0
-97 -2609 0
-2610 332 334 0
-2610 -332 -334 0
2610 -332 334 0
2610 332 -334 0
-2611 2610 335 0
-2611 -2610 -335 0
2611 -2610 335 0
2611 2610 -335 0
-2612 2611 336 0
-2612 -2611 -336 0
2612 -2611 336 0
2612 2611 -336 0
-2613 2612 338 0
-2613 -2612 -338 0
2613 -2612 338 0
2613 2612 -338 0
-2614 2613 339 0
-2614 -2613 -339 0
2614 -2613 339 0
2614 2613 -339 0
-2615 2614 341 0
-2615 -2614 -341 0
2615 -2614 341 0
2615 2614 -341 0
-2616 2615 342 0
-2616 -2615 -342 0
2616 -2615 342 0
2616 2615 -342 0
-97 -2616 0
-2617 347 349 0
-2617 -347 -349 0
2617 -347 349 0
2617 347 -349 0
-2618 2617 350 0
-2618 -2617 -350 0
2618 -2617 350 0
2618 2617 -350 0
-2619 2618 351 0
-2619 -2618 -351 0
2619 -2618 351 0
2619 2618 -351 0
-2620 2619 353 0
-2620 -2619 -353 0
2620 -2619 353 0
2620 2619 -353 0
-2621 2620 354 0
-2621 -2620 -354 0
2621 -2620 354 0
2621 2620 -354 0
-2622 2621 356 0
-2622 -2621 -356 0
2622 -2621 356 0
2622 2621 -356 0
-2623 2622 357 0
-2623 -2622 -357 0
2623 -2622 357 0
2623 2622 -357 0
-97 -2623 0
-2624 362 364 0
-2624 -362 -364 0
2624 -362 364 0
2624 362 -364 0
-2625 2624 365 0
-2625 -2624 -365 0
2625 -2624 365 0
2625 2624 -365 0
-2626 2625 366 0
-2626 -2625 -366 0
2626 -2625 366 0
2626 2625 -366 0
-2627 2626 368 0
-2627 -2626 -368 0
2627 -2626 368 0
2627 2626 -368 0
-2628 2627 369 0
-2628 -2627 -369 0
2628 -2627 369 0
2628 2627 -369 0
-2629 2628 371 0
-2629 -2628 -371 0
2629 -2628 371 0
2629 2628 -371 0
-2630 2629 372 0
-2630 -2629 -372 0
2630 -2629 372 0
2630 2629 -372 0
-97 -2630 0
-2631 377 379 0
-2631 -377 -379 0
2631 -377 379 0
2631 377 -379 0
-2632 2631 380 0
-2632 -2631 -380 0
2632 -2631 380 0
2632 2631 -380 0
-2633 2632 381 0
-2633 -2632 -381 0
2633 -2632 381 0
2633 2632 -381 0
-2634 2633 383 0
-2634 -2633 -383 0
2634 -2633 383 0
2634 2633 -383 0
-2635 2634 384 0
-2635 -2634 -384 0
2635 -2634 384 0
2635 2634 -384 0
-2636 2635 386 0
-2636 -2635 -386 0
2636 -2635 386 0
2636 2635 -386 0
-2637 2636 387 0
-2637 -2636 -387 0
2637 -2636 387 0
2637 2636 -387 0
-97 -2637 0
-2638 316 317 0
-2638 -316 -317 0
2638 -316 317 0
2638 316 -317 0
-2639 2638 318 0
-2639 -2638 -318 0
2639 -2638 318 0
2639 2638 -318 0
-2640 2639 319 0
-2640 -2639 -319 0
2640 -2639 319 0
2640 2639 -319 0
-2641 2640 320 0
-2641 -2640 -320 0
2641 -2640 320 0
2641 2640 -320 0
-2642 2641 322 0
-2642 -2641 -322 0
2642 -2641 322 0
2642 2641 -322 0
-2643 2642 323 0
-2643 -2642 -323 0
2643 -2642 323 0
2643 2642 -323 0
-2644 2643 324 0
-2644 -2643 -324 0
2644 -2643 324 0
2644 2643 -324 0
-2645 2644 325 0
-2645 -2644 -325 0
2645 -2644 325 0
2645 2644 -325 0
-2646 2645 326 0
-2646 -2645 -326 0
2646 -2645 326 0
2646 2645 -326 0
-2647 2646 327 0
-2647 -2646 -327 0
2647 -2646 327 0
2647 2646 -327 0
-98 -2647 0
-2648 331 332 0
-2648 -331 -332 0
2648 -331 332 0
2648 331 -332 0
-2649 2648 333 0
-2649 -2648 -333 0
2649 -2648 333 0
2649 2648 -333 0
-2650 2649 334 0
-2650 -2649 -334 0
2650 -2649 334 0
2650 2649 -334 0
-2651 2650 335 0
-2651 -2650 -335 0
2651 -2650 335 0
2651 2650 -335 0
-2652 2651 337 0
-2652 -2651 -337 0
2652 -2651 337 0
2652 2651 -337 0
-2653 2652 338 0
-2653 -2652 -338 0
2653 -2652 338 0
2653 2652 -338 0
-2654 2653 339 0
-2654 -2653 -339 0
2654 -2653 339 0
2654 2653 -339 0
-2655 2654 340 0
-2655 -2654 -340 0
2655 -2654 340 0
2655 2654 -340 0
-2656 2655 341 0
-2656 -2655 -341 0
2656 -2655 341 0
2656 2655 -341 0
-2657 2656 342 0
-2657 -2656 -342 0
2657 -2656 342 0
2657 2656 -342 0
-98 -2657 0
-2658 346 347 0
-2658 -346 -347 0
2658 -346 347 0
2658 346 -347 0
-2659 2658 348 0
-2659 -2658 -348 0
2659 -2658 348 0
2659 2658 -348 0
-2660 2659 349 0
-2660 -2659 -349 0
2660 -2659 349 0
2660 2659 -349 0
-2661 2660 350 0
-2661 -2660 -350 0
2661 -2660 350 0
2661 2660 -350 0
-2662 2661 352 0
-2662 -2661 -352 0
2662 -2661 352 0
2662 2661 -352 0
-2663 2662 353 0
-2663 -2662 -353 0
2663 -2662 353 0
2663 2662 -353 0
-2664 2663 354 0
-2664 -2663 -354 0
2664 -2663 354 0
2664 2663 -354 0
-2665 2664 355 0
-2665 -2664 -355 0
2665 -2664 355 0
2665 2664 -355 0
-2666 2665 356 0
-2666 -2665 -356 0
2666 -2665 356 0
2666 2665 -356 0
-2667 2666 357 0
-2667 -2666 -357 0
2667 -2666 357 0
2667 2666 -357 0
-98 -2667 0
-2668 361 362 0
-2668 -361 -362 0
2668 -361 362 0
2668 361 -362 0
-2669 2668 363 0
-2669 -2668 -363 0
2669 -2668 363 0
2669 2668 -363 0
-2670 2669 364 0
-2670 -2669 -364 0
2670 -2669 364 0
2670 2669 -364 0
-2671 2670 365 0
-2671 -2670 -365 0
2671 -2670 365 0
2671 2670 -365 0
-2672 2671 367 0
-2672 -2671 -367 0
2672 -2671 367 0
2672 2671 -367 0
-2673 2672 368 0
-2673 -2672 -368 0
2673 -2672 368 0
2673 2672 -368 0
-2674 2673 369 0
-2674 -2673 -369 0
2674 -2673 369 0
2674 2673 -369 0
-2675 2674 370 0
-2675 -2674 -370 0
2675 -2674 370 0
2675 2674 -370 0
-2676 2675 371 0
-2676 -2675 -371 0
2676 -2675 371 0
2676 2675 -371 0
-2677 2676 372 0
-2677 -2676 -372 0
2677 -2676 372 0
2677 2676 -372 0
-98 -2677 0
-2678 376 377 0
-2678 -376 -377 0
2678 -376 377 0
2678 376 -377 0
-2679 2678 378 0
-2679 -2678 -378 0
2679 -2678 378 0
2679 2678 -378 0
-2680 2679 379 0
-2680 -2679 -379 0
2680 -2679 379 0
2680 2679 -379 0
-2681 2680 380 0
-2681 -2680 -380 0
2681 -2680 380 0
2681 2680 -380 0
-2682 2681 382 0
-2682 -2681 -382 0
2682 -2681 382 0
2682 2681 -382 0
-2683 2682 383 0
-2683 -2682 -383 0
2683 -2682 383 0
2683 2682 -383 0
-2684 2683 384 0
-2684 -2683 -384 0
2684 -2683 384 0
2684 2683 -384 0
-2685 2684 385 0
-2685 -2684 -385 0
2685 -2684 385 0
2685 2684 -385 0
-2686 2685 386 0
-2686 -2685 -386 0
2686 -2685 386 0
2686 2685 -386 0
-2687 2686 387 0
-2687 -2686 -387 0
2687 -2686 387 0
2687 2686 -387 0
-98 -2687 0
-2688 316 318 0
-2688 -316 -318 0
2688 -316 318 0
2688 316 -318 0
-2689 2688 319 0
-2689 -2688 -319 0
2689 -2688 319 0
2689 2688 -319 0
-2690 2689 320 0
-2690 -2689 -320 0
2690 -2689 320 0
2690 2689 -320 0
-2691 2690 321 0
-2691 -2690 -321 0
2691 -2690 321 0
2691 2690 -321 0
-2692 2691 322 0
-2692 -2691 -322 0
2692 -2691 322 0
2692 2691 -322 0
-2693 2692 323 0
-2693 -2692 -323 0
2693 -2692 323 0
2693 2692 -323 0
-2694 2693 324 0
-2694 -2693 -324 0
2694 -2693 324 0
2694 2693 -324 0
-2695 2694 325 0
-2695 -2694 -325 0
2695 -2694 325 0
2695 2694 -325 0
-2696 2695 326 0
-2696 -2695 -326 0
2696 -2695 326 0
2696 2695 -326 0
-2697 2696 327 0
-2697 -2696 -327 0
2697 -2696 327 0
2697 2696 -327 0
-99 -2697 0
-2698 331 333 0
-2698 -331 -333 0
2698 -331 333 0
2698 331 -333 0
-2699 2698 334 0
-2699 -2698 -334 0
2699 -2698 334 0
2699 2698 -334 0
-2700 2699 335 0
-2700 -2699 -335 0
2700 -2699 335 0
2700 2699 -335 0
-2701 2700 336 0
-2701 -2700 -336 0
2701 -2700 336 0
2701 2700 -336 0
-2702 2701 337 0
-2702 -2701 -337 0
2702 -2701 337 0
2702 2701 -337 0
-2703 2702 338 0
-2703 -2702 -338 0
2703 -2702 338 0
2703 2702 -338 0
-2704 2703 339 0
-2704 -2703 -339 0
2704 -2703 339 0
2704 2703 -339 0
-2705 2704 340 0
-2705 -2704 -340 0
2705 -2704 340 0
2705 2704 -340 0
-2706 2705 341 0
-2706 -2705 -341 0
2706 -2705 341 0
2706 2705 -341 0
-2707 2706 342 0
-2707 -2706 -342 0
2707 -2706 342 0
2707 2706 -342 0
-99 -2707 0
-2708 346 348 0
-2708 -346 -348 0
2708 -346 348 0
2708 346 -348 0
-2709 2708 349 0
-2709 -2708 -349 0
2709 -2708 349 0
2709 2708 -349 0
-2710 2709 350 0
-2710 -2709 -350 0
2710 -2709 350 0
2710 2709 -350 0
-2711 2710 351 0
-2711 -2710 -351 0
2711 -2710 351 0
2711 2710 -351 0
-2712 2711 352 0
-2712 -2711 -352 0
2712 -2711 352 0
2712 2711 -352 0
-2713 2712 353 0
-2713 -2712 -353 0
2713 -2712 353 0
2713 2712 -353 0
-2714 2713 354 0
-2714 -2713 -354 0
2714 -2713 354 0
2714 2713 -354 0
-2715 2714 355 0
-2715 -2714 -355 0
2715 -2714 355 0
2715 2714 -355 0
-2716 2715 356 0
-2716 -2715 -356 0
2716 -2715 356 0
2716 2715 -356 0
-2717 2716 357 0
-2717 -2716 -357 0
2717 -2716 357 0
2717 2716 -357 0
-99 -2717 0
-2718 361 363 0
-2718 -361 -363 0
2718 -361 363 0
2718 361 -363 0
-2719 2718 364 0
-2719 -2718 -364 0
2719 -2718 364 0
2719 2718 -364 0
-2720 2719 365 0
-2720 -2719 -365 0
2720 -2719 365 0
2720 2719 -365 0
-2721 2720 366 0
-2721 -2720 -366 0
2721 -2720 366 0
2721 2720 -366 0
-2722 2721 367 0
-2722 -2721 -367 0
2722 -2721 367 0
2722 2721 -367 0
-2723 2722 368 0
-2723 -2722 -368 0
2723 -2722 368 0
2723 2722 -368 0
-2724 2723 369 0
-2724 -2723 -369 0
2724 -2723 369 0
2724 2723 -369 0
-2725 2724 370 0
-2725 -2724 -370 0
2725 -2724 370 0
2725 2724 -370 0
-2726 2725 371 0
-2726 -2725 -371 0
2726 -2725 371 0
2726 2725 -371 0
-2727 2726 372 0
-2727 -2726 -372 0
2727 -2726 372 0
2727 2726 -372 0
-99 -2727 0
-2728 376 378 0
-2728 -376 -378 0
2728 -376 378 0
2728 376 -378 0
-2729 2728 379 0
-2729 -2728 -379 0
2729 -2728 379 0
2729 2728 -379 0
-2730 2729 380 0
-2730 -2729 -380 0
2730 -2729 380 0
2730 2729 -380 0
-2731 2730 381 0
-2731 -2730 -381 0
2731 -2730 381 0
2731 2730 -381 0
-2732 2731 382 0
-2732 -2731 -382 0
2732 -2731 382 0
2732 2731 -382 0
-2733 2732 383 0
-2733 -2732 -383 0
2733 -2732 383 0
2733 2732 -383 0
-2734 2733 384 0
-2734 -2733 -384 0
2734 -2733 384 0
2734 2733 -384 0
-2735 2734 385 0
-2735 -2734 -385 0
2735 -2734 385 0
2735 2734 -385 0
-2736 2735 386 0
-2736 -2735 -386 0
2736 -2735 386 0
2736 2735 -386 0
-2737 2736 387 0
-2737 -2736 -387 0
2737 -2736 387 0
2737 2736 -387 0
-99 -2737 0
-100 -328 0
-100 -343 0
-100 -358 0
-100 -373 0
-100 -388 0
-2738 318 328 0
-2738 -318 -328 0
2738 -318 328 0
2738 318 -328 0
-101 -2738 0
-2739 333 343 0
-2739 -333 -343 0
2739 -333 343 0
2739 333 -343 0
-101 -2739 0
-2740 348 358 0
-2740 -348 -358 0
2740 -348 358 0
2740 348 -358 0
-101 -2740 0
-2741 363 373 0
-2741 -363 -373 0
2741 -363 373 0
2741 363 -373 0
-101 -2741 0
-2742 378 388 0
-2742 -378 -388 0
2742 -378 388 0
2742 378 -388 0
-101 -2742 0
-2743 322 328 0
-2743 -322 -328 0
2743 -322 328 0
2743 322 -328 0
-102 -2743 0
-2744 337 343 0
-2744 -337 -343 0
2744 -337 343 0
2744 337 -343 0
-102 -2744 0
-2745 352 358 0
-2745 -352 -358 0
2745 -352 358 0
2745 352 -358 0
-102 -2745 0
-2746 367 373 0
-2746 -367 -373 0
2746 -367 373 0
2746 367 -373 0
-102 -2746 0
-2747 382 388 0
-2747 -382 -388 0
2747 -382 388 0
2747 382 -388 0
-102 -2747 0
-2748 318 322 0
-2748 -318 -322 0
2748 -318 322 0
2748 318 -322 0
-2749 2748 328 0
-2749 -2748 -328 0
2749 -2748 328 0
2749 2748 -328 0
-103 -2749 0
-2750 333 337 0
-2750 -333 -337 0
2750 -333 337 0
2750 333 -337 0
-2751 2750 343 0
-2751 -2750 -343 0
2751 -2750 343 0
2751 2750 -343 0
-103 -2751 0
-2752 348 352 0
-2752 -348 -352 0
2752 -348 352 0
2752 348 -352 0
-2753 2752 358 0
-2753 -2752 -358 0
2753 -2752 358 0
2753 2752 -358 0
-103 -2753 0
-2754 363 367 0
-2754 -363 -367 0
2754 -363 367 0
2754 363 -367 0
-2755 2754 373 0
-2755 -2754 -373 0
2755 -2754 373 0
2755 2754 -373 0
-103 -2755 0
-2756 378 382 0
-2756 -378 -382 0
2756 -378 382 0
2756 378 -382 0
-2757 2756 388 0
-2757 -2756 -388 0
2757 -2756 388 0
2757 2756 -388 0
-103 -2757 0
-104 -329 0
-104 -344 0
-104 -359 0
-104 -374 0
-104 -389 0
-2758 318 329 0
-2758 -318 -329 0
2758 -318 329 0
2758 318 -329 0
-105 -2758 0
-2759 333 344 0
-2759 -333 -344 0
2759 -333 344 0
2759 333 -344 0
-105 -2759 0
-2760 348 359 0
-2760 -348 -359 0
2760 -348 359 0
2760 348 -359 0
-105 -2760 0
-2761 363 374 0
-2761 -363 -374 0
2761 -363 374 0
2761 363 -374 0
-105 -2761 0
-2762 378 389 0
-2762 -378 -389 0
2762 -378 389 0
2762 378 -389 0
-105 -2762 0
-2763 322 329 0
-2763 -322 -329 0
2763 -322 329 0
2763 322 -329 0
-106 -2763 0
-2764 337 344 0
-2764 -337 -344 0
2764 -337 344 0
2764 337 -344 0
-106 -2764 0
-2765 352 359 0
-2765 -352 -359 0
2765 -352 359 0
2765 352 -359 0
-106 -2765 0
-2766 367 374 0
-2766 -367 -374 0
2766 -367 374 0
2766 367 -374 0
-106 -2766 0
-2767 382 389 0
-2767 -382 -389 0
2767 -382 389 0
2767 382 -389 0
-106 -2767 0
-2768 318 322 0
-2768 -318 -322 0
2768 -318 322 0
2768 318 -322 0
-2769 2768 329 0
-2769 -2768 -329 0
2769 -2768 329 0
2769 2768 -329 0
-107 -2769 0
-2770 333 337 0
-2770 -333 -337 0
2770 -333 337 0
2770 333 -337 0
-2771 2770 344 0
-2771 -2770 -344 0
2771 -2770 344 0
2771 2770 -344 0
-107 -2771 0
-2772 348 352 0
-2772 -348 -352 0
2772 -348 352 0
2772 348 -352 0
-2773 2772 359 0
-2773 -2772 -359 0
2773 -2772 359 0
2773 2772 -359 0
-107 -2773 0
-2774 363 367 0
-2774 -363 -367 0
2774 -363 367 0
2774 363 -367 0
-2775 2774 374 0
-2775 -2774 -374 0
2775 -2774 374 0
2775 2774 -374 0
-107 -2775 0
-2776 378 382 0
-2776 -378 -382 0
2776 -378 382 0
2776 378 -382 0
-2777 2776 389 0
-2777 -2776 -389 0
2777 -2776 389 0
2777 2776 -389 0
-107 -2777 0
-2778 328 329 0
-2778 -328 -329 0
2778 -328 329 0
2778 328 -329 0
-108 -2778 0
-2779 343 344 0
-2779 -343 -344 0
2779 -343 344 0
2779 343 -344 0
-108 -2779 0
-2780 358 359 0
-2780 -358 -359 0
2780 -358 359 0
2780 358 -359 0
-108 -2780 0
-2781 373 374 0
-2781 -373 -374 0
2781 -373 374 0
2781 373 -374 0
-108 -2781 0
-2782 388 389 0
-2782 -388 -389 0
2782 -388 389 0
2782 388 -389 0
-108 -2782 0
-2783 318 328 0
-2783 -318 -328 0
2783 -318 328 0
2783 318 -328 0
-2784 2783 329 0
-2784 -2783 -329 0
2784 -2783 329 0
2784 2783 -329 0
-109 -2784 0
-2785 333 343 0
-2785 -333 -343 0
2785 -333 343 0
2785 333 -343 0
-2786 2785 344 0
-2786 -2785 -344 0
2786 -2785 344 0
2786 2785 -344 0
-109 -2786 0
-2787 348 358 0
-2787 -348 -358 0
2787 -348 358 0
2787 348 -358 0
-2788 2787 359 0
-2788 -2787 -359 0
2788 -2787 359 0
2788 2787 -359 0
-109 -2788 0
-2789 363 373 0
-2789 -363 -373 0
2789 -363 373 0
2789 363 -373 0
-2790 2789 374 0
-2790 -2789 -374 0
2790 -2789 374 0
2790 2789 -374 0
-109 -2790 0
-2791 378 388 0
-2791 -378 -388 0
2791 -378 388 0
2791 378 -388 0
-2792 2791 389 0
-2792 -2791 -389 0
2792 -2791 389 0
2792 2791 -389 0
-109 -2792 0
-2793 322 328 0
-2793 -322 -328 0
2793 -322 328 0
2793 322 -328 0
-2794 2793 329 0
-2794 -2793 -329 0
2794 -2793 329 0
2794 2793 -329 0
-110 -2794 0
-2795 337 343 0
-2795 -337 -343 0
2795 -337 343 0
2795 337 -343 0
-2796 2795 344 0
-2796 -2795 -344 0
2796 -2795 344 0
2796 2795 -344 0
-110 -2796 0
-2797 352 358 0
-2797 -352 -358 0
2797 -352 358 0
2797 352 -358 0
-2798 2797 359 0
-2798 -2797 -359 0
2798 -2797 359 0
2798 2797 -359 0
-110 -2798 0
-2799 367 373 0
-2799 -367 -373 0
2799 -367 373 0
2799 367 -373 0
-2800 2799 374 0
-2800 -2799 -374 0
2800 -2799 374 0
2800 2799 -374 0
-110 -2800 0
-2801 382 388 0
-2801 -382 -388 0
2801 -382 388 0
2801 382 -388 0
-2802 2801 389 0
-2802 -2801 -389 0
2802 -2801 389 0
2802 2801 -389 0
-110 -2802 0
-2803 318 322 0
-2803 -318 -322 0
2803 -318 322 0
2803 318 -322 0
-2804 2803 328 0
-2804 -2803 -328 0
2804 -2803 328 0
2804 2803 -328 0
-2805 2804 329 0
-2805 -2804 -329 0
2805 -2804 329 0
2805 2804 -329 0
-111 -2805 0
-2806 333 337 0
-2806 -333 -337 0
2806 -333 337 0
2806 333 -337 0
-2807 2806 343 0
-2807 -2806 -343 0
2807 -2806 343 0
2807 2806 -343 0
-2808 2807 344 0
-2808 -2807 -344 0
2808 -2807 344 0
2808 2807 -344 0
-111 -2808 0
-2809 348 352 0
-2809 -348 -352 0
2809 -348 352 0
2809 348 -352 0
-2810 2809 358 0
-2810 -2809 -358 0
2810 -2809 358 0
2810 2809 -358 0
-2811 2810 359 0
-2811 -2810 -359 0
2811 -2810 359 0
2811 2810 -359 0
-111 -2811 0
-2812 363 367 0
-2812 -363 -367 0
2812 -363 367 0
2812 363 -367 0
-2813 2812 373 0
-2813 -2812 -373 0
2813 -2812 373 0
2813 2812 -373 0
-2814 2813 374 0
-2814 -2813 -374 0
2814 -2813 374 0
2814 2813 -374 0
-111 -2814 0
-2815 378 382 0
-2815 -378 -382 0
2815 -378 382 0
2815 378 -382 0
-2816 2815 388 0
-2816 -2815 -388 0
2816 -2815 388 0
2816 2815 -388 0
-2817 2816 389 0
-2817 -2816 -389 0
2817 -2816 389 0
2817 2816 -389 0
-111 -2817 0
-2818 319 328 0
-2818 -319 -328 0
2818 -319 328 0
2818 319 -328 0
-112 -2818 0
-2819 334 343 0
-2819 -334 -343 0
2819 -334 343 0
2819 334 -343 0
-112 -2819 0
-2820 349 358 0
-2820 -349 -358 0
2820 -349 358 0
2820 349 -358 0
-112 -2820 0
-2821 364 373 0
-2821 -364 -373 0
2821 -364 373 0
2821 364 -373 0
-112 -2821 0
-2822 379 388 0
-2822 -379 -388 0
2822 -379 388 0
2822 379 -388 0
-112 -2822 0
-2823 318 319 0
-2823 -318 -319 0
2823 -318 319 0
2823 318 -319 0
-2824 2823 328 0
-2824 -2823 -328 0
2824 -2823 328 0
2824 2823 -328 0
-113 -2824 0
-2825 333 334 0
-2825 -333 -334 0
2825 -333 334 0
2825 333 -334 0
-2826 2825 343 0
-2826 -2825 -343 0
2826 -2825 343 0
2826 2825 -343 0
-113 -2826 0
-2827 348 349 0
-2827 -348 -349 0
2827 -348 349 0
2827 348 -349 0
-2828 2827 358 0
-2828 -2827 -358 0
2828 -2827 358 0
2828 2827 -358 0
-113 -2828 0
-2829 363 364 0
-2829 -363 -364 0
2829 -363 364 0
2829 363 -364 0
-2830 2829 373 0
-2830 -2829 -373 0
2830 -2829 373 0
2830 2829 -373 0
-113 -2830 0
-2831 378 379 0
-2831 -378 -379 0
2831 -378 379 0
2831 378 -379 0
-2832 2831 388 0
-2832 -2831 -388 0
2832 -2831 388 0
2832 2831 -388 0
-113 -2832 0
-2833 316 317 0
-2833 -316 -317 0
2833 -316 317 0
2833 316 -317 0
-2834 2833 319 0
-2834 -2833 -319 0
2834 -2833 319 0
2834 2833 -319 0
-2835 2834 322 0
-2835 -2834 -322 0
2835 -2834 322 0
2835 2834 -322 0
-2836 2835 325 0
-2836 -2835 -325 0
2836 -2835 325 0
2836 2835 -325 0
-2837 2836 328 0
-2837 -2836 -328 0
2837 -2836 328 0
2837 2836 -328 0
-114 -2837 0
-2838 331 332 0
-2838 -331 -332 0
2838 -331 332 0
2838 331 -332 0
-2839 2838 334 0
-2839 -2838 -334 0
2839 -2838 334 0
2839 2838 -334 0
-2840 2839 337 0
-2840 -2839 -337 0
2840 -2839 337 0
2840 2839 -337 0
-2841 2840 340 0
-2841 -2840 -340 0
2841 -2840 340 0
2841 2840 -340 0
-2842 2841 343 0
-2842 -2841 -343 0
2842 -2841 343 0
2842 2841 -343 0
-114 -2842 0
-2843 346 347 0
-2843 -346 -347 0
2843 -346 347 0
2843 346 -347 0
-2844 2843 349 0
-2844 -2843 -349 0
2844 -2843 349 0
2844 2843 -349 0
-2845 2844 352 0
-2845 -2844 -352 0
2845 -2844 352 0
2845 2844 -352 0
-2846 2845 355 0
-2846 -2845 -355 0
2846 -2845 355 0
2846 2845 -355 0
-2847 2846 358 0
-2847 -2846 -358 0
2847 -2846 358 0
2847 2846 -358 0
-114 -2847 0
-2848 361 362 0
-2848 -361 -362 0
2848 -361 362 0
2848 361 -362 0
-2849 2848 364 0
-2849 -2848 -364 0
2849 -2848 364 0
2849 2848 -364 0
-2850 2849 367 0
-2850 -2849 -367 0
2850 -2849 367 0
2850 2849 -367 0
-2851 2850 370 0
-2851 -2850 -370 0
2851 -2850 370 0
2851 2850 -370 0
-2852 2851 373 0
-2852 -2851 -373 0
2852 -2851 373 0
2852 2851 -373 0
-114 -2852 0
-2853 376 377 0
-2853 -376 -377 0
2853 -376 377 0
2853 376 -377 0
-2854 2853 379 0
-2854 -2853 -379 0
2854 -2853 379 0
2854 2853 -379 0
-2855 2854 382 0
-2855 -2854 -382 0
2855 -2854 382 0
2855 2854 -382 0
-2856 2855 385 0
-2856 -2855 -385 0
2856 -2855 385 0
2856 2855 -385 0
-2857 2856 388 0
-2857 -2856 -388 0
2857 -2856 388 0
2857 2856 -388 0
-114 -2857 0
-2858 316 317 0
-2858 -316 -317 0
2858 -316 317 0
2858 316 -317 0
-2859 2858 318 0
-2859 -2858 -318 0
2859 -2858 318 0
2859 2858 -318 0
-2860 2859 319 0
-2860 -2859 -319 0
2860 -2859 319 0
2860 2859 -319 0
-2861 2860 322 0
-2861 -2860 -322 0
2861 -2860 322 0
2861 2860 -322 0
-2862 2861 325 0
-2862 -2861 -325 0
2862 -2861 325 0
2862 2861 -325 0
-2863 2862 328 0
-2863 -2862 -328 0
2863 -2862 328 0
2863 2862 -328 0
-115 -2863 0
-2864 331 332 0
-2864 -331 -332 0
2864 -331 332 0
2864 331 -332 0
-2865 2864 333 0
-2865 -2864 -333 0
2865 -2864 333 0
2865 2864 -333 0
-2866 2865 334 0
-2866 -2865 -334 0
2866 -2865 334 0
2866 2865 -334 0
-2867 2866 337 0
-2867 -2866 -337 0
2867 -2866 337 0
2867 2866 -337 0
-2868 2867 340 0
-2868 -2867 -340 0
2868 -2867 340 0
2868 2867 -340 0
-2869 2868 343 0
-2869 -2868 -343 0
2869 -2868 343 0
2869 2868 -343 0
-115 -2869 0
-2870 346 347 0
-2870 -346 -347 0
2870 -346 347 0
2870 346 -347 0
-2871 2870 348 0
-2871 -2870 -348 0
2871 -2870 348 0
2871 2870 -348 0
-2872 2871 349 0
-2872 -2871 -349 0
2872 -2871 349 0
2872 2871 -349 0
-2873 2872 352 0
-2873 -2872 -352 0
2873 -2872 352 0
2873 2872 -352 0
-2874 2873 355 0
-2874 -2873 -355 0
2874 -2873 355 0
2874 2873 -355 0
-2875 2874 358 0
-2875 -2874 -358 0
2875 -2874 358 0
2875 2874 -358 0
-115 -2875 0
-2876 361 362 0
-2876 -361 -362 0
2876 -361 362 0
2876 361 -362 0
-2877 2876 363 0
-2877 -2876 -363 0
2877 -2876 363 0
2877 2876 -363 0
-2878 2877 364 0
-2878 -2877 -364 0
2878 -2877 364 0
2878 2877 -364 0
-2879 2878 367 0
-2879 -2878 -367 0
2879 -2878 367 0
2879 2878 -367 0
-2880 2879 370 0
-2880 -2879 -370 0
2880 -2879 370 0
2880 2879 -370 0
-2881 2880 373 0
-2881 -2880 -373 0
2881 -2880 373 0
2881 2880 -373 0
-115 -2881 0
-2882 376 377 0
-2882 -376 -377 0
2882 -376 377 0
2882 376 -377 0
-2883 2882 378 0
-2883 -2882 -378 0
2883 -2882 378 0
2883 2882 -378 0
-2884 2883 379 0
-2884 -2883 -379 0
2884 -2883 379 0
2884 2883 -379 0
-2885 2884 382 0
-2885 -2884 -382 0
2885 -2884 382 0
2885 2884 -382 0
-2886 2885 385 0
-2886 -2885 -385 0
2886 -2885 385 0
2886 2885 -385 0
-2887 2886 388 0
-2887 -2886 -388 0
2887 -2886 388 0
2887 2886 -388 0
-115 -2887 0
-2888 320 329 0
-2888 -320 -329 0
2888 -320 329 0
2888 320 -329 0
-116 -2888 0
-2889 335 344 0
-2889 -335 -344 0
2889 -335 344 0
2889 335 -344 0
-116 -2889 0
-2890 350 359 0
-2890 -350 -359 0
2890 -350 359 0
2890 350 -359 0
-116 -2890 0
-2891 365 374 0
-2891 -365 -374 0
2891 -365 374 0
2891 365 -374 0
-116 -2891 0
-2892 380 389 0
-2892 -380 -389 0
2892 -380 389 0
2892 380 -389 0
-116 -2892 0
-2893 318 320 0
-2893 -318 -320 0
2893 -318 320 0
2893 318 -320 0
-2894 2893 329 0
-2894 -2893 -329 0
2894 -2893 329 0
2894 2893 -329 0
-117 -2894 0
-2895 333 335 0
-2895 -333 -335 0
2895 -333 335 0
2895 333 -335 0
-2896 2895 344 0
-2896 -2895 -344 0
2896 -2895 344 0
2896 2895 -344 0
-117 -2896 0
-2897 348 350 0
-2897 -348 -350 0
2897 -348 350 0
2897 348 -350 0
-2898 2897 359 0
-2898 -2897 -359 0
2898 -2897 359 0
2898 2897 -359 0
-117 -2898 0
-2899 363 365 0
-2899 -363 -365 0
2899 -363 365 0
2899 363 -365 0
-2900 2899 374 0
-2900 -2899 -374 0
2900 -2899 374 0
2900 2899 -374 0
-117 -2900 0
-2901 378 380 0
-2901 -378 -380 0
2901 -378 380 0
2901 378 -380 0
-2902 2901 389 0
-2902 -2901 -389 0
2902 -2901 389 0
2902 2901 -389 0
-117 -2902 0
-2903 316 317 0
-2903 -316 -317 0
2903 -316 317 0
2903 316 -317 0
-2904 2903 320 0
-2904 -2903 -320 0
2904 -2903 320 0
2904 2903 -320 0
-2905 2904 322 0
-2905 -2904 -322 0
2905 -2904 322 0
2905 2904 -322 0
-2906 2905 325 0
-2906 -2905 -325 0
2906 -2905 325 0
2906 2905 -325 0
-2907 2906 329 0
-2907 -2906 -329 0
2907 -2906 329 0
2907 2906 -329 0
-118 -2907 0
-2908 331 332 0
-2908 -331 -332 0
2908 -331 332 0
2908 331 -332 0
-2909 2908 335 0
-2909 -2908 -335 0
2909 -2908 335 0
2909 2908 -335 0
-2910 2909 337 0
-2910 -2909 -337 0
2910 -2909 337 0
2910 2909 -337 0
-2911 2910 340 0
-2911 -2910 -340 0
2911 -2910 340 0
2911 2910 -340 0
-2912 2911 344 0
-2912 -2911 -344 0
2912 -2911 344 0
2912 2911 -344 0
-118 -2912 0
-2913 346 347 0
-2913 -346 -347 0
2913 -346 347 0
2913 346 -347 0
-2914 2913 350 0
-2914 -2913 -350 0
2914 -2913 350 0
2914 2913 -350 0
-2915 2914 352 0
-2915 -2914 -352 0
2915 -2914 352 0
2915 2914 -352 0
-2916 2915 355 0
-2916 -2915 -355 0
2916 -2915 355 0
2916 2915 -355 0
-2917 2916 359 0
-2917 -2916 -359 0
2917 -2916 359 0
2917 2916 -359 0
-118 -2917 0
-2918 361 362 0
-2918 -361 -362 0
2918 -361 362 0
2918 361 -362 0
-2919 2918 365 0
-2919 -2918 -365 0
2919 -2918 365 0
2919 2918 -365 0
-2920 2919 367 0
-2920 -2919 -367 0
2920 -2919 367 0
2920 2919 -367 0
-2921 2920 370 0
-2921 -2920 -370 0
2921 -2920 370 0
2921 2920 -370 0
-2922 2921 374 0
-2922 -2921 -374 0
2922 -2921 374 0
2922 2921 -374 0
-118 -2922 0
-2923 376 377 0
-2923 -376 -377 0
2923 -376 377 0
2923 376 -377 0
-2924 2923 380 0
-2924 -2923 -380 0
2924 -2923 380 0
2924 2923 -380 0
-2925 2924 382 0
-2925 -2924 -382 0
2925 -2924 382 0
2925 2924 -382 0
-2926 2925 385 0
-2926 -2925 -385 0
2926 -2925 385 0
2926 2925 -385 0
-2927 2926 389 0
-2927 -2926 -389 0
2927 -2926 389 0
2927 2926 -389 0
-118 -2927 0
-2928 316 317 0
-2928 -316 -317 0
2928 -316 317 0
2928 316 -317 0
-2929 2928 318 0
-2929 -2928 -318 0
2929 -2928 318 0
2929 2928 -318 0
-2930 2929 320 0
-2930 -2929 -320 0
2930 -2929 320 0
2930 2929 -320 0
-2931 2930 322 0
-2931 -2930 -322 0
2931 -2930 322 0
2931 2930 -322 0
-2932 2931 325 0
-2932 -2931 -325 0
2932 -2931 325 0
2932 2931 -325 0
-2933 2932 329 0
-2933 -2932 -329 0
2933 -2932 329 0
2933 2932 -329 0
-119 -2933 0
-2934 331 332 0
-2934 -331 -332 0
2934 -331 332 0
2934 331 -332 0
-2935 2934 333 0
-2935 -2934 -333 0
2935 -2934 333 0
2935 2934 -333 0
-2936 2935 335 0
-2936 -2935 -335 0
2936 -2935 335 0
2936 2935 -335 0
-2937 2936 337 0
-2937 -2936 -337 0
2937 -2936 337 0
2937 2936 -337 0
-2938 2937 340 0
-2938 -2937 -340 0
2938 -2937 340 0
2938 2937 -340 0
-2939 2938 344 0
-2939 -2938 -344 0
2939 -2938 344 0
2939 2938 -344 0
-119 -2939 0
-2940 346 347 0
-2940 -346 -347 0
2940 -346 347 0
2940 346 -347 0
-2941 2940 348 0
-2941 -2940 -348 0
2941 -2940 348 0
2941 2940 -348 0
-2942 2941 350 0
-2942 -2941 -350 0
2942 -2941 350 0
2942 2941 -350 0
-2943 2942 352 0
-2943 -2942 -352 0
2943 -2942 352 0
2943 2942 -352 0
-2944 2943 355 0
-2944 -2943 -355 0
2944 -2943 355 0
2944 2943 -355 0
-2945 2944 359 0
-2945 -2944 -359 0
2945 -2944 359 0
2945 2944 -359 0
-119 -2945 0
-2946 361 362 0
-2946 -361 -362 0
2946 -361 362 0
2946 361 -362 0
-2947 2946 363 0
-2947 -2946 -363 0
2947 -2946 363 0
2947 2946 -363 0
-2948 2947 365 0
-2948 -2947 -365 0
2948 -2947 365 0
2948 2947 -365 0
-2949 2948 367 0
-2949 -2948 -367 0
2949 -2948 367 0
2949 2948 -367 0
-2950 2949 370 0
-2950 -2949 -370 0
2950 -2949 370 0
2950 2949 -370 0
-2951 2950 374 0
-2951 -2950 -374 0
2951 -2950 374 0
2951 2950 -374 0
-119 -2951 0
-2952 376 377 0
-2952 -376 -377 0
2952 -376 377 0
2952 376 -377 0
-2953 2952 378 0
-2953 -2952 -378 0
2953 -2952 378 0
2953 2952 -378 0
-2954 2953 380 0
-2954 -2953 -380 0
2954 -2953 380 0
2954 2953 -380 0
-2955 2954 382 0
-2955 -2954 -382 0
2955 -2954 382 0
2955 2954 -382 0
-2956 2955 385 0
-2956 -2955 -385 0
2956 -2955 385 0
2956 2955 -385 0
-2957 2956 389 0
-2957 -2956 -389 0
2957 -2956 389 0
2957 2956 -389 0
-119 -2957 0
-2958 319 320 0
-2958 -319 -320 0
2958 -319 320 0
2958 319 -320 0
-2959 2958 328 0
-2959 -2958 -328 0
2959 -2958 328 0
2959 2958 -328 0
-2960 2959 329 0
-2960 -2959 -329 0
2960 -2959 329 0
2960 2959 -329 0
-120 -2960 0
-2961 334 335 0
-2961 -334 -335 0
2961 -334 335 0
2961 334 -335 0
-2962 2961 343 0
-2962 -2961 -343 0
2962 -2961 343 0
2962 2961 -343 0
-2963 2962 344 0
-2963 -2962 -344 0
2963 -2962 344 0
2963 2962 -344 0
-120 -2963 0
-2964 349 350 0
-2964 -349 -350 0
2964 -349 350 0
2964 349 -350 0
-2965 2964 358 0
-2965 -2964 -358 0
2965 -2964 358 0
2965 2964 -358 0
-2966 2965 359 0
-2966 -2965 -359 0
2966 -2965 359 0
2966 2965 -359 0
-120 -2966 0
-2967 364 365 0
-2967 -364 -365 0
2967 -364 365 0
2967 364 -365 0
-2968 2967 373 0
-2968 -2967 -373 0
2968 -2967 373 0
2968 2967 -373 0
-2969 2968 374 0
-2969 -2968 -374 0
2969 -2968 374 0
2969 2968 -374 0
-120 -2969 0
-2970 379 380 0
-2970 -379 -380 0
2970 -379 380 0
2970 379 -380 0
-2971 2970 388 0
-2971 -2970 -388 0
2971 -2970 388 0
2971 2970 -388 0
-2972 2971 389 0
-2972 -2971 -389 0
2972 -2971 389 0
2972 2971 -389 0
-120 -2972 0
-2973 318 319 0
-2973 -318 -319 0
2973 -318 319 0
2973 318 -319 0
-2974 2973 320 0
-2974 -2973 -320 0
2974 -2973 320 0
2974 2973 -320 0
-2975 2974 328 0
-2975 -2974 -328 0
2975 -2974 328 0
2975 2974 -328 0
-2976 2975 329 0
-2976 -2975 -329 0
2976 -2975 329 0
2976 2975 -329 0
-121 -2976 0
-2977 333 334 0
-2977 -333 -334 0
2977 -333 334 0
2977 333 -334 0
-2978 2977 335 0
-2978 -2977 -335 0
2978 -2977 335 0
2978 2977 -335 0
-2979 2978 343 0
-2979 -2978 -343 0
2979 -2978 343 0
2979 2978 -343 0
-2980 2979 344 0
-2980 -2979 -344 0
2980 -2979 344 0
2980 2979 -344 0
-121 -2980 0
-2981 348 349 0
-2981 -348 -349 0
2981 -348 349 0
2981 348 -349 0
-2982 2981 350 0
-2982 -2981 -350 0
2982 -2981 350 0
2982 2981 -350 0
-2983 2982 358 0
-2983 -2982 -358 0
2983 -2982 358 0
2983 2982 -358 0
-2984 2983 359 0
-2984 -2983 -359 0
2984 -2983 359 0
2984 2983 -359 0
-121 -2984 0
-2985 363 364 0
-2985 -363 -364 0
2985 -363 364 0
2985 363 -364 0
-2986 2985 365 0
-2986 -2985 -365 0
2986 -2985 365 0
2986 2985 -365 0
-2987 2986 373 0
-2987 -2986 -373 0
2987 -2986 373 0
2987 2986 -373 0
-2988 2987 374 0
-2988 -2987 -374 0
2988 -2987 374 0
2988 2987 -374 0
-121 -2988 0
-2989 378 379 0
-2989 -378 -379 0
2989 -378 379 0
2989 378 -379 0
-2990 2989 380 0
-2990 -2989 -380 0
2990 -2989 380 0
2990 2989 -380 0
-2991 2990 388 0
-2991 -2990 -388 0
2991 -2990 388 0
2991 2990 -388 0
-2992 2991 389 0
-2992 -2991 -389 0
2992 -2991 389 0
2992 2991 -389 0
-121 -2992 0
-2993 316 317 0
-2993 -316 -317 0
2993 -316 317 0
2993 316 -317 0
-2994 2993 319 0
-2994 -2993 -319 0
2994 -2993 319 0
2994 2993 -319 0
-2995 2994 320 0
-2995 -2994 -320 0
2995 -2994 320 0
2995 2994 -320 0
-2996 2995 322 0
-2996 -2995 -322 0
2996 -2995 322 0
2996 2995 -322 0
-2997 2996 325 0
-2997 -2996 -325 0
2997 -2996 325 0
2997 2996 -325 0
-2998 2997 328 0
-2998 -2997 -328 0
2998 -2997 328 0
2998 2997 -328 0
-2999 2998 329 0
-2999 -2998 -329 0
2999 -2998 329 0
2999 2998 -329 0
-122 -2999 0
-3000 331 332 0
-3000 -331 -332 0
3000 -331 332 0
3000 331 -332 0
-3001 3000 334 0
-3001 -3000 -334 0
3001 -3000 334 0
3001 3000 -334 0
-3002 3001 335 0
-3002 -3001 -335 0
3002 -3001 335 0
3002 3001 -335 0
-3003 3002 337 0
-3003 -3002 -337 0
3003 -3002 337 0
3003 3002 -337 0
-3004 3003 340 0
-3004 -3003 -340 0
3004 -3003 340 0
3004 3003 -340 0
-3005 3004 343 0
-3005 -3004 -343 0
3005 -3004 343 0
3005 3004 -343 0
-3006 3005 344 0
-3006 -3005 -344 0
3006 -3005 344 0
3006 3005 -344 0
-122 -3006 0
-3007 346 347 0
-3007 -346 -347 0
3007 -346 347 0
3007 346 -347 0
-3008 3007 349 0
-3008 -3007 -349 0
3008 -3007 349 0
3008 3007 -349 0
-3009 3008 350 0
-3009 -3008 -350 0
3009 -3008 350 0
3009 3008 -350 0
-3010 3009 352 0
-3010 -3009 -352 0
3010 -3009 352 0
3010 3009 -352 0
-3011 3010 355 0
-3011 -3010 -355 0
3011 -3010 355 0
3011 3010 -355 0
-3012 3011 358 0
-3012 -3011 -358 0
3012 -3011 358 0
3012 3011 -358 0
-3013 3012 359 0
-3013 -3012 -359 0
3013 -3012 359 0
3013 3012 -359 0
-122 -3013 0
-3014 361 362 0
-3014 -361 -362 0
3014 -361 362 0
3014 361 -362 0
-3015 3014 364 0
-3015 -3014 -364 0
3015 -3014 364 0
3015 3014 -364 0
-3016 3015 365 0
-3016 -3015 -365 0
3016 -3015 365 0
3016 3015 -365 0
-3017 3016 367 0
-3017 -3016 -367 0
3017 -3016 367 0
3017 3016 -367 0
-3018 3017 370 0
-3018 -3017 -370 0
3018 -3017 370 0
3018 3017 -370 0
-3019 3018 373 0
-3019 -3018 -373 0
3019 -3018 373 0
3019 3018 -373 0
-3020 3019 374 0
-3020 -3019 -374 0
3020 -3019 374 0
3020 3019 -374 0
-122 -3020 0
-3021 376 377 0
-3021 -376 -377 0
3021 -376 377 0
3021 376 -377 0
-3022 3021 379 0
-3022 -3021 -379 0
3022 -3021 379 0
3022 3021 -379 0
-3023 3022 380 0
-3023 -3022 -380 0
3023 -3022 380 0
3023 3022 -380 0
-3024 3023 382 0
-3024 -3023 -382 0
3024 -3023 382 0
3024 3023 -382 0
-3025 3024 385 0
-3025 -3024 -385 0
3025 -3024 385 0
3025 3024 -385 0
-3026 3025 388 0
-3026 -3025 -388 0
3026 -3025 388 0
3026 3025 -388 0
-3027 3026 389 0
-3027 -3026 -389 0
3027 -3026 389 0
3027 3026 -389 0
-122 -3027 0
-3028 316 317 0
-3028 -316 -317 0
3028 -316 317 0
3028 316 -317 0
-3029 3028 318 0
-3029 -3028 -318 0
3029 -3028 318 0
3029 3028 -318 0
-3030 3029 319 0
-3030 -3029 -319 0
3030 -3029 319 0
3030 3029 -319 0
-3031 3030 320 0
-3031 -3030 -320 0
3031 -3030 320 0
3031 3030 -320 0
-3032 3031 322 0
-3032 -3031 -322 0
3032 -3031 322 0
3032 3031 -322 0
-3033 3032 325 0
-3033 -3032 -325 0
3033 -3032 325 0
3033 3032 -325 0
-3034 3033 328 0
-3034 -3033 -328 0
3034 -3033 328 0
3034 3033 -328 0
-3035 3034 329 0
-3035 -3034 -329 0
3035 -3034 329 0
3035 3034 -329 0
-123 -3035 0
-3036 331 332 0
-3036 -331 -332 0
3036 -331 332 0
3036 331 -332 0
-3037 3036 333 0
-3037 -3036 -333 0
3037 -3036 333 0
3037 3036 -333 0
-3038 3037 334 0
-3038 -3037 -334 0
3038 -3037 334 0
3038 3037 -334 0
-3039 3038 335 0
-3039 -3038 -335 0
3039 -3038 335 0
3039 3038 -335 0
-3040 3039 337 0
-3040 -3039 -337 0
3040 -3039 337 0
3040 3039 -337 0
-3041 3040 340 0
-3041 -3040 -340 0
3041 -3040 340 0
3041 3040 -340 0
-3042 3041 343 0
-3042 -3041 -343 0
3042 -3041 343 0
3042 3041 -343 0
-3043 3042 344 0
-3043 -3042 -344 0
3043 -3042 344 0
3043 3042 -344 0
-123 -3043 0
-3044 346 347 0
-3044 -346 -347 0
3044 -346 347 0
3044 346 -347 0
-3045 3044 348 0
-3045 -3044 -348 0
3045 -3044 348 0
3045 3044 -348 0
-3046 3045 349 0
-3046 -3045 -349 0
3046 -3045 349 0
3046 3045 -349 0
-3047 3046 350 0
-3047 -3046 -350 0
3047 -3046 350 0
3047 3046 -350 0
-3048 3047 352 0
-3048 -3047 -352 0
3048 -3047 352 0
3048 3047 -352 0
-3049 3048 355 0
-3049 -3048 -355 0
3049 -3048 355 0
3049 3048 -355 0
-3050 3049 358 0
-3050 -3049 -358 0
3050 -3049 358 0
3050 3049 -358 0
-3051 3050 359 0
-3051 -3050 -359 0
3051 -3050 359 0
3051 3050 -359 0
-123 -3051 0
-3052 361 362 0
-3052 -361 -362 0
3052 -361 362 0
3052 361 -362 0
-3053 3052 363 0
-3053 -3052 -363 0
3053 -3052 363 0
3053 3052 -363 0
-3054 3053 364 0
-3054 -3053 -364 0
3054 -3053 364 0
3054 3053 -364 0
-3055 3054 365 0
-3055 -3054 -365 0
3055 -3054 365 0
3055 3054 -365 0
-3056 3055 367 0
-3056 -3055 -367 0
3056 -3055 367 0
3056 3055 -367 0
-3057 3056 370 0
-3057 -3056 -370 0
3057 -3056 370 0
3057 3056 -370 0
-3058 3057 373 0
-3058 -3057 -373 0
3058 -3057 373 0
3058 3057 -373 0
-3059 3058 374 0
-3059 -3058 -374 0
3059 -3058 374 0
3059 3058 -374 0
-123 -3059 0
-3060 376 377 0
-3060 -376 -377 0
3060 -376 377 0
3060 376 -377 0
-3061 3060 378 0
-3061 -3060 -378 0
3061 -3060 378 0
3061 3060 -378 0
-3062 3061 379 0
-3062 -3061 -379 0
3062 -3061 379 0
3062 3061 -379 0
-3063 3062 380 0
-3063 -3062 -380 0
3063 -3062 380 0
3063 3062 -380 0
-3064 3063 382 0
-3064 -3063 -382 0
3064 -3063 382 0
3064 3063 -382 0
-3065 3064 385 0
-3065 -3064 -385 0
3065 -3064 385 0
3065 3064 -385 0
-3066 3065 388 0
-3066 -3065 -388 0
3066 -3065 388 0
3066 3065 -388 0
-3067 3066 389 0
-3067 -3066 -389 0
3067 -3066 389 0
3067 3066 -389 0
-123 -3067 0
-3068 323 328 0
-3068 -323 -328 0
3068 -323 328 0
3068 323 -328 0
-124 -3068 0
-3069 338 343 0
-3069 -338 -343 0
3069 -338 343 0
3069 338 -343 0
-124 -3069 0
-3070 353 358 0
-3070 -353 -358 0
3070 -353 358 0
3070 353 -358 0
-124 -3070 0
-3071 368 373 0
-3071 -368 -373 0
3071 -368 373 0
3071 368 -373 0
-124 -3071 0
-3072 383 388 0
-3072 -383 -388 0
3072 -383 388 0
3072 383 -388 0
-124 -3072 0
-3073 322 323 0
-3073 -322 -323 0
3073 -322 323 0
3073 322 -323 0
-3074 3073 328 0
-3074 -3073 -328 0
3074 -3073 328 0
3074 3073 -328 0
-125 -3074 0
-3075 337 338 0
-3075 -337 -338 0
3075 -337 338 0
3075 337 -338 0
-3076 3075 343 0
-3076 -3075 -343 0
3076 -3075 343 0
3076 3075 -343 0
-125 -3076 0
-3077 352 353 0
-3077 -352 -353 0
3077 -352 353 0
3077 352 -353 0
-3078 3077 358 0
-3078 -3077 -358 0
3078 -3077 358 0
3078 3077 -358 0
-125 -3078 0
-3079 367 368 0
-3079 -367 -368 0
3079 -367 368 0
3079 367 -368 0
-3080 3079 373 0
-3080 -3079 -373 0
3080 -3079 373 0
3080 3079 -373 0
-125 -3080 0
-3081 382 383 0
-3081 -382 -383 0
3081 -382 383 0
3081 382 -383 0
-3082 3081 388 0
-3082 -3081 -388 0
3082 -3081 388 0
3082 3081 -388 0
-125 -3082 0
-3083 316 318 0
-3083 -316 -318 0
3083 -316 318 0
3083 316 -318 0
-3084 3083 321 0
-3084 -3083 -321 0
3084 -3083 321 0
3084 3083 -321 0
-3085 3084 323 0
-3085 -3084 -323 0
3085 -3084 323 0
3085 3084 -323 0
-3086 3085 325 0
-3086 -3085 -325 0
3086 -3085 325 0
3086 3085 -325 0
-3087 3086 328 0
-3087 -3086 -328 0
3087 -3086 328 0
3087 3086 -328 0
-126 -3087 0
-3088 331 333 0
-3088 -331 -333 0
3088 -331 333 0
3088 331 -333 0
-3089 3088 336 0
-3089 -3088 -336 0
3089 -3088 336 0
3089 3088 -336 0
-3090 3089 338 0
-3090 -3089 -338 0
3090 -3089 338 0
3090 3089 -338 0
-3091 3090 340 0
-3091 -3090 -340 0
3091 -3090 340 0
3091 3090 -340 0
-3092 3091 343 0
-3092 -3091 -343 0
3092 -3091 343 0
3092 3091 -343 0
-126 -3092 0
-3093 346 348 0
-3093 -346 -348 0
3093 -346 348 0
3093 346 -348 0
-3094 3093 351 0
-3094 -3093 -351 0
3094 -3093 351 0
3094 3093 -351 0
-3095 3094 353 0
-3095 -3094 -353 0
3095 -3094 353 0
3095 3094 -353 0
-3096 3095 355 0
-3096 -3095 -355 0
3096 -3095 355 0
3096 3095 -355 0
-3097 3096 358 0
-3097 -3096 -358 0
3097 -3096 358 0
3097 3096 -358 0
-126 -3097 0
-3098 361 363 0
-3098 -361 -363 0
3098 -361 363 0
3098 361 -363 0
-3099 3098 366 0
-3099 -3098 -366 0
3099 -3098 366 0
3099 3098 -366 0
-3100 3099 368 0
-3100 -3099 -368 0
3100 -3099 368 0
3100 3099 -368 0
-3101 3100 370 0
-3101 -3100 -370 0
3101 -3100 370 0
3101 3100 -370 0
-3102 3101 373 0
-3102 -3101 -373 0
3102 -3101 373 0
3102 3101 -373 0
-126 -3102 0
-3103 376 378 0
-3103 -376 -378 0
3103 -376 378 0
3103 376 -378 0
-3104 3103 381 0
-3104 -3103 -381 0
3104 -3103 381 0
3104 3103 -381 0
-3105 3104 383 0
-3105 -3104 -383 0
3105 -3104 383 0
3105 3104 -383 0
-3106 3105 385 0
-3106 -3105 -385 0
3106 -3105 385 0
3106 3105 -385 0
-3107 3106 388 0
-3107 -3106 -388 0
3107 -3106 388 0
3107 3106 -388 0
-126 -3107 0
-3108 316 318 0
-3108 -316 -318 0
3108 -316 318 0
3108 316 -318 0
-3109 3108 321 0
-3109 -3108 -321 0
3109 -3108 321 0
3109 3108 -321 0
-3110 3109 322 0
-3110 -3109 -322 0
3110 -3109 322 0
3110 3109 -322 0
-3111 3110 323 0
-3111 -3110 -323 0
3111 -3110 323 0
3111 3110 -323 0
-3112 3111 325 0
-3112 -3111 -325 0
3112 -3111 325 0
3112 3111 -325 0
-3113 3112 328 0
-3113 -3112 -328 0
3113 -3112 328 0
3113 3112 -328 0
-127 -3113 0
-3114 331 333 0
-3114 -331 -333 0
3114 -331 333 0
3114 331 -333 0
-3115 3114 336 0
-3115 -3114 -336 0
3115 -3114 336 0
3115 3114 -336 0
-3116 3115 337 0
-3116 -3115 -337 0
3116 -3115 337 0
3116 3115 -337 0
-3117 3116 338 0
-3117 -3116 -338 0
3117 -3116 338 0
3117 3116 -338 0
-3118 3117 340 0
-3118 -3117 -340 0
3118 -3117 340 0
3118 3117 -340 0
-3119 3118 343 0
-3119 -3118 -343 0
3119 -3118 343 0
3119 3118 -343 0
-127 -3119 0
-3120 346 348 0
-3120 -346 -348 0
3120 -346 348 0
3120 346 -348 0
-3121 3120 351 0
-3121 -3120 -351 0
3121 -3120 351 0
3121 3120 -351 0
-3122 3121 352 0
-3122 -3121 -352 0
3122 -3121 352 0
3122 3121 -352 0
-3123 3122 353 0
-3123 -3122 -353 0
3123 -3122 353 0
3123 3122 -353 0
-3124 3123 355 0
-3124 -3123 -355 0
3124 -3123 355 0
3124 3123 -355 0
-3125 3124 358 0
-3125 -3124 -358 0
3125 -3124 358 0
3125 3124 -358 0
-127 -3125 0
-3126 361 363 0
-3126 -361 -363 0
3126 -361 363 0
3126 361 -363 0
-3127 3126 366 0
-3127 -3126 -366 0
3127 -3126 366 0
3127 3126 -366 0
-3128 3127 367 0
-3128 -3127 -367 0
3128 -3127 367 0
3128 3127 -367 0
-3129 3128 368 0
-3129 -3128 -368 0
3129 -3128 368 0
3129 3128 -368 0
-3130 3129 370 0
-3130 -3129 -370 0
3130 -3129 370 0
3130 3129 -370 0
-3131 3130 373 0
-3131 -3130 -373 0
3131 -3130 373 0
3131 3130 -373 0
-127 -3131 0
-3132 376 378 0
-3132 -376 -378 0
3132 -376 378 0
3132 376 -378 0
-3133 3132 381 0
-3133 -3132 -381 0
3133 -3132 381 0
3133 3132 -381 0
-3134 3133 382 0
-3134 -3133 -382 0
3134 -3133 382 0
3134 3133 -382 0
-3135 3134 383 0
-3135 -3134 -383 0
3135 -3134 383 0
3135 3134 -383 0
-3136 3135 385 0
-3136 -3135 -385 0
3136 -3135 385 0
3136 3135 -385 0
-3137 3136 388 0
-3137 -3136 -388 0
3137 -3136 388 0
3137 3136 -388 0
-127 -3137 0
-3138 324 329 0
-3138 -324 -329 0
3138 -324 329 0
3138 324 -329 0
-128 -3138 0
-3139 339 344 0
-3139 -339 -344 0
3139 -339 344 0
3139 339 -344 0
-128 -3139 0
-3140 354 359 0
-3140 -354 -359 0
3140 -354 359 0
3140 354 -359 0
-128 -3140 0
-3141 369 374 0
-3141 -369 -374 0
3141 -369 374 0
3141 369 -374 0
-128 -3141 0
-3142 384 389 0
-3142 -384 -389 0
3142 -384 389 0
3142 384 -389 0
-128 -3142 0
-3143 322 324 0
-3143 -322 -324 0
3143 -322 324 0
3143 322 -324 0
-3144 3143 329 0
-3144 -3143 -329 0
3144 -3143 329 0
3144 3143 -329 0
-129 -3144 0
-3145 337 339 0
-3145 -337 -339 0
3145 -337 339 0
3145 337 -339 0
-3146 3145 344 0
-3146 -3145 -344 0
3146 -3145 344 0
3146 3145 -344 0
-129 -3146 0
-3147 352 354 0
-3147 -352 -354 0
3147 -352 354 0
3147 352 -354 0
-3148 3147 359 0
-3148 -3147 -359 0
3148 -3147 359 0
3148 3147 -359 0
-129 -3148 0
-3149 367 369 0
-3149 -367 -369 0
3149 -367 369 0
3149 367 -369 0
-3150 3149 374 0
-3150 -3149 -374 0
3150 -3149 374 0
3150 3149 -374 0
-129 -3150 0
-3151 382 384 0
-3151 -382 -384 0
3151 -382 384 0
3151 382 -384 0
-3152 3151 389 0
-3152 -3151 -389 0
3152 -3151 389 0
3152 3151 -389 0
-129 -3152 0
-3153 316 318 0
-3153 -316 -318 0
3153 -316 318 0
3153 316 -318 0
-3154 3153 321 0
-3154 -3153 -321 0
3154 -3153 321 0
3154 3153 -321 0
-3155 3154 324 0
-3155 -3154 -324 0
3155 -3154 324 0
3155 3154 -324 0
-3156 3155 325 0
-3156 -3155 -325 0
3156 -3155 325 0
3156 3155 -325 0
-3157 3156 329 0
-3157 -3156 -329 0
3157 -3156 329 0
3157 3156 -329 0
-130 -3157 0
-3158 331 333 0
-3158 -331 -333 0
3158 -331 333 0
3158 331 -333 0
-3159 3158 336 0
-3159 -3158 -336 0
3159 -3158 336 0
3159 3158 -336 0
-3160 3159 339 0
-3160 -3159 -339 0
3160 -3159 339 0
3160 3159 -339 0
-3161 3160 340 0
-3161 -3160 -340 0
3161 -3160 340 0
3161 3160 -340 0
-3162 3161 344 0
-3162 -3161 -344 0
3162 -3161 344 0
3162 3161 -344 0
-130 -3162 0
-3163 346 348 0
-3163 -346 -348 0
3163 -346 348 0
3163 346 -348 0
-3164 3163 351 0
-3164 -3163 -351 0
3164 -3163 351 0
3164 3163 -351 0
-3165 3164 354 0
-3165 -3164 -354 0
3165 -3164 354 0
3165 3164 -354 0
-3166 3165 355 0
-3166 -3165 -355 0
3166 -3165 355 0
3166 3165 -355 0
-3167 3166 359 0
-3167 -3166 -359 0
3167 -3166 359 0
3167 3166 -359 0
-130 -3167 0
-3168 361 363 0
-3168 -361 -363 0
3168 -361 363 0
3168 361 -363 0
-3169 3168 366 0
-3169 -3168 -366 0
3169 -3168 366 0
3169 3168 -366 0
-3170 3169 369 0
-3170 -3169 -369 0
3170 -3169 369 0
3170 3169 -369 0
-3171 3170 370 0
-3171 -3170 -370 0
3171 -3170 370 0
3171 3170 -370 0
-3172 3171 374 0
-3172 -3171 -374 0
3172 -3171 374 0
3172 3171 -374 0
-130 -3172 0
-3173 376 378 0
-3173 -376 -378 0
3173 -376 378 0
3173 376 -378 0
-3174 3173 381 0
-3174 -3173 -381 0
3174 -3173 381 0
3174 3173 -381 0
-3175 3174 384 0
-3175 -3174 -384 0
3175 -3174 384 0
3175 3174 -384 0
-3176 3175 385 0
-3176 -3175 -385 0
3176 -3175 385 0
3176 3175 -385 0
-3177 3176 389 0
-3177 -3176 -389 0
3177 -3176 389 0
3177 3176 -389 0
-130 -3177 0
-3178 316 318 0
-3178 -316 -318 0
3178 -316 318 0
3178 316 -318 0
-3179 3178 321 0
-3179 -3178 -321 0
3179 -3178 321 0
3179 3178 -321 0
-3180 3179 322 0
-3180 -3179 -322 0
3180 -3179 322 0
3180 3179 -322 0
-3181 3180 324 0
-3181 -3180 -324 0
3181 -3180 324 0
3181 3180 -324 0
-3182 3181 325 0
-3182 -3181 -325 0
3182 -3181 325 0
3182 3181 -325 0
-3183 3182 329 0
-3183 -3182 -329 0
3183 -3182 329 0
3183 3182 -329 0
-131 -3183 0
-3184 331 333 0
-3184 -331 -333 0
3184 -331 333 0
3184 331 -333 0
-3185 3184 336 0
-3185 -3184 -336 0
3185 -3184 336 0
3185 3184 -336 0
-3186 3185 337 0
-3186 -3185 -337 0
3186 -3185 337 0
3186 3185 -337 0
-3187 3186 339 0
-3187 -3186 -339 0
3187 -3186 339 0
3187 3186 -339 0
-3188 3187 340 0
-3188 -3187 -340 0
3188 -3187 340 0
3188 3187 -340 0
-3189 3188 344 0
-3189 -3188 -344 0
3189 -3188 344 0
3189 3188 -344 0
-131 -3189 0
-3190 346 348 0
-3190 -346 -348 0
3190 -346 348 0
3190 346 -348 0
-3191 3190 351 0
-3191 -3190 -351 0
3191 -3190 351 0
3191 3190 -351 0
-3192 3191 352 0
-3192 -3191 -352 0
3192 -3191 352 0
3192 3191 -352 0
-3193 3192 354 0
-3193 -3192 -354 0
3193 -3192 354 0
3193 3192 -354 0
-3194 3193 355 0
-3194 -3193 -355 0
3194 -3193 355 0
3194 3193 -355 0
-3195 3194 359 0
-3195 -3194 -359 0
3195 -3194 359 0
3195 3194 -359 0
-131 -3195 0
-3196 361 363 0
-3196 -361 -363 0
3196 -361 363 0
3196 361 -363 0
-3197 3196 366 0
-3197 -3196 -366 0
3197 -3196 366 0
3197 3196 -366 0
-3198 3197 367 0
-3198 -3197 -367 0
3198 -3197 367 0
3198 3197 -367 0
-3199 3198 369 0
-3199 -3198 -369 0
3199 -3198 369 0
3199 3198 -369 0
-3200 3199 370 0
-3200 -3199 -370 0
3200 -3199 370 0
3200 3199 -370 0
-3201 3200 374 0
-3201 -3200 -374 0
3201 -3200 374 0
3201 3200 -374 0
-131 -3201 0
-3202 376 378 0
-3202 -376 -378 0
3202 -376 378 0
3202 376 -378 0
-3203 3202 381 0
-3203 -3202 -381 0
3203 -3202 381 0
3203 3202 -381 0
-3204 3203 382 0
-3204 -3203 -382 0
3204 -3203 382 0
3204 3203 -382 0
-3205 3204 384 0
-3205 -3204 -384 0
3205 -3204 384 0
3205 3204 -384 0
-3206 3205 385 0
-3206 -3205 -385 0
3206 -3205 385 0
3206 3205 -385 0
-3207 3206 389 0
-3207 -3206 -389 0
3207 -3206 389 0
3207 3206 -389 0
-131 -3207 0
-3208 323 324 0
-3208 -323 -324 0
3208 -323 324 0
3208 323 -324 0
-3209 3208 328 0
-3209 -3208 -328 0
3209 -3208 328 0
3209 3208 -328 0
-3210 3209 329 0
-3210 -3209 -329 0
3210 -3209 329 0
3210 3209 -329 0
-132 -3210 0
-3211 338 339 0
-3211 -338 -339 0
3211 -338 339 0
3211 338 -339 0
-3212 3211 343 0
-3212 -3211 -343 0
3212 -3211 343 0
3212 3211 -343 0
-3213 3212 344 0
-3213 -3212 -344 0
3213 -3212 344 0
3213 3212 -344 0
-132 -3213 0
-3214 353 354 0
-3214 -353 -354 0
3214 -353 354 0
3214 353 -354 0
-3215 3214 358 0
-3215 -3214 -358 0
3215 -3214 358 0
3215 3214 -358 0
-3216 3215 359 0
-3216 -3215 -359 0
3216 -3215 359 0
3216 3215 -359 0
-132 -3216 0
-3217 368 369 0
-3217 -368 -369 0
3217 -368 369 0
3217 368 -369 0
-3218 3217 373 0
-3218 -3217 -373 0
3218 -3217 373 0
3218 3217 -373 0
-3219 3218 374 0
-3219 -3218 -374 0
3219 -3218 374 0
3219 3218 -374 0
-132 -3219 0
-3220 383 384 0
-3220 -383 -384 0
3220 -383 384 0
3220 383 -384 0
-3221 3220 388 0
-3221 -3220 -388 0
3221 -3220 388 0
3221 3220 -388 0
-3222 3221 389 0
-3222 -3221 -389 0
3222 -3221 389 0
3222 3221 -389 0
-132 -3222 0
-3223 322 323 0
-3223 -322 -323 0
3223 -322 323 0
3223 322 -323 0
-3224 3223 324 0
-3224 -3223 -324 0
3224 -3223 324 0
3224 3223 -324 0
-3225 3224 328 0
-3225 -3224 -328 0
3225 -3224 328 0
3225 3224 -328 0
-3226 3225 329 0
-3226 -3225 -329 0
3226 -3225 329 0
3226 3225 -329 0
-133 -3226 0
-3227 337 338 0
-3227 -337 -338 0
3227 -337 338 0
3227 337 -338 0
-3228 3227 339 0
-3228 -3227 -339 0
3228 -3227 339 0
3228 3227 -339 0
-3229 3228 343 0
-3229 -3228 -343 0
3229 -3228 343 0
3229 3228 -343 0
-3230 3229 344 0
-3230 -3229 -344 0
3230 -3229 344 0
3230 3229 -344 0
-133 -3230 0
-3231 352 353 0
-3231 -352 -353 0
3231 -352 353 0
3231 352 -353 0
-3232 3231 354 0
-3232 -3231 -354 0
3232 -3231 354 0
3232 3231 -354 0
-3233 3232 358 0
-3233 -3232 -358 0
3233 -3232 358 0
3233 3232 -358 0
-3234 3233 359 0
-3234 -3233 -359 0
3234 -3233 359 0
3234 3233 -359 0
-133 -3234 0
-3235 367 368 0
-3235 -367 -368 0
3235 -367 368 0
3235 367 -368 0
-3236 3235 369 0
-3236 -3235 -369 0
3236 -3235 369 0
3236 3235 -369 0
-3237 3236 373 0
-3237 -3236 -373 0
3237 -3236 373 0
3237 3236 -373 0
-3238 3237 374 0
-3238 -3237 -374 0
3238 -3237 374 0
3238 3237 -374 0
-133 -3238 0
-3239 382 383 0
-3239 -382 -383 0
3239 -382 383 0
3239 382 -383 0
-3240 3239 384 0
-3240 -3239 -384 0
3240 -3239 384 0
3240 3239 -384 0
-3241 3240 388 0
-3241 -3240 -388 0
3241 -3240 388 0
3241 3240 -388 0
-3242 3241 389 0
-3242 -3241 -389 0
3242 -3241 389 0
3242 3241 -389 0
-133 -3242 0
-3243 316 318 0
-3243 -316 -318 0
3243 -316 318 0
3243 316 -318 0
-3244 3243 321 0
-3244 -3243 -321 0
3244 -3243 321 0
3244 3243 -321 0
-3245 3244 323 0
-3245 -3244 -323 0
3245 -3244 323 0
3245 3244 -323 0
-3246 3245 324 0
-3246 -3245 -324 0
3246 -3245 324 0
3246 3245 -324 0
-3247 3246 325 0
-3247 -3246 -325 0
3247 -3246 325 0
3247 3246 -325 0
-3248 3247 328 0
-3248 -3247 -328 0
3248 -3247 328 0
3248 3247 -328 0
-3249 3248 329 0
-3249 -3248 -329 0
3249 -3248 329 0
3249 3248 -329 0
-134 -3249 0
-3250 331 333 0
-3250 -331 -333 0
3250 -331 333 0
3250 331 -333 0
-3251 3250 336 0
-3251 -3250 -336 0
3251 -3250 336 0
3251 3250 -336 0
-3252 3251 338 0
-3252 -3251 -338 0
3252 -3251 338 0
3252 3251 -338 0
-3253 3252 339 0
-3253 -3252 -339 0
3253 -3252 339 0
3253 3252 -339 0
-3254 3253 340 0
-3254 -3253 -340 0
3254 -3253 340 0
3254 3253 -340 0
-3255 3254 343 0
-3255 -3254 -343 0
3255 -3254 343 0
3255 3254 -343 0
-3256 3255 344 0
-3256 -3255 -344 0
3256 -3255 344 0
3256 3255 -344 0
-134 -3256 0
-3257 346 348 0
-3257 -346 -348 0
3257 -346 348 0
3257 346 -348 0
-3258 3257 351 0
-3258 -3257 -351 0
3258 -3257 351 0
3258 3257 -351 0
-3259 3258 353 0
-3259 -3258 -353 0
3259 -3258 353 0
3259 3258 -353 0
-3260 3259 354 0
-3260 -3259 -354 0
3260 -3259 354 0
3260 3259 -354 0
-3261 3260 355 0
-3261 -3260 -355 0
3261 -3260 355 0
3261 3260 -355 0
-3262 3261 358 0
-3262 -3261 -358 0
3262 -3261 358 0
3262 3261 -358 0
-3263 3262 359 0
-3263 -3262 -359 0
3263 -3262 359 0
3263 3262 -359 0
-134 -3263 0
-3264 361 363 0
-3264 -361 -363 0
3264 -361 363 0
3264 361 -363 0
-3265 3264 366 0
-3265 -3264 -366 0
3265 -3264 366 0
3265 3264 -366 0
-3266 3265 368 0
-3266 -3265 -368 0
3266 -3265 368 0
3266 3265 -368 0
-3267 3266 369 0
-3267 -3266 -369 0
3267 -3266 369 0
3267 3266 -369 0
-3268 3267 370 0
-3268 -3267 -370 0
3268 -3267 370 0
3268 3267 -370 0
-3269 3268 373 0
-3269 -3268 -373 0
3269 -3268 373 0
3269 3268 -373 0
-3270 3269 374 0
-3270 -3269 -374 0
3270 -3269 374 0
3270 3269 -374 0
-134 -3270 0
-3271 376 378 0
-3271 -376 -378 0
3271 -376 378 0
3271 376 -378 0
-3272 3271 381 0
-3272 -3271 -381 0
3272 -3271 381 0
3272 3271 -381 0
-3273 3272 383 0
-3273 -3272 -383 0
3273 -3272 383 0
3273 3272 -383 0
-3274 3273 384 0
-3274 -3273 -384 0
3274 -3273 384 0
3274 3273 -384 0
-3275 3274 385 0
-3275 -3274 -385 0
3275 -3274 385 0
3275 3274 -385 0
-3276 3275 388 0
-3276 -3275 -388 0
3276 -3275 388 0
3276 3275 -388 0
-3277 3276 389 0
-3277 -3276 -389 0
3277 -3276 389 0
3277 3276 -389 0
-134 -3277 0
-3278 316 318 0
-3278 -316 -318 0
3278 -316 318 0
3278 316 -318 0
-3279 3278 321 0
-3279 -3278 -321 0
3279 -3278 321 0
3279 3278 -321 0
-3280 3279 322 0
-3280 -3279 -322 0
3280 -3279 322 0
3280 3279 -322 0
-3281 3280 323 0
-3281 -3280 -323 0
3281 -3280 323 0
3281 3280 -323 0
-3282 3281 324 0
-3282 -3281 -324 0
3282 -3281 324 0
3282 3281 -324 0
-3283 3282 325 0
-3283 -3282 -325 0
3283 -3282 325 0
3283 3282 -325 0
-3284 3283 328 0
-3284 -3283 -328 0
3284 -3283 328 0
3284 3283 -328 0
-3285 3284 329 0
-3285 -3284 -329 0
3285 -3284 329 0
3285 3284 -329 0
-135 -3285 0
-3286 331 333 0
-3286 -331 -333 0
3286 -331 333 0
3286 331 -333 0
-3287 3286 336 0
-3287 -3286 -336 0
3287 -3286 336 0
3287 3286 -336 0
-3288 3287 337 0
-3288 -3287 -337 0
3288 -3287 337 0
3288 3287 -337 0
-3289 3288 338 0
-3289 -3288 -338 0
3289 -3288 338 0
3289 3288 -338 0
-3290 3289 339 0
-3290 -3289 -339 0
3290 -3289 339 0
3290 3289 -339 0
-3291 3290 340 0
-3291 -3290 -340 0
3291 -3290 340 0
3291 3290 -340 0
-3292 3291 343 0
-3292 -3291 -343 0
3292 -3291 343 0
3292 3291 -343 0
-3293 3292 344 0
-3293 -3292 -344 0
3293 -3292 344 0
3293 3292 -344 0
-135 -3293 0
-3294 346 348 0
-3294 -346 -348 0
3294 -346 348 0
3294 346 -348 0
-3295 3294 351 0
-3295 -3294 -351 0
3295 -3294 351 0
3295 3294 -351 0
-3296 3295 352 0
-3296 -3295 -352 0
3296 -3295 352 0
3296 3295 -352 0
-3297 3296 353 0
-3297 -3296 -353 0
3297 -3296 353 0
3297 3296 -353 0
-3298 3297 354 0
-3298 -3297 -354 0
3298 -3297 354 0
3298 3297 -354 0
-3299 3298 355 0
-3299 -3298 -355 0
3299 -3298 355 0
3299 3298 -355 0
-3300 3299 358 0
-3300 -3299 -358 0
3300 -3299 358 0
3300 3299 -358 0
-3301 3300 359 0
-3301 -3300 -359 0
3301 -3300 359 0
3301 3300 -359 0
-135 -3301 0
-3302 361 363 0
-3302 -361 -363 0
3302 -361 363 0
3302 361 -363 0
-3303 3302 366 0
-3303 -3302 -366 0
3303 -3302 366 0
3303 3302 -366 0
-3304 3303 367 0
-3304 -3303 -367 0
3304 -3303 367 0
3304 3303 -367 0
-3305 3304 368 0
-3305 -3304 -368 0
3305 -3304 368 0
3305 3304 -368 0
-3306 3305 369 0
-3306 -3305 -369 0
3306 -3305 369 0
3306 3305 -369 0
-3307 3306 370 0
-3307 -3306 -370 0
3307 -3306 370 0
3307 3306 -370 0
-3308 3307 373 0
-3308 -3307 -373 0
3308 -3307 373 0
3308 3307 -373 0
-3309 3308 374 0
-3309 -3308 -374 0
3309 -3308 374 0
3309 3308 -374 0
-135 -3309 0
-3310 376 378 0
-3310 -376 -378 0
3310 -376 378 0
3310 376 -378 0
-3311 3310 381 0
-3311 -3310 -381 0
3311 -3310 381 0
3311 3310 -381 0
-3312 3311 382 0
-3312 -3311 -382 0
3312 -3311 382 0
3312 3311 -382 0
-3313 3312 383 0
-3313 -3312 -383 0
3313 -3312 383 0
3313 3312 -383 0
-3314 3313 384 0
-3314 -3313 -384 0
3314 -3313 384 0
3314 3313 -384 0
-3315 3314 385 0
-3315 -3314 -385 0
3315 -3314 385 0
3315 3314 -385 0
-3316 3315 388 0
-3316 -3315 -388 0
3316 -3315 388 0
3316 3315 -388 0
-3317 3316 389 0
-3317 -3316 -389 0
3317 -3316 389 0
3317 3316 -389 0
-135 -3317 0
-3318 319 323 0
-3318 -319 -323 0
3318 -319 323 0
3318 319 -323 0
-3319 3318 328 0
-3319 -3318 -328 0
3319 -3318 328 0
3319 3318 -328 0
-136 -3319 0
-3320 334 338 0
-3320 -334 -338 0
3320 -334 338 0
3320 334 -338 0
-3321 3320 343 0
-3321 -3320 -343 0
3321 -3320 343 0
3321 3320 -343 0
-136 -3321 0
-3322 349 353 0
-3322 -349 -353 0
3322 -349 353 0
3322 349 -353 0
-3323 3322 358 0
-3323 -3322 -358 0
3323 -3322 358 0
3323 3322 -358 0
-136 -3323 0
-3324 364 368 0
-3324 -364 -368 0
3324 -364 368 0
3324 364 -368 0
-3325 3324 373 0
-3325 -3324 -373 0
3325 -3324 373 0
3325 3324 -373 0
-136 -3325 0
-3326 379 383 0
-3326 -379 -383 0
3326 -379 383 0
3326 379 -383 0
-3327 3326 388 0
-3327 -3326 -388 0
3327 -3326 388 0
3327 3326 -388 0
-136 -3327 0
-3328 318 319 0
-3328 -318 -319 0
3328 -318 319 0
3328 318 -319 0
-3329 3328 322 0
-3329 -3328 -322 0
3329 -3328 322 0
3329 3328 -322 0
-3330 3329 323 0
-3330 -3329 -323 0
3330 -3329 323 0
3330 3329 -323 0
-3331 3330 328 0
-3331 -3330 -328 0
3331 -3330 328 0
3331 3330 -328 0
-137 -3331 0
-3332 333 334 0
-3332 -333 -334 0
3332 -333 334 0
3332 333 -334 0
-3333 3332 337 0
-3333 -3332 -337 0
3333 -3332 337 0
3333 3332 -337 0
-3334 3333 338 0
-3334 -3333 -338 0
3334 -3333 338 0
3334 3333 -338 0
-3335 3334 343 0
-3335 -3334 -343 0
3335 -3334 343 0
3335 3334 -343 0
-137 -3335 0
-3336 348 349 0
-3336 -348 -349 0
3336 -348 349 0
3336 348 -349 0
-3337 3336 352 0
-3337 -3336 -352 0
3337 -3336 352 0
3337 3336 -352 0
-3338 3337 353 0
-3338 -3337 -353 0
3338 -3337 353 0
3338 3337 -353 0
-3339 3338 358 0
-3339 -3338 -358 0
3339 -3338 358 0
3339 3338 -358 0
-137 -3339 0
-3340 363 364 0
-3340 -363 -364 0
3340 -363 364 0
3340 363 -364 0
-3341 3340 367 0
-3341 -3340 -367 0
3341 -3340 367 0
3341 3340 -367 0
-3342 3341 368 0
-3342 -3341 -368 0
3342 -3341 368 0
3342 3341 -368 0
-3343 3342 373 0
-3343 -3342 -373 0
3343 -3342 373 0
3343 3342 -373 0
-137 -3343 0
-3344 378 379 0
-3344 -378 -379 0
3344 -378 379 0
3344 378 -379 0
-3345 3344 382 0
-3345 -3344 -382 0
3345 -3344 382 0
3345 3344 -382 0
-3346 3345 383 0
-3346 -3345 -383 0
3346 -3345 383 0
3346 3345 -383 0
-3347 3346 388 0
-3347 -3346 -388 0
3347 -3346 388 0
3347 3346 -388 0
-137 -3347 0
-3348 316 317 0
-3348 -316 -317 0
3348 -316 317 0
3348 316 -317 0
-3349 3348 318 0
-3349 -3348 -318 0
3349 -3348 318 0
3349 3348 -318 0
-3350 3349 319 0
-3350 -3349 -319 0
3350 -3349 319 0
3350 3349 -319 0
-3351 3350 321 0
-3351 -3350 -321 0
3351 -3350 321 0
3351 3350 -321 0
-3352 3351 323 0
-3352 -3351 -323 0
3352 -3351 323 0
3352 3351 -323 0
-3353 3352 325 0
-3353 -3352 -325 0
3353 -3352 325 0
3353 3352 -325 0
-3354 3353 328 0
-3354 -3353 -328 0
3354 -3353 328 0
3354 3353 -328 0
-138 -3354 0
-3355 331 332 0
-3355 -331 -332 0
3355 -331 332 0
3355 331 -332 0
-3356 3355 333 0
-3356 -3355 -333 0
3356 -3355 333 0
3356 3355 -333 0
-3357 3356 334 0
-3357 -3356 -334 0
3357 -3356 334 0
3357 3356 -334 0
-3358 3357 336 0
-3358 -3357 -336 0
3358 -3357 336 0
3358 3357 -336 0
-3359 3358 338 0
-3359 -3358 -338 0
3359 -3358 338 0
3359 3358 -338 0
-3360 3359 340 0
-3360 -3359 -340 0
3360 -3359 340 0
3360 3359 -340 0
-3361 3360 343 0
-3361 -3360 -343 0
3361 -3360 343 0
3361 3360 -343 0
-138 -3361 0
-3362 346 347 0
-3362 -346 -347 0
3362 -346 347 0
3362 346 -347 0
-3363 3362 348 0
-3363 -3362 -348 0
3363 -3362 348 0
3363 3362 -348 0
-3364 3363 349 0
-3364 -3363 -349 0
3364 -3363 349 0
3364 3363 -349 0
-3365 3364 351 0
-3365 -3364 -351 0
3365 -3364 351 0
3365 3364 -351 0
-3366 3365 353 0
-3366 -3365 -353 0
3366 -3365 353 0
3366 3365 -353 0
-3367 3366 355 0
-3367 -3366 -355 0
3367 -3366 355 0
3367 3366 -355 0
-3368 3367 358 0
-3368 -3367 -358 0
3368 -3367 358 0
3368 3367 -358 0
-138 -3368 0
-3369 361 362 0
-3369 -361 -362 0
3369 -361 362 0
3369 361 -362 0
-3370 3369 363 0
-3370 -3369 -363 0
3370 -3369 363 0
3370 3369 -363 0
-3371 3370 364 0
-3371 -3370 -364 0
3371 -3370 364 0
3371 3370 -364 0
-3372 3371 366 0
-3372 -3371 -366 0
3372 -3371 366 0
3372 3371 -366 0
-3373 3372 368 0
-3373 -3372 -368 0
3373 -3372 368 0
3373 3372 -368 0
-3374 3373 370 0
-3374 -3373 -370 0
3374 -3373 370 0
3374 3373 -370 0
-3375 3374 373 0
-3375 -3374 -373 0
3375 -3374 373 0
3375 3374 -373 0
-138 -3375 0
-3376 376 377 0
-3376 -376 -377 0
3376 -376 377 0
3376 376 -377 0
-3377 3376 378 0
-3377 -3376 -378 0
3377 -3376 378 0
3377 3376 -378 0
-3378 3377 379 0
-3378 -3377 -379 0
3378 -3377 379 0
3378 3377 -379 0
-3379 3378 381 0
-3379 -3378 -381 0
3379 -3378 381 0
3379 3378 -381 0
-3380 3379 383 0
-3380 -3379 -383 0
3380 -3379 383 0
3380 3379 -383 0
-3381 3380 385 0
-3381 -3380 -385 0
3381 -3380 385 0
3381 3380 -385 0
-3382 3381 388 0
-3382 -3381 -388 0
3382 -3381 388 0
3382 3381 -388 0
-138 -3382 0
-3383 316 317 0
-3383 -316 -317 0
3383 -316 317 0
3383 316 -317 0
-3384 3383 319 0
-3384 -3383 -319 0
3384 -3383 319 0
3384 3383 -319 0
-3385 3384 321 0
-3385 -3384 -321 0
3385 -3384 321 0
3385 3384 -321 0
-3386 3385 322 0
-3386 -3385 -322 0
3386 -3385 322 0
3386 3385 -322 0
-3387 3386 323 0
-3387 -3386 -323 0
3387 -3386 323 0
3387 3386 -323 0
-3388 3387 325 0
-3388 -3387 -325 0
3388 -3387 325 0
3388 3387 -325 0
-3389 3388 328 0
-3389 -3388 -328 0
3389 -3388 328 0
3389 3388 -328 0
-139 -3389 0
-3390 331 332 0
-3390 -331 -332 0
3390 -331 332 0
3390 331 -332 0
-3391 3390 334 0
-3391 -3390 -334 0
3391 -3390 334 0
3391 3390 -334 0
-3392 3391 336 0
-3392 -3391 -336 0
3392 -3391 336 0
3392 3391 -336 0
-3393 3392 337 0
-3393 -3392 -337 0
3393 -3392 337 0
3393 3392 -337 0
-3394 3393 338 0
-3394 -3393 -338 0
3394 -3393 338 0
3394 3393 -338 0
-3395 3394 340 0
-3395 -3394 -340 0
3395 -3394 340 0
3395 3394 -340 0
-3396 3395 343 0
-3396 -3395 -343 0
3396 -3395 343 0
3396 3395 -343 0
-139 -3396 0
-3397 346 347 0
-3397 -346 -347 0
3397 -346 347 0
3397 346 -347 0
-3398 3397 349 0
-3398 -3397 -349 0
3398 -3397 349 0
3398 3397 -349 0
-3399 3398 351 0
-3399 -3398 -351 0
3399 -3398 351 0
3399 3398 -351 0
-3400 3399 352 0
-3400 -3399 -352 0
3400 -3399 352 0
3400 3399 -352 0
-3401 3400 353 0
-3401 -3400 -353 0
3401 -3400 353 0
3401 3400 -353 0
-3402 3401 355 0
-3402 -3401 -355 0
3402 -3401 355 0
3402 3401 -355 0
-3403 3402 358 0
-3403 -3402 -358 0
3403 -3402 358 0
3403 3402 -358 0
-139 -3403 0
-3404 361 362 0
-3404 -361 -362 0
3404 -361 362 0
3404 361 -362 0
-3405 3404 364 0
-3405 -3404 -364 0
3405 -3404 364 0
3405 3404 -364 0
-3406 3405 366 0
-3406 -3405 -366 0
3406 -3405 366 0
3406 3405 -366 0
-3407 3406 367 0
-3407 -3406 -367 0
3407 -3406 367 0
3407 3406 -367 0
-3408 3407 368 0
-3408 -3407 -368 0
3408 -3407 368 0
3408 3407 -368 0
-3409 3408 370 0
-3409 -3408 -370 0
3409 -3408 370 0
3409 3408 -370 0
-3410 3409 373 0
-3410 -3409 -373 0
3410 -3409 373 0
3410 3409 -373 0
-139 -3410 0
-3411 376 377 0
-3411 -376 -377 0
3411 -376 377 0
3411 376 -377 0
-3412 3411 379 0
-3412 -3411 -379 0
3412 -3411 379 0
3412 3411 -379 0
-3413 3412 381 0
-3413 -3412 -381 0
3413 -3412 381 0
3413 3412 -381 0
-3414 3413 382 0
-3414 -3413 -382 0
3414 -3413 382 0
3414 3413 -382 0
-3415 3414 383 0
-3415 -3414 -383 0
3415 -3414 383 0
3415 3414 -383 0
-3416 3415 385 0
-3416 -3415 -385 0
3416 -3415 385 0
3416 3415 -385 0
-3417 3416 388 0
-3417 -3416 -388 0
3417 -3416 388 0
3417 3416 -388 0
-139 -3417 0
-3418 320 324 0
-3418 -320 -324 0
3418 -320 324 0
3418 320 -324 0
-3419 3418 329 0
-3419 -3418 -329 0
3419 -3418 329 0
3419 3418 -329 0
-140 -3419 0
-3420 335 339 0
-3420 -335 -339 0
3420 -335 339 0
3420 335 -339 0
-3421 3420 344 0
-3421 -3420 -344 0
3421 -3420 344 0
3421 3420 -344 0
-140 -3421 0
-3422 350 354 0
-3422 -350 -354 0
3422 -350 354 0
3422 350 -354 0
-3423 3422 359 0
-3423 -3422 -359 0
3423 -3422 359 0
3423 3422 -359 0
-140 -3423 0
-3424 365 369 0
-3424 -365 -369 0
3424 -365 369 0
3424 365 -369 0
-3425 3424 374 0
-3425 -3424 -374 0
3425 -3424 374 0
3425 3424 -374 0
-140 -3425 0
-3426 380 384 0
-3426 -380 -384 0
3426 -380 384 0
3426 380 -384 0
-3427 3426 389 0
-3427 -3426 -389 0
3427 -3426 389 0
3427 3426 -389 0
-140 -3427 0
-3428 318 320 0
-3428 -318 -320 0
3428 -318 320 0
3428 318 -320 0
-3429 3428 322 0
-3429 -3428 -322 0
3429 -3428 322 0
3429 3428 -322 0
-3430 3429 324 0
-3430 -3429 -324 0
3430 -3429 324 0
3430 3429 -324 0
-3431 3430 329 0
-3431 -3430 -329 0
3431 -3430 329 0
3431 3430 -329 0
-141 -3431 0
-3432 333 335 0
-3432 -333 -335 0
3432 -333 335 0
3432 333 -335 0
-3433 3432 337 0
-3433 -3432 -337 0
3433 -3432 337 0
3433 3432 -337 0
-3434 3433 339 0
-3434 -3433 -339 0
3434 -3433 339 0
3434 3433 -339 0
-3435 3434 344 0
-3435 -3434 -344 0
3435 -3434 344 0
3435 3434 -344 0
-141 -3435 0
-3436 348 350 0
-3436 -348 -350 0
3436 -348 350 0
3436 348 -350 0
-3437 3436 352 0
-3437 -3436 -352 0
3437 -3436 352 0
3437 3436 -352 0
-3438 3437 354 0
-3438 -3437 -354 0
3438 -3437 354 0
3438 3437 -354 0
-3439 3438 359 0
-3439 -3438 -359 0
3439 -3438 359 0
3439 3438 -359 0
-141 -3439 0
-3440 363 365 0
-3440 -363 -365 0
3440 -363 365 0
3440 363 -365 0
-3441 3440 367 0
-3441 -3440 -367 0
3441 -3440 367 0
3441 3440 -367 0
-3442 3441 369 0
-3442 -3441 -369 0
3442 -3441 369 0
3442 3441 -369 0
-3443 3442 374 0
-3443 -3442 -374 0
3443 -3442 374 0
3443 3442 -374 0
-141 -3443 0
-3444 378 380 0
-3444 -378 -380 0
3444 -378 380 0
3444 378 -380 0
-3445 3444 382 0
-3445 -3444 -382 0
3445 -3444 382 0
3445 3444 -382 0
-3446 3445 384 0
-3446 -3445 -384 0
3446 -3445 384 0
3446 3445 -384 0
-3447 3446 389 0
-3447 -3446 -389 0
3447 -3446 389 0
3447 3446 -389 0
-141 -3447 0
-3448 316 317 0
-3448 -316 -317 0
3448 -316 317 0
3448 316 -317 0
-3449 3448 318 0
-3449 -3448 -318 0
3449 -3448 318 0
3449 3448 -318 0
-3450 3449 320 0
-3450 -3449 -320 0
3450 -3449 320 0
3450 3449 -320 0
-3451 3450 321 0
-3451 -3450 -321 0
3451 -3450 321 0
3451 3450 -321 0
-3452 3451 324 0
-3452 -3451 -324 0
3452 -3451 324 0
3452 3451 -324 0
-3453 3452 325 0
-3453 -3452 -325 0
3453 -3452 325 0
3453 3452 -325 0
-3454 3453 329 0
-3454 -3453 -329 0
3454 -3453 329 0
3454 3453 -329 0
-142 -3454 0
-3455 331 332 0
-3455 -331 -332 0
3455 -331 332 0
3455 331 -332 0
-3456 3455 333 0
-3456 -3455 -333 0
3456 -3455 333 0
3456 3455 -333 0
-3457 3456 335 0
-3457 -3456 -335 0
3457 -3456 335 0
3457 3456 -335 0
-3458 3457 336 0
-3458 -3457 -336 0
3458 -3457 336 0
3458 3457 -336 0
-3459 3458 339 0
-3459 -3458 -339 0
3459 -3458 339 0
3459 3458 -339 0
-3460 3459 340 0
-3460 -3459 -340 0
3460 -3459 340 0
3460 3459 -340 0
-3461 3460 344 0
-3461 -3460 -344 0
3461 -3460 344 0
3461 3460 -344 0
-142 -3461 0
-3462 346 347 0
-3462 -346 -347 0
3462 -346 347 0
3462 346 -347 0
-3463 3462 348 0
-3463 -3462 -348 0
3463 -3462 348 0
3463 3462 -348 0
-3464 3463 350 0
-3464 -3463 -350 0
3464 -3463 350 0
3464 3463 -350 0
-3465 3464 351 0
-3465 -3464 -351 0
3465 -3464 351 0
3465 3464 -351 0
-3466 3465 354 0
-3466 -3465 -354 0
3466 -3465 354 0
3466 3465 -354 0
-3467 3466 355 0
-3467 -3466 -355 0
3467 -3466 355 0
3467 3466 -355 0
-3468 3467 359 0
-3468 -3467 -359 0
3468 -3467 359 0
3468 3467 -359 0
-142 -3468 0
-3469 361 362 0
-3469 -361 -362 0
3469 -361 362 0
3469 361 -362 0
-3470 3469 363 0
-3470 -3469 -363 0
3470 -3469 363 0
3470 3469 -363 0
-3471 3470 365 0
-3471 -3470 -365 0
3471 -3470 365 0
3471 3470 -365 0
-3472 3471 366 0
-3472 -3471 -366 0
3472 -3471 366 0
3472 3471 -366 0
-3473 3472 369 0
-3473 -3472 -369 0
3473 -3472 369 0
3473 3472 -369 0
-3474 3473 370 0
-3474 -3473 -370 0
3474 -3473 370 0
3474 3473 -370 0
-3475 3474 374 0
-3475 -3474 -374 0
3475 -3474 374 0
3475 3474 -374 0
-142 -3475 0
-3476 376 377 0
-3476 -376 -377 0
3476 -376 377 0
3476 376 -377 0
-3477 3476 378 0
-3477 -3476 -378 0
3477 -3476 378 0
3477 3476 -378 0
-3478 3477 380 0
-3478 -3477 -380 0
3478 -3477 380 0
3478 3477 -380 0
-3479 3478 381 0
-3479 -3478 -381 0
3479 -3478 381 0
3479 3478 -381 0
-3480 3479 384 0
-3480 -3479 -384 0
3480 -3479 384 0
3480 3479 -384 0
-3481 3480 385 0
-3481 -3480 -385 0
3481 -3480 385 0
3481 3480 -385 0
-3482 3481 389 0
-3482 -3481 -389 0
3482 -3481 389 0
3482 3481 -389 0
-142 -3482 0
-3483 316 317 0
-3483 -316 -317 0
3483 -316 317 0
3483 316 -317 0
-3484 3483 320 0
-3484 -3483 -320 0
3484 -3483 320 0
3484 3483 -320 0
-3485 3484 321 0
-3485 -3484 -321 0
3485 -3484 321 0
3485 3484 -321 0
-3486 3485 322 0
-3486 -3485 -322 0
3486 -3485 322 0
3486 3485 -322 0
-3487 3486 324 0
-3487 -3486 -324 0
3487 -3486 324 0
3487 3486 -324 0
-3488 3487 325 0
-3488 -3487 -325 0
3488 -3487 325 0
3488 3487 -325 0
-3489 3488 329 0
-3489 -3488 -329 0
3489 -3488 329 0
3489 3488 -329 0
-143 -3489 0
-3490 331 332 0
-3490 -331 -332 0
3490 -331 332 0
3490 331 -332 0
-3491 3490 335 0
-3491 -3490 -335 0
3491 -3490 335 0
3491 3490 -335 0
-3492 3491 336 0
-3492 -3491 -336 0
3492 -3491 336 0
3492 3491 -336 0
-3493 3492 337 0
-3493 -3492 -337 0
3493 -3492 337 0
3493 3492 -337 0
-3494 3493 339 0
-3494 -3493 -339 0
3494 -3493 339 0
3494 3493 -339 0
-3495 3494 340 0
-3495 -3494 -340 0
3495 -3494 340 0
3495 3494 -340 0
-3496 3495 344 0
-3496 -3495 -344 0
3496 -3495 344 0
3496 3495 -344 0
-143 -3496 0
-3497 346 347 0
-3497 -346 -347 0
3497 -346 347 0
3497 346 -347 0
-3498 3497 350 0
-3498 -3497 -350 0
3498 -3497 350 0
3498 3497 -350 0
-3499 3498 351 0
-3499 -3498 -351 0
3499 -3498 351 0
3499 3498 -351 0
-3500 3499 352 0
-3500 -3499 -352 0
3500 -3499 352 0
3500 3499 -352 0
-3501 3500 354 0
-3501 -3500 -354 0
3501 -3500 354 0
3501 3500 -354 0
-3502 3501 355 0
-3502 -3501 -355 0
3502 -3501 355 0
3502 3501 -355 0
-3503 3502 359 0
-3503 -3502 -359 0
3503 -3502 359 0
3503 3502 -359 0
-143 -3503 0
-3504 361 362 0
-3504 -361 -362 0
3504 -361 362 0
3504 361 -362 0
-3505 3504 365 0
-3505 -3504 -365 0
3505 -3504 365 0
3505 3504 -365 0
-3506 3505 366 0
-3506 -3505 -366 0
3506 -3505 366 0
3506 3505 -366 0
-3507 3506 367 0
-3507 -3506 -367 0
3507 -3506 367 0
3507 3506 -367 0
-3508 3507 369 0
-3508 -3507 -369 0
3508 -3507 369 0
3508 3507 -369 0
-3509 3508 370 0
-3509 -3508 -370 0
3509 -3508 370 0
3509 3508 -370 0
-3510 3509 374 0
-3510 -3509 -374 0
3510 -3509 374 0
3510 3509 -374 0
-143 -3510 0
-3511 376 377 0
-3511 -376 -377 0
3511 -376 377 0
3511 376 -377 0
-3512 3511 380 0
-3512 -3511 -380 0
3512 -3511 380 0
3512 3511 -380 0
-3513 3512 381 0
-3513 -3512 -381 0
3513 -3512 381 0
3513 3512 -381 0
-3514 3513 382 0
-3514 -3513 -382 0
3514 -3513 382 0
3514 3513 -382 0
-3515 3514 384 0
-3515 -3514 -384 0
3515 -3514 384 0
3515 3514 -384 0
-3516 3515 385 0
-3516 -3515 -385 0
3516 -3515 385 0
3516 3515 -385 0
-3517 3516 389 0
-3517 -3516 -389 0
3517 -3516 389 0
3517 3516 -389 0
-143 -3517 0
-3518 319 320 0
-3518 -319 -320 0
3518 -319 320 0
3518 319 -320 0
-3519 3518 323 0
-3519 -3518 -323 0
3519 -3518 323 0
3519 3518 -323 0
-3520 3519 324 0
-3520 -3519 -324 0
3520 -3519 324 0
3520 3519 -324 0
-3521 3520 328 0
-3521 -3520 -328 0
3521 -3520 328 0
3521 3520 -328 0
-3522 3521 329 0
-3522 -3521 -329 0
3522 -3521 329 0
3522 3521 -329 0
-144 -3522 0
-3523 334 335 0
-3523 -334 -335 0
3523 -334 335 0
3523 334 -335 0
-3524 3523 338 0
-3524 -3523 -338 0
3524 -3523 338 0
3524 3523 -338 0
-3525 3524 339 0
-3525 -3524 -339 0
3525 -3524 339 0
3525 3524 -339 0
-3526 3525 343 0
-3526 -3525 -343 0
3526 -3525 343 0
3526 3525 -343 0
-3527 3526 344 0
-3527 -3526 -344 0
3527 -3526 344 0
3527 3526 -344 0
-144 -3527 0
-3528 349 350 0
-3528 -349 -350 0
3528 -349 350 0
3528 349 -350 0
-3529 3528 353 0
-3529 -3528 -353 0
3529 -3528 353 0
3529 3528 -353 0
-3530 3529 354 0
-3530 -3529 -354 0
3530 -3529 354 0
3530 3529 -354 0
-3531 3530 358 0
-3531 -3530 -358 0
3531 -3530 358 0
3531 3530 -358 0
-3532 3531 359 0
-3532 -3531 -359 0
3532 -3531 359 0
3532 3531 -359 0
-144 -3532 0
-3533 364 365 0
-3533 -364 -365 0
3533 -364 365 0
3533 364 -365 0
-3534 3533 368 0
-3534 -3533 -368 0
3534 -3533 368 0
3534 3533 -368 0
-3535 3534 369 0
-3535 -3534 -369 0
3535 -3534 369 0
3535 3534 -369 0
-3536 3535 373 0
-3536 -3535 -373 0
3536 -3535 373 0
3536 3535 -373 0
-3537 3536 374 0
-3537 -3536 -374 0
3537 -3536 374 0
3537 3536 -374 0
-144 -3537 0
-3538 379 380 0
-3538 -379 -380 0
3538 -379 380 0
3538 379 -380 0
-3539 3538 383 0
-3539 -3538 -383 0
3539 -3538 383 0
3539 3538 -383 0
-3540 3539 384 0
-3540 -3539 -384 0
3540 -3539 384 0
3540 3539 -384 0
-3541 3540 388 0
-3541 -3540 -388 0
3541 -3540 388 0
3541 3540 -388 0
-3542 3541 389 0
-3542 -3541 -389 0
3542 -3541 389 0
3542 3541 -389 0
-144 -3542 0
-3543 318 319 0
-3543 -318 -319 0
3543 -318 319 0
3543 318 -319 0
-3544 3543 320 0
-3544 -3543 -320 0
3544 -3543 320 0
3544 3543 -320 0
-3545 3544 322 0
-3545 -3544 -322 0
3545 -3544 322 0
3545 3544 -322 0
-3546 3545 323 0
-3546 -3545 -323 0
3546 -3545 323 0
3546 3545 -323 0
-3547 3546 324 0
-3547 -3546 -324 0
3547 -3546 324 0
3547 3546 -324 0
-3548 3547 328 0
-3548 -3547 -328 0
3548 -3547 328 0
3548 3547 -328 0
-3549 3548 329 0
-3549 -3548 -329 0
3549 -3548 329 0
3549 3548 -329 0
-145 -3549 0
-3550 333 334 0
-3550 -333 -334 0
3550 -333 334 0
3550 333 -334 0
-3551 3550 335 0
-3551 -3550 -335 0
3551 -3550 335 0
3551 3550 -335 0
-3552 3551 337 0
-3552 -3551 -337 0
3552 -3551 337 0
3552 3551 -337 0
-3553 3552 338 0
-3553 -3552 -338 0
3553 -3552 338 0
3553 3552 -338 0
-3554 3553 339 0
-3554 -3553 -339 0
3554 -3553 339 0
3554 3553 -339 0
-3555 3554 343 0
-3555 -3554 -343 0
3555 -3554 343 0
3555 3554 -343 0
-3556 3555 344 0
-3556 -3555 -344 0
3556 -3555 344 0
3556 3555 -344 0
-145 -3556 0
-3557 348 349 0
-3557 -348 -349 0
3557 -348 349 0
3557 348 -349 0
-3558 3557 350 0
-3558 -3557 -350 0
3558 -3557 350 0
3558 3557 -350 0
-3559 3558 352 0
-3559 -3558 -352 0
3559 -3558 352 0
3559 3558 -352 0
-3560 3559 353 0
-3560 -3559 -353 0
3560 -3559 353 0
3560 3559 -353 0
-3561 3560 354 0
-3561 -3560 -354 0
3561 -3560 354 0
3561 3560 -354 0
-3562 3561 358 0
-3562 -3561 -358 0
3562 -3561 358 0
3562 3561 -358 0
-3563 3562 359 0
-3563 -3562 -359 0
3563 -3562 359 0
3563 3562 -359 0
-145 -3563 0
-3564 363 364 0
-3564 -363 -364 0
3564 -363 364 0
3564 363 -364 0
-3565 3564 365 0
-3565 -3564 -365 0
3565 -3564 365 0
3565 3564 -365 0
-3566 3565 367 0
-3566 -3565 -367 0
3566 -3565 367 0
3566 3565 -367 0
-3567 3566 368 0
-3567 -3566 -368 0
3567 -3566 368 0
3567 3566 -368 0
-3568 3567 369 0
-3568 -3567 -369 0
3568 -3567 369 0
3568 3567 -369 0
-3569 3568 373 0
-3569 -3568 -373 0
3569 -3568 373 0
3569 3568 -373 0
-3570 3569 374 0
-3570 -3569 -374 0
3570 -3569 374 0
3570 3569 -374 0
-145 -3570 0
-3571 378 379 0
-3571 -378 -379 0
3571 -378 379 0
3571 378 -379 0
-3572 3571 380 0
-3572 -3571 -380 0
3572 -3571 380 0
3572 3571 -380 0
-3573 3572 382 0
-3573 -3572 -382 0
3573 -3572 382 0
3573 3572 -382 0
-3574 3573 383 0
-3574 -3573 -383 0
3574 -3573 383 0
3574 3573 -383 0
-3575 3574 384 0
-3575 -3574 -384 0
3575 -3574 384 0
3575 3574 -384 0
-3576 3575 388 0
-3576 -3575 -388 0
3576 -3575 388 0
3576 3575 -388 0
-3577 3576 389 0
-3577 -3576 -389 0
3577 -3576 389 0
3577 3576 -389 0
-145 -3577 0
-3578 316 317 0
-3578 -316 -317 0
3578 -316 317 0
3578 316 -317 0
-3579 3578 318 0
-3579 -3578 -318 0
3579 -3578 318 0
3579 3578 -318 0
-3580 3579 319 0
-3580 -3579 -319 0
3580 -3579 319 0
3580 3579 -319 0
-3581 3580 320 0
-3581 -3580 -320 0
3581 -3580 320 0
3581 3580 -320 0
-3582 3581 321 0
-3582 -3581 -321 0
3582 -3581 321 0
3582 3581 -321 0
-3583 3582 323 0
-3583 -3582 -323 0
3583 -3582 323 0
3583 3582 -323 0
-3584 3583 324 0
-3584 -3583 -324 0
3584 -3583 324 0
3584 3583 -324 0
-3585 3584 325 0
-3585 -3584 -325 0
3585 -3584 325 0
3585 3584 -325 0
-3586 3585 328 0
-3586 -3585 -328 0
3586 -3585 328 0
3586 3585 -328 0
-3587 3586 329 0
-3587 -3586 -329 0
3587 -3586 329 0
3587 3586 -329 0
-146 -3587 0
-3588 331 332 0
-3588 -331 -332 0
3588 -331 332 0
3588 331 -332 0
-3589 3588 333 0
-3589 -3588 -333 0
3589 -3588 333 0
3589 3588 -333 0
-3590 3589 334 0
-3590 -3589 -334 0
3590 -3589 334 0
3590 3589 -334 0
-3591 3590 335 0
-3591 -3590 -335 0
3591 -3590 335 0
3591 3590 -335 0
-3592 3591 336 0
-3592 -3591 -336 0
3592 -3591 336 0
3592 3591 -336 0
-3593 3592 338 0
-3593 -3592 -338 0
3593 -3592 338 0
3593 3592 -338 0
-3594 3593 339 0
-3594 -3593 -339 0
3594 -3593 339 0
3594 3593 -339 0
-3595 3594 340 0
-3595 -3594 -340 0
3595 -3594 340 0
3595 3594 -340 0
-3596 3595 343 0
-3596 -3595 -343 0
3596 -3595 343 0
3596 3595 -343 0
-3597 3596 344 0
-3597 -3596 -344 0
3597 -3596 344 0
3597 3596 -344 0
-146 -3597 0
-3598 346 347 0
-3598 -346 -347 0
3598 -346 347 0
3598 346 -347 0
-3599 3598 348 0
-3599 -3598 -348 0
3599 -3598 348 0
3599 3598 -348 0
-3600 3599 349 0
-3600 -3599 -349 0
3600 -3599 349 0
3600 3599 -349 0
-3601 3600 350 0
-3601 -3600 -350 0
3601 -3600 350 0
3601 3600 -350 0
-3602 3601 351 0
-3602 -3601 -351 0
3602 -3601 351 0
3602 3601 -351 0
-3603 3602 353 0
-3603 -3602 -353 0
3603 -3602 353 0
3603 3602 -353 0
-3604 3603 354 0
-3604 -3603 -354 0
3604 -3603 354 0
3604 3603 -354 0
-3605 3604 355 0
-3605 -3604 -355 0
3605 -3604 355 0
3605 3604 -355 0
-3606 3605 358 0
-3606 -3605 -358 0
3606 -3605 358 0
3606 3605 -358 0
-3607 3606 359 0
-3607 -3606 -359 0
3607 -3606 359 0
3607 3606 -359 0
-146 -3607 0
-3608 361 362 0
-3608 -361 -362 0
3608 -361 362 0
3608 361 -362 0
-3609 3608 363 0
-3609 -3608 -363 0
3609 -3608 363 0
3609 3608 -363 0
-3610 3609 364 0
-3610 -3609 -364 0
3610 -3609 364 0
3610 3609 -364 0
-3611 3610 365 0
-3611 -3610 -365 0
3611 -3610 365 0
3611 3610 -365 0
-3612 3611 366 0
-3612 -3611 -366 0
3612 -3611 366 0
3612 3611 -366 0
-3613 3612 368 0
-3613 -3612 -368 0
3613 -3612 368 0
3613 3612 -368 0
-3614 3613 369 0
-3614 -3613 -369 0
3614 -3613 369 0
3614 3613 -369 0
-3615 3614 370 0
-3615 -3614 -370 0
3615 -3614 370 0
3615 3614 -370 0
-3616 3615 373 0
-3616 -3615 -373 0
3616 -3615 373 0
3616 3615 -373 0
-3617 3616 374 0
-3617 -3616 -374 0
3617 -3616 374 0
3617 3616 -374 0
-146 -3617 0
-3618 376 377 0
-3618 -376 -377 0
3618 -376 377 0
3618 376 -377 0
-3619 3618 378 0
-3619 -3618 -378 0
3619 -3618 378 0
3619 3618 -378 0
-3620 3619 379 0
-3620 -3619 -379 0
3620 -3619 379 0
3620 3619 -379 0
-3621 3620 380 0
-3621 -3620 -380 0
3621 -3620 380 0
3621 3620 -380 0
-3622 3621 381 0
-3622 -3621 -381 0
3622 -3621 381 0
3622 3621 -381 0
-3623 3622 383 0
-3623 -3622 -383 0
3623 -3622 383 0
3623 3622 -383 0
-3624 3623 384 0
-3624 -3623 -384 0
3624 -3623 384 0
3624 3623 -384 0
-3625 3624 385 0
-3625 -3624 -385 0
3625 -3624 385 0
3625 3624 -385 0
-3626 3625 388 0
-3626 -3625 -388 0
3626 -3625 388 0
3626 3625 -388 0
-3627 3626 389 0
-3627 -3626 -389 0
3627 -3626 389 0
3627 3626 -389 0
-146 -3627 0
-3628 316 317 0
-3628 -316 -317 0
3628 -316 317 0
3628 316 -317 0
-3629 3628 319 0
-3629 -3628 -319 0
3629 -3628 319 0
3629 3628 -319 0
-3630 3629 320 0
-3630 -3629 -320 0
3630 -3629 320 0
3630 3629 -320 0
-3631 3630 321 0
-3631 -3630 -321 0
3631 -3630 321 0
3631 3630 -321 0
-3632 3631 322 0
-3632 -3631 -322 0
3632 -3631 322 0
3632 3631 -322 0
-3633 3632 323 0
-3633 -3632 -323 0
3633 -3632 323 0
3633 3632 -323 0
-3634 3633 324 0
-3634 -3633 -324 0
3634 -3633 324 0
3634 3633 -324 0
-3635 3634 325 0
-3635 -3634 -325 0
3635 -3634 325 0
3635 3634 -325 0
-3636 3635 328 0
-3636 -3635 -328 0
3636 -3635 328 0
3636 3635 -328 0
-3637 3636 329 0
-3637 -3636 -329 0
3637 -3636 329 0
3637 3636 -329 0
-147 -3637 0
-3638 331 332 0
-3638 -331 -332 0
3638 -331 332 0
3638 331 -332 0
-3639 3638 334 0
-3639 -3638 -334 0
3639 -3638 334 0
3639 3638 -334 0
-3640 3639 335 0
-3640 -3639 -335 0
3640 -3639 335 0
3640 3639 -335 0
-3641 3640 336 0
-3641 -3640 -336 0
3641 -3640 336 0
3641 3640 -336 0
-3642 3641 337 0
-3642 -3641 -337 0
3642 -3641 337 0
3642 3641 -337 0
-3643 3642 338 0
-3643 -3642 -338 0
3643 -3642 338 0
3643 3642 -338 0
-3644 3643 339 0
-3644 -3643 -339 0
3644 -3643 339 0
3644 3643 -339 0
-3645 3644 340 0
-3645 -3644 -340 0
3645 -3644 340 0
3645 3644 -340 0
-3646 3645 343 0
-3646 -3645 -343 0
3646 -3645 343 0
3646 3645 -343 0
-3647 3646 344 0
-3647 -3646 -344 0
3647 -3646 344 0
3647 3646 -344 0
-147 -3647 0
-3648 346 347 0
-3648 -346 -347 0
3648 -346 347 0
3648 346 -347 0
-3649 3648 349 0
-3649 -3648 -349 0
3649 -3648 349 0
3649 3648 -349 0
-3650 3649 350 0
-3650 -3649 -350 0
3650 -3649 350 0
3650 3649 -350 0
-3651 3650 351 0
-3651 -3650 -351 0
3651 -3650 351 0
3651 3650 -351 0
-3652 3651 352 0
-3652 -3651 -352 0
3652 -3651 352 0
3652 3651 -352 0
-3653 3652 353 0
-3653 -3652 -353 0
3653 -3652 353 0
3653 3652 -353 0
-3654 3653 354 0
-3654 -3653 -354 0
3654 -3653 354 0
3654 3653 -354 0
-3655 3654 355 0
-3655 -3654 -355 0
3655 -3654 355 0
3655 3654 -355 0
-3656 3655 358 0
-3656 -3655 -358 0
3656 -3655 358 0
3656 3655 -358 0
-3657 3656 359 0
-3657 -3656 -359 0
3657 -3656 359 0
3657 3656 -359 0
-147 -3657 0
-3658 361 362 0
-3658 -361 -362 0
3658 -361 362 0
3658 361 -362 0
-3659 3658 364 0
-3659 -3658 -364 0
3659 -3658 364 0
3659 3658 -364 0
-3660 3659 365 0
-3660 -3659 -365 0
3660 -3659 365 0
3660 3659 -365 0
-3661 3660 366 0
-3661 -3660 -366 0
3661 -3660 366 0
3661 3660 -366 0
-3662 3661 367 0
-3662 -3661 -367 0
3662 -3661 367 0
3662 3661 -367 0
-3663 3662 368 0
-3663 -3662 -368 0
3663 -3662 368 0
3663 3662 -368 0
-3664 3663 369 0
-3664 -3663 -369 0
3664 -3663 369 0
3664 3663 -369 0
-3665 3664 370 0
-3665 -3664 -370 0
3665 -3664 370 0
3665 3664 -370 0
-3666 3665 373 0
-3666 -3665 -373 0
3666 -3665 373 0
3666 3665 -373 0
-3667 3666 374 0
-3667 -3666 -374 0
3667 -3666 374 0
3667 3666 -374 0
-147 -3667 0
-3668 376 377 0
-3668 -376 -377 0
3668 -376 377 0
3668 376 -377 0
-3669 3668 379 0
-3669 -3668 -379 0
3669 -3668 379 0
3669 3668 -379 0
-3670 3669 380 0
-3670 -3669 -380 0
3670 -3669 380 0
3670 3669 -380 0
-3671 3670 381 0
-3671 -3670 -381 0
3671 -3670 381 0
3671 3670 -381 0
-3672 3671 382 0
-3672 -3671 -382 0
3672 -3671 382 0
3672 3671 -382 0
-3673 3672 383 0
-3673 -3672 -383 0
3673 -3672 383 0
3673 3672 -383 0
-3674 3673 384 0
-3674 -3673 -384 0
3674 -3673 384 0
3674 3673 -384 0
-3675 3674 385 0
-3675 -3674 -385 0
3675 -3674 385 0
3675 3674 -385 0
-3676 3675 388 0
-3676 -3675 -388 0
3676 -3675 388 0
3676 3675 -388 0
-3677 3676 389 0
-3677 -3676 -389 0
3677 -3676 389 0
3677 3676 -389 0
-147 -3677 0
-3678 326 328 0
-3678 -326 -328 0
3678 -326 328 0
3678 326 -328 0
-148 -3678 0
-3679 341 343 0
-3679 -341 -343 0
3679 -341 343 0
3679 341 -343 0
-148 -3679 0
-3680 356 358 0
-3680 -356 -358 0
3680 -356 358 0
3680 356 -358 0
-148 -3680 0
-3681 371 373 0
-3681 -371 -373 0
3681 -371 373 0
3681 371 -373 0
-148 -3681 0
-3682 386 388 0
-3682 -386 -388 0
3682 -386 388 0
3682 386 -388 0
-148 -3682 0
-3683 317 318 0
-3683 -317 -318 0
3683 -317 318 0
3683 317 -318 0
-3684 3683 326 0
-3684 -3683 -326 0
3684 -3683 326 0
3684 3683 -326 0
-3685 3684 328 0
-3685 -3684 -328 0
3685 -3684 328 0
3685 3684 -328 0
-149 -3685 0
-3686 332 333 0
-3686 -332 -333 0
3686 -332 333 0
3686 332 -333 0
-3687 3686 341 0
-3687 -3686 -341 0
3687 -3686 341 0
3687 3686 -341 0
-3688 3687 343 0
-3688 -3687 -343 0
3688 -3687 343 0
3688 3687 -343 0
-149 -3688 0
-3689 347 348 0
-3689 -347 -348 0
3689 -347 348 0
3689 347 -348 0
-3690 3689 356 0
-3690 -3689 -356 0
3690 -3689 356 0
3690 3689 -356 0
-3691 3690 358 0
-3691 -3690 -358 0
3691 -3690 358 0
3691 3690 -358 0
-149 -3691 0
-3692 362 363 0
-3692 -362 -363 0
3692 -362 363 0
3692 362 -363 0
-3693 3692 371 0
-3693 -3692 -371 0
3693 -3692 371 0
3693 3692 -371 0
-3694 3693 373 0
-3694 -3693 -373 0
3694 -3693 373 0
3694 3693 -373 0
-149 -3694 0
-3695 377 378 0
-3695 -377 -378 0
3695 -377 378 0
3695 377 -378 0
-3696 3695 386 0
-3696 -3695 -386 0
3696 -3695 386 0
3696 3695 -386 0
-3697 3696 388 0
-3697 -3696 -388 0
3697 -3696 388 0
3697 3696 -388 0
-149 -3697 0
-3698 321 322 0
-3698 -321 -322 0
3698 -321 322 0
3698 321 -322 0
-3699 3698 326 0
-3699 -3698 -326 0
3699 -3698 326 0
3699 3698 -326 0
-3700 3699 328 0
-3700 -3699 -328 0
3700 -3699 328 0
3700 3699 -328 0
-150 -3700 0
-3701 336 337 0
-3701 -336 -337 0
3701 -336 337 0
3701 336 -337 0
-3702 3701 341 0
-3702 -3701 -341 0
3702 -3701 341 0
3702 3701 -341 0
-3703 3702 343 0
-3703 -3702 -343 0
3703 -3702 343 0
3703 3702 -343 0
-150 -3703 0
-3704 351 352 0
-3704 -351 -352 0
3704 -351 352 0
3704 351 -352 0
-3705 3704 356 0
-3705 -3704 -356 0
3705 -3704 356 0
3705 3704 -356 0
-3706 3705 358 0
-3706 -3705 -358 0
3706 -3705 358 0
3706 3705 -358 0
-150 -3706 0
-3707 366 367 0
-3707 -366 -367 0
3707 -366 367 0
3707 366 -367 0
-3708 3707 371 0
-3708 -3707 -371 0
3708 -3707 371 0
3708 3707 -371 0
-3709 3708 373 0
-3709 -3708 -373 0
3709 -3708 373 0
3709 3708 -373 0
-150 -3709 0
-3710 381 382 0
-3710 -381 -382 0
3710 -381 382 0
3710 381 -382 0
-3711 3710 386 0
-3711 -3710 -386 0
3711 -3710 386 0
3711 3710 -386 0
-3712 3711 388 0
-3712 -3711 -388 0
3712 -3711 388 0
3712 3711 -388 0
-150 -3712 0
-3713 317 318 0
-3713 -317 -318 0
3713 -317 318 0
3713 317 -318 0
-3714 3713 321 0
-3714 -3713 -321 0
3714 -3713 321 0
3714 3713 -321 0
-3715 3714 322 0
-3715 -3714 -322 0
3715 -3714 322 0
3715 3714 -322 0
-3716 3715 326 0
-3716 -3715 -326 0
3716 -3715 326 0
3716 3715 -326 0
-3717 3716 328 0
-3717 -3716 -328 0
3717 -3716 328 0
3717 3716 -328 0
-151 -3717 0
-3718 332 333 0
-3718 -332 -333 0
3718 -332 333 0
3718 332 -333 0
-3719 3718 336 0
-3719 -3718 -336 0
3719 -3718 336 0
3719 3718 -336 0
-3720 3719 337 0
-3720 -3719 -337 0
3720 -3719 337 0
3720 3719 -337 0
-3721 3720 341 0
-3721 -3720 -341 0
3721 -3720 341 0
3721 3720 -341 0
-3722 3721 343 0
-3722 -3721 -343 0
3722 -3721 343 0
3722 3721 -343 0
-151 -3722 0
-3723 347 348 0
-3723 -347 -348 0
3723 -347 348 0
3723 347 -348 0
-3724 3723 351 0
-3724 -3723 -351 0
3724 -3723 351 0
3724 3723 -351 0
-3725 3724 352 0
-3725 -3724 -352 0
3725 -3724 352 0
3725 3724 -352 0
-3726 3725 356 0
-3726 -3725 -356 0
3726 -3725 356 0
3726 3725 -356 0
-3727 3726 358 0
-3727 -3726 -358 0
3727 -3726 358 0
3727 3726 -358 0
-151 -3727 0
-3728 362 363 0
-3728 -362 -363 0
3728 -362 363 0
3728 362 -363 0
-3729 3728 366 0
-3729 -3728 -366 0
3729 -3728 366 0
3729 3728 -366 0
-3730 3729 367 0
-3730 -3729 -367 0
3730 -3729 367 0
3730 3729 -367 0
-3731 3730 371 0
-3731 -3730 -371 0
3731 -3730 371 0
3731 3730 -371 0
-3732 3731 373 0
-3732 -3731 -373 0
3732 -3731 373 0
3732 3731 -373 0
-151 -3732 0
-3733 377 378 0
-3733 -377 -378 0
3733 -377 378 0
3733 377 -378 0
-3734 3733 381 0
-3734 -3733 -381 0
3734 -3733 381 0
3734 3733 -381 0
-3735 3734 382 0
-3735 -3734 -382 0
3735 -3734 382 0
3735 3734 -382 0
-3736 3735 386 0
-3736 -3735 -386 0
3736 -3735 386 0
3736 3735 -386 0
-3737 3736 388 0
-3737 -3736 -388 0
3737 -3736 388 0
3737 3736 -388 0
-151 -3737 0
-3738 327 329 0
-3738 -327 -329 0
3738 -327 329 0
3738 327 -329 0
-152 -3738 0
-3739 342 344 0
-3739 -342 -344 0
3739 -342 344 0
3739 342 -344 0
-152 -3739 0
-3740 357 359 0
-3740 -357 -359 0
3740 -357 359 0
3740 357 -359 0
-152 -3740 0
-3741 372 374 0
-3741 -372 -374 0
3741 -372 374 0
3741 372 -374 0
-152 -3741 0
-3742 387 389 0
-3742 -387 -389 0
3742 -387 389 0
3742 387 -389 0
-152 -3742 0
-3743 317 318 0
-3743 -317 -318 0
3743 -317 318 0
3743 317 -318 0
-3744 3743 327 0
-3744 -3743 -327 0
3744 -3743 327 0
3744 3743 -327 0
-3745 3744 329 0
-3745 -3744 -329 0
3745 -3744 329 0
3745 3744 -329 0
-153 -3745 0
-3746 332 333 0
-3746 -332 -333 0
3746 -332 333 0
3746 332 -333 0
-3747 3746 342 0
-3747 -3746 -342 0
3747 -3746 342 0
3747 3746 -342 0
-3748 3747 344 0
-3748 -3747 -344 0
3748 -3747 344 0
3748 3747 -344 0
-153 -3748 0
-3749 347 348 0
-3749 -347 -348 0
3749 -347 348 0
3749 347 -348 0
-3750 3749 357 0
-3750 -3749 -357 0
3750 -3749 357 0
3750 3749 -357 0
-3751 3750 359 0
-3751 -3750 -359 0
3751 -3750 359 0
3751 3750 -359 0
-153 -3751 0
-3752 362 363 0
-3752 -362 -363 0
3752 -362 363 0
3752 362 -363 0
-3753 3752 372 0
-3753 -3752 -372 0
3753 -3752 372 0
3753 3752 -372 0
-3754 3753 374 0
-3754 -3753 -374 0
3754 -3753 374 0
3754 3753 -374 0
-153 -3754 0
-3755 377 378 0
-3755 -377 -378 0
3755 -377 378 0
3755 377 -378 0
-3756 3755 387 0
-3756 -3755 -387 0
3756 -3755 387 0
3756 3755 -387 0
-3757 3756 389 0
-3757 -3756 -389 0
3757 -3756 389 0
3757 3756 -389 0
-153 -3757 0
-3758 321 322 0
-3758 -321 -322 0
3758 -321 322 0
3758 321 -322 0
-3759 3758 327 0
-3759 -3758 -327 0
3759 -3758 327 0
3759 3758 -327 0
-3760 3759 329 0
-3760 -3759 -329 0
3760 -3759 329 0
3760 3759 -329 0
-154 -3760 0
-3761 336 337 0
-3761 -336 -337 0
3761 -336 337 0
3761 336 -337 0
-3762 3761 342 0
-3762 -3761 -342 0
3762 -3761 342 0
3762 3761 -342 0
-3763 3762 344 0
-3763 -3762 -344 0
3763 -3762 344 0
3763 3762 -344 0
-154 -3763 0
-3764 351 352 0
-3764 -351 -352 0
3764 -351 352 0
3764 351 -352 0
-3765 3764 357 0
-3765 -3764 -357 0
3765 -3764 357 0
3765 3764 -357 0
-3766 3765 359 0
-3766 -3765 -359 0
3766 -3765 359 0
3766 3765 -359 0
-154 -3766 0
-3767 366 367 0
-3767 -366 -367 0
3767 -366 367 0
3767 366 -367 0
-3768 3767 372 0
-3768 -3767 -372 0
3768 -3767 372 0
3768 3767 -372 0
-3769 3768 374 0
-3769 -3768 -374 0
3769 -3768 374 0
3769 3768 -374 0
-154 -3769 0
-3770 381 382 0
-3770 -381 -382 0
3770 -381 382 0
3770 381 -382 0
-3771 3770 387 0
-3771 -3770 -387 0
3771 -3770 387 0
3771 3770 -387 0
-3772 3771 389 0
-3772 -3771 -389 0
3772 -3771 389 0
3772 3771 -389 0
-154 -3772 0
-3773 317 318 0
-3773 -317 -318 0
3773 -317 318 0
3773 317 -318 0
-3774 3773 321 0
-3774 -3773 -321 0
3774 -3773 321 0
3774 3773 -321 0
-3775 3774 322 0
-3775 -3774 -322 0
3775 -3774 322 0
3775 3774 -322 0
-3776 3775 327 0
-3776 -3775 -327 0
3776 -3775 327 0
3776 3775 -327 0
-3777 3776 329 0
-3777 -3776 -329 0
3777 -3776 329 0
3777 3776 -329 0
-155 -3777 0
-3778 332 333 0
-3778 -332 -333 0
3778 -332 333 0
3778 332 -333 0
-3779 3778 336 0
-3779 -3778 -336 0
3779 -3778 336 0
3779 3778 -336 0
-3780 3779 337 0
-3780 -3779 -337 0
3780 -3779 337 0
3780 3779 -337 0
-3781 3780 342 0
-3781 -3780 -342 0
3781 -3780 342 0
3781 3780 -342 0
-3782 3781 344 0
-3782 -3781 -344 0
3782 -3781 344 0
3782 3781 -344 0
-155 -3782 0
-3783 347 348 0
-3783 -347 -348 0
3783 -347 348 0
3783 347 -348 0
-3784 3783 351 0
-3784 -3783 -351 0
3784 -3783 351 0
3784 3783 -351 0
-3785 3784 352 0
-3785 -3784 -352 0
3785 -3784 352 0
3785 3784 -352 0
-3786 3785 357 0
-3786 -3785 -357 0
3786 -3785 357 0
3786 3785 -357 0
-3787 3786 359 0
-3787 -3786 -359 0
3787 -3786 359 0
3787 3786 -359 0
-155 -3787 0
-3788 362 363 0
-3788 -362 -363 0
3788 -362 363 0
3788 362 -363 0
-3789 3788 366 0
-3789 -3788 -366 0
3789 -3788 366 0
3789 3788 -366 0
-3790 3789 367 0
-3790 -3789 -367 0
3790 -3789 367 0
3790 3789 -367 0
-3791 3790 372 0
-3791 -3790 -372 0
3791 -3790 372 0
3791 3790 -372 0
-3792 3791 374 0
-3792 -3791 -374 0
3792 -3791 374 0
3792 3791 -374 0
-155 -3792 0
-3793 377 378 0
-3793 -377 -378 0
3793 -377 378 0
3793 377 -378 0
-3794 3793 381 0
-3794 -3793 -381 0
3794 -3793 381 0
3794 3793 -381 0
-3795 3794 382 0
-3795 -3794 -382 0
3795 -3794 382 0
3795 3794 -382 0
-3796 3795 387 0
-3796 -3795 -387 0
3796 -3795 387 0
3796 3795 -387 0
-3797 3796 389 0
-3797 -3796 -389 0
3797 -3796 389 0
3797 3796 -389 0
-155 -3797 0
-3798 326 327 0
-3798 -326 -327 0
3798 -326 327 0
3798 326 -327 0
-3799 3798 328 0
-3799 -3798 -328 0
3799 -3798 328 0
3799 3798 -328 0
-3800 3799 329 0
-3800 -3799 -329 0
3800 -3799 329 0
3800 3799 -329 0
-156 -3800 0
-3801 341 342 0
-3801 -341 -342 0
3801 -341 342 0
3801 341 -342 0
-3802 3801 343 0
-3802 -3801 -343 0
3802 -3801 343 0
3802 3801 -343 0
-3803 3802 344 0
-3803 -3802 -344 0
3803 -3802 344 0
3803 3802 -344 0
-156 -3803 0
-3804 356 357 0
-3804 -356 -357 0
3804 -356 357 0
3804 356 -357 0
-3805 3804 358 0
-3805 -3804 -358 0
3805 -3804 358 0
3805 3804 -358 0
-3806 3805 359 0
-3806 -3805 -359 0
3806 -3805 359 0
3806 3805 -359 0
-156 -3806 0
-3807 371 372 0
-3807 -371 -372 0
3807 -371 372 0
3807 371 -372 0
-3808 3807 373 0
-3808 -3807 -373 0
3808 -3807 373 0
3808 3807 -373 0
-3809 3808 374 0
-3809 -3808 -374 0
3809 -3808 374 0
3809 3808 -374 0
-156 -3809 0
-3810 386 387 0
-3810 -386 -387 0
3810 -386 387 0
3810 386 -387 0
-3811 3810 388 0
-3811 -3810 -388 0
3811 -3810 388 0
3811 3810 -388 0
-3812 3811 389 0
-3812 -3811 -389 0
3812 -3811 389 0
3812 3811 -389 0
-156 -3812 0
-3813 317 318 0
-3813 -317 -318 0
3813 -317 318 0
3813 317 -318 0
-3814 3813 326 0
-3814 -3813 -326 0
3814 -3813 326 0
3814 3813 -326 0
-3815 3814 327 0
-3815 -3814 -327 0
3815 -3814 327 0
3815 3814 -327 0
-3816 3815 328 0
-3816 -3815 -328 0
3816 -3815 328 0
3816 3815 -328 0
-3817 3816 329 0
-3817 -3816 -329 0
3817 -3816 329 0
3817 3816 -329 0
-157 -3817 0
-3818 332 333 0
-3818 -332 -333 0
3818 -332 333 0
3818 332 -333 0
-3819 3818 341 0
-3819 -3818 -341 0
3819 -3818 341 0
3819 3818 -341 0
-3820 3819 342 0
-3820 -3819 -342 0
3820 -3819 342 0
3820 3819 -342 0
-3821 3820 343 0
-3821 -3820 -343 0
3821 -3820 343 0
3821 3820 -343 0
-3822 3821 344 0
-3822 -3821 -344 0
3822 -3821 344 0
3822 3821 -344 0
-157 -3822 0
-3823 347 348 0
-3823 -347 -348 0
3823 -347 348 0
3823 347 -348 0
-3824 3823 356 0
-3824 -3823 -356 0
3824 -3823 356 0
3824 3823 -356 0
-3825 3824 357 0
-3825 -3824 -357 0
3825 -3824 357 0
3825 3824 -357 0
-3826 3825 358 0
-3826 -3825 -358 0
3826 -3825 358 0
3826 3825 -358 0
-3827 3826 359 0
-3827 -3826 -359 0
3827 -3826 359 0
3827 3826 -359 0
-157 -3827 0
-3828 362 363 0
-3828 -362 -363 0
3828 -362 363 0
3828 362 -363 0
-3829 3828 371 0
-3829 -3828 -371 0
3829 -3828 371 0
3829 3828 -371 0
-3830 3829 372 0
-3830 -3829 -372 0
3830 -3829 372 0
3830 3829 -372 0
-3831 3830 373 0
-3831 -3830 -373 0
3831 -3830 373 0
3831 3830 -373 0
-3832 3831 374 0
-3832 -3831 -374 0
3832 -3831 374 0
3832 3831 -374 0
-157 -3832 0
-3833 377 378 0
-3833 -377 -378 0
3833 -377 378 0
3833 377 -378 0
-3834 3833 386 0
-3834 -3833 -386 0
3834 -3833 386 0
3834 3833 -386 0
-3835 3834 387 0
-3835 -3834 -387 0
3835 -3834 387 0
3835 3834 -387 0
-3836 3835 388 0
-3836 -3835 -388 0
3836 -3835 388 0
3836 3835 -388 0
-3837 3836 389 0
-3837 -3836 -389 0
3837 -3836 389 0
3837 3836 -389 0
-157 -3837 0
-3838 321 322 0
-3838 -321 -322 0
3838 -321 322 0
3838 321 -322 0
-3839 3838 326 0
-3839 -3838 -326 0
3839 -3838 326 0
3839 3838 -326 0
-3840 3839 327 0
-3840 -3839 -327 0
3840 -3839 327 0
3840 3839 -327 0
-3841 3840 328 0
-3841 -3840 -328 0
3841 -3840 328 0
3841 3840 -328 0
-3842 3841 329 0
-3842 -3841 -329 0
3842 -3841 329 0
3842 3841 -329 0
-158 -3842 0
-3843 336 337 0
-3843 -336 -337 0
3843 -336 337 0
3843 336 -337 0
-3844 3843 341 0
-3844 -3843 -341 0
3844 -3843 341 0
3844 3843 -341 0
-3845 3844 342 0
-3845 -3844 -342 0
3845 -3844 342 0
3845 3844 -342 0
-3846 3845 343 0
-3846 -3845 -343 0
3846 -3845 343 0
3846 3845 -343 0
-3847 3846 344 0
-3847 -3846 -344 0
3847 -3846 344 0
3847 3846 -344 0
-158 -3847 0
-3848 351 352 0
-3848 -351 -352 0
3848 -351 352 0
3848 351 -352 0
-3849 3848 356 0
-3849 -3848 -356 0
3849 -3848 356 0
3849 3848 -356 0
-3850 3849 357 0
-3850 -3849 -357 0
3850 -3849 357 0
3850 3849 -357 0
-3851 3850 358 0
-3851 -3850 -358 0
3851 -3850 358 0
3851 3850 -358 0
-3852 3851 359 0
-3852 -3851 -359 0
3852 -3851 359 0
3852 3851 -359 0
-158 -3852 0
-3853 366 367 0
-3853 -366 -367 0
3853 -366 367 0
3853 366 -367 0
-3854 3853 371 0
-3854 -3853 -371 0
3854 -3853 371 0
3854 3853 -371 0
-3855 3854 372 0
-3855 -3854 -372 0
3855 -3854 372 0
3855 3854 -372 0
-3856 3855 373 0
-3856 -3855 -373 0
3856 -3855 373 0
3856 3855 -373 0
-3857 3856 374 0
-3857 -3856 -374 0
3857 -3856 374 0
3857 3856 -374 0
-158 -3857 0
-3858 381 382 0
-3858 -381 -382 0
3858 -381 382 0
3858 381 -382 0
-3859 3858 386 0
-3859 -3858 -386 0
3859 -3858 386 0
3859 3858 -386 0
-3860 3859 387 0
-3860 -3859 -387 0
3860 -3859 387 0
3860 3859 -387 0
-3861 3860 388 0
-3861 -3860 -388 0
3861 -3860 388 0
3861 3860 -388 0
-3862 3861 389 0
-3862 -3861 -389 0
3862 -3861 389 0
3862 3861 -389 0
-158 -3862 0
-3863 317 318 0
-3863 -317 -318 0
3863 -317 318 0
3863 317 -318 0
-3864 3863 321 0
-3864 -3863 -321 0
3864 -3863 321 0
3864 3863 -321 0
-3865 3864 322 0
-3865 -3864 -322 0
3865 -3864 322 0
3865 3864 -322 0
-3866 3865 326 0
-3866 -3865 -326 0
3866 -3865 326 0
3866 3865 -326 0
-3867 3866 327 0
-3867 -3866 -327 0
3867 -3866 327 0
3867 3866 -327 0
-3868 3867 328 0
-3868 -3867 -328 0
3868 -3867 328 0
3868 3867 -328 0
-3869 3868 329 0
-3869 -3868 -329 0
3869 -3868 329 0
3869 3868 -329 0
-159 -3869 0
-3870 332 333 0
-3870 -332 -333 0
3870 -332 333 0
3870 332 -333 0
-3871 3870 336 0
-3871 -3870 -336 0
3871 -3870 336 0
3871 3870 -336 0
-3872 3871 337 0
-3872 -3871 -337 0
3872 -3871 337 0
3872 3871 -337 0
-3873 3872 341 0
-3873 -3872 -341 0
3873 -3872 341 0
3873 3872 -341 0
-3874 3873 342 0
-3874 -3873 -342 0
3874 -3873 342 0
3874 3873 -342 0
-3875 3874 343 0
-3875 -3874 -343 0
3875 -3874 343 0
3875 3874 -343 0
-3876 3875 344 0
-3876 -3875 -344 0
3876 -3875 344 0
3876 3875 -344 0
-159 -3876 0
-3877 347 348 0
-3877 -347 -348 0
3877 -347 348 0
3877 347 -348 0
-3878 3877 351 0
-3878 -3877 -351 0
3878 -3877 351 0
3878 3877 -351 0
-3879 3878 352 0
-3879 -3878 -352 0
3879 -3878 352 0
3879 3878 -352 0
-3880 3879 356 0
-3880 -3879 -356 0
3880 -3879 356 0
3880 3879 -356 0
-3881 3880 357 0
-3881 -3880 -357 0
3881 -3880 357 0
3881 3880 -357 0
-3882 3881 358 0
-3882 -3881 -358 0
3882 -3881 358 0
3882 3881 -358 0
-3883 3882 359 0
-3883 -3882 -359 0
3883 -3882 359 0
3883 3882 -359 0
-159 -3883 0
-3884 362 363 0
-3884 -362 -363 0
3884 -362 363 0
3884 362 -363 0
-3885 3884 366 0
-3885 -3884 -366 0
3885 -3884 366 0
3885 3884 -366 0
-3886 3885 367 0
-3886 -3885 -367 0
3886 -3885 367 0
3886 3885 -367 0
-3887 3886 371 0
-3887 -3886 -371 0
3887 -3886 371 0
3887 3886 -371 0
-3888 3887 372 0
-3888 -3887 -372 0
3888 -3887 372 0
3888 3887 -372 0
-3889 3888 373 0
-3889 -3888 -373 0
3889 -3888 373 0
3889 3888 -373 0
-3890 3889 374 0
-3890 -3889 -374 0
3890 -3889 374 0
3890 3889 -374 0
-159 -3890 0
-3891 377 378 0
-3891 -377 -378 0
3891 -377 378 0
3891 377 -378 0
-3892 3891 381 0
-3892 -3891 -381 0
3892 -3891 381 0
3892 3891 -381 0
-3893 3892 382 0
-3893 -3892 -382 0
3893 -3892 382 0
3893 3892 -382 0
-3894 3893 386 0
-3894 -3893 -386 0
3894 -3893 386 0
3894 3893 -386 0
-3895 3894 387 0
-3895 -3894 -387 0
3895 -3894 387 0
3895 3894 -387 0
-3896 3895 388 0
-3896 -3895 -388 0
3896 -3895 388 0
3896 3895 -388 0
-3897 3896 389 0
-3897 -3896 -389 0
3897 -3896 389 0
3897 3896 -389 0
-159 -3897 0
-3898 319 326 0
-3898 -319 -326 0
3898 -319 326 0
3898 319 -326 0
-3899 3898 328 0
-3899 -3898 -328 0
3899 -3898 328 0
3899 3898 -328 0
-160 -3899 0
-3900 334 341 0
-3900 -334 -341 0
3900 -334 341 0
3900 334 -341 0
-3901 3900 343 0
-3901 -3900 -343 0
3901 -3900 343 0
3901 3900 -343 0
-160 -3901 0
-3902 349 356 0
-3902 -349 -356 0
3902 -349 356 0
3902 349 -356 0
-3903 3902 358 0
-3903 -3902 -358 0
3903 -3902 358 0
3903 3902 -358 0
-160 -3903 0
-3904 364 371 0
-3904 -364 -371 0
3904 -364 371 0
3904 364 -371 0
-3905 3904 373 0
-3905 -3904 -373 0
3905 -3904 373 0
3905 3904 -373 0
-160 -3905 0
-3906 379 386 0
-3906 -379 -386 0
3906 -379 386 0
3906 379 -386 0
-3907 3906 388 0
-3907 -3906 -388 0
3907 -3906 388 0
3907 3906 -388 0
-160 -3907 0
-3908 317 318 0
-3908 -317 -318 0
3908 -317 318 0
3908 317 -318 0
-3909 3908 319 0
-3909 -3908 -319 0
3909 -3908 319 0
3909 3908 -319 0
-3910 3909 326 0
-3910 -3909 -326 0
3910 -3909 326 0
3910 3909 -326 0
-3911 3910 328 0
-3911 -3910 -328 0
3911 -3910 328 0
3911 3910 -328 0
-161 -3911 0
-3912 332 333 0
-3912 -332 -333 0
3912 -332 333 0
3912 332 -333 0
-3913 3912 334 0
-3913 -3912 -334 0
3913 -3912 334 0
3913 3912 -334 0
-3914 3913 341 0
-3914 -3913 -341 0
3914 -3913 341 0
3914 3913 -341 0
-3915 3914 343 0
-3915 -3914 -343 0
3915 -3914 343 0
3915 3914 -343 0
-161 -3915 0
-3916 347 348 0
-3916 -347 -348 0
3916 -347 348 0
3916 347 -348 0
-3917 3916 349 0
-3917 -3916 -349 0
3917 -3916 349 0
3917 3916 -349 0
-3918 3917 356 0
-3918 -3917 -356 0
3918 -3917 356 0
3918 3917 -356 0
-3919 3918 358 0
-3919 -3918 -358 0
3919 -3918 358 0
3919 3918 -358 0
-161 -3919 0
-3920 362 363 0
-3920 -362 -363 0
3920 -362 363 0
3920 362 -363 0
-3921 3920 364 0
-3921 -3920 -364 0
3921 -3920 364 0
3921 3920 -364 0
-3922 3921 371 0
-3922 -3921 -371 0
3922 -3921 371 0
3922 3921 -371 0
-3923 3922 373 0
-3923 -3922 -373 0
3923 -3922 373 0
3923 3922 -373 0
-161 -3923 0
-3924 377 378 0
-3924 -377 -378 0
3924 -377 378 0
3924 377 -378 0
-3925 3924 379 0
-3925 -3924 -379 0
3925 -3924 379 0
3925 3924 -379 0
-3926 3925 386 0
-3926 -3925 -386 0
3926 -3925 386 0
3926 3925 -386 0
-3927 3926 388 0
-3927 -3926 -388 0
3927 -3926 388 0
3927 3926 -388 0
-161 -3927 0
-3928 316 317 0
-3928 -316 -317 0
3928 -316 317 0
3928 316 -317 0
-3929 3928 319 0
-3929 -3928 -319 0
3929 -3928 319 0
3929 3928 -319 0
-3930 3929 321 0
-3930 -3929 -321 0
3930 -3929 321 0
3930 3929 -321 0
-3931 3930 322 0
-3931 -3930 -322 0
3931 -3930 322 0
3931 3930 -322 0
-3932 3931 325 0
-3932 -3931 -325 0
3932 -3931 325 0
3932 3931 -325 0
-3933 3932 326 0
-3933 -3932 -326 0
3933 -3932 326 0
3933 3932 -326 0
-3934 3933 328 0
-3934 -3933 -328 0
3934 -3933 328 0
3934 3933 -328 0
-162 -3934 0
-3935 331 332 0
-3935 -331 -332 0
3935 -331 332 0
3935 331 -332 0
-3936 3935 334 0
-3936 -3935 -334 0
3936 -3935 334 0
3936 3935 -334 0
-3937 3936 336 0
-3937 -3936 -336 0
3937 -3936 336 0
3937 3936 -336 0
-3938 3937 337 0
-3938 -3937 -337 0
3938 -3937 337 0
3938 3937 -337 0
-3939 3938 340 0
-3939 -3938 -340 0
3939 -3938 340 0
3939 3938 -340 0
-3940 3939 341 0
-3940 -3939 -341 0
3940 -3939 341 0
3940 3939 -341 0
-3941 3940 343 0
-3941 -3940 -343 0
3941 -3940 343 0
3941 3940 -343 0
-162 -3941 0
-3942 346 347 0
-3942 -346 -347 0
3942 -346 347 0
3942 346 -347 0
-3943 3942 349 0
-3943 -3942 -349 0
3943 -3942 349 0
3943 3942 -349 0
-3944 3943 351 0
-3944 -3943 -351 0
3944 -3943 351 0
3944 3943 -351 0
-3945 3944 352 0
-3945 -3944 -352 0
3945 -3944 352 0
3945 3944 -352 0
-3946 3945 355 0
-3946 -3945 -355 0
3946 -3945 355 0
3946 3945 -355 0
-3947 3946 356 0
-3947 -3946 -356 0
3947 -3946 356 0
3947 3946 -356 0
-3948 3947 358 0
-3948 -3947 -358 0
3948 -3947 358 0
3948 3947 -358 0
-162 -3948 0
-3949 361 362 0
-3949 -361 -362 0
3949 -361 362 0
3949 361 -362 0
-3950 3949 364 0
-3950 -3949 -364 0
3950 -3949 364 0
3950 3949 -364 0
-3951 3950 366 0
-3951 -3950 -366 0
3951 -3950 366 0
3951 3950 -366 0
-3952 3951 367 0
-3952 -3951 -367 0
3952 -3951 367 0
3952 3951 -367 0
-3953 3952 370 0
-3953 -3952 -370 0
3953 -3952 370 0
3953 3952 -370 0
-3954 3953 371 0
-3954 -3953 -371 0
3954 -3953 371 0
3954 3953 -371 0
-3955 3954 373 0
-3955 -3954 -373 0
3955 -3954 373 0
3955 3954 -373 0
-162 -3955 0
-3956 376 377 0
-3956 -376 -377 0
3956 -376 377 0
3956 376 -377 0
-3957 3956 379 0
-3957 -3956 -379 0
3957 -3956 379 0
3957 3956 -379 0
-3958 3957 381 0
-3958 -3957 -381 0
3958 -3957 381 0
3958 3957 -381 0
-3959 3958 382 0
-3959 -3958 -382 0
3959 -3958 382 0
3959 3958 -382 0
-3960 3959 385 0
-3960 -3959 -385 0
3960 -3959 385 0
3960 3959 -385 0
-3961 3960 386 0
-3961 -3960 -386 0
3961 -3960 386 0
3961 3960 -386 0
-3962 3961 388 0
-3962 -3961 -388 0
3962 -3961 388 0
3962 3961 -388 0
-162 -3962 0
-3963 316 318 0
-3963 -316 -318 0
3963 -316 318 0
3963 316 -318 0
-3964 3963 319 0
-3964 -3963 -319 0
3964 -3963 319 0
3964 3963 -319 0
-3965 3964 321 0
-3965 -3964 -321 0
3965 -3964 321 0
3965 3964 -321 0
-3966 3965 322 0
-3966 -3965 -322 0
3966 -3965 322 0
3966 3965 -322 0
-3967 3966 325 0
-3967 -3966 -325 0
3967 -3966 325 0
3967 3966 -325 0
-3968 3967 326 0
-3968 -3967 -326 0
3968 -3967 326 0
3968 3967 -326 0
-3969 3968 328 0
-3969 -3968 -328 0
3969 -3968 328 0
3969 3968 -328 0
-163 -3969 0
-3970 331 333 0
-3970 -331 -333 0
3970 -331 333 0
3970 331 -333 0
-3971 3970 334 0
-3971 -3970 -334 0
3971 -3970 334 0
3971 3970 -334 0
-3972 3971 336 0
-3972 -3971 -336 0
3972 -3971 336 0
3972 3971 -336 0
-3973 3972 337 0
-3973 -3972 -337 0
3973 -3972 337 0
3973 3972 -337 0
-3974 3973 340 0
-3974 -3973 -340 0
3974 -3973 340 0
3974 3973 -340 0
-3975 3974 341 0
-3975 -3974 -341 0
3975 -3974 341 0
3975 3974 -341 0
-3976 3975 343 0
-3976 -3975 -343 0
3976 -3975 343 0
3976 3975 -343 0
-163 -3976 0
-3977 346 348 0
-3977 -346 -348 0
3977 -346 348 0
3977 346 -348 0
-3978 3977 349 0
-3978 -3977 -349 0
3978 -3977 349 0
3978 3977 -349 0
-3979 3978 351 0
-3979 -3978 -351 0
3979 -3978 351 0
3979 3978 -351 0
-3980 3979 352 0
-3980 -3979 -352 0
3980 -3979 352 0
3980 3979 -352 0
-3981 3980 355 0
-3981 -3980 -355 0
3981 -3980 355 0
3981 3980 -355 0
-3982 3981 356 0
-3982 -3981 -356 0
3982 -3981 356 0
3982 3981 -356 0
-3983 3982 358 0
-3983 -3982 -358 0
3983 -3982 358 0
3983 3982 -358 0
-163 -3983 0
-3984 361 363 0
-3984 -361 -363 0
3984 -361 363 0
3984 361 -363 0
-3985 3984 364 0
-3985 -3984 -364 0
3985 -3984 364 0
3985 3984 -364 0
-3986 3985 366 0
-3986 -3985 -366 0
3986 -3985 366 0
3986 3985 -366 0
-3987 3986 367 0
-3987 -3986 -367 0
3987 -3986 367 0
3987 3986 -367 0
-3988 3987 370 0
-3988 -3987 -370 0
3988 -3987 370 0
3988 3987 -370 0
-3989 3988 371 0
-3989 -3988 -371 0
3989 -3988 371 0
3989 3988 -371 0
-3990 3989 373 0
-3990 -3989 -373 0
3990 -3989 373 0
3990 3989 -373 0
-163 -3990 0
-3991 376 378 0
-3991 -376 -378 0
3991 -376 378 0
3991 376 -378 0
-3992 3991 379 0
-3992 -3991 -379 0
3992 -3991 379 0
3992 3991 -379 0
-3993 3992 381 0
-3993 -3992 -381 0
3993 -3992 381 0
3993 3992 -381 0
-3994 3993 382 0
-3994 -3993 -382 0
3994 -3993 382 0
3994 3993 -382 0
-3995 3994 385 0
-3995 -3994 -385 0
3995 -3994 385 0
3995 3994 -385 0
-3996 3995 386 0
-3996 -3995 -386 0
3996 -3995 386 0
3996 3995 -386 0
-3997 3996 388 0
-3997 -3996 -388 0
3997 -3996 388 0
3997 3996 -388 0
-163 -3997 0
-3998 320 327 0
-3998 -320 -327 0
3998 -320 327 0
3998 320 -327 0
-3999 3998 329 0
-3999 -3998 -329 0
3999 -3998 329 0
3999 3998 -329 0
-164 -3999 0
-4000 335 342 0
-4000 -335 -342 0
4000 -335 342 0
4000 335 -342 0
-4001 4000 344 0
-4001 -4000 -344 0
4001 -4000 344 0
4001 4000 -344 0
-164 -4001 0
-4002 350 357 0
-4002 -350 -357 0
4002 -350 357 0
4002 350 -357 0
-4003 4002 359 0
-4003 -4002 -359 0
4003 -4002 359 0
4003 4002 -359 0
-164 -4003 0
-4004 365 372 0
-4004 -365 -372 0
4004 -365 372 0
4004 365 -372 0
-4005 4004 374 0
-4005 -4004 -374 0
4005 -4004 374 0
4005 4004 -374 0
-164 -4005 0
-4006 380 387 0
-4006 -380 -387 0
4006 -380 387 0
4006 380 -387 0
-4007 4006 389 0
-4007 -4006 -389 0
4007 -4006 389 0
4007 4006 -389 0
-164 -4007 0
-4008 317 318 0
-4008 -317 -318 0
4008 -317 318 0
4008 317 -318 0
-4009 4008 320 0
-4009 -4008 -320 0
4009 -4008 320 0
4009 4008 -320 0
-4010 4009 327 0
-4010 -4009 -327 0
4010 -4009 327 0
4010 4009 -327 0
-4011 4010 329 0
-4011 -4010 -329 0
4011 -4010 329 0
4011 4010 -329 0
-165 -4011 0
-4012 332 333 0
-4012 -332 -333 0
4012 -332 333 0
4012 332 -333 0
-4013 4012 335 0
-4013 -4012 -335 0
4013 -4012 335 0
4013 4012 -335 0
-4014 4013 342 0
-4014 -4013 -342 0
4014 -4013 342 0
4014 4013 -342 0
-4015 4014 344 0
-4015 -4014 -344 0
4015 -4014 344 0
4015 4014 -344 0
-165 -4015 0
-4016 347 348 0
-4016 -347 -348 0
4016 -347 348 0
4016 347 -348 0
-4017 4016 350 0
-4017 -4016 -350 0
4017 -4016 350 0
4017 4016 -350 0
-4018 4017 357 0
-4018 -4017 -357 0
4018 -4017 357 0
4018 4017 -357 0
-4019 4018 359 0
-4019 -4018 -359 0
4019 -4018 359 0
4019 4018 -359 0
-165 -4019 0
-4020 362 363 0
-4020 -362 -363 0
4020 -362 363 0
4020 362 -363 0
-4021 4020 365 0
-4021 -4020 -365 0
4021 -4020 365 0
4021 4020 -365 0
-4022 4021 372 0
-4022 -4021 -372 0
4022 -4021 372 0
4022 4021 -372 0
-4023 4022 374 0
-4023 -4022 -374 0
4023 -4022 374 0
4023 4022 -374 0
-165 -4023 0
-4024 377 378 0
-4024 -377 -378 0
4024 -377 378 0
4024 377 -378 0
-4025 4024 380 0
-4025 -4024 -380 0
4025 -4024 380 0
4025 4024 -380 0
-4026 4025 387 0
-4026 -4025 -387 0
4026 -4025 387 0
4026 4025 -387 0
-4027 4026 389 0
-4027 -4026 -389 0
4027 -4026 389 0
4027 4026 -389 0
-165 -4027 0
-4028 316 317 0
-4028 -316 -317 0
4028 -316 317 0
4028 316 -317 0
-4029 4028 320 0
-4029 -4028 -320 0
4029 -4028 320 0
4029 4028 -320 0
-4030 4029 321 0
-4030 -4029 -321 0
4030 -4029 321 0
4030 4029 -321 0
-4031 4030 322 0
-4031 -4030 -322 0
4031 -4030 322 0
4031 4030 -322 0
-4032 4031 325 0
-4032 -4031 -325 0
4032 -4031 325 0
4032 4031 -325 0
-4033 4032 327 0
-4033 -4032 -327 0
4033 -4032 327 0
4033 4032 -327 0
-4034 4033 329 0
-4034 -4033 -329 0
4034 -4033 329 0
4034 4033 -329 0
-166 -4034 0
-4035 331 332 0
-4035 -331 -332 0
4035 -331 332 0
4035 331 -332 0
-4036 4035 335 0
-4036 -4035 -335 0
4036 -4035 335 0
4036 4035 -335 0
-4037 4036 336 0
-4037 -4036 -336 0
4037 -4036 336 0
4037 4036 -336 0
-4038 4037 337 0
-4038 -4037 -337 0
4038 -4037 337 0
4038 4037 -337 0
-4039 4038 340 0
-4039 -4038 -340 0
4039 -4038 340 0
4039 4038 -340 0
-4040 4039 342 0
-4040 -4039 -342 0
4040 -4039 342 0
4040 4039 -342 0
-4041 4040 344 0
-4041 -4040 -344 0
4041 -4040 344 0
4041 4040 -344 0
-166 -4041 0
-4042 346 347 0
-4042 -346 -347 0
4042 -346 347 0
4042 346 -347 0
-4043 4042 350 0
-4043 -4042 -350 0
4043 -4042 350 0
4043 4042 -350 0
-4044 4043 351 0
-4044 -4043 -351 0
4044 -4043 351 0
4044 4043 -351 0
-4045 4044 352 0
-4045 -4044 -352 0
4045 -4044 352 0
4045 4044 -352 0
-4046 4045 355 0
-4046 -4045 -355 0
4046 -4045 355 0
4046 4045 -355 0
-4047 4046 357 0
-4047 -4046 -357 0
4047 -4046 357 0
4047 4046 -357 0
-4048 4047 359 0
-4048 -4047 -359 0
4048 -4047 359 0
4048 4047 -359 0
-166 -4048 0
-4049 361 362 0
-4049 -361 -362 0
4049 -361 362 0
4049 361 -362 0
-4050 4049 365 0
-4050 -4049 -365 0
4050 -4049 365 0
4050 4049 -365 0
-4051 4050 366 0
-4051 -4050 -366 0
4051 -4050 366 0
4051 4050 -366 0
-4052 4051 367 0
-4052 -4051 -367 0
4052 -4051 367 0
4052 4051 -367 0
-4053 4052 370 0
-4053 -4052 -370 0
4053 -4052 370 0
4053 4052 -370 0
-4054 4053 372 0
-4054 -4053 -372 0
4054 -4053 372 0
4054 4053 -372 0
-4055 4054 374 0
-4055 -4054 -374 0
4055 -4054 374 0
4055 4054 -374 0
-166 -4055 0
-4056 376 377 0
-4056 -376 -377 0
4056 -376 377 0
4056 376 -377 0
-4057 4056 380 0
-4057 -4056 -380 0
4057 -4056 380 0
4057 4056 -380 0
-4058 4057 381 0
-4058 -4057 -381 0
4058 -4057 381 0
4058 4057 -381 0
-4059 4058 382 0
-4059 -4058 -382 0
4059 -4058 382 0
4059 4058 -382 0
-4060 4059 385 0
-4060 -4059 -385 0
4060 -4059 385 0
4060 4059 -385 0
-4061 4060 387 0
-4061 -4060 -387 0
4061 -4060 387 0
4061 4060 -387 0
-4062 4061 389 0
-4062 -4061 -389 0
4062 -4061 389 0
4062 4061 -389 0
-166 -4062 0
-4063 316 318 0
-4063 -316 -318 0
4063 -316 318 0
4063 316 -318 0
-4064 4063 320 0
-4064 -4063 -320 0
4064 -4063 320 0
4064 4063 -320 0
-4065 4064 321 0
-4065 -4064 -321 0
4065 -4064 321 0
4065 4064 -321 0
-4066 4065 322 0
-4066 -4065 -322 0
4066 -4065 322 0
4066 4065 -322 0
-4067 4066 325 0
-4067 -4066 -325 0
4067 -4066 325 0
4067 4066 -325 0
-4068 4067 327 0
-4068 -4067 -327 0
4068 -4067 327 0
4068 4067 -327 0
-4069 4068 329 0
-4069 -4068 -329 0
4069 -4068 329 0
4069 4068 -329 0
-167 -4069 0
-4070 331 333 0
-4070 -331 -333 0
4070 -331 333 0
4070 331 -333 0
-4071 4070 335 0
-4071 -4070 -335 0
4071 -4070 335 0
4071 4070 -335 0
-4072 4071 336 0
-4072 -4071 -336 0
4072 -4071 336 0
4072 4071 -336 0
-4073 4072 337 0
-4073 -4072 -337 0
4073 -4072 337 0
4073 4072 -337 0
-4074 4073 340 0
-4074 -4073 -340 0
4074 -4073 340 0
4074 4073 -340 0
-4075 4074 342 0
-4075 -4074 -342 0
4075 -4074 342 0
4075 4074 -342 0
-4076 4075 344 0
-4076 -4075 -344 0
4076 -4075 344 0
4076 4075 -344 0
-167 -4076 0
-4077 346 348 0
-4077 -346 -348 0
4077 -346 348 0
4077 346 -348 0
-4078 4077 350 0
-4078 -4077 -350 0
4078 -4077 350 0
4078 4077 -350 0
-4079 4078 351 0
-4079 -4078 -351 0
4079 -4078 351 0
4079 4078 -351 0
-4080 4079 352 0
-4080 -4079 -352 0
4080 -4079 352 0
4080 4079 -352 0
-4081 4080 355 0
-4081 -4080 -355 0
4081 -4080 355 0
4081 4080 -355 0
-4082 4081 357 0
-4082 -4081 -357 0
4082 -4081 357 0
4082 4081 -357 0
-4083 4082 359 0
-4083 -4082 -359 0
4083 -4082 359 0
4083 4082 -359 0
-167 -4083 0
-4084 361 363 0
-4084 -361 -363 0
4084 -361 363 0
4084 361 -363 0
-4085 4084 365 0
-4085 -4084 -365 0
4085 -4084 365 0
4085 4084 -365 0
-4086 4085 366 0
-4086 -4085 -366 0
4086 -4085 366 0
4086 4085 -366 0
-4087 4086 367 0
-4087 -4086 -367 0
4087 -4086 367 0
4087 4086 -367 0
-4088 4087 370 0
-4088 -4087 -370 0
4088 -4087 370 0
4088 4087 -370 0
-4089 4088 372 0
-4089 -4088 -372 0
4089 -4088 372 0
4089 4088 -372 0
-4090 4089 374 0
-4090 -4089 -374 0
4090 -4089 374 0
4090 4089 -374 0
-167 -4090 0
-4091 376 378 0
-4091 -376 -378 0
4091 -376 378 0
4091 376 -378 0
-4092 4091 380 0
-4092 -4091 -380 0
4092 -4091 380 0
4092 4091 -380 0
-4093 4092 381 0
-4093 -4092 -381 0
4093 -4092 381 0
4093 4092 -381 0
-4094 4093 382 0
-4094 -4093 -382 0
4094 -4093 382 0
4094 4093 -382 0
-4095 4094 385 0
-4095 -4094 -385 0
4095 -4094 385 0
4095 4094 -385 0
-4096 4095 387 0
-4096 -4095 -387 0
4096 -4095 387 0
4096 4095 -387 0
-4097 4096 389 0
-4097 -4096 -389 0
4097 -4096 389 0
4097 4096 -389 0
-167 -4097 0
-4098 319 320 0
-4098 -319 -320 0
4098 -319 320 0
4098 319 -320 0
-4099 4098 326 0
-4099 -4098 -326 0
4099 -4098 326 0
4099 4098 -326 0
-4100 4099 327 0
-4100 -4099 -327 0
4100 -4099 327 0
4100 4099 -327 0
-4101 4100 328 0
-4101 -4100 -328 0
4101 -4100 328 0
4101 4100 -328 0
-4102 4101 329 0
-4102 -4101 -329 0
4102 -4101 329 0
4102 4101 -329 0
-168 -4102 0
-4103 334 335 0
-4103 -334 -335 0
4103 -334 335 0
4103 334 -335 0
-4104 4103 341 0
-4104 -4103 -341 0
4104 -4103 341 0
4104 4103 -341 0
-4105 4104 342 0
-4105 -4104 -342 0
4105 -4104 342 0
4105 4104 -342 0
-4106 4105 343 0
-4106 -4105 -343 0
4106 -4105 343 0
4106 4105 -343 0
-4107 4106 344 0
-4107 -4106 -344 0
4107 -4106 344 0
4107 4106 -344 0
-168 -4107 0
-4108 349 350 0
-4108 -349 -350 0
4108 -349 350 0
4108 349 -350 0
-4109 4108 356 0
-4109 -4108 -356 0
4109 -4108 356 0
4109 4108 -356 0
-4110 4109 357 0
-4110 -4109 -357 0
4110 -4109 357 0
4110 4109 -357 0
-4111 4110 358 0
-4111 -4110 -358 0
4111 -4110 358 0
4111 4110 -358 0
-4112 4111 359 0
-4112 -4111 -359 0
4112 -4111 359 0
4112 4111 -359 0
-168 -4112 0
-4113 364 365 0
-4113 -364 -365 0
4113 -364 365 0
4113 364 -365 0
-4114 4113 371 0
-4114 -4113 -371 0
4114 -4113 371 0
4114 4113 -371 0
-4115 4114 372 0
-4115 -4114 -372 0
4115 -4114 372 0
4115 4114 -372 0
-4116 4115 373 0
-4116 -4115 -373 0
4116 -4115 373 0
4116 4115 -373 0
-4117 4116 374 0
-4117 -4116 -374 0
4117 -4116 374 0
4117 4116 -374 0
-168 -4117 0
-4118 379 380 0
-4118 -379 -380 0
4118 -379 380 0
4118 379 -380 0
-4119 4118 386 0
-4119 -4118 -386 0
4119 -4118 386 0
4119 4118 -386 0
-4120 4119 387 0
-4120 -4119 -387 0
4120 -4119 387 0
4120 4119 -387 0
-4121 4120 388 0
-4121 -4120 -388 0
4121 -4120 388 0
4121 4120 -388 0
-4122 4121 389 0
-4122 -4121 -389 0
4122 -4121 389 0
4122 4121 -389 0
-168 -4122 0
-4123 317 318 0
-4123 -317 -318 0
4123 -317 318 0
4123 317 -318 0
-4124 4123 319 0
-4124 -4123 -319 0
4124 -4123 319 0
4124 4123 -319 0
-4125 4124 320 0
-4125 -4124 -320 0
4125 -4124 320 0
4125 4124 -320 0
-4126 4125 326 0
-4126 -4125 -326 0
4126 -4125 326 0
4126 4125 -326 0
-4127 4126 327 0
-4127 -4126 -327 0
4127 -4126 327 0
4127 4126 -327 0
-4128 4127 328 0
-4128 -4127 -328 0
4128 -4127 328 0
4128 4127 -328 0
-4129 4128 329 0
-4129 -4128 -329 0
4129 -4128 329 0
4129 4128 -329 0
-169 -4129 0
-4130 332 333 0
-4130 -332 -333 0
4130 -332 333 0
4130 332 -333 0
-4131 4130 334 0
-4131 -4130 -334 0
4131 -4130 334 0
4131 4130 -334 0
-4132 4131 335 0
-4132 -4131 -335 0
4132 -4131 335 0
4132 4131 -335 0
-4133 4132 341 0
-4133 -4132 -341 0
4133 -4132 341 0
4133 4132 -341 0
-4134 4133 342 0
-4134 -4133 -342 0
4134 -4133 342 0
4134 4133 -342 0
-4135 4134 343 0
-4135 -4134 -343 0
4135 -4134 343 0
4135 4134 -343 0
-4136 4135 344 0
-4136 -4135 -344 0
4136 -4135 344 0
4136 4135 -344 0
-169 -4136 0
-4137 347 348 0
-4137 -347 -348 0
4137 -347 348 0
4137 347 -348 0
-4138 4137 349 0
-4138 -4137 -349 0
4138 -4137 349 0
4138 4137 -349 0
-4139 4138 350 0
-4139 -4138 -350 0
4139 -4138 350 0
4139 4138 -350 0
-4140 4139 356 0
-4140 -4139 -356 0
4140 -4139 356 0
4140 4139 -356 0
-4141 4140 357 0
-4141 -4140 -357 0
4141 -4140 357 0
4141 4140 -357 0
-4142 4141 358 0
-4142 -4141 -358 0
4142 -4141 358 0
4142 4141 -358 0
-4143 4142 359 0
-4143 -4142 -359 0
4143 -4142 359 0
4143 4142 -359 0
-169 -4143 0
-4144 362 363 0
-4144 -362 -363 0
4144 -362 363 0
4144 362 -363 0
-4145 4144 364 0
-4145 -4144 -364 0
4145 -4144 364 0
4145 4144 -364 0
-4146 4145 365 0
-4146 -4145 -365 0
4146 -4145 365 0
4146 4145 -365 0
-4147 4146 371 0
-4147 -4146 -371 0
4147 -4146 371 0
4147 4146 -371 0
-4148 4147 372 0
-4148 -4147 -372 0
4148 -4147 372 0
4148 4147 -372 0
-4149 4148 373 0
-4149 -4148 -373 0
4149 -4148 373 0
4149 4148 -373 0
-4150 4149 374 0
-4150 -4149 -374 0
4150 -4149 374 0
4150 4149 -374 0
-169 -4150 0
-4151 377 378 0
-4151 -377 -378 0
4151 -377 378 0
4151 377 -378 0
-4152 4151 379 0
-4152 -4151 -379 0
4152 -4151 379 0
4152 4151 -379 0
-4153 4152 380 0
-4153 -4152 -380 0
4153 -4152 380 0
4153 4152 -380 0
-4154 4153 386 0
-4154 -4153 -386 0
4154 -4153 386 0
4154 4153 -386 0
-4155 4154 387 0
-4155 -4154 -387 0
4155 -4154 387 0
4155 4154 -387 0
-4156 4155 388 0
-4156 -4155 -388 0
4156 -4155 388 0
4156 4155 -388 0
-4157 4156 389 0
-4157 -4156 -389 0
4157 -4156 389 0
4157 4156 -389 0
-169 -4157 0
-4158 316 317 0
-4158 -316 -317 0
4158 -316 317 0
4158 316 -317 0
-4159 4158 319 0
-4159 -4158 -319 0
4159 -4158 319 0
4159 4158 -319 0
-4160 4159 320 0
-4160 -4159 -320 0
4160 -4159 320 0
4160 4159 -320 0
-4161 4160 321 0
-4161 -4160 -321 0
4161 -4160 321 0
4161 4160 -321 0
-4162 4161 322 0
-4162 -4161 -322 0
4162 -4161 322 0
4162 4161 -322 0
-4163 4162 325 0
-4163 -4162 -325 0
4163 -4162 325 0
4163 4162 -325 0
-4164 4163 326 0
-4164 -4163 -326 0
4164 -4163 326 0
4164 4163 -326 0
-4165 4164 327 0
-4165 -4164 -327 0
4165 -4164 327 0
4165 4164 -327 0
-4166 4165 328 0
-4166 -4165 -328 0
4166 -4165 328 0
4166 4165 -328 0
-4167 4166 329 0
-4167 -4166 -329 0
4167 -4166 329 0
4167 4166 -329 0
-170 -4167 0
-4168 331 332 0
-4168 -331 -332 0
4168 -331 332 0
4168 331 -332 0
-4169 4168 334 0
-4169 -4168 -334 0
4169 -4168 334 0
4169 4168 -334 0
-4170 4169 335 0
-4170 -4169 -335 0
4170 -4169 335 0
4170 4169 -335 0
-4171 4170 336 0
-4171 -4170 -336 0
4171 -4170 336 0
4171 4170 -336 0
-4172 4171 337 0
-4172 -4171 -337 0
4172 -4171 337 0
4172 4171 -337 0
-4173 4172 340 0
-4173 -4172 -340 0
4173 -4172 340 0
4173 4172 -340 0
-4174 4173 341 0
-4174 -4173 -341 0
4174 -4173 341 0
4174 4173 -341 0
-4175 4174 342 0
-4175 -4174 -342 0
4175 -4174 342 0
4175 4174 -342 0
-4176 4175 343 0
-4176 -4175 -343 0
4176 -4175 343 0
4176 4175 -343 0
-4177 4176 344 0
-4177 -4176 -344 0
4177 -4176 344 0
4177 4176 -344 0
-170 -4177 0
-4178 346 347 0
-4178 -346 -347 0
4178 -346 347 0
4178 346 -347 0
-4179 4178 349 0
-4179 -4178 -349 0
4179 -4178 349 0
4179 4178 -349 0
-4180 4179 350 0
-4180 -4179 -350 0
4180 -4179 350 0
4180 4179 -350 0
-4181 4180 351 0
-4181 -4180 -351 0
4181 -4180 351 0
4181 4180 -351 0
-4182 4181 352 0
-4182 -4181 -352 0
4182 -4181 352 0
4182 4181 -352 0
-4183 4182 355 0
-4183 -4182 -355 0
4183 -4182 355 0
4183 4182 -355 0
-4184 4183 356 0
-4184 -4183 -356 0
4184 -4183 356 0
4184 4183 -356 0
-4185 4184 357 0
-4185 -4184 -357 0
4185 -4184 357 0
4185 4184 -357 0
-4186 4185 358 0
-4186 -4185 -358 0
4186 -4185 358 0
4186 4185 -358 0
-4187 4186 359 0
-4187 -4186 -359 0
4187 -4186 359 0
4187 4186 -359 0
-170 -4187 0
-4188 361 362 0
-4188 -361 -362 0
4188 -361 362 0
4188 361 -362 0
-4189 4188 364 0
-4189 -4188 -364 0
4189 -4188 364 0
4189 4188 -364 0
-4190 4189 365 0
-4190 -4189 -365 0
4190 -4189 365 0
4190 4189 -365 0
-4191 4190 366 0
-4191 -4190 -366 0
4191 -4190 366 0
4191 4190 -366 0
-4192 4191 367 0
-4192 -4191 -367 0
4192 -4191 367 0
4192 4191 -367 0
-4193 4192 370 0
-4193 -4192 -370 0
4193 -4192 370 0
4193 4192 -370 0
-4194 4193 371 0
-4194 -4193 -371 0
4194 -4193 371 0
4194 4193 -371 0
-4195 4194 372 0
-4195 -4194 -372 0
4195 -4194 372 0
4195 4194 -372 0
-4196 4195 373 0
-4196 -4195 -373 0
4196 -4195 373 0
4196 4195 -373 0
-4197 4196 374 0
-4197 -4196 -374 0
4197 -4196 374 0
4197 4196 -374 0
-170 -4197 0
-4198 376 377 0
-4198 -376 -377 0
4198 -376 377 0
4198 376 -377 0
-4199 4198 379 0
-4199 -4198 -379 0
4199 -4198 379 0
4199 4198 -379 0
-4200 4199 380 0
-4200 -4199 -380 0
4200 -4199 380 0
4200 4199 -380 0
-4201 4200 381 0
-4201 -4200 -381 0
4201 -4200 381 0
4201 4200 -381 0
-4202 4201 382 0
-4202 -4201 -382 0
4202 -4201 382 0
4202 4201 -382 0
-4203 4202 385 0
-4203 -4202 -385 0
4203 -4202 385 0
4203 4202 -385 0
-4204 4203 386 0
-4204 -4203 -386 0
4204 -4203 386 0
4204 4203 -386 0
-4205 4204 387 0
-4205 -4204 -387 0
4205 -4204 387 0
4205 4204 -387 0
-4206 4205 388 0
-4206 -4205 -388 0
4206 -4205 388 0
4206 4205 -388 0
-4207 4206 389 0
-4207 -4206 -389 0
4207 -4206 389 0
4207 4206 -389 0
-170 -4207 0
-4208 316 318 0
-4208 -316 -318 0
4208 -316 318 0
4208 316 -318 0
-4209 4208 319 0
-4209 -4208 -319 0
4209 -4208 319 0
4209 4208 -319 0
-4210 4209 320 0
-4210 -4209 -320 0
4210 -4209 320 0
4210 4209 -320 0
-4211 4210 321 0
-4211 -4210 -321 0
4211 -4210 321 0
4211 4210 -321 0
-4212 4211 322 0
-4212 -4211 -322 0
4212 -4211 322 0
4212 4211 -322 0
-4213 4212 325 0
-4213 -4212 -325 0
4213 -4212 325 0
4213 4212 -325 0
-4214 4213 326 0
-4214 -4213 -326 0
4214 -4213 326 0
4214 4213 -326 0
-4215 4214 327 0
-4215 -4214 -327 0
4215 -4214 327 0
4215 4214 -327 0
-4216 4215 328 0
-4216 -4215 -328 0
4216 -4215 328 0
4216 4215 -328 0
-4217 4216 329 0
-4217 -4216 -329 0
4217 -4216 329 0
4217 4216 -329 0
-171 -4217 0
-4218 331 333 0
-4218 -331 -333 0
4218 -331 333 0
4218 331 -333 0
-4219 4218 334 0
-4219 -4218 -334 0
4219 -4218 334 0
4219 4218 -334 0
-4220 4219 335 0
-4220 -4219 -335 0
4220 -4219 335 0
4220 4219 -335 0
-4221 4220 336 0
-4221 -4220 -336 0
4221 -4220 336 0
4221 4220 -336 0
-4222 4221 337 0
-4222 -4221 -337 0
4222 -4221 337 0
4222 4221 -337 0
-4223 4222 340 0
-4223 -4222 -340 0
4223 -4222 340 0
4223 4222 -340 0
-4224 4223 341 0
-4224 -4223 -341 0
4224 -4223 341 0
4224 4223 -341 0
-4225 4224 342 0
-4225 -4224 -342 0
4225 -4224 342 0
4225 4224 -342 0
-4226 4225 343 0
-4226 -4225 -343 0
4226 -4225 343 0
4226 4225 -343 0
-4227 4226 344 0
-4227 -4226 -344 0
4227 -4226 344 0
4227 4226 -344 0
-171 -4227 0
-4228 346 348 0
-4228 -346 -348 0
4228 -346 348 0
4228 346 -348 0
-4229 4228 349 0
-4229 -4228 -349 0
4229 -4228 349 0
4229 4228 -349 0
-4230 4229 350 0
-4230 -4229 -350 0
4230 -4229 350 0
4230 4229 -350 0
-4231 4230 351 0
-4231 -4230 -351 0
4231 -4230 351 0
4231 4230 -351 0
-4232 4231 352 0
-4232 -4231 -352 0
4232 -4231 352 0
4232 4231 -352 0
-4233 4232 355 0
-4233 -4232 -355 0
4233 -4232 355 0
4233 4232 -355 0
-4234 4233 356 0
-4234 -4233 -356 0
4234 -4233 356 0
4234 4233 -356 0
-4235 4234 357 0
-4235 -4234 -357 0
4235 -4234 357 0
4235 4234 -357 0
-4236 4235 358 0
-4236 -4235 -358 0
4236 -4235 358 0
4236 4235 -358 0
-4237 4236 359 0
-4237 -4236 -359 0
4237 -4236 359 0
4237 4236 -359 0
-171 -4237 0
-4238 361 363 0
-4238 -361 -363 0
4238 -361 363 0
4238 361 -363 0
-4239 4238 364 0
-4239 -4238 -364 0
4239 -4238 364 0
4239 4238 -364 0
-4240 4239 365 0
-4240 -4239 -365 0
4240 -4239 365 0
4240 4239 -365 0
-4241 4240 366 0
-4241 -4240 -366 0
4241 -4240 366 0
4241 4240 -366 0
-4242 4241 367 0
-4242 -4241 -367 0
4242 -4241 367 0
4242 4241 -367 0
-4243 4242 370 0
-4243 -4242 -370 0
4243 -4242 370 0
4243 4242 -370 0
-4244 4243 371 0
-4244 -4243 -371 0
4244 -4243 371 0
4244 4243 -371 0
-4245 4244 372 0
-4245 -4244 -372 0
4245 -4244 372 0
4245 4244 -372 0
-4246 4245 373 0
-4246 -4245 -373 0
4246 -4245 373 0
4246 4245 -373 0
-4247 4246 374 0
-4247 -4246 -374 0
4247 -4246 374 0
4247 4246 -374 0
-171 -4247 0
-4248 376 378 0
-4248 -376 -378 0
4248 -376 378 0
4248 376 -378 0
-4249 4248 379 0
-4249 -4248 -379 0
4249 -4248 379 0
4249 4248 -379 0
-4250 4249 380 0
-4250 -4249 -380 0
4250 -4249 380 0
4250 4249 -380 0
-4251 4250 381 0
-4251 -4250 -381 0
4251 -4250 381 0
4251 4250 -381 0
-4252 4251 382 0
-4252 -4251 -382 0
4252 -4251 382 0
4252 4251 -382 0
-4253 4252 385 0
-4253 -4252 -385 0
4253 -4252 385 0
4253 4252 -385 0
-4254 4253 386 0
-4254 -4253 -386 0
4254 -4253 386 0
4254 4253 -386 0
-4255 4254 387 0
-4255 -4254 -387 0
4255 -4254 387 0
4255 4254 -387 0
-4256 4255 388 0
-4256 -4255 -388 0
4256 -4255 388 0
4256 4255 -388 0
-4257 4256 389 0
-4257 -4256 -389 0
4257 -4256 389 0
4257 4256 -389 0
-171 -4257 0
-4258 323 326 0
-4258 -323 -326 0
4258 -323 326 0
4258 323 -326 0
-4259 4258 328 0
-4259 -4258 -328 0
4259 -4258 328 0
4259 4258 -328 0
-172 -4259 0
-4260 338 341 0
-4260 -338 -341 0
4260 -338 341 0
4260 338 -341 0
-4261 4260 343 0
-4261 -4260 -343 0
4261 -4260 343 0
4261 4260 -343 0
-172 -4261 0
-4262 353 356 0
-4262 -353 -356 0
4262 -353 356 0
4262 353 -356 0
-4263 4262 358 0
-4263 -4262 -358 0
4263 -4262 358 0
4263 4262 -358 0
-172 -4263 0
-4264 368 371 0
-4264 -368 -371 0
4264 -368 371 0
4264 368 -371 0
-4265 4264 373 0
-4265 -4264 -373 0
4265 -4264 373 0
4265 4264 -373 0
-172 -4265 0
-4266 383 386 0
-4266 -383 -386 0
4266 -383 386 0
4266 383 -386 0
-4267 4266 388 0
-4267 -4266 -388 0
4267 -4266 388 0
4267 4266 -388 0
-172 -4267 0
-4268 321 322 0
-4268 -321 -322 0
4268 -321 322 0
4268 321 -322 0
-4269 4268 323 0
-4269 -4268 -323 0
4269 -4268 323 0
4269 4268 -323 0
-4270 4269 326 0
-4270 -4269 -326 0
4270 -4269 326 0
4270 4269 -326 0
-4271 4270 328 0
-4271 -4270 -328 0
4271 -4270 328 0
4271 4270 -328 0
-173 -4271 0
-4272 336 337 0
-4272 -336 -337 0
4272 -336 337 0
4272 336 -337 0
-4273 4272 338 0
-4273 -4272 -338 0
4273 -4272 338 0
4273 4272 -338 0
-4274 4273 341 0
-4274 -4273 -341 0
4274 -4273 341 0
4274 4273 -341 0
-4275 4274 343 0
-4275 -4274 -343 0
4275 -4274 343 0
4275 4274 -343 0
-173 -4275 0
-4276 351 352 0
-4276 -351 -352 0
4276 -351 352 0
4276 351 -352 0
-4277 4276 353 0
-4277 -4276 -353 0
4277 -4276 353 0
4277 4276 -353 0
-4278 4277 356 0
-4278 -4277 -356 0
4278 -4277 356 0
4278 4277 -356 0
-4279 4278 358 0
-4279 -4278 -358 0
4279 -4278 358 0
4279 4278 -358 0
-173 -4279 0
-4280 366 367 0
-4280 -366 -367 0
4280 -366 367 0
4280 366 -367 0
-4281 4280 368 0
-4281 -4280 -368 0
4281 -4280 368 0
4281 4280 -368 0
-4282 4281 371 0
-4282 -4281 -371 0
4282 -4281 371 0
4282 4281 -371 0
-4283 4282 373 0
-4283 -4282 -373 0
4283 -4282 373 0
4283 4282 -373 0
-173 -4283 0
-4284 381 382 0
-4284 -381 -382 0
4284 -381 382 0
4284 381 -382 0
-4285 4284 383 0
-4285 -4284 -383 0
4285 -4284 383 0
4285 4284 -383 0
-4286 4285 386 0
-4286 -4285 -386 0
4286 -4285 386 0
4286 4285 -386 0
-4287 4286 388 0
-4287 -4286 -388 0
4287 -4286 388 0
4287 4286 -388 0
-173 -4287 0
-4288 316 317 0
-4288 -316 -317 0
4288 -316 317 0
4288 316 -317 0
-4289 4288 318 0
-4289 -4288 -318 0
4289 -4288 318 0
4289 4288 -318 0
-4290 4289 321 0
-4290 -4289 -321 0
4290 -4289 321 0
4290 4289 -321 0
-4291 4290 323 0
-4291 -4290 -323 0
4291 -4290 323 0
4291 4290 -323 0
-4292 4291 325 0
-4292 -4291 -325 0
4292 -4291 325 0
4292 4291 -325 0
-4293 4292 326 0
-4293 -4292 -326 0
4293 -4292 326 0
4293 4292 -326 0
-4294 4293 328 0
-4294 -4293 -328 0
4294 -4293 328 0
4294 4293 -328 0
-174 -4294 0
-4295 331 332 0
-4295 -331 -332 0
4295 -331 332 0
4295 331 -332 0
-4296 4295 333 0
-4296 -4295 -333 0
4296 -4295 333 0
4296 4295 -333 0
-4297 4296 336 0
-4297 -4296 -336 0
4297 -4296 336 0
4297 4296 -336 0
-4298 4297 338 0
-4298 -4297 -338 0
4298 -4297 338 0
4298 4297 -338 0
-4299 4298 340 0
-4299 -4298 -340 0
4299 -4298 340 0
4299 4298 -340 0
-4300 4299 341 0
-4300 -4299 -341 0
4300 -4299 341 0
4300 4299 -341 0
-4301 4300 343 0
-4301 -4300 -343 0
4301 -4300 343 0
4301 4300 -343 0
-174 -4301 0
-4302 346 347 0
-4302 -346 -347 0
4302 -346 347 0
4302 346 -347 0
-4303 4302 348 0
-4303 -4302 -348 0
4303 -4302 348 0
4303 4302 -348 0
-4304 4303 351 0
-4304 -4303 -351 0
4304 -4303 351 0
4304 4303 -351 0
-4305 4304 353 0
-4305 -4304 -353 0
4305 -4304 353 0
4305 4304 -353 0
-4306 4305 355 0
-4306 -4305 -355 0
4306 -4305 355 0
4306 4305 -355 0
-4307 4306 356 0
-4307 -4306 -356 0
4307 -4306 356 0
4307 4306 -356 0
-4308 4307 358 0
-4308 -4307 -358 0
4308 -4307 358 0
4308 4307 -358 0
-174 -4308 0
-4309 361 362 0
-4309 -361 -362 0
4309 -361 362 0
4309 361 -362 0
-4310 4309 363 0
-4310 -4309 -363 0
4310 -4309 363 0
4310 4309 -363 0
-4311 4310 366 0
-4311 -4310 -366 0
4311 -4310 366 0
4311 4310 -366 0
-4312 4311 368 0
-4312 -4311 -368 0
4312 -4311 368 0
4312 4311 -368 0
-4313 4312 370 0
-4313 -4312 -370 0
4313 -4312 370 0
4313 4312 -370 0
-4314 4313 371 0
-4314 -4313 -371 0
4314 -4313 371 0
4314 4313 -371 0
-4315 4314 373 0
-4315 -4314 -373 0
4315 -4314 373 0
4315 4314 -373 0
-174 -4315 0
-4316 376 377 0
-4316 -376 -377 0
4316 -376 377 0
4316 376 -377 0
-4317 4316 378 0
-4317 -4316 -378 0
4317 -4316 378 0
4317 4316 -378 0
-4318 4317 381 0
-4318 -4317 -381 0
4318 -4317 381 0
4318 4317 -381 0
-4319 4318 383 0
-4319 -4318 -383 0
4319 -4318 383 0
4319 4318 -383 0
-4320 4319 385 0
-4320 -4319 -385 0
4320 -4319 385 0
4320 4319 -385 0
-4321 4320 386 0
-4321 -4320 -386 0
4321 -4320 386 0
4321 4320 -386 0
-4322 4321 388 0
-4322 -4321 -388 0
4322 -4321 388 0
4322 4321 -388 0
-174 -4322 0
-4323 316 317 0
-4323 -316 -317 0
4323 -316 317 0
4323 316 -317 0
-4324 4323 318 0
-4324 -4323 -318 0
4324 -4323 318 0
4324 4323 -318 0
-4325 4324 322 0
-4325 -4324 -322 0
4325 -4324 322 0
4325 4324 -322 0
-4326 4325 323 0
-4326 -4325 -323 0
4326 -4325 323 0
4326 4325 -323 0
-4327 4326 325 0
-4327 -4326 -325 0
4327 -4326 325 0
4327 4326 -325 0
-4328 4327 326 0
-4328 -4327 -326 0
4328 -4327 326 0
4328 4327 -326 0
-4329 4328 328 0
-4329 -4328 -328 0
4329 -4328 328 0
4329 4328 -328 0
-175 -4329 0
-4330 331 332 0
-4330 -331 -332 0
4330 -331 332 0
4330 331 -332 0
-4331 4330 333 0
-4331 -4330 -333 0
4331 -4330 333 0
4331 4330 -333 0
-4332 4331 337 0
-4332 -4331 -337 0
4332 -4331 337 0
4332 4331 -337 0
-4333 4332 338 0
-4333 -4332 -338 0
4333 -4332 338 0
4333 4332 -338 0
-4334 4333 340 0
-4334 -4333 -340 0
4334 -4333 340 0
4334 4333 -340 0
-4335 4334 341 0
-4335 -4334 -341 0
4335 -4334 341 0
4335 4334 -341 0
-4336 4335 343 0
-4336 -4335 -343 0
4336 -4335 343 0
4336 4335 -343 0
-175 -4336 0
-4337 346 347 0
-4337 -346 -347 0
4337 -346 347 0
4337 346 -347 0
-4338 4337 348 0
-4338 -4337 -348 0
4338 -4337 348 0
4338 4337 -348 0
-4339 4338 352 0
-4339 -4338 -352 0
4339 -4338 352 0
4339 4338 -352 0
-4340 4339 353 0
-4340 -4339 -353 0
4340 -4339 353 0
4340 4339 -353 0
-4341 4340 355 0
-4341 -4340 -355 0
4341 -4340 355 0
4341 4340 -355 0
-4342 4341 356 0
-4342 -4341 -356 0
4342 -4341 356 0
4342 4341 -356 0
-4343 4342 358 0
-4343 -4342 -358 0
4343 -4342 358 0
4343 4342 -358 0
-175 -4343 0
-4344 361 362 0
-4344 -361 -362 0
4344 -361 362 0
4344 361 -362 0
-4345 4344 363 0
-4345 -4344 -363 0
4345 -4344 363 0
4345 4344 -363 0
-4346 4345 367 0
-4346 -4345 -367 0
4346 -4345 367 0
4346 4345 -367 0
-4347 4346 368 0
-4347 -4346 -368 0
4347 -4346 368 0
4347 4346 -368 0
-4348 4347 370 0
-4348 -4347 -370 0
4348 -4347 370 0
4348 4347 -370 0
-4349 4348 371 0
-4349 -4348 -371 0
4349 -4348 371 0
4349 4348 -371 0
-4350 4349 373 0
-4350 -4349 -373 0
4350 -4349 373 0
4350 4349 -373 0
-175 -4350 0
-4351 376 377 0
-4351 -376 -377 0
4351 -376 377 0
4351 376 -377 0
-4352 4351 378 0
-4352 -4351 -378 0
4352 -4351 378 0
4352 4351 -378 0
-4353 4352 382 0
-4353 -4352 -382 0
4353 -4352 382 0
4353 4352 -382 0
-4354 4353 383 0
-4354 -4353 -383 0
4354 -4353 383 0
4354 4353 -383 0
-4355 4354 385 0
-4355 -4354 -385 0
4355 -4354 385 0
4355 4354 -385 0
-4356 4355 386 0
-4356 -4355 -386 0
4356 -4355 386 0
4356 4355 -386 0
-4357 4356 388 0
-4357 -4356 -388 0
4357 -4356 388 0
4357 4356 -388 0
-175 -4357 0
-4358 324 327 0
-4358 -324 -327 0
4358 -324 327 0
4358 324 -327 0
-4359 4358 329 0
-4359 -4358 -329 0
4359 -4358 329 0
4359 4358 -329 0
-176 -4359 0
-4360 339 342 0
-4360 -339 -342 0
4360 -339 342 0
4360 339 -342 0
-4361 4360 344 0
-4361 -4360 -344 0
4361 -4360 344 0
4361 4360 -344 0
-176 -4361 0
-4362 354 357 0
-4362 -354 -357 0
4362 -354 357 0
4362 354 -357 0
-4363 4362 359 0
-4363 -4362 -359 0
4363 -4362 359 0
4363 4362 -359 0
-176 -4363 0
-4364 369 372 0
-4364 -369 -372 0
4364 -369 372 0
4364 369 -372 0
-4365 4364 374 0
-4365 -4364 -374 0
4365 -4364 374 0
4365 4364 -374 0
-176 -4365 0
-4366 384 387 0
-4366 -384 -387 0
4366 -384 387 0
4366 384 -387 0
-4367 4366 389 0
-4367 -4366 -389 0
4367 -4366 389 0
4367 4366 -389 0
-176 -4367 0
-4368 321 322 0
-4368 -321 -322 0
4368 -321 322 0
4368 321 -322 0
-4369 4368 324 0
-4369 -4368 -324 0
4369 -4368 324 0
4369 4368 -324 0
-4370 4369 327 0
-4370 -4369 -327 0
4370 -4369 327 0
4370 4369 -327 0
-4371 4370 329 0
-4371 -4370 -329 0
4371 -4370 329 0
4371 4370 -329 0
-177 -4371 0
-4372 336 337 0
-4372 -336 -337 0
4372 -336 337 0
4372 336 -337 0
-4373 4372 339 0
-4373 -4372 -339 0
4373 -4372 339 0
4373 4372 -339 0
-4374 4373 342 0
-4374 -4373 -342 0
4374 -4373 342 0
4374 4373 -342 0
-4375 4374 344 0
-4375 -4374 -344 0
4375 -4374 344 0
4375 4374 -344 0
-177 -4375 0
-4376 351 352 0
-4376 -351 -352 0
4376 -351 352 0
4376 351 -352 0
-4377 4376 354 0
-4377 -4376 -354 0
4377 -4376 354 0
4377 4376 -354 0
-4378 4377 357 0
-4378 -4377 -357 0
4378 -4377 357 0
4378 4377 -357 0
-4379 4378 359 0
-4379 -4378 -359 0
4379 -4378 359 0
4379 4378 -359 0
-177 -4379 0
-4380 366 367 0
-4380 -366 -367 0
4380 -366 367 0
4380 366 -367 0
-4381 4380 369 0
-4381 -4380 -369 0
4381 -4380 369 0
4381 4380 -369 0
-4382 4381 372 0
-4382 -4381 -372 0
4382 -4381 372 0
4382 4381 -372 0
-4383 4382 374 0
-4383 -4382 -374 0
4383 -4382 374 0
4383 4382 -374 0
-177 -4383 0
-4384 381 382 0
-4384 -381 -382 0
4384 -381 382 0
4384 381 -382 0
-4385 4384 384 0
-4385 -4384 -384 0
4385 -4384 384 0
4385 4384 -384 0
-4386 4385 387 0
-4386 -4385 -387 0
4386 -4385 387 0
4386 4385 -387 0
-4387 4386 389 0
-4387 -4386 -389 0
4387 -4386 389 0
4387 4386 -389 0
-177 -4387 0
-4388 316 317 0
-4388 -316 -317 0
4388 -316 317 0
4388 316 -317 0
-4389 4388 318 0
-4389 -4388 -318 0
4389 -4388 318 0
4389 4388 -318 0
-4390 4389 321 0
-4390 -4389 -321 0
4390 -4389 321 0
4390 4389 -321 0
-4391 4390 324 0
-4391 -4390 -324 0
4391 -4390 324 0
4391 4390 -324 0
-4392 4391 325 0
-4392 -4391 -325 0
4392 -4391 325 0
4392 4391 -325 0
-4393 4392 327 0
-4393 -4392 -327 0
4393 -4392 327 0
4393 4392 -327 0
-4394 4393 329 0
-4394 -4393 -329 0
4394 -4393 329 0
4394 4393 -329 0
-178 -4394 0
-4395 331 332 0
-4395 -331 -332 0
4395 -331 332 0
4395 331 -332 0
-4396 4395 333 0
-4396 -4395 -333 0
4396 -4395 333 0
4396 4395 -333 0
-4397 4396 336 0
-4397 -4396 -336 0
4397 -4396 336 0
4397 4396 -336 0
-4398 4397 339 0
-4398 -4397 -339 0
4398 -4397 339 0
4398 4397 -339 0
-4399 4398 340 0
-4399 -4398 -340 0
4399 -4398 340 0
4399 4398 -340 0
-4400 4399 342 0
-4400 -4399 -342 0
4400 -4399 342 0
4400 4399 -342 0
-4401 4400 344 0
-4401 -4400 -344 0
4401 -4400 344 0
4401 4400 -344 0
-178 -4401 0
-4402 346 347 0
-4402 -346 -347 0
4402 -346 347 0
4402 346 -347 0
-4403 4402 348 0
-4403 -4402 -348 0
4403 -4402 348 0
4403 4402 -348 0
-4404 4403 351 0
-4404 -4403 -351 0
4404 -4403 351 0
4404 4403 -351 0
-4405 4404 354 0
-4405 -4404 -354 0
4405 -4404 354 0
4405 4404 -354 0
-4406 4405 355 0
-4406 -4405 -355 0
4406 -4405 355 0
4406 4405 -355 0
-4407 4406 357 0
-4407 -4406 -357 0
4407 -4406 357 0
4407 4406 -357 0
-4408 4407 359 0
-4408 -4407 -359 0
4408 -4407 359 0
4408 4407 -359 0
-178 -4408 0
-4409 361 362 0
-4409 -361 -362 0
4409 -361 362 0
4409 361 -362 0
-4410 4409 363 0
-4410 -4409 -363 0
4410 -4409 363 0
4410 4409 -363 0
-4411 4410 366 0
-4411 -4410 -366 0
4411 -4410 366 0
4411 4410 -366 0
-4412 4411 369 0
-4412 -4411 -369 0
4412 -4411 369 0
4412 4411 -369 0
-4413 4412 370 0
-4413 -4412 -370 0
4413 -4412 370 0
4413 4412 -370 0
-4414 4413 372 0
-4414 -4413 -372 0
4414 -4413 372 0
4414 4413 -372 0
-4415 4414 374 0
-4415 -4414 -374 0
4415 -4414 374 0
4415 4414 -374 0
-178 -4415 0
-4416 376 377 0
-4416 -376 -377 0
4416 -376 377 0
4416 376 -377 0
-4417 4416 378 0
-4417 -4416 -378 0
4417 -4416 378 0
4417 4416 -378 0
-4418 4417 381 0
-4418 -4417 -381 0
4418 -4417 381 0
4418 4417 -381 0
-4419 4418 384 0
-4419 -4418 -384 0
4419 -4418 384 0
4419 4418 -384 0
-4420 4419 385 0
-4420 -4419 -385 0
4420 -4419 385 0
4420 4419 -385 0
-4421 4420 387 0
-4421 -4420 -387 0
4421 -4420 387 0
4421 4420 -387 0
-4422 4421 389 0
-4422 -4421 -389 0
4422 -4421 389 0
4422 4421 -389 0
-178 -4422 0
-4423 316 317 0
-4423 -316 -317 0
4423 -316 317 0
4423 316 -317 0
-4424 4423 318 0
-4424 -4423 -318 0
4424 -4423 318 0
4424 4423 -318 0
-4425 4424 322 0
-4425 -4424 -322 0
4425 -4424 322 0
4425 4424 -322 0
-4426 4425 324 0
-4426 -4425 -324 0
4426 -4425 324 0
4426 4425 -324 0
-4427 4426 325 0
-4427 -4426 -325 0
4427 -4426 325 0
4427 4426 -325 0
-4428 4427 327 0
-4428 -4427 -327 0
4428 -4427 327 0
4428 4427 -327 0
-4429 4428 329 0
-4429 -4428 -329 0
4429 -4428 329 0
4429 4428 -329 0
-179 -4429 0
-4430 331 332 0
-4430 -331 -332 0
4430 -331 332 0
4430 331 -332 0
-4431 4430 333 0
-4431 -4430 -333 0
4431 -4430 333 0
4431 4430 -333 0
-4432 4431 337 0
-4432 -4431 -337 0
4432 -4431 337 0
4432 4431 -337 0
-4433 4432 339 0
-4433 -4432 -339 0
4433 -4432 339 0
4433 4432 -339 0
-4434 4433 340 0
-4434 -4433 -340 0
4434 -4433 340 0
4434 4433 -340 0
-4435 4434 342 0
-4435 -4434 -342 0
4435 -4434 342 0
4435 4434 -342 0
-4436 4435 344 0
-4436 -4435 -344 0
4436 -4435 344 0
4436 4435 -344 0
-179 -4436 0
-4437 346 347 0
-4437 -346 -347 0
4437 -346 347 0
4437 346 -347 0
-4438 4437 348 0
-4438 -4437 -348 0
4438 -4437 348 0
4438 4437 -348 0
-4439 4438 352 0
-4439 -4438 -352 0
4439 -4438 352 0
4439 4438 -352 0
-4440 4439 354 0
-4440 -4439 -354 0
4440 -4439 354 0
4440 4439 -354 0
-4441 4440 355 0
-4441 -4440 -355 0
4441 -4440 355 0
4441 4440 -355 0
-4442 4441 357 0
-4442 -4441 -357 0
4442 -4441 357 0
4442 4441 -357 0
-4443 4442 359 0
-4443 -4442 -359 0
4443 -4442 359 0
4443 4442 -359 0
-179 -4443 0
-4444 361 362 0
-4444 -361 -362 0
4444 -361 362 0
4444 361 -362 0
-4445 4444 363 0
-4445 -4444 -363 0
4445 -4444 363 0
4445 4444 -363 0
-4446 4445 367 0
-4446 -4445 -367 0
4446 -4445 367 0
4446 4445 -367 0
-4447 4446 369 0
-4447 -4446 -369 0
4447 -4446 369 0
4447 4446 -369 0
-4448 4447 370 0
-4448 -4447 -370 0
4448 -4447 370 0
4448 4447 -370 0
-4449 4448 372 0
-4449 -4448 -372 0
4449 -4448 372 0
4449 4448 -372 0
-4450 4449 374 0
-4450 -4449 -374 0
4450 -4449 374 0
4450 4449 -374 0
-179 -4450 0
-4451 376 377 0
-4451 -376 -377 0
4451 -376 377 0
4451 376 -377 0
-4452 4451 378 0
-4452 -4451 -378 0
4452 -4451 378 0
4452 4451 -378 0
-4453 4452 382 0
-4453 -4452 -382 0
4453 -4452 382 0
4453 4452 -382 0
-4454 4453 384 0
-4454 -4453 -384 0
4454 -4453 384 0
4454 4453 -384 0
-4455 4454 385 0
-4455 -4454 -385 0
4455 -4454 385 0
4455 4454 -385 0
-4456 4455 387 0
-4456 -4455 -387 0
4456 -4455 387 0
4456 4455 -387 0
-4457 4456 389 0
-4457 -4456 -389 0
4457 -4456 389 0
4457 4456 -389 0
-179 -4457 0
-4458 323 324 0
-4458 -323 -324 0
4458 -323 324 0
4458 323 -324 0
-4459 4458 326 0
-4459 -4458 -326 0
4459 -4458 326 0
4459 4458 -326 0
-4460 4459 327 0
-4460 -4459 -327 0
4460 -4459 327 0
4460 4459 -327 0
-4461 4460 328 0
-4461 -4460 -328 0
4461 -4460 328 0
4461 4460 -328 0
-4462 4461 329 0
-4462 -4461 -329 0
4462 -4461 329 0
4462 4461 -329 0
-180 -4462 0
-4463 338 339 0
-4463 -338 -339 0
4463 -338 339 0
4463 338 -339 0
-4464 4463 341 0
-4464 -4463 -341 0
4464 -4463 341 0
4464 4463 -341 0
-4465 4464 342 0
-4465 -4464 -342 0
4465 -4464 342 0
4465 4464 -342 0
-4466 4465 343 0
-4466 -4465 -343 0
4466 -4465 343 0
4466 4465 -343 0
-4467 4466 344 0
-4467 -4466 -344 0
4467 -4466 344 0
4467 4466 -344 0
-180 -4467 0
-4468 353 354 0
-4468 -353 -354 0
4468 -353 354 0
4468 353 -354 0
-4469 4468 356 0
-4469 -4468 -356 0
4469 -4468 356 0
4469 4468 -356 0
-4470 4469 357 0
-4470 -4469 -357 0
4470 -4469 357 0
4470 4469 -357 0
-4471 4470 358 0
-4471 -4470 -358 0
4471 -4470 358 0
4471 4470 -358 0
-4472 4471 359 0
-4472 -4471 -359 0
4472 -4471 359 0
4472 4471 -359 0
-180 -4472 0
-4473 368 369 0
-4473 -368 -369 0
4473 -368 369 0
4473 368 -369 0
-4474 4473 371 0
-4474 -4473 -371 0
4474 -4473 371 0
4474 4473 -371 0
-4475 4474 372 0
-4475 -4474 -372 0
4475 -4474 372 0
4475 4474 -372 0
-4476 4475 373 0
-4476 -4475 -373 0
4476 -4475 373 0
4476 4475 -373 0
-4477 4476 374 0
-4477 -4476 -374 0
4477 -4476 374 0
4477 4476 -374 0
-180 -4477 0
-4478 383 384 0
-4478 -383 -384 0
4478 -383 384 0
4478 383 -384 0
-4479 4478 386 0
-4479 -4478 -386 0
4479 -4478 386 0
4479 4478 -386 0
-4480 4479 387 0
-4480 -4479 -387 0
4480 -4479 387 0
4480 4479 -387 0
-4481 4480 388 0
-4481 -4480 -388 0
4481 -4480 388 0
4481 4480 -388 0
-4482 4481 389 0
-4482 -4481 -389 0
4482 -4481 389 0
4482 4481 -389 0
-180 -4482 0
-4483 321 322 0
-4483 -321 -322 0
4483 -321 322 0
4483 321 -322 0
-4484 4483 323 0
-4484 -4483 -323 0
4484 -4483 323 0
4484 4483 -323 0
-4485 4484 324 0
-4485 -4484 -324 0
4485 -4484 324 0
4485 4484 -324 0
-4486 4485 326 0
-4486 -4485 -326 0
4486 -4485 326 0
4486 4485 -326 0
-4487 4486 327 0
-4487 -4486 -327 0
4487 -4486 327 0
4487 4486 -327 0
-4488 4487 328 0
-4488 -4487 -328 0
4488 -4487 328 0
4488 4487 -328 0
-4489 4488 329 0
-4489 -4488 -329 0
4489 -4488 329 0
4489 4488 -329 0
-181 -4489 0
-4490 336 337 0
-4490 -336 -337 0
4490 -336 337 0
4490 336 -337 0
-4491 4490 338 0
-4491 -4490 -338 0
4491 -4490 338 0
4491 4490 -338 0
-4492 4491 339 0
-4492 -4491 -339 0
4492 -4491 339 0
4492 4491 -339 0
-4493 4492 341 0
-4493 -4492 -341 0
4493 -4492 341 0
4493 4492 -341 0
-4494 4493 342 0
-4494 -4493 -342 0
4494 -4493 342 0
4494 4493 -342 0
-4495 4494 343 0
-4495 -4494 -343 0
4495 -4494 343 0
4495 4494 -343 0
-4496 4495 344 0
-4496 -4495 -344 0
4496 -4495 344 0
4496 4495 -344 0
-181 -4496 0
-4497 351 352 0
-4497 -351 -352 0
4497 -351 352 0
4497 351 -352 0
-4498 4497 353 0
-4498 -4497 -353 0
4498 -4497 353 0
4498 4497 -353 0
-4499 4498 354 0
-4499 -4498 -354 0
4499 -4498 354 0
4499 4498 -354 0
-4500 4499 356 0
-4500 -4499 -356 0
4500 -4499 356 0
4500 4499 -356 0
-4501 4500 357 0
-4501 -4500 -357 0
4501 -4500 357 0
4501 4500 -357 0
-4502 4501 358 0
-4502 -4501 -358 0
4502 -4501 358 0
4502 4501 -358 0
-4503 4502 359 0
-4503 -4502 -359 0
4503 -4502 359 0
4503 4502 -359 0
-181 -4503 0
-4504 366 367 0
-4504 -366 -367 0
4504 -366 367 0
4504 366 -367 0
-4505 4504 368 0
-4505 -4504 -368 0
4505 -4504 368 0
4505 4504 -368 0
-4506 4505 369 0
-4506 -4505 -369 0
4506 -4505 369 0
4506 4505 -369 0
-4507 4506 371 0
-4507 -4506 -371 0
4507 -4506 371 0
4507 4506 -371 0
-4508 4507 372 0
-4508 -4507 -372 0
4508 -4507 372 0
4508 4507 -372 0
-4509 4508 373 0
-4509 -4508 -373 0
4509 -4508 373 0
4509 4508 -373 0
-4510 4509 374 0
-4510 -4509 -374 0
4510 -4509 374 0
4510 4509 -374 0
-181 -4510 0
-4511 381 382 0
-4511 -381 -382 0
4511 -381 382 0
4511 381 -382 0
-4512 4511 383 0
-4512 -4511 -383 0
4512 -4511 383 0
4512 4511 -383 0
-4513 4512 384 0
-4513 -4512 -384 0
4513 -4512 384 0
4513 4512 -384 0
-4514 4513 386 0
-4514 -4513 -386 0
4514 -4513 386 0
4514 4513 -386 0
-4515 4514 387 0
-4515 -4514 -387 0
4515 -4514 387 0
4515 4514 -387 0
-4516 4515 388 0
-4516 -4515 -388 0
4516 -4515 388 0
4516 4515 -388 0
-4517 4516 389 0
-4517 -4516 -389 0
4517 -4516 389 0
4517 4516 -389 0
-181 -4517 0
-4518 316 317 0
-4518 -316 -317 0
4518 -316 317 0
4518 316 -317 0
-4519 4518 318 0
-4519 -4518 -318 0
4519 -4518 318 0
4519 4518 -318 0
-4520 4519 321 0
-4520 -4519 -321 0
4520 -4519 321 0
4520 4519 -321 0
-4521 4520 323 0
-4521 -4520 -323 0
4521 -4520 323 0
4521 4520 -323 0
-4522 4521 324 0
-4522 -4521 -324 0
4522 -4521 324 0
4522 4521 -324 0
-4523 4522 325 0
-4523 -4522 -325 0
4523 -4522 325 0
4523 4522 -325 0
-4524 4523 326 0
-4524 -4523 -326 0
4524 -4523 326 0
4524 4523 -326 0
-4525 4524 327 0
-4525 -4524 -327 0
4525 -4524 327 0
4525 4524 -327 0
-4526 4525 328 0
-4526 -4525 -328 0
4526 -4525 328 0
4526 4525 -328 0
-4527 4526 329 0
-4527 -4526 -329 0
4527 -4526 329 0
4527 4526 -329 0
-182 -4527 0
-4528 331 332 0
-4528 -331 -332 0
4528 -331 332 0
4528 331 -332 0
-4529 4528 333 0
-4529 -4528 -333 0
4529 -4528 333 0
4529 4528 -333 0
-4530 4529 336 0
-4530 -4529 -336 0
4530 -4529 336 0
4530 4529 -336 0
-4531 4530 338 0
-4531 -4530 -338 0
4531 -4530 338 0
4531 4530 -338 0
-4532 4531 339 0
-4532 -4531 -339 0
4532 -4531 339 0
4532 4531 -339 0
-4533 4532 340 0
-4533 -4532 -340 0
4533 -4532 340 0
4533 4532 -340 0
-4534 4533 341 0
-4534 -4533 -341 0
4534 -4533 341 0
4534 4533 -341 0
-4535 4534 342 0
-4535 -4534 -342 0
4535 -4534 342 0
4535 4534 -342 0
-4536 4535 343 0
-4536 -4535 -343 0
4536 -4535 343 0
4536 4535 -343 0
-4537 4536 344 0
-4537 -4536 -344 0
4537 -4536 344 0
4537 4536 -344 0
-182 -4537 0
-4538 346 347 0
-4538 -346 -347 0
4538 -346 347 0
4538 346 -347 0
-4539 4538 348 0
-4539 -4538 -348 0
4539 -4538 348 0
4539 4538 -348 0
-4540 4539 351 0
-4540 -4539 -351 0
4540 -4539 351 0
4540 4539 -351 0
-4541 4540 353 0
-4541 -4540 -353 0
4541 -4540 353 0
4541 4540 -353 0
-4542 4541 354 0
-4542 -4541 -354 0
4542 -4541 354 0
4542 4541 -354 0
-4543 4542 355 0
-4543 -4542 -355 0
4543 -4542 355 0
4543 4542 -355 0
-4544 4543 356 0
-4544 -4543 -356 0
4544 -4543 356 0
4544 4543 -356 0
-4545 4544 357 0
-4545 -4544 -357 0
4545 -4544 357 0
4545 4544 -357 0
-4546 4545 358 0
-4546 -4545 -358 0
4546 -4545 358 0
4546 4545 -358 0
-4547 4546 359 0
-4547 -4546 -359 0
4547 -4546 359 0
4547 4546 -359 0
-182 -4547 0
-4548 361 362 0
-4548 -361 -362 0
4548 -361 362 0
4548 361 -362 0
-4549 4548 363 0
-4549 -4548 -363 0
4549 -4548 363 0
4549 4548 -363 0
-4550 4549 366 0
-4550 -4549 -366 0
4550 -4549 366 0
4550 4549 -366 0
-4551 4550 368 0
-4551 -4550 -368 0
4551 -4550 368 0
4551 4550 -368 0
-4552 4551 369 0
-4552 -4551 -369 0
4552 -4551 369 0
4552 4551 -369 0
-4553 4552 370 0
-4553 -4552 -370 0
4553 -4552 370 0
4553 4552 -370 0
-4554 4553 371 0
-4554 -4553 -371 0
4554 -4553 371 0
4554 4553 -371 0
-4555 4554 372 0
-4555 -4554 -372 0
4555 -4554 372 0
4555 4554 -372 0
-4556 4555 373 0
-4556 -4555 -373 0
4556 -4555 373 0
4556 4555 -373 0
-4557 4556 374 0
-4557 -4556 -374 0
4557 -4556 374 0
4557 4556 -374 0
-182 -4557 0
-4558 376 377 0
-4558 -376 -377 0
4558 -376 377 0
4558 376 -377 0
-4559 4558 378 0
-4559 -4558 -378 0
4559 -4558 378 0
4559 4558 -378 0
-4560 4559 381 0
-4560 -4559 -381 0
4560 -4559 381 0
4560 4559 -381 0
-4561 4560 383 0
-4561 -4560 -383 0
4561 -4560 383 0
4561 4560 -383 0
-4562 4561 384 0
-4562 -4561 -384 0
4562 -4561 384 0
4562 4561 -384 0
-4563 4562 385 0
-4563 -4562 -385 0
4563 -4562 385 0
4563 4562 -385 0
-4564 4563 386 0
-4564 -4563 -386 0
4564 -4563 386 0
4564 4563 -386 0
-4565 4564 387 0
-4565 -4564 -387 0
4565 -4564 387 0
4565 4564 -387 0
-4566 4565 388 0
-4566 -4565 -388 0
4566 -4565 388 0
4566 4565 -388 0
-4567 4566 389 0
-4567 -4566 -389 0
4567 -4566 389 0
4567 4566 -389 0
-182 -4567 0
-4568 316 317 0
-4568 -316 -317 0
4568 -316 317 0
4568 316 -317 0
-4569 4568 318 0
-4569 -4568 -318 0
4569 -4568 318 0
4569 4568 -318 0
-4570 4569 322 0
-4570 -4569 -322 0
4570 -4569 322 0
4570 4569 -322 0
-4571 4570 323 0
-4571 -4570 -323 0
4571 -4570 323 0
4571 4570 -323 0
-4572 4571 324 0
-4572 -4571 -324 0
4572 -4571 324 0
4572 4571 -324 0
-4573 4572 325 0
-4573 -4572 -325 0
4573 -4572 325 0
4573 4572 -325 0
-4574 4573 326 0
-4574 -4573 -326 0
4574 -4573 326 0
4574 4573 -326 0
-4575 4574 327 0
-4575 -4574 -327 0
4575 -4574 327 0
4575 4574 -327 0
-4576 4575 328 0
-4576 -4575 -328 0
4576 -4575 328 0
4576 4575 -328 0
-4577 4576 329 0
-4577 -4576 -329 0
4577 -4576 329 0
4577 4576 -329 0
-183 -4577 0
-4578 331 332 0
-4578 -331 -332 0
4578 -331 332 0
4578 331 -332 0
-4579 4578 333 0
-4579 -4578 -333 0
4579 -4578 333 0
4579 4578 -333 0
-4580 4579 337 0
-4580 -4579 -337 0
4580 -4579 337 0
4580 4579 -337 0
-4581 4580 338 0
-4581 -4580 -338 0
4581 -4580 338 0
4581 4580 -338 0
-4582 4581 339 0
-4582 -4581 -339 0
4582 -4581 339 0
4582 4581 -339 0
-4583 4582 340 0
-4583 -4582 -340 0
4583 -4582 340 0
4583 4582 -340 0
-4584 4583 341 0
-4584 -4583 -341 0
4584 -4583 341 0
4584 4583 -341 0
-4585 4584 342 0
-4585 -4584 -342 0
4585 -4584 342 0
4585 4584 -342 0
-4586 4585 343 0
-4586 -4585 -343 0
4586 -4585 343 0
4586 4585 -343 0
-4587 4586 344 0
-4587 -4586 -344 0
4587 -4586 344 0
4587 4586 -344 0
-183 -4587 0
-4588 346 347 0
-4588 -346 -347 0
4588 -346 347 0
4588 346 -347 0
-4589 4588 348 0
-4589 -4588 -348 0
4589 -4588 348 0
4589 4588 -348 0
-4590 4589 352 0
-4590 -4589 -352 0
4590 -4589 352 0
4590 4589 -352 0
-4591 4590 353 0
-4591 -4590 -353 0
4591 -4590 353 0
4591 4590 -353 0
-4592 4591 354 0
-4592 -4591 -354 0
4592 -4591 354 0
4592 4591 -354 0
-4593 4592 355 0
-4593 -4592 -355 0
4593 -4592 355 0
4593 4592 -355 0
-4594 4593 356 0
-4594 -4593 -356 0
4594 -4593 356 0
4594 4593 -356 0
-4595 4594 357 0
-4595 -4594 -357 0
4595 -4594 357 0
4595 4594 -357 0
-4596 4595 358 0
-4596 -4595 -358 0
4596 -4595 358 0
4596 4595 -358 0
-4597 4596 359 0
-4597 -4596 -359 0
4597 -4596 359 0
4597 4596 -359 0
-183 -4597 0
-4598 361 362 0
-4598 -361 -362 0
4598 -361 362 0
4598 361 -362 0
-4599 4598 363 0
-4599 -4598 -363 0
4599 -4598 363 0
4599 4598 -363 0
-4600 4599 367 0
-4600 -4599 -367 0
4600 -4599 367 0
4600 4599 -367 0
-4601 4600 368 0
-4601 -4600 -368 0
4601 -4600 368 0
4601 4600 -368 0
-4602 4601 369 0
-4602 -4601 -369 0
4602 -4601 369 0
4602 4601 -369 0
-4603 4602 370 0
-4603 -4602 -370 0
4603 -4602 370 0
4603 4602 -370 0
-4604 4603 371 0
-4604 -4603 -371 0
4604 -4603 371 0
4604 4603 -371 0
-4605 4604 372 0
-4605 -4604 -372 0
4605 -4604 372 0
4605 4604 -372 0
-4606 4605 373 0
-4606 -4605 -373 0
4606 -4605 373 0
4606 4605 -373 0
-4607 4606 374 0
-4607 -4606 -374 0
4607 -4606 374 0
4607 4606 -374 0
-183 -4607 0
-4608 376 377 0
-4608 -376 -377 0
4608 -376 377 0
4608 376 -377 0
-4609 4608 378 0
-4609 -4608 -378 0
4609 -4608 378 0
4609 4608 -378 0
-4610 4609 382 0
-4610 -4609 -382 0
4610 -4609 382 0
4610 4609 -382 0
-4611 4610 383 0
-4611 -4610 -383 0
4611 -4610 383 0
4611 4610 -383 0
-4612 4611 384 0
-4612 -4611 -384 0
4612 -4611 384 0
4612 4611 -384 0
-4613 4612 385 0
-4613 -4612 -385 0
4613 -4612 385 0
4613 4612 -385 0
-4614 4613 386 0
-4614 -4613 -386 0
4614 -4613 386 0
4614 4613 -386 0
-4615 4614 387 0
-4615 -4614 -387 0
4615 -4614 387 0
4615 4614 -387 0
-4616 4615 388 0
-4616 -4615 -388 0
4616 -4615 388 0
4616 4615 -388 0
-4617 4616 389 0
-4617 -4616 -389 0
4617 -4616 389 0
4617 4616 -389 0
-183 -4617 0
-4618 319 323 0
-4618 -319 -323 0
4618 -319 323 0
4618 319 -323 0
-4619 4618 326 0
-4619 -4618 -326 0
4619 -4618 326 0
4619 4618 -326 0
-4620 4619 328 0
-4620 -4619 -328 0
4620 -4619 328 0
4620 4619 -328 0
-184 -4620 0
-4621 334 338 0
-4621 -334 -338 0
4621 -334 338 0
4621 334 -338 0
-4622 4621 341 0
-4622 -4621 -341 0
4622 -4621 341 0
4622 4621 -341 0
-4623 4622 343 0
-4623 -4622 -343 0
4623 -4622 343 0
4623 4622 -343 0
-184 -4623 0
-4624 349 353 0
-4624 -349 -353 0
4624 -349 353 0
4624 349 -353 0
-4625 4624 356 0
-4625 -4624 -356 0
4625 -4624 356 0
4625 4624 -356 0
-4626 4625 358 0
-4626 -4625 -358 0
4626 -4625 358 0
4626 4625 -358 0
-184 -4626 0
-4627 364 368 0
-4627 -364 -368 0
4627 -364 368 0
4627 364 -368 0
-4628 4627 371 0
-4628 -4627 -371 0
4628 -4627 371 0
4628 4627 -371 0
-4629 4628 373 0
-4629 -4628 -373 0
4629 -4628 373 0
4629 4628 -373 0
-184 -4629 0
-4630 379 383 0
-4630 -379 -383 0
4630 -379 383 0
4630 379 -383 0
-4631 4630 386 0
-4631 -4630 -386 0
4631 -4630 386 0
4631 4630 -386 0
-4632 4631 388 0
-4632 -4631 -388 0
4632 -4631 388 0
4632 4631 -388 0
-184 -4632 0
-4633 317 318 0
-4633 -317 -318 0
4633 -317 318 0
4633 317 -318 0
-4634 4633 319 0
-4634 -4633 -319 0
4634 -4633 319 0
4634 4633 -319 0
-4635 4634 321 0
-4635 -4634 -321 0
4635 -4634 321 0
4635 4634 -321 0
-4636 4635 322 0
-4636 -4635 -322 0
4636 -4635 322 0
4636 4635 -322 0
-4637 4636 323 0
-4637 -4636 -323 0
4637 -4636 323 0
4637 4636 -323 0
-4638 4637 326 0
-4638 -4637 -326 0
4638 -4637 326 0
4638 4637 -326 0
-4639 4638 328 0
-4639 -4638 -328 0
4639 -4638 328 0
4639 4638 -328 0
-185 -4639 0
-4640 332 333 0
-4640 -332 -333 0
4640 -332 333 0
4640 332 -333 0
-4641 4640 334 0
-4641 -4640 -334 0
4641 -4640 334 0
4641 4640 -334 0
-4642 4641 336 0
-4642 -4641 -336 0
4642 -4641 336 0
4642 4641 -336 0
-4643 4642 337 0
-4643 -4642 -337 0
4643 -4642 337 0
4643 4642 -337 0
-4644 4643 338 0
-4644 -4643 -338 0
4644 -4643 338 0
4644 4643 -338 0
-4645 4644 341 0
-4645 -4644 -341 0
4645 -4644 341 0
4645 4644 -341 0
-4646 4645 343 0
-4646 -4645 -343 0
4646 -4645 343 0
4646 4645 -343 0
-185 -4646 0
-4647 347 348 0
-4647 -347 -348 0
4647 -347 348 0
4647 347 -348 0
-4648 4647 349 0
-4648 -4647 -349 0
4648 -4647 349 0
4648 4647 -349 0
-4649 4648 351 0
-4649 -4648 -351 0
4649 -4648 351 0
4649 4648 -351 0
-4650 4649 352 0
-4650 -4649 -352 0
4650 -4649 352 0
4650 4649 -352 0
-4651 4650 353 0
-4651 -4650 -353 0
4651 -4650 353 0
4651 4650 -353 0
-4652 4651 356 0
-4652 -4651 -356 0
4652 -4651 356 0
4652 4651 -356 0
-4653 4652 358 0
-4653 -4652 -358 0
4653 -4652 358 0
4653 4652 -358 0
-185 -4653 0
-4654 362 363 0
-4654 -362 -363 0
4654 -362 363 0
4654 362 -363 0
-4655 4654 364 0
-4655 -4654 -364 0
4655 -4654 364 0
4655 4654 -364 0
-4656 4655 366 0
-4656 -4655 -366 0
4656 -4655 366 0
4656 4655 -366 0
-4657 4656 367 0
-4657 -4656 -367 0
4657 -4656 367 0
4657 4656 -367 0
-4658 4657 368 0
-4658 -4657 -368 0
4658 -4657 368 0
4658 4657 -368 0
-4659 4658 371 0
-4659 -4658 -371 0
4659 -4658 371 0
4659 4658 -371 0
-4660 4659 373 0
-4660 -4659 -373 0
4660 -4659 373 0
4660 4659 -373 0
-185 -4660 0
-4661 377 378 0
-4661 -377 -378 0
4661 -377 378 0
4661 377 -378 0
-4662 4661 379 0
-4662 -4661 -379 0
4662 -4661 379 0
4662 4661 -379 0
-4663 4662 381 0
-4663 -4662 -381 0
4663 -4662 381 0
4663 4662 -381 0
-4664 4663 382 0
-4664 -4663 -382 0
4664 -4663 382 0
4664 4663 -382 0
-4665 4664 383 0
-4665 -4664 -383 0
4665 -4664 383 0
4665 4664 -383 0
-4666 4665 386 0
-4666 -4665 -386 0
4666 -4665 386 0
4666 4665 -386 0
-4667 4666 388 0
-4667 -4666 -388 0
4667 -4666 388 0
4667 4666 -388 0
-185 -4667 0
-4668 316 318 0
-4668 -316 -318 0
4668 -316 318 0
4668 316 -318 0
-4669 4668 319 0
-4669 -4668 -319 0
4669 -4668 319 0
4669 4668 -319 0
-4670 4669 321 0
-4670 -4669 -321 0
4670 -4669 321 0
4670 4669 -321 0
-4671 4670 323 0
-4671 -4670 -323 0
4671 -4670 323 0
4671 4670 -323 0
-4672 4671 325 0
-4672 -4671 -325 0
4672 -4671 325 0
4672 4671 -325 0
-4673 4672 326 0
-4673 -4672 -326 0
4673 -4672 326 0
4673 4672 -326 0
-4674 4673 328 0
-4674 -4673 -328 0
4674 -4673 328 0
4674 4673 -328 0
-186 -4674 0
-4675 331 333 0
-4675 -331 -333 0
4675 -331 333 0
4675 331 -333 0
-4676 4675 334 0
-4676 -4675 -334 0
4676 -4675 334 0
4676 4675 -334 0
-4677 4676 336 0
-4677 -4676 -336 0
4677 -4676 336 0
4677 4676 -336 0
-4678 4677 338 0
-4678 -4677 -338 0
4678 -4677 338 0
4678 4677 -338 0
-4679 4678 340 0
-4679 -4678 -340 0
4679 -4678 340 0
4679 4678 -340 0
-4680 4679 341 0
-4680 -4679 -341 0
4680 -4679 341 0
4680 4679 -341 0
-4681 4680 343 0
-4681 -4680 -343 0
4681 -4680 343 0
4681 4680 -343 0
-186 -4681 0
-4682 346 348 0
-4682 -346 -348 0
4682 -346 348 0
4682 346 -348 0
-4683 4682 349 0
-4683 -4682 -349 0
4683 -4682 349 0
4683 4682 -349 0
-4684 4683 351 0
-4684 -4683 -351 0
4684 -4683 351 0
4684 4683 -351 0
-4685 4684 353 0
-4685 -4684 -353 0
4685 -4684 353 0
4685 4684 -353 0
-4686 4685 355 0
-4686 -4685 -355 0
4686 -4685 355 0
4686 4685 -355 0
-4687 4686 356 0
-4687 -4686 -356 0
4687 -4686 356 0
4687 4686 -356 0
-4688 4687 358 0
-4688 -4687 -358 0
4688 -4687 358 0
4688 4687 -358 0
-186 -4688 0
-4689 361 363 0
-4689 -361 -363 0
4689 -361 363 0
4689 361 -363 0
-4690 4689 364 0
-4690 -4689 -364 0
4690 -4689 364 0
4690 4689 -364 0
-4691 4690 366 0
-4691 -4690 -366 0
4691 -4690 366 0
4691 4690 -366 0
-4692 4691 368 0
-4692 -4691 -368 0
4692 -4691 368 0
4692 4691 -368 0
-4693 4692 370 0
-4693 -4692 -370 0
4693 -4692 370 0
4693 4692 -370 0
-4694 4693 371 0
-4694 -4693 -371 0
4694 -4693 371 0
4694 4693 -371 0
-4695 4694 373 0
-4695 -4694 -373 0
4695 -4694 373 0
4695 4694 -373 0
-186 -4695 0
-4696 376 378 0
-4696 -376 -378 0
4696 -376 378 0
4696 376 -378 0
-4697 4696 379 0
-4697 -4696 -379 0
4697 -4696 379 0
4697 4696 -379 0
-4698 4697 381 0
-4698 -4697 -381 0
4698 -4697 381 0
4698 4697 -381 0
-4699 4698 383 0
-4699 -4698 -383 0
4699 -4698 383 0
4699 4698 -383 0
-4700 4699 385 0
-4700 -4699 -385 0
4700 -4699 385 0
4700 4699 -385 0
-4701 4700 386 0
-4701 -4700 -386 0
4701 -4700 386 0
4701 4700 -386 0
-4702 4701 388 0
-4702 -4701 -388 0
4702 -4701 388 0
4702 4701 -388 0
-186 -4702 0
-4703 316 317 0
-4703 -316 -317 0
4703 -316 317 0
4703 316 -317 0
-4704 4703 319 0
-4704 -4703 -319 0
4704 -4703 319 0
4704 4703 -319 0
-4705 4704 322 0
-4705 -4704 -322 0
4705 -4704 322 0
4705 4704 -322 0
-4706 4705 323 0
-4706 -4705 -323 0
4706 -4705 323 0
4706 4705 -323 0
-4707 4706 325 0
-4707 -4706 -325 0
4707 -4706 325 0
4707 4706 -325 0
-4708 4707 326 0
-4708 -4707 -326 0
4708 -4707 326 0
4708 4707 -326 0
-4709 4708 328 0
-4709 -4708 -328 0
4709 -4708 328 0
4709 4708 -328 0
-187 -4709 0
-4710 331 332 0
-4710 -331 -332 0
4710 -331 332 0
4710 331 -332 0
-4711 4710 334 0
-4711 -4710 -334 0
4711 -4710 334 0
4711 4710 -334 0
-4712 4711 337 0
-4712 -4711 -337 0
4712 -4711 337 0
4712 4711 -337 0
-4713 4712 338 0
-4713 -4712 -338 0
4713 -4712 338 0
4713 4712 -338 0
-4714 4713 340 0
-4714 -4713 -340 0
4714 -4713 340 0
4714 4713 -340 0
-4715 4714 341 0
-4715 -4714 -341 0
4715 -4714 341 0
4715 4714 -341 0
-4716 4715 343 0
-4716 -4715 -343 0
4716 -4715 343 0
4716 4715 -343 0
-187 -4716 0
-4717 346 347 0
-4717 -346 -347 0
4717 -346 347 0
4717 346 -347 0
-4718 4717 349 0
-4718 -4717 -349 0
4718 -4717 349 0
4718 4717 -349 0
-4719 4718 352 0
-4719 -4718 -352 0
4719 -4718 352 0
4719 4718 -352 0
-4720 4719 353 0
-4720 -4719 -353 0
4720 -4719 353 0
4720 4719 -353 0
-4721 4720 355 0
-4721 -4720 -355 0
4721 -4720 355 0
4721 4720 -355 0
-4722 4721 356 0
-4722 -4721 -356 0
4722 -4721 356 0
4722 4721 -356 0
-4723 4722 358 0
-4723 -4722 -358 0
4723 -4722 358 0
4723 4722 -358 0
-187 -4723 0
-4724 361 362 0
-4724 -361 -362 0
4724 -361 362 0
4724 361 -362 0
-4725 4724 364 0
-4725 -4724 -364 0
4725 -4724 364 0
4725 4724 -364 0
-4726 4725 367 0
-4726 -4725 -367 0
4726 -4725 367 0
4726 4725 -367 0
-4727 4726 368 0
-4727 -4726 -368 0
4727 -4726 368 0
4727 4726 -368 0
-4728 4727 370 0
-4728 -4727 -370 0
4728 -4727 370 0
4728 4727 -370 0
-4729 4728 371 0
-4729 -4728 -371 0
4729 -4728 371 0
4729 4728 -371 0
-4730 4729 373 0
-4730 -4729 -373 0
4730 -4729 373 0
4730 4729 -373 0
-187 -4730 0
-4731 376 377 0
-4731 -376 -377 0
4731 -376 377 0
4731 376 -377 0
-4732 4731 379 0
-4732 -4731 -379 0
4732 -4731 379 0
4732 4731 -379 0
-4733 4732 382 0
-4733 -4732 -382 0
4733 -4732 382 0
4733 4732 -382 0
-4734 4733 383 0
-4734 -4733 -383 0
4734 -4733 383 0
4734 4733 -383 0
-4735 4734 385 0
-4735 -4734 -385 0
4735 -4734 385 0
4735 4734 -385 0
-4736 4735 386 0
-4736 -4735 -386 0
4736 -4735 386 0
4736 4735 -386 0
-4737 4736 388 0
-4737 -4736 -388 0
4737 -4736 388 0
4737 4736 -388 0
-187 -4737 0
-4738 320 324 0
-4738 -320 -324 0
4738 -320 324 0
4738 320 -324 0
-4739 4738 327 0
-4739 -4738 -327 0
4739 -4738 327 0
4739 4738 -327 0
-4740 4739 329 0
-4740 -4739 -329 0
4740 -4739 329 0
4740 4739 -329 0
-188 -4740 0
-4741 335 339 0
-4741 -335 -339 0
4741 -335 339 0
4741 335 -339 0
-4742 4741 342 0
-4742 -4741 -342 0
4742 -4741 342 0
4742 4741 -342 0
-4743 4742 344 0
-4743 -4742 -344 0
4743 -4742 344 0
4743 4742 -344 0
-188 -4743 0
-4744 350 354 0
-4744 -350 -354 0
4744 -350 354 0
4744 350 -354 0
-4745 4744 357 0
-4745 -4744 -357 0
4745 -4744 357 0
4745 4744 -357 0
-4746 4745 359 0
-4746 -4745 -359 0
4746 -4745 359 0
4746 4745 -359 0
-188 -4746 0
-4747 365 369 0
-4747 -365 -369 0
4747 -365 369 0
4747 365 -369 0
-4748 4747 372 0
-4748 -4747 -372 0
4748 -4747 372 0
4748 4747 -372 0
-4749 4748 374 0
-4749 -4748 -374 0
4749 -4748 374 0
4749 4748 -374 0
-188 -4749 0
-4750 380 384 0
-4750 -380 -384 0
4750 -380 384 0
4750 380 -384 0
-4751 4750 387 0
-4751 -4750 -387 0
4751 -4750 387 0
4751 4750 -387 0
-4752 4751 389 0
-4752 -4751 -389 0
4752 -4751 389 0
4752 4751 -389 0
-188 -4752 0
-4753 317 318 0
-4753 -317 -318 0
4753 -317 318 0
4753 317 -318 0
-4754 4753 320 0
-4754 -4753 -320 0
4754 -4753 320 0
4754 4753 -320 0
-4755 4754 321 0
-4755 -4754 -321 0
4755 -4754 321 0
4755 4754 -321 0
-4756 4755 322 0
-4756 -4755 -322 0
4756 -4755 322 0
4756 4755 -322 0
-4757 4756 324 0
-4757 -4756 -324 0
4757 -4756 324 0
4757 4756 -324 0
-4758 4757 327 0
-4758 -4757 -327 0
4758 -4757 327 0
4758 4757 -327 0
-4759 4758 329 0
-4759 -4758 -329 0
4759 -4758 329 0
4759 4758 -329 0
-189 -4759 0
-4760 332 333 0
-4760 -332 -333 0
4760 -332 333 0
4760 332 -333 0
-4761 4760 335 0
-4761 -4760 -335 0
4761 -4760 335 0
4761 4760 -335 0
-4762 4761 336 0
-4762 -4761 -336 0
4762 -4761 336 0
4762 4761 -336 0
-4763 4762 337 0
-4763 -4762 -337 0
4763 -4762 337 0
4763 4762 -337 0
-4764 4763 339 0
-4764 -4763 -339 0
4764 -4763 339 0
4764 4763 -339 0
-4765 4764 342 0
-4765 -4764 -342 0
4765 -4764 342 0
4765 4764 -342 0
-4766 4765 344 0
-4766 -4765 -344 0
4766 -4765 344 0
4766 4765 -344 0
-189 -4766 0
-4767 347 348 0
-4767 -347 -348 0
4767 -347 348 0
4767 347 -348 0
-4768 4767 350 0
-4768 -4767 -350 0
4768 -4767 350 0
4768 4767 -350 0
-4769 4768 351 0
-4769 -4768 -351 0
4769 -4768 351 0
4769 4768 -351 0
-4770 4769 352 0
-4770 -4769 -352 0
4770 -4769 352 0
4770 4769 -352 0
-4771 4770 354 0
-4771 -4770 -354 0
4771 -4770 354 0
4771 4770 -354 0
-4772 4771 357 0
-4772 -4771 -357 0
4772 -4771 357 0
4772 4771 -357 0
-4773 4772 359 0
-4773 -4772 -359 0
4773 -4772 359 0
4773 4772 -359 0
-189 -4773 0
-4774 362 363 0
-4774 -362 -363 0
4774 -362 363 0
4774 362 -363 0
-4775 4774 365 0
-4775 -4774 -365 0
4775 -4774 365 0
4775 4774 -365 0
-4776 4775 366 0
-4776 -4775 -366 0
4776 -4775 366 0
4776 4775 -366 0
-4777 4776 367 0
-4777 -4776 -367 0
4777 -4776 367 0
4777 4776 -367 0
-4778 4777 369 0
-4778 -4777 -369 0
4778 -4777 369 0
4778 4777 -369 0
-4779 4778 372 0
-4779 -4778 -372 0
4779 -4778 372 0
4779 4778 -372 0
-4780 4779 374 0
-4780 -4779 -374 0
4780 -4779 374 0
4780 4779 -374 0
-189 -4780 0
-4781 377 378 0
-4781 -377 -378 0
4781 -377 378 0
4781 377 -378 0
-4782 4781 380 0
-4782 -4781 -380 0
4782 -4781 380 0
4782 4781 -380 0
-4783 4782 381 0
-4783 -4782 -381 0
4783 -4782 381 0
4783 4782 -381 0
-4784 4783 382 0
-4784 -4783 -382 0
4784 -4783 382 0
4784 4783 -382 0
-4785 4784 384 0
-4785 -4784 -384 0
4785 -4784 384 0
4785 4784 -384 0
-4786 4785 387 0
-4786 -4785 -387 0
4786 -4785 387 0
4786 4785 -387 0
-4787 4786 389 0
-4787 -4786 -389 0
4787 -4786 389 0
4787 4786 -389 0
-189 -4787 0
-4788 316 318 0
-4788 -316 -318 0
4788 -316 318 0
4788 316 -318 0
-4789 4788 320 0
-4789 -4788 -320 0
4789 -4788 320 0
4789 4788 -320 0
-4790 4789 321 0
-4790 -4789 -321 0
4790 -4789 321 0
4790 4789 -321 0
-4791 4790 324 0
-4791 -4790 -324 0
4791 -4790 324 0
4791 4790 -324 0
-4792 4791 325 0
-4792 -4791 -325 0
4792 -4791 325 0
4792 4791 -325 0
-4793 4792 327 0
-4793 -4792 -327 0
4793 -4792 327 0
4793 4792 -327 0
-4794 4793 329 0
-4794 -4793 -329 0
4794 -4793 329 0
4794 4793 -329 0
-190 -4794 0
-4795 331 333 0
-4795 -331 -333 0
4795 -331 333 0
4795 331 -333 0
-4796 4795 335 0
-4796 -4795 -335 0
4796 -4795 335 0
4796 4795 -335 0
-4797 4796 336 0
-4797 -4796 -336 0
4797 -4796 336 0
4797 4796 -336 0
-4798 4797 339 0
-4798 -4797 -339 0
4798 -4797 339 0
4798 4797 -339 0
-4799 4798 340 0
-4799 -4798 -340 0
4799 -4798 340 0
4799 4798 -340 0
-4800 4799 342 0
-4800 -4799 -342 0
4800 -4799 342 0
4800 4799 -342 0
-4801 4800 344 0
-4801 -4800 -344 0
4801 -4800 344 0
4801 4800 -344 0
-190 -4801 0
-4802 346 348 0
-4802 -346 -348 0
4802 -346 348 0
4802 346 -348 0
-4803 4802 350 0
-4803 -4802 -350 0
4803 -4802 350 0
4803 4802 -350 0
-4804 4803 351 0
-4804 -4803 -351 0
4804 -4803 351 0
4804 4803 -351 0
-4805 4804 354 0
-4805 -4804 -354 0
4805 -4804 354 0
4805 4804 -354 0
-4806 4805 355 0
-4806 -4805 -355 0
4806 -4805 355 0
4806 4805 -355 0
-4807 4806 357 0
-4807 -4806 -357 0
4807 -4806 357 0
4807 4806 -357 0
-4808 4807 359 0
-4808 -4807 -359 0
4808 -4807 359 0
4808 4807 -359 0
-190 -4808 0
-4809 361 363 0
-4809 -361 -363 0
4809 -361 363 0
4809 361 -363 0
-4810 4809 365 0
-4810 -4809 -365 0
4810 -4809 365 0
4810 4809 -365 0
-4811 4810 366 0
-4811 -4810 -366 0
4811 -4810 366 0
4811 4810 -366 0
-4812 4811 369 0
-4812 -4811 -369 0
4812 -4811 369 0
4812 4811 -369 0
-4813 4812 370 0
-4813 -4812 -370 0
4813 -4812 370 0
4813 4812 -370 0
-4814 4813 372 0
-4814 -4813 -372 0
4814 -4813 372 0
4814 4813 -372 0
-4815 4814 374 0
-4815 -4814 -374 0
4815 -4814 374 0
4815 4814 -374 0
-190 -4815 0
-4816 376 378 0
-4816 -376 -378 0
4816 -376 378 0
4816 376 -378 0
-4817 4816 380 0
-4817 -4816 -380 0
4817 -4816 380 0
4817 4816 -380 0
-4818 4817 381 0
-4818 -4817 -381 0
4818 -4817 381 0
4818 4817 -381 0
-4819 4818 384 0
-4819 -4818 -384 0
4819 -4818 384 0
4819 4818 -384 0
-4820 4819 385 0
-4820 -4819 -385 0
4820 -4819 385 0
4820 4819 -385 0
-4821 4820 387 0
-4821 -4820 -387 0
4821 -4820 387 0
4821 4820 -387 0
-4822 4821 389 0
-4822 -4821 -389 0
4822 -4821 389 0
4822 4821 -389 0
-190 -4822 0
-4823 316 317 0
-4823 -316 -317 0
4823 -316 317 0
4823 316 -317 0
-4824 4823 320 0
-4824 -4823 -320 0
4824 -4823 320 0
4824 4823 -320 0
-4825 4824 322 0
-4825 -4824 -322 0
4825 -4824 322 0
4825 4824 -322 0
-4826 4825 324 0
-4826 -4825 -324 0
4826 -4825 324 0
4826 4825 -324 0
-4827 4826 325 0
-4827 -4826 -325 0
4827 -4826 325 0
4827 4826 -325 0
-4828 4827 327 0
-4828 -4827 -327 0
4828 -4827 327 0
4828 4827 -327 0
-4829 4828 329 0
-4829 -4828 -329 0
4829 -4828 329 0
4829 4828 -329 0
-191 -4829 0
-4830 331 332 0
-4830 -331 -332 0
4830 -331 332 0
4830 331 -332 0
-4831 4830 335 0
-4831 -4830 -335 0
4831 -4830 335 0
4831 4830 -335 0
-4832 4831 337 0
-4832 -4831 -337 0
4832 -4831 337 0
4832 4831 -337 0
-4833 4832 339 0
-4833 -4832 -339 0
4833 -4832 339 0
4833 4832 -339 0
-4834 4833 340 0
-4834 -4833 -340 0
4834 -4833 340 0
4834 4833 -340 0
-4835 4834 342 0
-4835 -4834 -342 0
4835 -4834 342 0
4835 4834 -342 0
-4836 4835 344 0
-4836 -4835 -344 0
4836 -4835 344 0
4836 4835 -344 0
-191 -4836 0
-4837 346 347 0
-4837 -346 -347 0
4837 -346 347 0
4837 346 -347 0
-4838 4837 350 0
-4838 -4837 -350 0
4838 -4837 350 0
4838 4837 -350 0
-4839 4838 352 0
-4839 -4838 -352 0
4839 -4838 352 0
4839 4838 -352 0
-4840 4839 354 0
-4840 -4839 -354 0
4840 -4839 354 0
4840 4839 -354 0
-4841 4840 355 0
-4841 -4840 -355 0
4841 -4840 355 0
4841 4840 -355 0
-4842 4841 357 0
-4842 -4841 -357 0
4842 -4841 357 0
4842 4841 -357 0
-4843 4842 359 0
-4843 -4842 -359 0
4843 -4842 359 0
4843 4842 -359 0
-191 -4843 0
-4844 361 362 0
-4844 -361 -362 0
4844 -361 362 0
4844 361 -362 0
-4845 4844 365 0
-4845 -4844 -365 0
4845 -4844 365 0
4845 4844 -365 0
-4846 4845 367 0
-4846 -4845 -367 0
4846 -4845 367 0
4846 4845 -367 0
-4847 4846 369 0
-4847 -4846 -369 0
4847 -4846 369 0
4847 4846 -369 0
-4848 4847 370 0
-4848 -4847 -370 0
4848 -4847 370 0
4848 4847 -370 0
-4849 4848 372 0
-4849 -4848 -372 0
4849 -4848 372 0
4849 4848 -372 0
-4850 4849 374 0
-4850 -4849 -374 0
4850 -4849 374 0
4850 4849 -374 0
-191 -4850 0
-4851 376 377 0
-4851 -376 -377 0
4851 -376 377 0
4851 376 -377 0
-4852 4851 380 0
-4852 -4851 -380 0
4852 -4851 380 0
4852 4851 -380 0
-4853 4852 382 0
-4853 -4852 -382 0
4853 -4852 382 0
4853 4852 -382 0
-4854 4853 384 0
-4854 -4853 -384 0
4854 -4853 384 0
4854 4853 -384 0
-4855 4854 385 0
-4855 -4854 -385 0
4855 -4854 385 0
4855 4854 -385 0
-4856 4855 387 0
-4856 -4855 -387 0
4856 -4855 387 0
4856 4855 -387 0
-4857 4856 389 0
-4857 -4856 -389 0
4857 -4856 389 0
4857 4856 -389 0
-191 -4857 0
-4858 319 320 0
-4858 -319 -320 0
4858 -319 320 0
4858 319 -320 0
-4859 4858 323 0
-4859 -4858 -323 0
4859 -4858 323 0
4859 4858 -323 0
-4860 4859 324 0
-4860 -4859 -324 0
4860 -4859 324 0
4860 4859 -324 0
-4861 4860 326 0
-4861 -4860 -326 0
4861 -4860 326 0
4861 4860 -326 0
-4862 4861 327 0
-4862 -4861 -327 0
4862 -4861 327 0
4862 4861 -327 0
-4863 4862 328 0
-4863 -4862 -328 0
4863 -4862 328 0
4863 4862 -328 0
-4864 4863 329 0
-4864 -4863 -329 0
4864 -4863 329 0
4864 4863 -329 0
-192 -4864 0
-4865 334 335 0
-4865 -334 -335 0
4865 -334 335 0
4865 334 -335 0
-4866 4865 338 0
-4866 -4865 -338 0
4866 -4865 338 0
4866 4865 -338 0
-4867 4866 339 0
-4867 -4866 -339 0
4867 -4866 339 0
4867 4866 -339 0
-4868 4867 341 0
-4868 -4867 -341 0
4868 -4867 341 0
4868 4867 -341 0
-4869 4868 342 0
-4869 -4868 -342 0
4869 -4868 342 0
4869 4868 -342 0
-4870 4869 343 0
-4870 -4869 -343 0
4870 -4869 343 0
4870 4869 -343 0
-4871 4870 344 0
-4871 -4870 -344 0
4871 -4870 344 0
4871 4870 -344 0
-192 -4871 0
-4872 349 350 0
-4872 -349 -350 0
4872 -349 350 0
4872 349 -350 0
-4873 4872 353 0
-4873 -4872 -353 0
4873 -4872 353 0
4873 4872 -353 0
-4874 4873 354 0
-4874 -4873 -354 0
4874 -4873 354 0
4874 4873 -354 0
-4875 4874 356 0
-4875 -4874 -356 0
4875 -4874 356 0
4875 4874 -356 0
-4876 4875 357 0
-4876 -4875 -357 0
4876 -4875 357 0
4876 4875 -357 0
-4877 4876 358 0
-4877 -4876 -358 0
4877 -4876 358 0
4877 4876 -358 0
-4878 4877 359 0
-4878 -4877 -359 0
4878 -4877 359 0
4878 4877 -359 0
-192 -4878 0
-4879 364 365 0
-4879 -364 -365 0
4879 -364 365 0
4879 364 -365 0
-4880 4879 368 0
-4880 -4879 -368 0
4880 -4879 368 0
4880 4879 -368 0
-4881 4880 369 0
-4881 -4880 -369 0
4881 -4880 369 0
4881 4880 -369 0
-4882 4881 371 0
-4882 -4881 -371 0
4882 -4881 371 0
4882 4881 -371 0
-4883 4882 372 0
-4883 -4882 -372 0
4883 -4882 372 0
4883 4882 -372 0
-4884 4883 373 0
-4884 -4883 -373 0
4884 -4883 373 0
4884 4883 -373 0
-4885 4884 374 0
-4885 -4884 -374 0
4885 -4884 374 0
4885 4884 -374 0
-192 -4885 0
-4886 379 380 0
-4886 -379 -380 0
4886 -379 380 0
4886 379 -380 0
-4887 4886 383 0
-4887 -4886 -383 0
4887 -4886 383 0
4887 4886 -383 0
-4888 4887 384 0
-4888 -4887 -384 0
4888 -4887 384 0
4888 4887 -384 0
-4889 4888 386 0
-4889 -4888 -386 0
4889 -4888 386 0
4889 4888 -386 0
-4890 4889 387 0
-4890 -4889 -387 0
4890 -4889 387 0
4890 4889 -387 0
-4891 4890 388 0
-4891 -4890 -388 0
4891 -4890 388 0
4891 4890 -388 0
-4892 4891 389 0
-4892 -4891 -389 0
4892 -4891 389 0
4892 4891 -389 0
-192 -4892 0
-4893 317 318 0
-4893 -317 -318 0
4893 -317 318 0
4893 317 -318 0
-4894 4893 319 0
-4894 -4893 -319 0
4894 -4893 319 0
4894 4893 -319 0
-4895 4894 320 0
-4895 -4894 -320 0
4895 -4894 320 0
4895 4894 -320 0
-4896 4895 321 0
-4896 -4895 -321 0
4896 -4895 321 0
4896 4895 -321 0
-4897 4896 322 0
-4897 -4896 -322 0
4897 -4896 322 0
4897 4896 -322 0
-4898 4897 323 0
-4898 -4897 -323 0
4898 -4897 323 0
4898 4897 -323 0
-4899 4898 324 0
-4899 -4898 -324 0
4899 -4898 324 0
4899 4898 -324 0
-4900 4899 326 0
-4900 -4899 -326 0
4900 -4899 326 0
4900 4899 -326 0
-4901 4900 327 0
-4901 -4900 -327 0
4901 -4900 327 0
4901 4900 -327 0
-4902 4901 328 0
-4902 -4901 -328 0
4902 -4901 328 0
4902 4901 -328 0
-4903 4902 329 0
-4903 -4902 -329 0
4903 -4902 329 0
4903 4902 -329 0
-193 -4903 0
-4904 332 333 0
-4904 -332 -333 0
4904 -332 333 0
4904 332 -333 0
-4905 4904 334 0
-4905 -4904 -334 0
4905 -4904 334 0
4905 4904 -334 0
-4906 4905 335 0
-4906 -4905 -335 0
4906 -4905 335 0
4906 4905 -335 0
-4907 4906 336 0
-4907 -4906 -336 0
4907 -4906 336 0
4907 4906 -336 0
-4908 4907 337 0
-4908 -4907 -337 0
4908 -4907 337 0
4908 4907 -337 0
-4909 4908 338 0
-4909 -4908 -338 0
4909 -4908 338 0
4909 4908 -338 0
-4910 4909 339 0
-4910 -4909 -339 0
4910 -4909 339 0
4910 4909 -339 0
-4911 4910 341 0
-4911 -4910 -341 0
4911 -4910 341 0
4911 4910 -341 0
-4912 4911 342 0
-4912 -4911 -342 0
4912 -4911 342 0
4912 4911 -342 0
-4913 4912 343 0
-4913 -4912 -343 0
4913 -4912 343 0
4913 4912 -343 0
-4914 4913 344 0
-4914 -4913 -344 0
4914 -4913 344 0
4914 4913 -344 0
-193 -4914 0
-4915 347 348 0
-4915 -347 -348 0
4915 -347 348 0
4915 347 -348 0
-4916 4915 349 0
-4916 -4915 -349 0
4916 -4915 349 0
4916 4915 -349 0
-4917 4916 350 0
-4917 -4916 -350 0
4917 -4916 350 0
4917 4916 -350 0
-4918 4917 351 0
-4918 -4917 -351 0
4918 -4917 351 0
4918 4917 -351 0
-4919 4918 352 0
-4919 -4918 -352 0
4919 -4918 352 0
4919 4918 -352 0
-4920 4919 353 0
-4920 -4919 -353 0
4920 -4919 353 0
4920 4919 -353 0
-4921 4920 354 0
-4921 -4920 -354 0
4921 -4920 354 0
4921 4920 -354 0
-4922 4921 356 0
-4922 -4921 -356 0
4922 -4921 356 0
4922 4921 -356 0
-4923 4922 357 0
-4923 -4922 -357 0
4923 -4922 357 0
4923 4922 -357 0
-4924 4923 358 0
-4924 -4923 -358 0
4924 -4923 358 0
4924 4923 -358 0
-4925 4924 359 0
-4925 -4924 -359 0
4925 -4924 359 0
4925 4924 -359 0
-193 -4925 0
-4926 362 363 0
-4926 -362 -363 0
4926 -362 363 0
4926 362 -363 0
-4927 4926 364 0
-4927 -4926 -364 0
4927 -4926 364 0
4927 4926 -364 0
-4928 4927 365 0
-4928 -4927 -365 0
4928 -4927 365 0
4928 4927 -365 0
-4929 4928 366 0
-4929 -4928 -366 0
4929 -4928 366 0
4929 4928 -366 0
-4930 4929 367 0
-4930 -4929 -367 0
4930 -4929 367 0
4930 4929 -367 0
-4931 4930 368 0
-4931 -4930 -368 0
4931 -4930 368 0
4931 4930 -368 0
-4932 4931 369 0
-4932 -4931 -369 0
4932 -4931 369 0
4932 4931 -369 0
-4933 4932 371 0
-4933 -4932 -371 0
4933 -4932 371 0
4933 4932 -371 0
-4934 4933 372 0
-4934 -4933 -372 0
4934 -4933 372 0
4934 4933 -372 0
-4935 4934 373 0
-4935 -4934 -373 0
4935 -4934 373 0
4935 4934 -373 0
-4936 4935 374 0
-4936 -4935 -374 0
4936 -4935 374 0
4936 4935 -374 0
-193 -4936 0
-4937 377 378 0
-4937 -377 -378 0
4937 -377 378 0
4937 377 -378 0
-4938 4937 379 0
-4938 -4937 -379 0
4938 -4937 379 0
4938 4937 -379 0
-4939 4938 380 0
-4939 -4938 -380 0
4939 -4938 380 0
4939 4938 -380 0
-4940 4939 381 0
-4940 -4939 -381 0
4940 -4939 381 0
4940 4939 -381 0
-4941 4940 382 0
-4941 -4940 -382 0
4941 -4940 382 0
4941 4940 -382 0
-4942 4941 383 0
-4942 -4941 -383 0
4942 -4941 383 0
4942 4941 -383 0
-4943 4942 384 0
-4943 -4942 -384 0
4943 -4942 384 0
4943 4942 -384 0
-4944 4943 386 0
-4944 -4943 -386 0
4944 -4943 386 0
4944 4943 -386 0
-4945 4944 387 0
-4945 -4944 -387 0
4945 -4944 387 0
4945 4944 -387 0
-4946 4945 388 0
-4946 -4945 -388 0
4946 -4945 388 0
4946 4945 -388 0
-4947 4946 389 0
-4947 -4946 -389 0
4947 -4946 389 0
4947 4946 -389 0
-193 -4947 0
-4948 316 318 0
-4948 -316 -318 0
4948 -316 318 0
4948 316 -318 0
-4949 4948 319 0
-4949 -4948 -319 0
4949 -4948 319 0
4949 4948 -319 0
-4950 4949 320 0
-4950 -4949 -320 0
4950 -4949 320 0
4950 4949 -320 0
-4951 4950 321 0
-4951 -4950 -321 0
4951 -4950 321 0
4951 4950 -321 0
-4952 4951 323 0
-4952 -4951 -323 0
4952 -4951 323 0
4952 4951 -323 0
-4953 4952 324 0
-4953 -4952 -324 0
4953 -4952 324 0
4953 4952 -324 0
-4954 4953 325 0
-4954 -4953 -325 0
4954 -4953 325 0
4954 4953 -325 0
-4955 4954 326 0
-4955 -4954 -326 0
4955 -4954 326 0
4955 4954 -326 0
-4956 4955 327 0
-4956 -4955 -327 0
4956 -4955 327 0
4956 4955 -327 0
-4957 4956 328 0
-4957 -4956 -328 0
4957 -4956 328 0
4957 4956 -328 0
-4958 4957 329 0
-4958 -4957 -329 0
4958 -4957 329 0
4958 4957 -329 0
-194 -4958 0
-4959 331 333 0
-4959 -331 -333 0
4959 -331 333 0
4959 331 -333 0
-4960 4959 334 0
-4960 -4959 -334 0
4960 -4959 334 0
4960 4959 -334 0
-4961 4960 335 0
-4961 -4960 -335 0
4961 -4960 335 0
4961 4960 -335 0
-4962 4961 336 0
-4962 -4961 -336 0
4962 -4961 336 0
4962 4961 -336 0
-4963 4962 338 0
-4963 -4962 -338 0
4963 -4962 338 0
4963 4962 -338 0
-4964 4963 339 0
-4964 -4963 -339 0
4964 -4963 339 0
4964 4963 -339 0
-4965 4964 340 0
-4965 -4964 -340 0
4965 -4964 340 0
4965 4964 -340 0
-4966 4965 341 0
-4966 -4965 -341 0
4966 -4965 341 0
4966 4965 -341 0
-4967 4966 342 0
-4967 -4966 -342 0
4967 -4966 342 0
4967 4966 -342 0
-4968 4967 343 0
-4968 -4967 -343 0
4968 -4967 343 0
4968 4967 -343 0
-4969 4968 344 0
-4969 -4968 -344 0
4969 -4968 344 0
4969 4968 -344 0
-194 -4969 0
-4970 346 348 0
-4970 -346 -348 0
4970 -346 348 0
4970 346 -348 0
-4971 4970 349 0
-4971 -4970 -349 0
4971 -4970 349 0
4971 4970 -349 0
-4972 4971 350 0
-4972 -4971 -350 0
4972 -4971 350 0
4972 4971 -350 0
-4973 4972 351 0
-4973 -4972 -351 0
4973 -4972 351 0
4973 4972 -351 0
-4974 4973 353 0
-4974 -4973 -353 0
4974 -4973 353 0
4974 4973 -353 0
-4975 4974 354 0
-4975 -4974 -354 0
4975 -4974 354 0
4975 4974 -354 0
-4976 4975 355 0
-4976 -4975 -355 0
4976 -4975 355 0
4976 4975 -355 0
-4977 4976 356 0
-4977 -4976 -356 0
4977 -4976 356 0
4977 4976 -356 0
-4978 4977 357 0
-4978 -4977 -357 0
4978 -4977 357 0
4978 4977 -357 0
-4979 4978 358 0
-4979 -4978 -358 0
4979 -4978 358 0
4979 4978 -358 0
-4980 4979 359 0
-4980 -4979 -359 0
4980 -4979 359 0
4980 4979 -359 0
-194 -4980 0
-4981 361 363 0
-4981 -361 -363 0
4981 -361 363 0
4981 361 -363 0
-4982 4981 364 0
-4982 -4981 -364 0
4982 -4981 364 0
4982 4981 -364 0
-4983 4982 365 0
-4983 -4982 -365 0
4983 -4982 365 0
4983 4982 -365 0
-4984 4983 366 0
-4984 -4983 -366 0
4984 -4983 366 0
4984 4983 -366 0
-4985 4984 368 0
-4985 -4984 -368 0
4985 -4984 368 0
4985 4984 -368 0
-4986 4985 369 0
-4986 -4985 -369 0
4986 -4985 369 0
4986 4985 -369 0
-4987 4986 370 0
-4987 -4986 -370 0
4987 -4986 370 0
4987 4986 -370 0
-4988 4987 371 0
-4988 -4987 -371 0
4988 -4987 371 0
4988 4987 -371 0
-4989 4988 372 0
-4989 -4988 -372 0
4989 -4988 372 0
4989 4988 -372 0
-4990 4989 373 0
-4990 -4989 -373 0
4990 -4989 373 0
4990 4989 -373 0
-4991 4990 374 0
-4991 -4990 -374 0
4991 -4990 374 0
4991 4990 -374 0
-194 -4991 0
-4992 376 378 0
-4992 -376 -378 0
4992 -376 378 0
4992 376 -378 0
-4993 4992 379 0
-4993 -4992 -379 0
4993 -4992 379 0
4993 4992 -379 0
-4994 4993 380 0
-4994 -4993 -380 0
4994 -4993 380 0
4994 4993 -380 0
-4995 4994 381 0
-4995 -4994 -381 0
4995 -4994 381 0
4995 4994 -381 0
-4996 4995 383 0
-4996 -4995 -383 0
4996 -4995 383 0
4996 4995 -383 0
-4997 4996 384 0
-4997 -4996 -384 0
4997 -4996 384 0
4997 4996 -384 0
-4998 4997 385 0
-4998 -4997 -385 0
4998 -4997 385 0
4998 4997 -385 0
-4999 4998 386 0
-4999 -4998 -386 0
4999 -4998 386 0
4999 4998 -386 0
-5000 4999 387 0
-5000 -4999 -387 0
5000 -4999 387 0
5000 4999 -387 0
-5001 5000 388 0
-5001 -5000 -388 0
5001 -5000 388 0
5001 5000 -388 0
-5002 5001 389 0
-5002 -5001 -389 0
5002 -5001 389 0
5002 5001 -389 0
-194 -5002 0
-5003 316 317 0
-5003 -316 -317 0
5003 -316 317 0
5003 316 -317 0
-5004 5003 319 0
-5004 -5003 -319 0
5004 -5003 319 0
5004 5003 -319 0
-5005 5004 320 0
-5005 -5004 -320 0
5005 -5004 320 0
5005 5004 -320 0
-5006 5005 322 0
-5006 -5005 -322 0
5006 -5005 322 0
5006 5005 -322 0
-5007 5006 323 0
-5007 -5006 -323 0
5007 -5006 323 0
5007 5006 -323 0
-5008 5007 324 0
-5008 -5007 -324 0
5008 -5007 324 0
5008 5007 -324 0
-5009 5008 325 0
-5009 -5008 -325 0
5009 -5008 325 0
5009 5008 -325 0
-5010 5009 326 0
-5010 -5009 -326 0
5010 -5009 326 0
5010 5009 -326 0
-5011 5010 327 0
-5011 -5010 -327 0
5011 -5010 327 0
5011 5010 -327 0
-5012 5011 328 0
-5012 -5011 -328 0
5012 -5011 328 0
5012 5011 -328 0
-5013 5012 329 0
-5013 -5012 -329 0
5013 -5012 329 0
5013 5012 -329 0
-195 -5013 0
-5014 331 332 0
-5014 -331 -332 0
5014 -331 332 0
5014 331 -332 0
-5015 5014 334 0
-5015 -5014 -334 0
5015 -5014 334 0
5015 5014 -334 0
-5016 5015 335 0
-5016 -5015 -335 0
5016 -5015 335 0
5016 5015 -335 0
-5017 5016 337 0
-5017 -5016 -337 0
5017 -5016 337 0
5017 5016 -337 0
-5018 5017 338 0
-5018 -5017 -338 0
5018 -5017 338 0
5018 5017 -338 0
-5019 5018 339 0
-5019 -5018 -339 0
5019 -5018 339 0
5019 5018 -339 0
-5020 5019 340 0
-5020 -5019 -340 0
5020 -5019 340 0
5020 5019 -340 0
-5021 5020 341 0
-5021 -5020 -341 0
5021 -5020 341 0
5021 5020 -341 0
-5022 5021 342 0
-5022 -5021 -342 0
5022 -5021 342 0
5022 5021 -342 0
-5023 5022 343 0
-5023 -5022 -343 0
5023 -5022 343 0
5023 5022 -343 0
-5024 5023 344 0
-5024 -5023 -344 0
5024 -5023 344 0
5024 5023 -344 0
-195 -5024 0
-5025 346 347 0
-5025 -346 -347 0
5025 -346 347 0
5025 346 -347 0
-5026 5025 349 0
-5026 -5025 -349 0
5026 -5025 349 0
5026 5025 -349 0
-5027 5026 350 0
-5027 -5026 -350 0
5027 -5026 350 0
5027 5026 -350 0
-5028 5027 352 0
-5028 -5027 -352 0
5028 -5027 352 0
5028 5027 -352 0
-5029 5028 353 0
-5029 -5028 -353 0
5029 -5028 353 0
5029 5028 -353 0
-5030 5029 354 0
-5030 -5029 -354 0
5030 -5029 354 0
5030 5029 -354 0
-5031 5030 355 0
-5031 -5030 -355 0
5031 -5030 355 0
5031 5030 -355 0
-5032 5031 356 0
-5032 -5031 -356 0
5032 -5031 356 0
5032 5031 -356 0
-5033 5032 357 0
-5033 -5032 -357 0
5033 -5032 357 0
5033 5032 -357 0
-5034 5033 358 0
-5034 -5033 -358 0
5034 -5033 358 0
5034 5033 -358 0
-5035 5034 359 0
-5035 -5034 -359 0
5035 -5034 359 0
5035 5034 -359 0
-195 -5035 0
-5036 361 362 0
-5036 -361 -362 0
5036 -361 362 0
5036 361 -362 0
-5037 5036 364 0
-5037 -5036 -364 0
5037 -5036 364 0
5037 5036 -364 0
-5038 5037 365 0
-5038 -5037 -365 0
5038 -5037 365 0
5038 5037 -365 0
-5039 5038 367 0
-5039 -5038 -367 0
5039 -5038 367 0
5039 5038 -367 0
-5040 5039 368 0
-5040 -5039 -368 0
5040 -5039 368 0
5040 5039 -368 0
-5041 5040 369 0
-5041 -5040 -369 0
5041 -5040 369 0
5041 5040 -369 0
-5042 5041 370 0
-5042 -5041 -370 0
5042 -5041 370 0
5042 5041 -370 0
-5043 5042 371 0
-5043 -5042 -371 0
5043 -5042 371 0
5043 5042 -371 0
-5044 5043 372 0
-5044 -5043 -372 0
5044 -5043 372 0
5044 5043 -372 0
-5045 5044 373 0
-5045 -5044 -373 0
5045 -5044 373 0
5045 5044 -373 0
-5046 5045 374 0
-5046 -5045 -374 0
5046 -5045 374 0
5046 5045 -374 0
-195 -5046 0
-5047 376 377 0
-5047 -376 -377 0
5047 -376 377 0
5047 376 -377 0
-5048 5047 379 0
-5048 -5047 -379 0
5048 -5047 379 0
5048 5047 -379 0
-5049 5048 380 0
-5049 -5048 -380 0
5049 -5048 380 0
5049 5048 -380 0
-5050 5049 382 0
-5050 -5049 -382 0
5050 -5049 382 0
5050 5049 -382 0
-5051 5050 383 0
-5051 -5050 -383 0
5051 -5050 383 0
5051 5050 -383 0
-5052 5051 384 0
-5052 -5051 -384 0
5052 -5051 384 0
5052 5051 -384 0
-5053 5052 385 0
-5053 -5052 -385 0
5053 -5052 385 0
5053 5052 -385 0
-5054 5053 386 0
-5054 -5053 -386 0
5054 -5053 386 0
5054 5053 -386 0
-5055 5054 387 0
-5055 -5054 -387 0
5055 -5054 387 0
5055 5054 -387 0
-5056 5055 388 0
-5056 -5055 -388 0
5056 -5055 388 0
5056 5055 -388 0
-5057 5056 389 0
-5057 -5056 -389 0
5057 -5056 389 0
5057 5056 -389 0
-195 -5057 0
-5058 316 320 0
-5058 -316 -320 0
5058 -316 320 0
5058 316 -320 0
-5059 5058 323 0
-5059 -5058 -323 0
5059 -5058 323 0
5059 5058 -323 0
-5060 5059 330 0
-5060 -5059 -330 0
5060 -5059 330 0
5060 5059 -330 0
-196 -5060 0
-5061 331 335 0
-5061 -331 -335 0
5061 -331 335 0
5061 331 -335 0
-5062 5061 338 0
-5062 -5061 -338 0
5062 -5061 338 0
5062 5061 -338 0
-5063 5062 345 0
-5063 -5062 -345 0
5063 -5062 345 0
5063 5062 -345 0
-196 -5063 0
-5064 346 350 0
-5064 -346 -350 0
5064 -346 350 0
5064 346 -350 0
-5065 5064 353 0
-5065 -5064 -353 0
5065 -5064 353 0
5065 5064 -353 0
-5066 5065 360 0
-5066 -5065 -360 0
5066 -5065 360 0
5066 5065 -360 0
-196 -5066 0
-5067 361 365 0
-5067 -361 -365 0
5067 -361 365 0
5067 361 -365 0
-5068 5067 368 0
-5068 -5067 -368 0
5068 -5067 368 0
5068 5067 -368 0
-5069 5068 375 0
-5069 -5068 -375 0
5069 -5068 375 0
5069 5068 -375 0
-196 -5069 0
-5070 376 380 0
-5070 -376 -380 0
5070 -376 380 0
5070 376 -380 0
-5071 5070 383 0
-5071 -5070 -383 0
5071 -5070 383 0
5071 5070 -383 0
-5072 5071 390 0
-5072 -5071 -390 0
5072 -5071 390 0
5072 5071 -390 0
-196 -5072 0
-5073 316 319 0
-5073 -316 -319 0
5073 -316 319 0
5073 316 -319 0
-5074 5073 320 0
-5074 -5073 -320 0
5074 -5073 320 0
5074 5073 -320 0
-5075 5074 323 0
-5075 -5074 -323 0
5075 -5074 323 0
5075 5074 -323 0
-5076 5075 330 0
-5076 -5075 -330 0
5076 -5075 330 0
5076 5075 -330 0
-197 -5076 0
-5077 331 334 0
-5077 -331 -334 0
5077 -331 334 0
5077 331 -334 0
-5078 5077 335 0
-5078 -5077 -335 0
5078 -5077 335 0
5078 5077 -335 0
-5079 5078 338 0
-5079 -5078 -338 0
5079 -5078 338 0
5079 5078 -338 0
-5080 5079 345 0
-5080 -5079 -345 0
5080 -5079 345 0
5080 5079 -345 0
-197 -5080 0
-5081 346 349 0
-5081 -346 -349 0
5081 -346 349 0
5081 346 -349 0
-5082 5081 350 0
-5082 -5081 -350 0
5082 -5081 350 0
5082 5081 -350 0
-5083 5082 353 0
-5083 -5082 -353 0
5083 -5082 353 0
5083 5082 -353 0
-5084 5083 360 0
-5084 -5083 -360 0
5084 -5083 360 0
5084 5083 -360 0
-197 -5084 0
-5085 361 364 0
-5085 -361 -364 0
5085 -361 364 0
5085 361 -364 0
-5086 5085 365 0
-5086 -5085 -365 0
5086 -5085 365 0
5086 5085 -365 0
-5087 5086 368 0
-5087 -5086 -368 0
5087 -5086 368 0
5087 5086 -368 0
-5088 5087 375 0
-5088 -5087 -375 0
5088 -5087 375 0
5088 5087 -375 0
-197 -5088 0
-5089 376 379 0
-5089 -376 -379 0
5089 -376 379 0
5089 376 -379 0
-5090 5089 380 0
-5090 -5089 -380 0
5090 -5089 380 0
5090 5089 -380 0
-5091 5090 383 0
-5091 -5090 -383 0
5091 -5090 383 0
5091 5090 -383 0
-5092 5091 390 0
-5092 -5091 -390 0
5092 -5091 390 0
5092 5091 -390 0
-197 -5092 0
-5093 316 317 0
-5093 -316 -317 0
5093 -316 317 0
5093 316 -317 0
-5094 5093 320 0
-5094 -5093 -320 0
5094 -5093 320 0
5094 5093 -320 0
-5095 5094 323 0
-5095 -5094 -323 0
5095 -5094 323 0
5095 5094 -323 0
-5096 5095 326 0
-5096 -5095 -326 0
5096 -5095 326 0
5096 5095 -326 0
-5097 5096 330 0
-5097 -5096 -330 0
5097 -5096 330 0
5097 5096 -330 0
-198 -5097 0
-5098 331 332 0
-5098 -331 -332 0
5098 -331 332 0
5098 331 -332 0
-5099 5098 335 0
-5099 -5098 -335 0
5099 -5098 335 0
5099 5098 -335 0
-5100 5099 338 0
-5100 -5099 -338 0
5100 -5099 338 0
5100 5099 -338 0
-5101 5100 341 0
-5101 -5100 -341 0
5101 -5100 341 0
5101 5100 -341 0
-5102 5101 345 0
-5102 -5101 -345 0
5102 -5101 345 0
5102 5101 -345 0
-198 -5102 0
-5103 346 347 0
-5103 -346 -347 0
5103 -346 347 0
5103 346 -347 0
-5104 5103 350 0
-5104 -5103 -350 0
5104 -5103 350 0
5104 5103 -350 0
-5105 5104 353 0
-5105 -5104 -353 0
5105 -5104 353 0
5105 5104 -353 0
-5106 5105 356 0
-5106 -5105 -356 0
5106 -5105 356 0
5106 5105 -356 0
-5107 5106 360 0
-5107 -5106 -360 0
5107 -5106 360 0
5107 5106 -360 0
-198 -5107 0
-5108 361 362 0
-5108 -361 -362 0
5108 -361 362 0
5108 361 -362 0
-5109 5108 365 0
-5109 -5108 -365 0
5109 -5108 365 0
5109 5108 -365 0
-5110 5109 368 0
-5110 -5109 -368 0
5110 -5109 368 0
5110 5109 -368 0
-5111 5110 371 0
-5111 -5110 -371 0
5111 -5110 371 0
5111 5110 -371 0
-5112 5111 375 0
-5112 -5111 -375 0
5112 -5111 375 0
5112 5111 -375 0
-198 -5112 0
-5113 376 377 0
-5113 -376 -377 0
5113 -376 377 0
5113 376 -377 0
-5114 5113 380 0
-5114 -5113 -380 0
5114 -5113 380 0
5114 5113 -380 0
-5115 5114 383 0
-5115 -5114 -383 0
5115 -5114 383 0
5115 5114 -383 0
-5116 5115 386 0
-5116 -5115 -386 0
5116 -5115 386 0
5116 5115 -386 0
-5117 5116 390 0
-5117 -5116 -390 0
5117 -5116 390 0
5117 5116 -390 0
-198 -5117 0
-5118 316 317 0
-5118 -316 -317 0
5118 -316 317 0
5118 316 -317 0
-5119 5118 319 0
-5119 -5118 -319 0
5119 -5118 319 0
5119 5118 -319 0
-5120 5119 320 0
-5120 -5119 -320 0
5120 -5119 320 0
5120 5119 -320 0
-5121 5120 323 0
-5121 -5120 -323 0
5121 -5120 323 0
5121 5120 -323 0
-5122 5121 326 0
-5122 -5121 -326 0
5122 -5121 326 0
5122 5121 -326 0
-5123 5122 330 0
-5123 -5122 -330 0
5123 -5122 330 0
5123 5122 -330 0
-199 -5123 0
-5124 331 332 0
-5124 -331 -332 0
5124 -331 332 0
5124 331 -332 0
-5125 5124 334 0
-5125 -5124 -334 0
5125 -5124 334 0
5125 5124 -334 0
-5126 5125 335 0
-5126 -5125 -335 0
5126 -5125 335 0
5126 5125 -335 0
-5127 5126 338 0
-5127 -5126 -338 0
5127 -5126 338 0
5127 5126 -338 0
-5128 5127 341 0
-5128 -5127 -341 0
5128 -5127 341 0
5128 5127 -341 0
-5129 5128 345 0
-5129 -5128 -345 0
5129 -5128 345 0
5129 5128 -345 0
-199 -5129 0
-5130 346 347 0
-5130 -346 -347 0
5130 -346 347 0
5130 346 -347 0
-5131 5130 349 0
-5131 -5130 -349 0
5131 -5130 349 0
5131 5130 -349 0
-5132 5131 350 0
-5132 -5131 -350 0
5132 -5131 350 0
5132 5131 -350 0
-5133 5132 353 0
-5133 -5132 -353 0
5133 -5132 353 0
5133 5132 -353 0
-5134 5133 356 0
-5134 -5133 -356 0
5134 -5133 356 0
5134 5133 -356 0
-5135 5134 360 0
-5135 -5134 -360 0
5135 -5134 360 0
5135 5134 -360 0
-199 -5135 0
-5136 361 362 0
-5136 -361 -362 0
5136 -361 362 0
5136 361 -362 0
-5137 5136 364 0
-5137 -5136 -364 0
5137 -5136 364 0
5137 5136 -364 0
-5138 5137 365 0
-5138 -5137 -365 0
5138 -5137 365 0
5138 5137 -365 0
-5139 5138 368 0
-5139 -5138 -368 0
5139 -5138 368 0
5139 5138 -368 0
-5140 5139 371 0
-5140 -5139 -371 0
5140 -5139 371 0
5140 5139 -371 0
-5141 5140 375 0
-5141 -5140 -375 0
5141 -5140 375 0
5141 5140 -375 0
-199 -5141 0
-5142 376 377 0
-5142 -376 -377 0
5142 -376 377 0
5142 376 -377 0
-5143 5142 379 0
-5143 -5142 -379 0
5143 -5142 379 0
5143 5142 -379 0
-5144 5143 380 0
-5144 -5143 -380 0
5144 -5143 380 0
5144 5143 -380 0
-5145 5144 383 0
-5145 -5144 -383 0
5145 -5144 383 0
5145 5144 -383 0
-5146 5145 386 0
-5146 -5145 -386 0
5146 -5145 386 0
5146 5145 -386 0
-5147 5146 390 0
-5147 -5146 -390 0
5147 -5146 390 0
5147 5146 -390 0
-199 -5147 0
-5148 316 318 0
-5148 -316 -318 0
5148 -316 318 0
5148 316 -318 0
-5149 5148 320 0
-5149 -5148 -320 0
5149 -5148 320 0
5149 5148 -320 0
-5150 5149 323 0
-5150 -5149 -323 0
5150 -5149 323 0
5150 5149 -323 0
-5151 5150 328 0
-5151 -5150 -328 0
5151 -5150 328 0
5151 5150 -328 0
-5152 5151 330 0
-5152 -5151 -330 0
5152 -5151 330 0
5152 5151 -330 0
-200 -5152 0
-5153 331 333 0
-5153 -331 -333 0
5153 -331 333 0
5153 331 -333 0
-5154 5153 335 0
-5154 -5153 -335 0
5154 -5153 335 0
5154 5153 -335 0
-5155 5154 338 0
-5155 -5154 -338 0
5155 -5154 338 0
5155 5154 -338 0
-5156 5155 343 0
-5156 -5155 -343 0
5156 -5155 343 0
5156 5155 -343 0
-5157 5156 345 0
-5157 -5156 -345 0
5157 -5156 345 0
5157 5156 -345 0
-200 -5157 0
-5158 346 348 0
-5158 -346 -348 0
5158 -346 348 0
5158 346 -348 0
-5159 5158 350 0
-5159 -5158 -350 0
5159 -5158 350 0
5159 5158 -350 0
-5160 5159 353 0
-5160 -5159 -353 0
5160 -5159 353 0
5160 5159 -353 0
-5161 5160 358 0
-5161 -5160 -358 0
5161 -5160 358 0
5161 5160 -358 0
-5162 5161 360 0
-5162 -5161 -360 0
5162 -5161 360 0
5162 5161 -360 0
-200 -5162 0
-5163 361 363 0
-5163 -361 -363 0
5163 -361 363 0
5163 361 -363 0
-5164 5163 365 0
-5164 -5163 -365 0
5164 -5163 365 0
5164 5163 -365 0
-5165 5164 368 0
-5165 -5164 -368 0
5165 -5164 368 0
5165 5164 -368 0
-5166 5165 373 0
-5166 -5165 -373 0
5166 -5165 373 0
5166 5165 -373 0
-5167 5166 375 0
-5167 -5166 -375 0
5167 -5166 375 0
5167 5166 -375 0
-200 -5167 0
-5168 376 378 0
-5168 -376 -378 0
5168 -376 378 0
5168 376 -378 0
-5169 5168 380 0
-5169 -5168 -380 0
5169 -5168 380 0
5169 5168 -380 0
-5170 5169 383 0
-5170 -5169 -383 0
5170 -5169 383 0
5170 5169 -383 0
-5171 5170 388 0
-5171 -5170 -388 0
5171 -5170 388 0
5171 5170 -388 0
-5172 5171 390 0
-5172 -5171 -390 0
5172 -5171 390 0
5172 5171 -390 0
-200 -5172 0
-5173 316 318 0
-5173 -316 -318 0
5173 -316 318 0
5173 316 -318 0
-5174 5173 319 0
-5174 -5173 -319 0
5174 -5173 319 0
5174 5173 -319 0
-5175 5174 320 0
-5175 -5174 -320 0
5175 -5174 320 0
5175 5174 -320 0
-5176 5175 323 0
-5176 -5175 -323 0
5176 -5175 323 0
5176 5175 -323 0
-5177 5176 328 0
-5177 -5176 -328 0
5177 -5176 328 0
5177 5176 -328 0
-5178 5177 330 0
-5178 -5177 -330 0
5178 -5177 330 0
5178 5177 -330 0
-201 -5178 0
-5179 331 333 0
-5179 -331 -333 0
5179 -331 333 0
5179 331 -333 0
-5180 5179 334 0
-5180 -5179 -334 0
5180 -5179 334 0
5180 5179 -334 0
-5181 5180 335 0
-5181 -5180 -335 0
5181 -5180 335 0
5181 5180 -335 0
-5182 5181 338 0
-5182 -5181 -338 0
5182 -5181 338 0
5182 5181 -338 0
-5183 5182 343 0
-5183 -5182 -343 0
5183 -5182 343 0
5183 5182 -343 0
-5184 5183 345 0
-5184 -5183 -345 0
5184 -5183 345 0
5184 5183 -345 0
-201 -5184 0
-5185 346 348 0
-5185 -346 -348 0
5185 -346 348 0
5185 346 -348 0
-5186 5185 349 0
-5186 -5185 -349 0
5186 -5185 349 0
5186 5185 -349 0
-5187 5186 350 0
-5187 -5186 -350 0
5187 -5186 350 0
5187 5186 -350 0
-5188 5187 353 0
-5188 -5187 -353 0
5188 -5187 353 0
5188 5187 -353 0
-5189 5188 358 0
-5189 -5188 -358 0
5189 -5188 358 0
5189 5188 -358 0
-5190 5189 360 0
-5190 -5189 -360 0
5190 -5189 360 0
5190 5189 -360 0
-201 -5190 0
-5191 361 363 0
-5191 -361 -363 0
5191 -361 363 0
5191 361 -363 0
-5192 5191 364 0
-5192 -5191 -364 0
5192 -5191 364 0
5192 5191 -364 0
-5193 5192 365 0
-5193 -5192 -365 0
5193 -5192 365 0
5193 5192 -365 0
-5194 5193 368 0
-5194 -5193 -368 0
5194 -5193 368 0
5194 5193 -368 0
-5195 5194 373 0
-5195 -5194 -373 0
5195 -5194 373 0
5195 5194 -373 0
-5196 5195 375 0
-5196 -5195 -375 0
5196 -5195 375 0
5196 5195 -375 0
-201 -5196 0
-5197 376 378 0
-5197 -376 -378 0
5197 -376 378 0
5197 376 -378 0
-5198 5197 379 0
-5198 -5197 -379 0
5198 -5197 379 0
5198 5197 -379 0
-5199 5198 380 0
-5199 -5198 -380 0
5199 -5198 380 0
5199 5198 -380 0
-5200 5199 383 0
-5200 -5199 -383 0
5200 -5199 383 0
5200 5199 -383 0
-5201 5200 388 0
-5201 -5200 -388 0
5201 -5200 388 0
5201 5200 -388 0
-5202 5201 390 0
-5202 -5201 -390 0
5202 -5201 390 0
5202 5201 -390 0
-201 -5202 0
-5203 316 317 0
-5203 -316 -317 0
5203 -316 317 0
5203 316 -317 0
-5204 5203 318 0
-5204 -5203 -318 0
5204 -5203 318 0
5204 5203 -318 0
-5205 5204 320 0
-5205 -5204 -320 0
5205 -5204 320 0
5205 5204 -320 0
-5206 5205 323 0
-5206 -5205 -323 0
5206 -5205 323 0
5206 5205 -323 0
-5207 5206 326 0
-5207 -5206 -326 0
5207 -5206 326 0
5207 5206 -326 0
-5208 5207 328 0
-5208 -5207 -328 0
5208 -5207 328 0
5208 5207 -328 0
-5209 5208 330 0
-5209 -5208 -330 0
5209 -5208 330 0
5209 5208 -330 0
-202 -5209 0
-5210 331 332 0
-5210 -331 -332 0
5210 -331 332 0
5210 331 -332 0
-5211 5210 333 0
-5211 -5210 -333 0
5211 -5210 333 0
5211 5210 -333 0
-5212 5211 335 0
-5212 -5211 -335 0
5212 -5211 335 0
5212 5211 -335 0
-5213 5212 338 0
-5213 -5212 -338 0
5213 -5212 338 0
5213 5212 -338 0
-5214 5213 341 0
-5214 -5213 -341 0
5214 -5213 341 0
5214 5213 -341 0
-5215 5214 343 0
-5215 -5214 -343 0
5215 -5214 343 0
5215 5214 -343 0
-5216 5215 345 0
-5216 -5215 -345 0
5216 -5215 345 0
5216 5215 -345 0
-202 -5216 0
-5217 346 347 0
-5217 -346 -347 0
5217 -346 347 0
5217 346 -347 0
-5218 5217 348 0
-5218 -5217 -348 0
5218 -5217 348 0
5218 5217 -348 0
-5219 5218 350 0
-5219 -5218 -350 0
5219 -5218 350 0
5219 5218 -350 0
-5220 5219 353 0
-5220 -5219 -353 0
5220 -5219 353 0
5220 5219 -353 0
-5221 5220 356 0
-5221 -5220 -356 0
5221 -5220 356 0
5221 5220 -356 0
-5222 5221 358 0
-5222 -5221 -358 0
5222 -5221 358 0
5222 5221 -358 0
-5223 5222 360 0
-5223 -5222 -360 0
5223 -5222 360 0
5223 5222 -360 0
-202 -5223 0
-5224 361 362 0
-5224 -361 -362 0
5224 -361 362 0
5224 361 -362 0
-5225 5224 363 0
-5225 -5224 -363 0
5225 -5224 363 0
5225 5224 -363 0
-5226 5225 365 0
-5226 -5225 -365 0
5226 -5225 365 0
5226 5225 -365 0
-5227 5226 368 0
-5227 -5226 -368 0
5227 -5226 368 0
5227 5226 -368 0
-5228 5227 371 0
-5228 -5227 -371 0
5228 -5227 371 0
5228 5227 -371 0
-5229 5228 373 0
-5229 -5228 -373 0
5229 -5228 373 0
5229 5228 -373 0
-5230 5229 375 0
-5230 -5229 -375 0
5230 -5229 375 0
5230 5229 -375 0
-202 -5230 0
-5231 376 377 0
-5231 -376 -377 0
5231 -376 377 0
5231 376 -377 0
-5232 5231 378 0
-5232 -5231 -378 0
5232 -5231 378 0
5232 5231 -378 0
-5233 5232 380 0
-5233 -5232 -380 0
5233 -5232 380 0
5233 5232 -380 0
-5234 5233 383 0
-5234 -5233 -383 0
5234 -5233 383 0
5234 5233 -383 0
-5235 5234 386 0
-5235 -5234 -386 0
5235 -5234 386 0
5235 5234 -386 0
-5236 5235 388 0
-5236 -5235 -388 0
5236 -5235 388 0
5236 5235 -388 0
-5237 5236 390 0
-5237 -5236 -390 0
5237 -5236 390 0
5237 5236 -390 0
-202 -5237 0
-5238 316 317 0
-5238 -316 -317 0
5238 -316 317 0
5238 316 -317 0
-5239 5238 318 0
-5239 -5238 -318 0
5239 -5238 318 0
5239 5238 -318 0
-5240 5239 319 0
-5240 -5239 -319 0
5240 -5239 319 0
5240 5239 -319 0
-5241 5240 320 0
-5241 -5240 -320 0
5241 -5240 320 0
5241 5240 -320 0
-5242 5241 323 0
-5242 -5241 -323 0
5242 -5241 323 0
5242 5241 -323 0
-5243 5242 326 0
-5243 -5242 -326 0
5243 -5242 326 0
5243 5242 -326 0
-5244 5243 328 0
-5244 -5243 -328 0
5244 -5243 328 0
5244 5243 -328 0
-5245 5244 330 0
-5245 -5244 -330 0
5245 -5244 330 0
5245 5244 -330 0
-203 -5245 0
-5246 331 332 0
-5246 -331 -332 0
5246 -331 332 0
5246 331 -332 0
-5247 5246 333 0
-5247 -5246 -333 0
5247 -5246 333 0
5247 5246 -333 0
-5248 5247 334 0
-5248 -5247 -334 0
5248 -5247 334 0
5248 5247 -334 0
-5249 5248 335 0
-5249 -5248 -335 0
5249 -5248 335 0
5249 5248 -335 0
-5250 5249 338 0
-5250 -5249 -338 0
5250 -5249 338 0
5250 5249 -338 0
-5251 5250 341 0
-5251 -5250 -341 0
5251 -5250 341 0
5251 5250 -341 0
-5252 5251 343 0
-5252 -5251 -343 0
5252 -5251 343 0
5252 5251 -343 0
-5253 5252 345 0
-5253 -5252 -345 0
5253 -5252 345 0
5253 5252 -345 0
-203 -5253 0
-5254 346 347 0
-5254 -346 -347 0
5254 -346 347 0
5254 346 -347 0
-5255 5254 348 0
-5255 -5254 -348 0
5255 -5254 348 0
5255 5254 -348 0
-5256 5255 349 0
-5256 -5255 -349 0
5256 -5255 349 0
5256 5255 -349 0
-5257 5256 350 0
-5257 -5256 -350 0
5257 -5256 350 0
5257 5256 -350 0
-5258 5257 353 0
-5258 -5257 -353 0
5258 -5257 353 0
5258 5257 -353 0
-5259 5258 356 0
-5259 -5258 -356 0
5259 -5258 356 0
5259 5258 -356 0
-5260 5259 358 0
-5260 -5259 -358 0
5260 -5259 358 0
5260 5259 -358 0
-5261 5260 360 0
-5261 -5260 -360 0
5261 -5260 360 0
5261 5260 -360 0
-203 -5261 0
-5262 361 362 0
-5262 -361 -362 0
5262 -361 362 0
5262 361 -362 0
-5263 5262 363 0
-5263 -5262 -363 0
5263 -5262 363 0
5263 5262 -363 0
-5264 5263 364 0
-5264 -5263 -364 0
5264 -5263 364 0
5264 5263 -364 0
-5265 5264 365 0
-5265 -5264 -365 0
5265 -5264 365 0
5265 5264 -365 0
-5266 5265 368 0
-5266 -5265 -368 0
5266 -5265 368 0
5266 5265 -368 0
-5267 5266 371 0
-5267 -5266 -371 0
5267 -5266 371 0
5267 5266 -371 0
-5268 5267 373 0
-5268 -5267 -373 0
5268 -5267 373 0
5268 5267 -373 0
-5269 5268 375 0
-5269 -5268 -375 0
5269 -5268 375 0
5269 5268 -375 0
-203 -5269 0
-5270 376 377 0
-5270 -376 -377 0
5270 -376 377 0
5270 376 -377 0
-5271 5270 378 0
-5271 -5270 -378 0
5271 -5270 378 0
5271 5270 -378 0
-5272 5271 379 0
-5272 -5271 -379 0
5272 -5271 379 0
5272 5271 -379 0
-5273 5272 380 0
-5273 -5272 -380 0
5273 -5272 380 0
5273 5272 -380 0
-5274 5273 383 0
-5274 -5273 -383 0
5274 -5273 383 0
5274 5273 -383 0
-5275 5274 386 0
-5275 -5274 -386 0
5275 -5274 386 0
5275 5274 -386 0
-5276 5275 388 0
-5276 -5275 -388 0
5276 -5275 388 0
5276 5275 -388 0
-5277 5276 390 0
-5277 -5276 -390 0
5277 -5276 390 0
5277 5276 -390 0
-203 -5277 0
-5278 316 319 0
-5278 -316 -319 0
5278 -316 319 0
5278 316 -319 0
-5279 5278 324 0
-5279 -5278 -324 0
5279 -5278 324 0
5279 5278 -324 0
-5280 5279 330 0
-5280 -5279 -330 0
5280 -5279 330 0
5280 5279 -330 0
-204 -5280 0
-5281 331 334 0
-5281 -331 -334 0
5281 -331 334 0
5281 331 -334 0
-5282 5281 339 0
-5282 -5281 -339 0
5282 -5281 339 0
5282 5281 -339 0
-5283 5282 345 0
-5283 -5282 -345 0
5283 -5282 345 0
5283 5282 -345 0
-204 -5283 0
-5284 346 349 0
-5284 -346 -349 0
5284 -346 349 0
5284 346 -349 0
-5285 5284 354 0
-5285 -5284 -354 0
5285 -5284 354 0
5285 5284 -354 0
-5286 5285 360 0
-5286 -5285 -360 0
5286 -5285 360 0
5286 5285 -360 0
-204 -5286 0
-5287 361 364 0
-5287 -361 -364 0
5287 -361 364 0
5287 361 -364 0
-5288 5287 369 0
-5288 -5287 -369 0
5288 -5287 369 0
5288 5287 -369 0
-5289 5288 375 0
-5289 -5288 -375 0
5289 -5288 375 0
5289 5288 -375 0
-204 -5289 0
-5290 376 379 0
-5290 -376 -379 0
5290 -376 379 0
5290 376 -379 0
-5291 5290 384 0
-5291 -5290 -384 0
5291 -5290 384 0
5291 5290 -384 0
-5292 5291 390 0
-5292 -5291 -390 0
5292 -5291 390 0
5292 5291 -390 0
-204 -5292 0
-5293 316 319 0
-5293 -316 -319 0
5293 -316 319 0
5293 316 -319 0
-5294 5293 323 0
-5294 -5293 -323 0
5294 -5293 323 0
5294 5293 -323 0
-5295 5294 324 0
-5295 -5294 -324 0
5295 -5294 324 0
5295 5294 -324 0
-5296 5295 330 0
-5296 -5295 -330 0
5296 -5295 330 0
5296 5295 -330 0
-205 -5296 0
-5297 331 334 0
-5297 -331 -334 0
5297 -331 334 0
5297 331 -334 0
-5298 5297 338 0
-5298 -5297 -338 0
5298 -5297 338 0
5298 5297 -338 0
-5299 5298 339 0
-5299 -5298 -339 0
5299 -5298 339 0
5299 5298 -339 0
-5300 5299 345 0
-5300 -5299 -345 0
5300 -5299 345 0
5300 5299 -345 0
-205 -5300 0
-5301 346 349 0
-5301 -346 -349 0
5301 -346 349 0
5301 346 -349 0
-5302 5301 353 0
-5302 -5301 -353 0
5302 -5301 353 0
5302 5301 -353 0
-5303 5302 354 0
-5303 -5302 -354 0
5303 -5302 354 0
5303 5302 -354 0
-5304 5303 360 0
-5304 -5303 -360 0
5304 -5303 360 0
5304 5303 -360 0
-205 -5304 0
-5305 361 364 0
-5305 -361 -364 0
5305 -361 364 0
5305 361 -364 0
-5306 5305 368 0
-5306 -5305 -368 0
5306 -5305 368 0
5306 5305 -368 0
-5307 5306 369 0
-5307 -5306 -369 0
5307 -5306 369 0
5307 5306 -369 0
-5308 5307 375 0
-5308 -5307 -375 0
5308 -5307 375 0
5308 5307 -375 0
-205 -5308 0
-5309 376 379 0
-5309 -376 -379 0
5309 -376 379 0
5309 376 -379 0
-5310 5309 383 0
-5310 -5309 -383 0
5310 -5309 383 0
5310 5309 -383 0
-5311 5310 384 0
-5311 -5310 -384 0
5311 -5310 384 0
5311 5310 -384 0
-5312 5311 390 0
-5312 -5311 -390 0
5312 -5311 390 0
5312 5311 -390 0
-205 -5312 0
-5313 316 319 0
-5313 -316 -319 0
5313 -316 319 0
5313 316 -319 0
-5314 5313 321 0
-5314 -5313 -321 0
5314 -5313 321 0
5314 5313 -321 0
-5315 5314 324 0
-5315 -5314 -324 0
5315 -5314 324 0
5315 5314 -324 0
-5316 5315 326 0
-5316 -5315 -326 0
5316 -5315 326 0
5316 5315 -326 0
-5317 5316 330 0
-5317 -5316 -330 0
5317 -5316 330 0
5317 5316 -330 0
-206 -5317 0
-5318 331 334 0
-5318 -331 -334 0
5318 -331 334 0
5318 331 -334 0
-5319 5318 336 0
-5319 -5318 -336 0
5319 -5318 336 0
5319 5318 -336 0
-5320 5319 339 0
-5320 -5319 -339 0
5320 -5319 339 0
5320 5319 -339 0
-5321 5320 341 0
-5321 -5320 -341 0
5321 -5320 341 0
5321 5320 -341 0
-5322 5321 345 0
-5322 -5321 -345 0
5322 -5321 345 0
5322 5321 -345 0
-206 -5322 0
-5323 346 349 0
-5323 -346 -349 0
5323 -346 349 0
5323 346 -349 0
-5324 5323 351 0
-5324 -5323 -351 0
5324 -5323 351 0
5324 5323 -351 0
-5325 5324 354 0
-5325 -5324 -354 0
5325 -5324 354 0
5325 5324 -354 0
-5326 5325 356 0
-5326 -5325 -356 0
5326 -5325 356 0
5326 5325 -356 0
-5327 5326 360 0
-5327 -5326 -360 0
5327 -5326 360 0
5327 5326 -360 0
-206 -5327 0
-5328 361 364 0
-5328 -361 -364 0
5328 -361 364 0
5328 361 -364 0
-5329 5328 366 0
-5329 -5328 -366 0
5329 -5328 366 0
5329 5328 -366 0
-5330 5329 369 0
-5330 -5329 -369 0
5330 -5329 369 0
5330 5329 -369 0
-5331 5330 371 0
-5331 -5330 -371 0
5331 -5330 371 0
5331 5330 -371 0
-5332 5331 375 0
-5332 -5331 -375 0
5332 -5331 375 0
5332 5331 -375 0
-206 -5332 0
-5333 376 379 0
-5333 -376 -379 0
5333 -376 379 0
5333 376 -379 0
-5334 5333 381 0
-5334 -5333 -381 0
5334 -5333 381 0
5334 5333 -381 0
-5335 5334 384 0
-5335 -5334 -384 0
5335 -5334 384 0
5335 5334 -384 0
-5336 5335 386 0
-5336 -5335 -386 0
5336 -5335 386 0
5336 5335 -386 0
-5337 5336 390 0
-5337 -5336 -390 0
5337 -5336 390 0
5337 5336 -390 0
-206 -5337 0
-5338 316 319 0
-5338 -316 -319 0
5338 -316 319 0
5338 316 -319 0
-5339 5338 321 0
-5339 -5338 -321 0
5339 -5338 321 0
5339 5338 -321 0
-5340 5339 323 0
-5340 -5339 -323 0
5340 -5339 323 0
5340 5339 -323 0
-5341 5340 324 0
-5341 -5340 -324 0
5341 -5340 324 0
5341 5340 -324 0
-5342 5341 326 0
-5342 -5341 -326 0
5342 -5341 326 0
5342 5341 -326 0
-5343 5342 330 0
-5343 -5342 -330 0
5343 -5342 330 0
5343 5342 -330 0
-207 -5343 0
-5344 331 334 0
-5344 -331 -334 0
5344 -331 334 0
5344 331 -334 0
-5345 5344 336 0
-5345 -5344 -336 0
5345 -5344 336 0
5345 5344 -336 0
-5346 5345 338 0
-5346 -5345 -338 0
5346 -5345 338 0
5346 5345 -338 0
-5347 5346 339 0
-5347 -5346 -339 0
5347 -5346 339 0
5347 5346 -339 0
-5348 5347 341 0
-5348 -5347 -341 0
5348 -5347 341 0
5348 5347 -341 0
-5349 5348 345 0
-5349 -5348 -345 0
5349 -5348 345 0
5349 5348 -345 0
-207 -5349 0
-5350 346 349 0
-5350 -346 -349 0
5350 -346 349 0
5350 346 -349 0
-5351 5350 351 0
-5351 -5350 -351 0
5351 -5350 351 0
5351 5350 -351 0
-5352 5351 353 0
-5352 -5351 -353 0
5352 -5351 353 0
5352 5351 -353 0
-5353 5352 354 0
-5353 -5352 -354 0
5353 -5352 354 0
5353 5352 -354 0
-5354 5353 356 0
-5354 -5353 -356 0
5354 -5353 356 0
5354 5353 -356 0
-5355 5354 360 0
-5355 -5354 -360 0
5355 -5354 360 0
5355 5354 -360 0
-207 -5355 0
-5356 361 364 0
-5356 -361 -364 0
5356 -361 364 0
5356 361 -364 0
-5357 5356 366 0
-5357 -5356 -366 0
5357 -5356 366 0
5357 5356 -366 0
-5358 5357 368 0
-5358 -5357 -368 0
5358 -5357 368 0
5358 5357 -368 0
-5359 5358 369 0
-5359 -5358 -369 0
5359 -5358 369 0
5359 5358 -369 0
-5360 5359 371 0
-5360 -5359 -371 0
5360 -5359 371 0
5360 5359 -371 0
-5361 5360 375 0
-5361 -5360 -375 0
5361 -5360 375 0
5361 5360 -375 0
-207 -5361 0
-5362 376 379 0
-5362 -376 -379 0
5362 -376 379 0
5362 376 -379 0
-5363 5362 381 0
-5363 -5362 -381 0
5363 -5362 381 0
5363 5362 -381 0
-5364 5363 383 0
-5364 -5363 -383 0
5364 -5363 383 0
5364 5363 -383 0
-5365 5364 384 0
-5365 -5364 -384 0
5365 -5364 384 0
5365 5364 -384 0
-5366 5365 386 0
-5366 -5365 -386 0
5366 -5365 386 0
5366 5365 -386 0
-5367 5366 390 0
-5367 -5366 -390 0
5367 -5366 390 0
5367 5366 -390 0
-207 -5367 0
-5368 316 319 0
-5368 -316 -319 0
5368 -316 319 0
5368 316 -319 0
-5369 5368 322 0
-5369 -5368 -322 0
5369 -5368 322 0
5369 5368 -322 0
-5370 5369 324 0
-5370 -5369 -324 0
5370 -5369 324 0
5370 5369 -324 0
-5371 5370 328 0
-5371 -5370 -328 0
5371 -5370 328 0
5371 5370 -328 0
-5372 5371 330 0
-5372 -5371 -330 0
5372 -5371 330 0
5372 5371 -330 0
-208 -5372 0
-5373 331 334 0
-5373 -331 -334 0
5373 -331 334 0
5373 331 -334 0
-5374 5373 337 0
-5374 -5373 -337 0
5374 -5373 337 0
5374 5373 -337 0
-5375 5374 339 0
-5375 -5374 -339 0
5375 -5374 339 0
5375 5374 -339 0
-5376 5375 343 0
-5376 -5375 -343 0
5376 -5375 343 0
5376 5375 -343 0
-5377 5376 345 0
-5377 -5376 -345 0
5377 -5376 345 0
5377 5376 -345 0
-208 -5377 0
-5378 346 349 0
-5378 -346 -349 0
5378 -346 349 0
5378 346 -349 0
-5379 5378 352 0
-5379 -5378 -352 0
5379 -5378 352 0
5379 5378 -352 0
-5380 5379 354 0
-5380 -5379 -354 0
5380 -5379 354 0
5380 5379 -354 0
-5381 5380 358 0
-5381 -5380 -358 0
5381 -5380 358 0
5381 5380 -358 0
-5382 5381 360 0
-5382 -5381 -360 0
5382 -5381 360 0
5382 5381 -360 0
-208 -5382 0
-5383 361 364 0
-5383 -361 -364 0
5383 -361 364 0
5383 361 -364 0
-5384 5383 367 0
-5384 -5383 -367 0
5384 -5383 367 0
5384 5383 -367 0
-5385 5384 369 0
-5385 -5384 -369 0
5385 -5384 369 0
5385 5384 -369 0
-5386 5385 373 0
-5386 -5385 -373 0
5386 -5385 373 0
5386 5385 -373 0
-5387 5386 375 0
-5387 -5386 -375 0
5387 -5386 375 0
5387 5386 -375 0
-208 -5387 0
-5388 376 379 0
-5388 -376 -379 0
5388 -376 379 0
5388 376 -379 0
-5389 5388 382 0
-5389 -5388 -382 0
5389 -5388 382 0
5389 5388 -382 0
-5390 5389 384 0
-5390 -5389 -384 0
5390 -5389 384 0
5390 5389 -384 0
-5391 5390 388 0
-5391 -5390 -388 0
5391 -5390 388 0
5391 5390 -388 0
-5392 5391 390 0
-5392 -5391 -390 0
5392 -5391 390 0
5392 5391 -390 0
-208 -5392 0
-5393 316 319 0
-5393 -316 -319 0
5393 -316 319 0
5393 316 -319 0
-5394 5393 322 0
-5394 -5393 -322 0
5394 -5393 322 0
5394 5393 -322 0
-5395 5394 323 0
-5395 -5394 -323 0
5395 -5394 323 0
5395 5394 -323 0
-5396 5395 324 0
-5396 -5395 -324 0
5396 -5395 324 0
5396 5395 -324 0
-5397 5396 328 0
-5397 -5396 -328 0
5397 -5396 328 0
5397 5396 -328 0
-5398 5397 330 0
-5398 -5397 -330 0
5398 -5397 330 0
5398 5397 -330 0
-209 -5398 0
-5399 331 334 0
-5399 -331 -334 0
5399 -331 334 0
5399 331 -334 0
-5400 5399 337 0
-5400 -5399 -337 0
5400 -5399 337 0
5400 5399 -337 0
-5401 5400 338 0
-5401 -5400 -338 0
5401 -5400 338 0
5401 5400 -338 0
-5402 5401 339 0
-5402 -5401 -339 0
5402 -5401 339 0
5402 5401 -339 0
-5403 5402 343 0
-5403 -5402 -343 0
5403 -5402 343 0
5403 5402 -343 0
-5404 5403 345 0
-5404 -5403 -345 0
5404 -5403 345 0
5404 5403 -345 0
-209 -5404 0
-5405 346 349 0
-5405 -346 -349 0
5405 -346 349 0
5405 346 -349 0
-5406 5405 352 0
-5406 -5405 -352 0
5406 -5405 352 0
5406 5405 -352 0
-5407 5406 353 0
-5407 -5406 -353 0
5407 -5406 353 0
5407 5406 -353 0
-5408 5407 354 0
-5408 -5407 -354 0
5408 -5407 354 0
5408 5407 -354 0
-5409 5408 358 0
-5409 -5408 -358 0
5409 -5408 358 0
5409 5408 -358 0
-5410 5409 360 0
-5410 -5409 -360 0
5410 -5409 360 0
5410 5409 -360 0
-209 -5410 0
-5411 361 364 0
-5411 -361 -364 0
5411 -361 364 0
5411 361 -364 0
-5412 5411 367 0
-5412 -5411 -367 0
5412 -5411 367 0
5412 5411 -367 0
-5413 5412 368 0
-5413 -5412 -368 0
5413 -5412 368 0
5413 5412 -368 0
-5414 5413 369 0
-5414 -5413 -369 0
5414 -5413 369 0
5414 5413 -369 0
-5415 5414 373 0
-5415 -5414 -373 0
5415 -5414 373 0
5415 5414 -373 0
-5416 5415 375 0
-5416 -5415 -375 0
5416 -5415 375 0
5416 5415 -375 0
-209 -5416 0
-5417 376 379 0
-5417 -376 -379 0
5417 -376 379 0
5417 376 -379 0
-5418 5417 382 0
-5418 -5417 -382 0
5418 -5417 382 0
5418 5417 -382 0
-5419 5418 383 0
-5419 -5418 -383 0
5419 -5418 383 0
5419 5418 -383 0
-5420 5419 384 0
-5420 -5419 -384 0
5420 -5419 384 0
5420 5419 -384 0
-5421 5420 388 0
-5421 -5420 -388 0
5421 -5420 388 0
5421 5420 -388 0
-5422 5421 390 0
-5422 -5421 -390 0
5422 -5421 390 0
5422 5421 -390 0
-209 -5422 0
-5423 316 319 0
-5423 -316 -319 0
5423 -316 319 0
5423 316 -319 0
-5424 5423 321 0
-5424 -5423 -321 0
5424 -5423 321 0
5424 5423 -321 0
-5425 5424 322 0
-5425 -5424 -322 0
5425 -5424 322 0
5425 5424 -322 0
-5426 5425 324 0
-5426 -5425 -324 0
5426 -5425 324 0
5426 5425 -324 0
-5427 5426 326 0
-5427 -5426 -326 0
5427 -5426 326 0
5427 5426 -326 0
-5428 5427 328 0
-5428 -5427 -328 0
5428 -5427 328 0
5428 5427 -328 0
-5429 5428 330 0
-5429 -5428 -330 0
5429 -5428 330 0
5429 5428 -330 0
-210 -5429 0
-5430 331 334 0
-5430 -331 -334 0
5430 -331 334 0
5430 331 -334 0
-5431 5430 336 0
-5431 -5430 -336 0
5431 -5430 336 0
5431 5430 -336 0
-5432 5431 337 0
-5432 -5431 -337 0
5432 -5431 337 0
5432 5431 -337 0
-5433 5432 339 0
-5433 -5432 -339 0
5433 -5432 339 0
5433 5432 -339 0
-5434 5433 341 0
-5434 -5433 -341 0
5434 -5433 341 0
5434 5433 -341 0
-5435 5434 343 0
-5435 -5434 -343 0
5435 -5434 343 0
5435 5434 -343 0
-5436 5435 345 0
-5436 -5435 -345 0
5436 -5435 345 0
5436 5435 -345 0
-210 -5436 0
-5437 346 349 0
-5437 -346 -349 0
5437 -346 349 0
5437 346 -349 0
-5438 5437 351 0
-5438 -5437 -351 0
5438 -5437 351 0
5438 5437 -351 0
-5439 5438 352 0
-5439 -5438 -352 0
5439 -5438 352 0
5439 5438 -352 0
-5440 5439 354 0
-5440 -5439 -354 0
5440 -5439 354 0
5440 5439 -354 0
-5441 5440 356 0
-5441 -5440 -356 0
5441 -5440 356 0
5441 5440 -356 0
-5442 5441 358 0
-5442 -5441 -358 0
5442 -5441 358 0
5442 5441 -358 0
-5443 5442 360 0
-5443 -5442 -360 0
5443 -5442 360 0
5443 5442 -360 0
-210 -5443 0
-5444 361 364 0
-5444 -361 -364 0
5444 -361 364 0
5444 361 -364 0
-5445 5444 366 0
-5445 -5444 -366 0
5445 -5444 366 0
5445 5444 -366 0
-5446 5445 367 0
-5446 -5445 -367 0
5446 -5445 367 0
5446 5445 -367 0
-5447 5446 369 0
-5447 -5446 -369 0
5447 -5446 369 0
5447 5446 -369 0
-5448 5447 371 0
-5448 -5447 -371 0
5448 -5447 371 0
5448 5447 -371 0
-5449 5448 373 0
-5449 -5448 -373 0
5449 -5448 373 0
5449 5448 -373 0
-5450 5449 375 0
-5450 -5449 -375 0
5450 -5449 375 0
5450 5449 -375 0
-210 -5450 0
-5451 376 379 0
-5451 -376 -379 0
5451 -376 379 0
5451 376 -379 0
-5452 5451 381 0
-5452 -5451 -381 0
5452 -5451 381 0
5452 5451 -381 0
-5453 5452 382 0
-5453 -5452 -382 0
5453 -5452 382 0
5453 5452 -382 0
-5454 5453 384 0
-5454 -5453 -384 0
5454 -5453 384 0
5454 5453 -384 0
-5455 5454 386 0
-5455 -5454 -386 0
5455 -5454 386 0
5455 5454 -386 0
-5456 5455 388 0
-5456 -5455 -388 0
5456 -5455 388 0
5456 5455 -388 0
-5457 5456 390 0
-5457 -5456 -390 0
5457 -5456 390 0
5457 5456 -390 0
-210 -5457 0
-5458 316 319 0
-5458 -316 -319 0
5458 -316 319 0
5458 316 -319 0
-5459 5458 321 0
-5459 -5458 -321 0
5459 -5458 321 0
5459 5458 -321 0
-5460 5459 322 0
-5460 -5459 -322 0
5460 -5459 322 0
5460 5459 -322 0
-5461 5460 323 0
-5461 -5460 -323 0
5461 -5460 323 0
5461 5460 -323 0
-5462 5461 324 0
-5462 -5461 -324 0
5462 -5461 324 0
5462 5461 -324 0
-5463 5462 326 0
-5463 -5462 -326 0
5463 -5462 326 0
5463 5462 -326 0
-5464 5463 328 0
-5464 -5463 -328 0
5464 -5463 328 0
5464 5463 -328 0
-5465 5464 330 0
-5465 -5464 -330 0
5465 -5464 330 0
5465 5464 -330 0
-211 -5465 0
-5466 331 334 0
-5466 -331 -334 0
5466 -331 334 0
5466 331 -334 0
-5467 5466 336 0
-5467 -5466 -336 0
5467 -5466 336 0
5467 5466 -336 0
-5468 5467 337 0
-5468 -5467 -337 0
5468 -5467 337 0
5468 5467 -337 0
-5469 5468 338 0
-5469 -5468 -338 0
5469 -5468 338 0
5469 5468 -338 0
-5470 5469 339 0
-5470 -5469 -339 0
5470 -5469 339 0
5470 5469 -339 0
-5471 5470 341 0
-5471 -5470 -341 0
5471 -5470 341 0
5471 5470 -341 0
-5472 5471 343 0
-5472 -5471 -343 0
5472 -5471 343 0
5472 5471 -343 0
-5473 5472 345 0
-5473 -5472 -345 0
5473 -5472 345 0
5473 5472 -345 0
-211 -5473 0
-5474 346 349 0
-5474 -346 -349 0
5474 -346 349 0
5474 346 -349 0
-5475 5474 351 0
-5475 -5474 -351 0
5475 -5474 351 0
5475 5474 -351 0
-5476 5475 352 0
-5476 -5475 -352 0
5476 -5475 352 0
5476 5475 -352 0
-5477 5476 353 0
-5477 -5476 -353 0
5477 -5476 353 0
5477 5476 -353 0
-5478 5477 354 0
-5478 -5477 -354 0
5478 -5477 354 0
5478 5477 -354 0
-5479 5478 356 0
-5479 -5478 -356 0
5479 -5478 356 0
5479 5478 -356 0
-5480 5479 358 0
-5480 -5479 -358 0
5480 -5479 358 0
5480 5479 -358 0
-5481 5480 360 0
-5481 -5480 -360 0
5481 -5480 360 0
5481 5480 -360 0
-211 -5481 0
-5482 361 364 0
-5482 -361 -364 0
5482 -361 364 0
5482 361 -364 0
-5483 5482 366 0
-5483 -5482 -366 0
5483 -5482 366 0
5483 5482 -366 0
-5484 5483 367 0
-5484 -5483 -367 0
5484 -5483 367 0
5484 5483 -367 0
-5485 5484 368 0
-5485 -5484 -368 0
5485 -5484 368 0
5485 5484 -368 0
-5486 5485 369 0
-5486 -5485 -369 0
5486 -5485 369 0
5486 5485 -369 0
-5487 5486 371 0
-5487 -5486 -371 0
5487 -5486 371 0
5487 5486 -371 0
-5488 5487 373 0
-5488 -5487 -373 0
5488 -5487 373 0
5488 5487 -373 0
-5489 5488 375 0
-5489 -5488 -375 0
5489 -5488 375 0
5489 5488 -375 0
-211 -5489 0
-5490 376 379 0
-5490 -376 -379 0
5490 -376 379 0
5490 376 -379 0
-5491 5490 381 0
-5491 -5490 -381 0
5491 -5490 381 0
5491 5490 -381 0
-5492 5491 382 0
-5492 -5491 -382 0
5492 -5491 382 0
5492 5491 -382 0
-5493 5492 383 0
-5493 -5492 -383 0
5493 -5492 383 0
5493 5492 -383 0
-5494 5493 384 0
-5494 -5493 -384 0
5494 -5493 384 0
5494 5493 -384 0
-5495 5494 386 0
-5495 -5494 -386 0
5495 -5494 386 0
5495 5494 -386 0
-5496 5495 388 0
-5496 -5495 -388 0
5496 -5495 388 0
5496 5495 -388 0
-5497 5496 390 0
-5497 -5496 -390 0
5497 -5496 390 0
5497 5496 -390 0
-211 -5497 0
-5498 316 319 0
-5498 -316 -319 0
5498 -316 319 0
5498 316 -319 0
-5499 5498 320 0
-5499 -5498 -320 0
5499 -5498 320 0
5499 5498 -320 0
-5500 5499 324 0
-5500 -5499 -324 0
5500 -5499 324 0
5500 5499 -324 0
-5501 5500 330 0
-5501 -5500 -330 0
5501 -5500 330 0
5501 5500 -330 0
-212 -5501 0
-5502 331 334 0
-5502 -331 -334 0
5502 -331 334 0
5502 331 -334 0
-5503 5502 335 0
-5503 -5502 -335 0
5503 -5502 335 0
5503 5502 -335 0
-5504 5503 339 0
-5504 -5503 -339 0
5504 -5503 339 0
5504 5503 -339 0
-5505 5504 345 0
-5505 -5504 -345 0
5505 -5504 345 0
5505 5504 -345 0
-212 -5505 0
-5506 346 349 0
-5506 -346 -349 0
5506 -346 349 0
5506 346 -349 0
-5507 5506 350 0
-5507 -5506 -350 0
5507 -5506 350 0
5507 5506 -350 0
-5508 5507 354 0
-5508 -5507 -354 0
5508 -5507 354 0
5508 5507 -354 0
-5509 5508 360 0
-5509 -5508 -360 0
5509 -5508 360 0
5509 5508 -360 0
-212 -5509 0
-5510 361 364 0
-5510 -361 -364 0
5510 -361 364 0
5510 361 -364 0
-5511 5510 365 0
-5511 -5510 -365 0
5511 -5510 365 0
5511 5510 -365 0
-5512 5511 369 0
-5512 -5511 -369 0
5512 -5511 369 0
5512 5511 -369 0
-5513 5512 375 0
-5513 -5512 -375 0
5513 -5512 375 0
5513 5512 -375 0
-212 -5513 0
-5514 376 379 0
-5514 -376 -379 0
5514 -376 379 0
5514 376 -379 0
-5515 5514 380 0
-5515 -5514 -380 0
5515 -5514 380 0
5515 5514 -380 0
-5516 5515 384 0
-5516 -5515 -384 0
5516 -5515 384 0
5516 5515 -384 0
-5517 5516 390 0
-5517 -5516 -390 0
5517 -5516 390 0
5517 5516 -390 0
-212 -5517 0
-5518 316 320 0
-5518 -316 -320 0
5518 -316 320 0
5518 316 -320 0
-5519 5518 323 0
-5519 -5518 -323 0
5519 -5518 323 0
5519 5518 -323 0
-5520 5519 324 0
-5520 -5519 -324 0
5520 -5519 324 0
5520 5519 -324 0
-5521 5520 330 0
-5521 -5520 -330 0
5521 -5520 330 0
5521 5520 -330 0
-213 -5521 0
-5522 331 335 0
-5522 -331 -335 0
5522 -331 335 0
5522 331 -335 0
-5523 5522 338 0
-5523 -5522 -338 0
5523 -5522 338 0
5523 5522 -338 0
-5524 5523 339 0
-5524 -5523 -339 0
5524 -5523 339 0
5524 5523 -339 0
-5525 5524 345 0
-5525 -5524 -345 0
5525 -5524 345 0
5525 5524 -345 0
-213 -5525 0
-5526 346 350 0
-5526 -346 -350 0
5526 -346 350 0
5526 346 -350 0
-5527 5526 353 0
-5527 -5526 -353 0
5527 -5526 353 0
5527 5526 -353 0
-5528 5527 354 0
-5528 -5527 -354 0
5528 -5527 354 0
5528 5527 -354 0
-5529 5528 360 0
-5529 -5528 -360 0
5529 -5528 360 0
5529 5528 -360 0
-213 -5529 0
-5530 361 365 0
-5530 -361 -365 0
5530 -361 365 0
5530 361 -365 0
-5531 5530 368 0
-5531 -5530 -368 0
5531 -5530 368 0
5531 5530 -368 0
-5532 5531 369 0
-5532 -5531 -369 0
5532 -5531 369 0
5532 5531 -369 0
-5533 5532 375 0
-5533 -5532 -375 0
5533 -5532 375 0
5533 5532 -375 0
-213 -5533 0
-5534 376 380 0
-5534 -376 -380 0
5534 -376 380 0
5534 376 -380 0
-5535 5534 383 0
-5535 -5534 -383 0
5535 -5534 383 0
5535 5534 -383 0
-5536 5535 384 0
-5536 -5535 -384 0
5536 -5535 384 0
5536 5535 -384 0
-5537 5536 390 0
-5537 -5536 -390 0
5537 -5536 390 0
5537 5536 -390 0
-213 -5537 0
-5538 316 317 0
-5538 -316 -317 0
5538 -316 317 0
5538 316 -317 0
-5539 5538 319 0
-5539 -5538 -319 0
5539 -5538 319 0
5539 5538 -319 0
-5540 5539 320 0
-5540 -5539 -320 0
5540 -5539 320 0
5540 5539 -320 0
-5541 5540 321 0
-5541 -5540 -321 0
5541 -5540 321 0
5541 5540 -321 0
-5542 5541 324 0
-5542 -5541 -324 0
5542 -5541 324 0
5542 5541 -324 0
-5543 5542 326 0
-5543 -5542 -326 0
5543 -5542 326 0
5543 5542 -326 0
-5544 5543 330 0
-5544 -5543 -330 0
5544 -5543 330 0
5544 5543 -330 0
-214 -5544 0
-5545 331 332 0
-5545 -331 -332 0
5545 -331 332 0
5545 331 -332 0
-5546 5545 334 0
-5546 -5545 -334 0
5546 -5545 334 0
5546 5545 -334 0
-5547 5546 335 0
-5547 -5546 -335 0
5547 -5546 335 0
5547 5546 -335 0
-5548 5547 336 0
-5548 -5547 -336 0
5548 -5547 336 0
5548 5547 -336 0
-5549 5548 339 0
-5549 -5548 -339 0
5549 -5548 339 0
5549 5548 -339 0
-5550 5549 341 0
-5550 -5549 -341 0
5550 -5549 341 0
5550 5549 -341 0
-5551 5550 345 0
-5551 -5550 -345 0
5551 -5550 345 0
5551 5550 -345 0
-214 -5551 0
-5552 346 347 0
-5552 -346 -347 0
5552 -346 347 0
5552 346 -347 0
-5553 5552 349 0
-5553 -5552 -349 0
5553 -5552 349 0
5553 5552 -349 0
-5554 5553 350 0
-5554 -5553 -350 0
5554 -5553 350 0
5554 5553 -350 0
-5555 5554 351 0
-5555 -5554 -351 0
5555 -5554 351 0
5555 5554 -351 0
-5556 5555 354 0
-5556 -5555 -354 0
5556 -5555 354 0
5556 5555 -354 0
-5557 5556 356 0
-5557 -5556 -356 0
5557 -5556 356 0
5557 5556 -356 0
-5558 5557 360 0
-5558 -5557 -360 0
5558 -5557 360 0
5558 5557 -360 0
-214 -5558 0
-5559 361 362 0
-5559 -361 -362 0
5559 -361 362 0
5559 361 -362 0
-5560 5559 364 0
-5560 -5559 -364 0
5560 -5559 364 0
5560 5559 -364 0
-5561 5560 365 0
-5561 -5560 -365 0
5561 -5560 365 0
5561 5560 -365 0
-5562 5561 366 0
-5562 -5561 -366 0
5562 -5561 366 0
5562 5561 -366 0
-5563 5562 369 0
-5563 -5562 -369 0
5563 -5562 369 0
5563 5562 -369 0
-5564 5563 371 0
-5564 -5563 -371 0
5564 -5563 371 0
5564 5563 -371 0
-5565 5564 375 0
-5565 -5564 -375 0
5565 -5564 375 0
5565 5564 -375 0
-214 -5565 0
-5566 376 377 0
-5566 -376 -377 0
5566 -376 377 0
5566 376 -377 0
-5567 5566 379 0
-5567 -5566 -379 0
5567 -5566 379 0
5567 5566 -379 0
-5568 5567 380 0
-5568 -5567 -380 0
5568 -5567 380 0
5568 5567 -380 0
-5569 5568 381 0
-5569 -5568 -381 0
5569 -5568 381 0
5569 5568 -381 0
-5570 5569 384 0
-5570 -5569 -384 0
5570 -5569 384 0
5570 5569 -384 0
-5571 5570 386 0
-5571 -5570 -386 0
5571 -5570 386 0
5571 5570 -386 0
-5572 5571 390 0
-5572 -5571 -390 0
5572 -5571 390 0
5572 5571 -390 0
-214 -5572 0
-5573 316 317 0
-5573 -316 -317 0
5573 -316 317 0
5573 316 -317 0
-5574 5573 320 0
-5574 -5573 -320 0
5574 -5573 320 0
5574 5573 -320 0
-5575 5574 321 0
-5575 -5574 -321 0
5575 -5574 321 0
5575 5574 -321 0
-5576 5575 323 0
-5576 -5575 -323 0
5576 -5575 323 0
5576 5575 -323 0
-5577 5576 324 0
-5577 -5576 -324 0
5577 -5576 324 0
5577 5576 -324 0
-5578 5577 326 0
-5578 -5577 -326 0
5578 -5577 326 0
5578 5577 -326 0
-5579 5578 330 0
-5579 -5578 -330 0
5579 -5578 330 0
5579 5578 -330 0
-215 -5579 0
-5580 331 332 0
-5580 -331 -332 0
5580 -331 332 0
5580 331 -332 0
-5581 5580 335 0
-5581 -5580 -335 0
5581 -5580 335 0
5581 5580 -335 0
-5582 5581 336 0
-5582 -5581 -336 0
5582 -5581 336 0
5582 5581 -336 0
-5583 5582 338 0
-5583 -5582 -338 0
5583 -5582 338 0
5583 5582 -338 0
-5584 5583 339 0
-5584 -5583 -339 0
5584 -5583 339 0
5584 5583 -339 0
-5585 5584 341 0
-5585 -5584 -341 0
5585 -5584 341 0
5585 5584 -341 0
-5586 5585 345 0
-5586 -5585 -345 0
5586 -5585 345 0
5586 5585 -345 0
-215 -5586 0
-5587 346 347 0
-5587 -346 -347 0
5587 -346 347 0
5587 346 -347 0
-5588 5587 350 0
-5588 -5587 -350 0
5588 -5587 350 0
5588 5587 -350 0
-5589 5588 351 0
-5589 -5588 -351 0
5589 -5588 351 0
5589 5588 -351 0
-5590 5589 353 0
-5590 -5589 -353 0
5590 -5589 353 0
5590 5589 -353 0
-5591 5590 354 0
-5591 -5590 -354 0
5591 -5590 354 0
5591 5590 -354 0
-5592 5591 356 0
-5592 -5591 -356 0
5592 -5591 356 0
5592 5591 -356 0
-5593 5592 360 0
-5593 -5592 -360 0
5593 -5592 360 0
5593 5592 -360 0
-215 -5593 0
-5594 361 362 0
-5594 -361 -362 0
5594 -361 362 0
5594 361 -362 0
-5595 5594 365 0
-5595 -5594 -365 0
5595 -5594 365 0
5595 5594 -365 0
-5596 5595 366 0
-5596 -5595 -366 0
5596 -5595 366 0
5596 5595 -366 0
-5597 5596 368 0
-5597 -5596 -368 0
5597 -5596 368 0
5597 5596 -368 0
-5598 5597 369 0
-5598 -5597 -369 0
5598 -5597 369 0
5598 5597 -369 0
-5599 5598 371 0
-5599 -5598 -371 0
5599 -5598 371 0
5599 5598 -371 0
-5600 5599 375 0
-5600 -5599 -375 0
5600 -5599 375 0
5600 5599 -375 0
-215 -5600 0
-5601 376 377 0
-5601 -376 -377 0
5601 -376 377 0
5601 376 -377 0
-5602 5601 380 0
-5602 -5601 -380 0
5602 -5601 380 0
5602 5601 -380 0
-5603 5602 381 0
-5603 -5602 -381 0
5603 -5602 381 0
5603 5602 -381 0
-5604 5603 383 0
-5604 -5603 -383 0
5604 -5603 383 0
5604 5603 -383 0
-5605 5604 384 0
-5605 -5604 -384 0
5605 -5604 384 0
5605 5604 -384 0
-5606 5605 386 0
-5606 -5605 -386 0
5606 -5605 386 0
5606 5605 -386 0
-5607 5606 390 0
-5607 -5606 -390 0
5607 -5606 390 0
5607 5606 -390 0
-215 -5607 0
-5608 316 318 0
-5608 -316 -318 0
5608 -316 318 0
5608 316 -318 0
-5609 5608 319 0
-5609 -5608 -319 0
5609 -5608 319 0
5609 5608 -319 0
-5610 5609 320 0
-5610 -5609 -320 0
5610 -5609 320 0
5610 5609 -320 0
-5611 5610 322 0
-5611 -5610 -322 0
5611 -5610 322 0
5611 5610 -322 0
-5612 5611 324 0
-5612 -5611 -324 0
5612 -5611 324 0
5612 5611 -324 0
-5613 5612 328 0
-5613 -5612 -328 0
5613 -5612 328 0
5613 5612 -328 0
-5614 5613 330 0
-5614 -5613 -330 0
5614 -5613 330 0
5614 5613 -330 0
-216 -5614 0
-5615 331 333 0
-5615 -331 -333 0
5615 -331 333 0
5615 331 -333 0
-5616 5615 334 0
-5616 -5615 -334 0
5616 -5615 334 0
5616 5615 -334 0
-5617 5616 335 0
-5617 -5616 -335 0
5617 -5616 335 0
5617 5616 -335 0
-5618 5617 337 0
-5618 -5617 -337 0
5618 -5617 337 0
5618 5617 -337 0
-5619 5618 339 0
-5619 -5618 -339 0
5619 -5618 339 0
5619 5618 -339 0
-5620 5619 343 0
-5620 -5619 -343 0
5620 -5619 343 0
5620 5619 -343 0
-5621 5620 345 0
-5621 -5620 -345 0
5621 -5620 345 0
5621 5620 -345 0
-216 -5621 0
-5622 346 348 0
-5622 -346 -348 0
5622 -346 348 0
5622 346 -348 0
-5623 5622 349 0
-5623 -5622 -349 0
5623 -5622 349 0
5623 5622 -349 0
-5624 5623 350 0
-5624 -5623 -350 0
5624 -5623 350 0
5624 5623 -350 0
-5625 5624 352 0
-5625 -5624 -352 0
5625 -5624 352 0
5625 5624 -352 0
-5626 5625 354 0
-5626 -5625 -354 0
5626 -5625 354 0
5626 5625 -354 0
-5627 5626 358 0
-5627 -5626 -358 0
5627 -5626 358 0
5627 5626 -358 0
-5628 5627 360 0
-5628 -5627 -360 0
5628 -5627 360 0
5628 5627 -360 0
-216 -5628 0
-5629 361 363 0
-5629 -361 -363 0
5629 -361 363 0
5629 361 -363 0
-5630 5629 364 0
-5630 -5629 -364 0
5630 -5629 364 0
5630 5629 -364 0
-5631 5630 365 0
-5631 -5630 -365 0
5631 -5630 365 0
5631 5630 -365 0
-5632 5631 367 0
-5632 -5631 -367 0
5632 -5631 367 0
5632 5631 -367 0
-5633 5632 369 0
-5633 -5632 -369 0
5633 -5632 369 0
5633 5632 -369 0
-5634 5633 373 0
-5634 -5633 -373 0
5634 -5633 373 0
5634 5633 -373 0
-5635 5634 375 0
-5635 -5634 -375 0
5635 -5634 375 0
5635 5634 -375 0
-216 -5635 0
-5636 376 378 0
-5636 -376 -378 0
5636 -376 378 0
5636 376 -378 0
-5637 5636 379 0
-5637 -5636 -379 0
5637 -5636 379 0
5637 5636 -379 0
-5638 5637 380 0
-5638 -5637 -380 0
5638 -5637 380 0
5638 5637 -380 0
-5639 5638 382 0
-5639 -5638 -382 0
5639 -5638 382 0
5639 5638 -382 0
-5640 5639 384 0
-5640 -5639 -384 0
5640 -5639 384 0
5640 5639 -384 0
-5641 5640 388 0
-5641 -5640 -388 0
5641 -5640 388 0
5641 5640 -388 0
-5642 5641 390 0
-5642 -5641 -390 0
5642 -5641 390 0
5642 5641 -390 0
-216 -5642 0
-5643 316 318 0
-5643 -316 -318 0
5643 -316 318 0
5643 316 -318 0
-5644 5643 320 0
-5644 -5643 -320 0
5644 -5643 320 0
5644 5643 -320 0
-5645 5644 322 0
-5645 -5644 -322 0
5645 -5644 322 0
5645 5644 -322 0
-5646 5645 323 0
-5646 -5645 -323 0
5646 -5645 323 0
5646 5645 -323 0
-5647 5646 324 0
-5647 -5646 -324 0
5647 -5646 324 0
5647 5646 -324 0
-5648 5647 328 0
-5648 -5647 -328 0
5648 -5647 328 0
5648 5647 -328 0
-5649 5648 330 0
-5649 -5648 -330 0
5649 -5648 330 0
5649 5648 -330 0
-217 -5649 0
-5650 331 333 0
-5650 -331 -333 0
5650 -331 333 0
5650 331 -333 0
-5651 5650 335 0
-5651 -5650 -335 0
5651 -5650 335 0
5651 5650 -335 0
-5652 5651 337 0
-5652 -5651 -337 0
5652 -5651 337 0
5652 5651 -337 0
-5653 5652 338 0
-5653 -5652 -338 0
5653 -5652 338 0
5653 5652 -338 0
-5654 5653 339 0
-5654 -5653 -339 0
5654 -5653 339 0
5654 5653 -339 0
-5655 5654 343 0
-5655 -5654 -343 0
5655 -5654 343 0
5655 5654 -343 0
-5656 5655 345 0
-5656 -5655 -345 0
5656 -5655 345 0
5656 5655 -345 0
-217 -5656 0
-5657 346 348 0
-5657 -346 -348 0
5657 -346 348 0
5657 346 -348 0
-5658 5657 350 0
-5658 -5657 -350 0
5658 -5657 350 0
5658 5657 -350 0
-5659 5658 352 0
-5659 -5658 -352 0
5659 -5658 352 0
5659 5658 -352 0
-5660 5659 353 0
-5660 -5659 -353 0
5660 -5659 353 0
5660 5659 -353 0
-5661 5660 354 0
-5661 -5660 -354 0
5661 -5660 354 0
5661 5660 -354 0
-5662 5661 358 0
-5662 -5661 -358 0
5662 -5661 358 0
5662 5661 -358 0
-5663 5662 360 0
-5663 -5662 -360 0
5663 -5662 360 0
5663 5662 -360 0
-217 -5663 0
-5664 361 363 0
-5664 -361 -363 0
5664 -361 363 0
5664 361 -363 0
-5665 5664 365 0
-5665 -5664 -365 0
5665 -5664 365 0
5665 5664 -365 0
-5666 5665 367 0
-5666 -5665 -367 0
5666 -5665 367 0
5666 5665 -367 0
-5667 5666 368 0
-5667 -5666 -368 0
5667 -5666 368 0
5667 5666 -368 0
-5668 5667 369 0
-5668 -5667 -369 0
5668 -5667 369 0
5668 5667 -369 0
-5669 5668 373 0
-5669 -5668 -373 0
5669 -5668 373 0
5669 5668 -373 0
-5670 5669 375 0
-5670 -5669 -375 0
5670 -5669 375 0
5670 5669 -375 0
-217 -5670 0
-5671 376 378 0
-5671 -376 -378 0
5671 -376 378 0
5671 376 -378 0
-5672 5671 380 0
-5672 -5671 -380 0
5672 -5671 380 0
5672 5671 -380 0
-5673 5672 382 0
-5673 -5672 -382 0
5673 -5672 382 0
5673 5672 -382 0
-5674 5673 383 0
-5674 -5673 -383 0
5674 -5673 383 0
5674 5673 -383 0
-5675 5674 384 0
-5675 -5674 -384 0
5675 -5674 384 0
5675 5674 -384 0
-5676 5675 388 0
-5676 -5675 -388 0
5676 -5675 388 0
5676 5675 -388 0
-5677 5676 390 0
-5677 -5676 -390 0
5677 -5676 390 0
5677 5676 -390 0
-217 -5677 0
-5678 316 317 0
-5678 -316 -317 0
5678 -316 317 0
5678 316 -317 0
-5679 5678 318 0
-5679 -5678 -318 0
5679 -5678 318 0
5679 5678 -318 0
-5680 5679 319 0
-5680 -5679 -319 0
5680 -5679 319 0
5680 5679 -319 0
-5681 5680 320 0
-5681 -5680 -320 0
5681 -5680 320 0
5681 5680 -320 0
-5682 5681 321 0
-5682 -5681 -321 0
5682 -5681 321 0
5682 5681 -321 0
-5683 5682 322 0
-5683 -5682 -322 0
5683 -5682 322 0
5683 5682 -322 0
-5684 5683 324 0
-5684 -5683 -324 0
5684 -5683 324 0
5684 5683 -324 0
-5685 5684 326 0
-5685 -5684 -326 0
5685 -5684 326 0
5685 5684 -326 0
-5686 5685 328 0
-5686 -5685 -328 0
5686 -5685 328 0
5686 5685 -328 0
-5687 5686 330 0
-5687 -5686 -330 0
5687 -5686 330 0
5687 5686 -330 0
-218 -5687 0
-5688 331 332 0
-5688 -331 -332 0
5688 -331 332 0
5688 331 -332 0
-5689 5688 333 0
-5689 -5688 -333 0
5689 -5688 333 0
5689 5688 -333 0
-5690 5689 334 0
-5690 -5689 -334 0
5690 -5689 334 0
5690 5689 -334 0
-5691 5690 335 0
-5691 -5690 -335 0
5691 -5690 335 0
5691 5690 -335 0
-5692 5691 336 0
-5692 -5691 -336 0
5692 -5691 336 0
5692 5691 -336 0
-5693 5692 337 0
-5693 -5692 -337 0
5693 -5692 337 0
5693 5692 -337 0
-5694 5693 339 0
-5694 -5693 -339 0
5694 -5693 339 0
5694 5693 -339 0
-5695 5694 341 0
-5695 -5694 -341 0
5695 -5694 341 0
5695 5694 -341 0
-5696 5695 343 0
-5696 -5695 -343 0
5696 -5695 343 0
5696 5695 -343 0
-5697 5696 345 0
-5697 -5696 -345 0
5697 -5696 345 0
5697 5696 -345 0
-218 -5697 0
-5698 346 347 0
-5698 -346 -347 0
5698 -346 347 0
5698 346 -347 0
-5699 5698 348 0
-5699 -5698 -348 0
5699 -5698 348 0
5699 5698 -348 0
-5700 5699 349 0
-5700 -5699 -349 0
5700 -5699 349 0
5700 5699 -349 0
-5701 5700 350 0
-5701 -5700 -350 0
5701 -5700 350 0
5701 5700 -350 0
-5702 5701 351 0
-5702 -5701 -351 0
5702 -5701 351 0
5702 5701 -351 0
-5703 5702 352 0
-5703 -5702 -352 0
5703 -5702 352 0
5703 5702 -352 0
-5704 5703 354 0
-5704 -5703 -354 0
5704 -5703 354 0
5704 5703 -354 0
-5705 5704 356 0
-5705 -5704 -356 0
5705 -5704 356 0
5705 5704 -356 0
-5706 5705 358 0
-5706 -5705 -358 0
5706 -5705 358 0
5706 5705 -358 0
-5707 5706 360 0
-5707 -5706 -360 0
5707 -5706 360 0
5707 5706 -360 0
-218 -5707 0
-5708 361 362 0
-5708 -361 -362 0
5708 -361 362 0
5708 361 -362 0
-5709 5708 363 0
-5709 -5708 -363 0
5709 -5708 363 0
5709 5708 -363 0
-5710 5709 364 0
-5710 -5709 -364 0
5710 -5709 364 0
5710 5709 -364 0
-5711 5710 365 0
-5711 -5710 -365 0
5711 -5710 365 0
5711 5710 -365 0
-5712 5711 366 0
-5712 -5711 -366 0
5712 -5711 366 0
5712 5711 -366 0
-5713 5712 367 0
-5713 -5712 -367 0
5713 -5712 367 0
5713 5712 -367 0
-5714 5713 369 0
-5714 -5713 -369 0
5714 -5713 369 0
5714 5713 -369 0
-5715 5714 371 0
-5715 -5714 -371 0
5715 -5714 371 0
5715 5714 -371 0
-5716 5715 373 0
-5716 -5715 -373 0
5716 -5715 373 0
5716 5715 -373 0
-5717 5716 375 0
-5717 -5716 -375 0
5717 -5716 375 0
5717 5716 -375 0
-218 -5717 0
-5718 376 377 0
-5718 -376 -377 0
5718 -376 377 0
5718 376 -377 0
-5719 5718 378 0
-5719 -5718 -378 0
5719 -5718 378 0
5719 5718 -378 0
-5720 5719 379 0
-5720 -5719 -379 0
5720 -5719 379 0
5720 5719 -379 0
-5721 5720 380 0
-5721 -5720 -380 0
5721 -5720 380 0
5721 5720 -380 0
-5722 5721 381 0
-5722 -5721 -381 0
5722 -5721 381 0
5722 5721 -381 0
-5723 5722 382 0
-5723 -5722 -382 0
5723 -5722 382 0
5723 5722 -382 0
-5724 5723 384 0
-5724 -5723 -384 0
5724 -5723 384 0
5724 5723 -384 0
-5725 5724 386 0
-5725 -5724 -386 0
5725 -5724 386 0
5725 5724 -386 0
-5726 5725 388 0
-5726 -5725 -388 0
5726 -5725 388 0
5726 5725 -388 0
-5727 5726 390 0
-5727 -5726 -390 0
5727 -5726 390 0
5727 5726 -390 0
-218 -5727 0
-5728 316 317 0
-5728 -316 -317 0
5728 -316 317 0
5728 316 -317 0
-5729 5728 318 0
-5729 -5728 -318 0
5729 -5728 318 0
5729 5728 -318 0
-5730 5729 320 0
-5730 -5729 -320 0
5730 -5729 320 0
5730 5729 -320 0
-5731 5730 321 0
-5731 -5730 -321 0
5731 -5730 321 0
5731 5730 -321 0
-5732 5731 322 0
-5732 -5731 -322 0
5732 -5731 322 0
5732 5731 -322 0
-5733 5732 323 0
-5733 -5732 -323 0
5733 -5732 323 0
5733 5732 -323 0
-5734 5733 324 0
-5734 -5733 -324 0
5734 -5733 324 0
5734 5733 -324 0
-5735 5734 326 0
-5735 -5734 -326 0
5735 -5734 326 0
5735 5734 -326 0
-5736 5735 328 0
-5736 -5735 -328 0
5736 -5735 328 0
5736 5735 -328 0
-5737 5736 330 0
-5737 -5736 -330 0
5737 -5736 330 0
5737 5736 -330 0
-219 -5737 0
-5738 331 332 0
-5738 -331 -332 0
5738 -331 332 0
5738 331 -332 0
-5739 5738 333 0
-5739 -5738 -333 0
5739 -5738 333 0
5739 5738 -333 0
-5740 5739 335 0
-5740 -5739 -335 0
5740 -5739 335 0
5740 5739 -335 0
-5741 5740 336 0
-5741 -5740 -336 0
5741 -5740 336 0
5741 5740 -336 0
-5742 5741 337 0
-5742 -5741 -337 0
5742 -5741 337 0
5742 5741 -337 0
-5743 5742 338 0
-5743 -5742 -338 0
5743 -5742 338 0
5743 5742 -338 0
-5744 5743 339 0
-5744 -5743 -339 0
5744 -5743 339 0
5744 5743 -339 0
-5745 5744 341 0
-5745 -5744 -341 0
5745 -5744 341 0
5745 5744 -341 0
-5746 5745 343 0
-5746 -5745 -343 0
5746 -5745 343 0
5746 5745 -343 0
-5747 5746 345 0
-5747 -5746 -345 0
5747 -5746 345 0
5747 5746 -345 0
-219 -5747 0
-5748 346 347 0
-5748 -346 -347 0
5748 -346 347 0
5748 346 -347 0
-5749 5748 348 0
-5749 -5748 -348 0
5749 -5748 348 0
5749 5748 -348 0
-5750 5749 350 0
-5750 -5749 -350 0
5750 -5749 350 0
5750 5749 -350 0
-5751 5750 351 0
-5751 -5750 -351 0
5751 -5750 351 0
5751 5750 -351 0
-5752 5751 352 0
-5752 -5751 -352 0
5752 -5751 352 0
5752 5751 -352 0
-5753 5752 353 0
-5753 -5752 -353 0
5753 -5752 353 0
5753 5752 -353 0
-5754 5753 354 0
-5754 -5753 -354 0
5754 -5753 354 0
5754 5753 -354 0
-5755 5754 356 0
-5755 -5754 -356 0
5755 -5754 356 0
5755 5754 -356 0
-5756 5755 358 0
-5756 -5755 -358 0
5756 -5755 358 0
5756 5755 -358 0
-5757 5756 360 0
-5757 -5756 -360 0
5757 -5756 360 0
5757 5756 -360 0
-219 -5757 0
-5758 361 362 0
-5758 -361 -362 0
5758 -361 362 0
5758 361 -362 0
-5759 5758 363 0
-5759 -5758 -363 0
5759 -5758 363 0
5759 5758 -363 0
-5760 5759 365 0
-5760 -5759 -365 0
5760 -5759 365 0
5760 5759 -365 0
-5761 5760 366 0
-5761 -5760 -366 0
5761 -5760 366 0
5761 5760 -366 0
-5762 5761 367 0
-5762 -5761 -367 0
5762 -5761 367 0
5762 5761 -367 0
-5763 5762 368 0
-5763 -5762 -368 0
5763 -5762 368 0
5763 5762 -368 0
-5764 5763 369 0
-5764 -5763 -369 0
5764 -5763 369 0
5764 5763 -369 0
-5765 5764 371 0
-5765 -5764 -371 0
5765 -5764 371 0
5765 5764 -371 0
-5766 5765 373 0
-5766 -5765 -373 0
5766 -5765 373 0
5766 5765 -373 0
-5767 5766 375 0
-5767 -5766 -375 0
5767 -5766 375 0
5767 5766 -375 0
-219 -5767 0
-5768 376 377 0
-5768 -376 -377 0
5768 -376 377 0
5768 376 -377 0
-5769 5768 378 0
-5769 -5768 -378 0
5769 -5768 378 0
5769 5768 -378 0
-5770 5769 380 0
-5770 -5769 -380 0
5770 -5769 380 0
5770 5769 -380 0
-5771 5770 381 0
-5771 -5770 -381 0
5771 -5770 381 0
5771 5770 -381 0
-5772 5771 382 0
-5772 -5771 -382 0
5772 -5771 382 0
5772 5771 -382 0
-5773 5772 383 0
-5773 -5772 -383 0
5773 -5772 383 0
5773 5772 -383 0
-5774 5773 384 0
-5774 -5773 -384 0
5774 -5773 384 0
5774 5773 -384 0
-5775 5774 386 0
-5775 -5774 -386 0
5775 -5774 386 0
5775 5774 -386 0
-5776 5775 388 0
-5776 -5775 -388 0
5776 -5775 388 0
5776 5775 -388 0
-5777 5776 390 0
-5777 -5776 -390 0
5777 -5776 390 0
5777 5776 -390 0
-219 -5777 0
-5778 325 327 0
-5778 -325 -327 0
5778 -325 327 0
5778 325 -327 0
-5779 5778 328 0
-5779 -5778 -328 0
5779 -5778 328 0
5779 5778 -328 0
-5780 5779 330 0
-5780 -5779 -330 0
5780 -5779 330 0
5780 5779 -330 0
-220 -5780 0
-5781 340 342 0
-5781 -340 -342 0
5781 -340 342 0
5781 340 -342 0
-5782 5781 343 0
-5782 -5781 -343 0
5782 -5781 343 0
5782 5781 -343 0
-5783 5782 345 0
-5783 -5782 -345 0
5783 -5782 345 0
5783 5782 -345 0
-220 -5783 0
-5784 355 357 0
-5784 -355 -357 0
5784 -355 357 0
5784 355 -357 0
-5785 5784 358 0
-5785 -5784 -358 0
5785 -5784 358 0
5785 5784 -358 0
-5786 5785 360 0
-5786 -5785 -360 0
5786 -5785 360 0
5786 5785 -360 0
-220 -5786 0
-5787 370 372 0
-5787 -370 -372 0
5787 -370 372 0
5787 370 -372 0
-5788 5787 373 0
-5788 -5787 -373 0
5788 -5787 373 0
5788 5787 -373 0
-5789 5788 375 0
-5789 -5788 -375 0
5789 -5788 375 0
5789 5788 -375 0
-220 -5789 0
-5790 385 387 0
-5790 -385 -387 0
5790 -385 387 0
5790 385 -387 0
-5791 5790 388 0
-5791 -5790 -388 0
5791 -5790 388 0
5791 5790 -388 0
-5792 5791 390 0
-5792 -5791 -390 0
5792 -5791 390 0
5792 5791 -390 0
-220 -5792 0
-5793 317 319 0
-5793 -317 -319 0
5793 -317 319 0
5793 317 -319 0
-5794 5793 325 0
-5794 -5793 -325 0
5794 -5793 325 0
5794 5793 -325 0
-5795 5794 327 0
-5795 -5794 -327 0
5795 -5794 327 0
5795 5794 -327 0
-5796 5795 328 0
-5796 -5795 -328 0
5796 -5795 328 0
5796 5795 -328 0
-5797 5796 330 0
-5797 -5796 -330 0
5797 -5796 330 0
5797 5796 -330 0
-221 -5797 0
-5798 332 334 0
-5798 -332 -334 0
5798 -332 334 0
5798 332 -334 0
-5799 5798 340 0
-5799 -5798 -340 0
5799 -5798 340 0
5799 5798 -340 0
-5800 5799 342 0
-5800 -5799 -342 0
5800 -5799 342 0
5800 5799 -342 0
-5801 5800 343 0
-5801 -5800 -343 0
5801 -5800 343 0
5801 5800 -343 0
-5802 5801 345 0
-5802 -5801 -345 0
5802 -5801 345 0
5802 5801 -345 0
-221 -5802 0
-5803 347 349 0
-5803 -347 -349 0
5803 -347 349 0
5803 347 -349 0
-5804 5803 355 0
-5804 -5803 -355 0
5804 -5803 355 0
5804 5803 -355 0
-5805 5804 357 0
-5805 -5804 -357 0
5805 -5804 357 0
5805 5804 -357 0
-5806 5805 358 0
-5806 -5805 -358 0
5806 -5805 358 0
5806 5805 -358 0
-5807 5806 360 0
-5807 -5806 -360 0
5807 -5806 360 0
5807 5806 -360 0
-221 -5807 0
-5808 362 364 0
-5808 -362 -364 0
5808 -362 364 0
5808 362 -364 0
-5809 5808 370 0
-5809 -5808 -370 0
5809 -5808 370 0
5809 5808 -370 0
-5810 5809 372 0
-5810 -5809 -372 0
5810 -5809 372 0
5810 5809 -372 0
-5811 5810 373 0
-5811 -5810 -373 0
5811 -5810 373 0
5811 5810 -373 0
-5812 5811 375 0
-5812 -5811 -375 0
5812 -5811 375 0
5812 5811 -375 0
-221 -5812 0
-5813 377 379 0
-5813 -377 -379 0
5813 -377 379 0
5813 377 -379 0
-5814 5813 385 0
-5814 -5813 -385 0
5814 -5813 385 0
5814 5813 -385 0
-5815 5814 387 0
-5815 -5814 -387 0
5815 -5814 387 0
5815 5814 -387 0
-5816 5815 388 0
-5816 -5815 -388 0
5816 -5815 388 0
5816 5815 -388 0
-5817 5816 390 0
-5817 -5816 -390 0
5817 -5816 390 0
5817 5816 -390 0
-221 -5817 0
-5818 321 323 0
-5818 -321 -323 0
5818 -321 323 0
5818 321 -323 0
-5819 5818 325 0
-5819 -5818 -325 0
5819 -5818 325 0
5819 5818 -325 0
-5820 5819 327 0
-5820 -5819 -327 0
5820 -5819 327 0
5820 5819 -327 0
-5821 5820 328 0
-5821 -5820 -328 0
5821 -5820 328 0
5821 5820 -328 0
-5822 5821 330 0
-5822 -5821 -330 0
5822 -5821 330 0
5822 5821 -330 0
-222 -5822 0
-5823 336 338 0
-5823 -336 -338 0
5823 -336 338 0
5823 336 -338 0
-5824 5823 340 0
-5824 -5823 -340 0
5824 -5823 340 0
5824 5823 -340 0
-5825 5824 342 0
-5825 -5824 -342 0
5825 -5824 342 0
5825 5824 -342 0
-5826 5825 343 0
-5826 -5825 -343 0
5826 -5825 343 0
5826 5825 -343 0
-5827 5826 345 0
-5827 -5826 -345 0
5827 -5826 345 0
5827 5826 -345 0
-222 -5827 0
-5828 351 353 0
-5828 -351 -353 0
5828 -351 353 0
5828 351 -353 0
-5829 5828 355 0
-5829 -5828 -355 0
5829 -5828 355 0
5829 5828 -355 0
-5830 5829 357 0
-5830 -5829 -357 0
5830 -5829 357 0
5830 5829 -357 0
-5831 5830 358 0
-5831 -5830 -358 0
5831 -5830 358 0
5831 5830 -358 0
-5832 5831 360 0
-5832 -5831 -360 0
5832 -5831 360 0
5832 5831 -360 0
-222 -5832 0
-5833 366 368 0
-5833 -366 -368 0
5833 -366 368 0
5833 366 -368 0
-5834 5833 370 0
-5834 -5833 -370 0
5834 -5833 370 0
5834 5833 -370 0
-5835 5834 372 0
-5835 -5834 -372 0
5835 -5834 372 0
5835 5834 -372 0
-5836 5835 373 0
-5836 -5835 -373 0
5836 -5835 373 0
5836 5835 -373 0
-5837 5836 375 0
-5837 -5836 -375 0
5837 -5836 375 0
5837 5836 -375 0
-222 -5837 0
-5838 381 383 0
-5838 -381 -383 0
5838 -381 383 0
5838 381 -383 0
-5839 5838 385 0
-5839 -5838 -385 0
5839 -5838 385 0
5839 5838 -385 0
-5840 5839 387 0
-5840 -5839 -387 0
5840 -5839 387 0
5840 5839 -387 0
-5841 5840 388 0
-5841 -5840 -388 0
5841 -5840 388 0
5841 5840 -388 0
-5842 5841 390 0
-5842 -5841 -390 0
5842 -5841 390 0
5842 5841 -390 0
-222 -5842 0
-5843 317 319 0
-5843 -317 -319 0
5843 -317 319 0
5843 317 -319 0
-5844 5843 321 0
-5844 -5843 -321 0
5844 -5843 321 0
5844 5843 -321 0
-5845 5844 323 0
-5845 -5844 -323 0
5845 -5844 323 0
5845 5844 -323 0
-5846 5845 325 0
-5846 -5845 -325 0
5846 -5845 325 0
5846 5845 -325 0
-5847 5846 327 0
-5847 -5846 -327 0
5847 -5846 327 0
5847 5846 -327 0
-5848 5847 328 0
-5848 -5847 -328 0
5848 -5847 328 0
5848 5847 -328 0
-5849 5848 330 0
-5849 -5848 -330 0
5849 -5848 330 0
5849 5848 -330 0
-223 -5849 0
-5850 332 334 0
-5850 -332 -334 0
5850 -332 334 0
5850 332 -334 0
-5851 5850 336 0
-5851 -5850 -336 0
5851 -5850 336 0
5851 5850 -336 0
-5852 5851 338 0
-5852 -5851 -338 0
5852 -5851 338 0
5852 5851 -338 0
-5853 5852 340 0
-5853 -5852 -340 0
5853 -5852 340 0
5853 5852 -340 0
-5854 5853 342 0
-5854 -5853 -342 0
5854 -5853 342 0
5854 5853 -342 0
-5855 5854 343 0
-5855 -5854 -343 0
5855 -5854 343 0
5855 5854 -343 0
-5856 5855 345 0
-5856 -5855 -345 0
5856 -5855 345 0
5856 5855 -345 0
-223 -5856 0
-5857 347 349 0
-5857 -347 -349 0
5857 -347 349 0
5857 347 -349 0
-5858 5857 351 0
-5858 -5857 -351 0
5858 -5857 351 0
5858 5857 -351 0
-5859 5858 353 0
-5859 -5858 -353 0
5859 -5858 353 0
5859 5858 -353 0
-5860 5859 355 0
-5860 -5859 -355 0
5860 -5859 355 0
5860 5859 -355 0
-5861 5860 357 0
-5861 -5860 -357 0
5861 -5860 357 0
5861 5860 -357 0
-5862 5861 358 0
-5862 -5861 -358 0
5862 -5861 358 0
5862 5861 -358 0
-5863 5862 360 0
-5863 -5862 -360 0
5863 -5862 360 0
5863 5862 -360 0
-223 -5863 0
-5864 362 364 0
-5864 -362 -364 0
5864 -362 364 0
5864 362 -364 0
-5865 5864 366 0
-5865 -5864 -366 0
5865 -5864 366 0
5865 5864 -366 0
-5866 5865 368 0
-5866 -5865 -368 0
5866 -5865 368 0
5866 5865 -368 0
-5867 5866 370 0
-5867 -5866 -370 0
5867 -5866 370 0
5867 5866 -370 0
-5868 5867 372 0
-5868 -5867 -372 0
5868 -5867 372 0
5868 5867 -372 0
-5869 5868 373 0
-5869 -5868 -373 0
5869 -5868 373 0
5869 5868 -373 0
-5870 5869 375 0
-5870 -5869 -375 0
5870 -5869 375 0
5870 5869 -375 0
-223 -5870 0
-5871 377 379 0
-5871 -377 -379 0
5871 -377 379 0
5871 377 -379 0
-5872 5871 381 0
-5872 -5871 -381 0
5872 -5871 381 0
5872 5871 -381 0
-5873 5872 383 0
-5873 -5872 -383 0
5873 -5872 383 0
5873 5872 -383 0
-5874 5873 385 0
-5874 -5873 -385 0
5874 -5873 385 0
5874 5873 -385 0
-5875 5874 387 0
-5875 -5874 -387 0
5875 -5874 387 0
5875 5874 -387 0
-5876 5875 388 0
-5876 -5875 -388 0
5876 -5875 388 0
5876 5875 -388 0
-5877 5876 390 0
-5877 -5876 -390 0
5877 -5876 390 0
5877 5876 -390 0
-223 -5877 0
-5878 325 326 0
-5878 -325 -326 0
5878 -325 326 0
5878 325 -326 0
-5879 5878 327 0
-5879 -5878 -327 0
5879 -5878 327 0
5879 5878 -327 0
-5880 5879 328 0
-5880 -5879 -328 0
5880 -5879 328 0
5880 5879 -328 0
-5881 5880 330 0
-5881 -5880 -330 0
5881 -5880 330 0
5881 5880 -330 0
-224 -5881 0
-5882 340 341 0
-5882 -340 -341 0
5882 -340 341 0
5882 340 -341 0
-5883 5882 342 0
-5883 -5882 -342 0
5883 -5882 342 0
5883 5882 -342 0
-5884 5883 343 0
-5884 -5883 -343 0
5884 -5883 343 0
5884 5883 -343 0
-5885 5884 345 0
-5885 -5884 -345 0
5885 -5884 345 0
5885 5884 -345 0
-224 -5885 0
-5886 355 356 0
-5886 -355 -356 0
5886 -355 356 0
5886 355 -356 0
-5887 5886 357 0
-5887 -5886 -357 0
5887 -5886 357 0
5887 5886 -357 0
-5888 5887 358 0
-5888 -5887 -358 0
5888 -5887 358 0
5888 5887 -358 0
-5889 5888 360 0
-5889 -5888 -360 0
5889 -5888 360 0
5889 5888 -360 0
-224 -5889 0
-5890 370 371 0
-5890 -370 -371 0
5890 -370 371 0
5890 370 -371 0
-5891 5890 372 0
-5891 -5890 -372 0
5891 -5890 372 0
5891 5890 -372 0
-5892 5891 373 0
-5892 -5891 -373 0
5892 -5891 373 0
5892 5891 -373 0
-5893 5892 375 0
-5893 -5892 -375 0
5893 -5892 375 0
5893 5892 -375 0
-224 -5893 0
-5894 385 386 0
-5894 -385 -386 0
5894 -385 386 0
5894 385 -386 0
-5895 5894 387 0
-5895 -5894 -387 0
5895 -5894 387 0
5895 5894 -387 0
-5896 5895 388 0
-5896 -5895 -388 0
5896 -5895 388 0
5896 5895 -388 0
-5897 5896 390 0
-5897 -5896 -390 0
5897 -5896 390 0
5897 5896 -390 0
-224 -5897 0
-5898 317 319 0
-5898 -317 -319 0
5898 -317 319 0
5898 317 -319 0
-5899 5898 325 0
-5899 -5898 -325 0
5899 -5898 325 0
5899 5898 -325 0
-5900 5899 326 0
-5900 -5899 -326 0
5900 -5899 326 0
5900 5899 -326 0
-5901 5900 327 0
-5901 -5900 -327 0
5901 -5900 327 0
5901 5900 -327 0
-5902 5901 328 0
-5902 -5901 -328 0
5902 -5901 328 0
5902 5901 -328 0
-5903 5902 330 0
-5903 -5902 -330 0
5903 -5902 330 0
5903 5902 -330 0
-225 -5903 0
-5904 332 334 0
-5904 -332 -334 0
5904 -332 334 0
5904 332 -334 0
-5905 5904 340 0
-5905 -5904 -340 0
5905 -5904 340 0
5905 5904 -340 0
-5906 5905 341 0
-5906 -5905 -341 0
5906 -5905 341 0
5906 5905 -341 0
-5907 5906 342 0
-5907 -5906 -342 0
5907 -5906 342 0
5907 5906 -342 0
-5908 5907 343 0
-5908 -5907 -343 0
5908 -5907 343 0
5908 5907 -343 0
-5909 5908 345 0
-5909 -5908 -345 0
5909 -5908 345 0
5909 5908 -345 0
-225 -5909 0
-5910 347 349 0
-5910 -347 -349 0
5910 -347 349 0
5910 347 -349 0
-5911 5910 355 0
-5911 -5910 -355 0
5911 -5910 355 0
5911 5910 -355 0
-5912 5911 356 0
-5912 -5911 -356 0
5912 -5911 356 0
5912 5911 -356 0
-5913 5912 357 0
-5913 -5912 -357 0
5913 -5912 357 0
5913 5912 -357 0
-5914 5913 358 0
-5914 -5913 -358 0
5914 -5913 358 0
5914 5913 -358 0
-5915 5914 360 0
-5915 -5914 -360 0
5915 -5914 360 0
5915 5914 -360 0
-225 -5915 0
-5916 362 364 0
-5916 -362 -364 0
5916 -362 364 0
5916 362 -364 0
-5917 5916 370 0
-5917 -5916 -370 0
5917 -5916 370 0
5917 5916 -370 0
-5918 5917 371 0
-5918 -5917 -371 0
5918 -5917 371 0
5918 5917 -371 0
-5919 5918 372 0
-5919 -5918 -372 0
5919 -5918 372 0
5919 5918 -372 0
-5920 5919 373 0
-5920 -5919 -373 0
5920 -5919 373 0
5920 5919 -373 0
-5921 5920 375 0
-5921 -5920 -375 0
5921 -5920 375 0
5921 5920 -375 0
-225 -5921 0
-5922 377 379 0
-5922 -377 -379 0
5922 -377 379 0
5922 377 -379 0
-5923 5922 385 0
-5923 -5922 -385 0
5923 -5922 385 0
5923 5922 -385 0
-5924 5923 386 0
-5924 -5923 -386 0
5924 -5923 386 0
5924 5923 -386 0
-5925 5924 387 0
-5925 -5924 -387 0
5925 -5924 387 0
5925 5924 -387 0
-5926 5925 388 0
-5926 -5925 -388 0
5926 -5925 388 0
5926 5925 -388 0
-5927 5926 390 0
-5927 -5926 -390 0
5927 -5926 390 0
5927 5926 -390 0
-225 -5927 0
-5928 321 323 0
-5928 -321 -323 0
5928 -321 323 0
5928 321 -323 0
-5929 5928 325 0
-5929 -5928 -325 0
5929 -5928 325 0
5929 5928 -325 0
-5930 5929 326 0
-5930 -5929 -326 0
5930 -5929 326 0
5930 5929 -326 0
-5931 5930 327 0
-5931 -5930 -327 0
5931 -5930 327 0
5931 5930 -327 0
-5932 5931 328 0
-5932 -5931 -328 0
5932 -5931 328 0
5932 5931 -328 0
-5933 5932 330 0
-5933 -5932 -330 0
5933 -5932 330 0
5933 5932 -330 0
-226 -5933 0
-5934 336 338 0
-5934 -336 -338 0
5934 -336 338 0
5934 336 -338 0
-5935 5934 340 0
-5935 -5934 -340 0
5935 -5934 340 0
5935 5934 -340 0
-5936 5935 341 0
-5936 -5935 -341 0
5936 -5935 341 0
5936 5935 -341 0
-5937 5936 342 0
-5937 -5936 -342 0
5937 -5936 342 0
5937 5936 -342 0
-5938 5937 343 0
-5938 -5937 -343 0
5938 -5937 343 0
5938 5937 -343 0
-5939 5938 345 0
-5939 -5938 -345 0
5939 -5938 345 0
5939 5938 -345 0
-226 -5939 0
-5940 351 353 0
-5940 -351 -353 0
5940 -351 353 0
5940 351 -353 0
-5941 5940 355 0
-5941 -5940 -355 0
5941 -5940 355 0
5941 5940 -355 0
-5942 5941 356 0
-5942 -5941 -356 0
5942 -5941 356 0
5942 5941 -356 0
-5943 5942 357 0
-5943 -5942 -357 0
5943 -5942 357 0
5943 5942 -357 0
-5944 5943 358 0
-5944 -5943 -358 0
5944 -5943 358 0
5944 5943 -358 0
-5945 5944 360 0
-5945 -5944 -360 0
5945 -5944 360 0
5945 5944 -360 0
-226 -5945 0
-5946 366 368 0
-5946 -366 -368 0
5946 -366 368 0
5946 366 -368 0
-5947 5946 370 0
-5947 -5946 -370 0
5947 -5946 370 0
5947 5946 -370 0
-5948 5947 371 0
-5948 -5947 -371 0
5948 -5947 371 0
5948 5947 -371 0
-5949 5948 372 0
-5949 -5948 -372 0
5949 -5948 372 0
5949 5948 -372 0
-5950 5949 373 0
-5950 -5949 -373 0
5950 -5949 373 0
5950 5949 -373 0
-5951 5950 375 0
-5951 -5950 -375 0
5951 -5950 375 0
5951 5950 -375 0
-226 -5951 0
-5952 381 383 0
-5952 -381 -383 0
5952 -381 383 0
5952 381 -383 0
-5953 5952 385 0
-5953 -5952 -385 0
5953 -5952 385 0
5953 5952 -385 0
-5954 5953 386 0
-5954 -5953 -386 0
5954 -5953 386 0
5954 5953 -386 0
-5955 5954 387 0
-5955 -5954 -387 0
5955 -5954 387 0
5955 5954 -387 0
-5956 5955 388 0
-5956 -5955 -388 0
5956 -5955 388 0
5956 5955 -388 0
-5957 5956 390 0
-5957 -5956 -390 0
5957 -5956 390 0
5957 5956 -390 0
-226 -5957 0
-5958 317 319 0
-5958 -317 -319 0
5958 -317 319 0
5958 317 -319 0
-5959 5958 321 0
-5959 -5958 -321 0
5959 -5958 321 0
5959 5958 -321 0
-5960 5959 323 0
-5960 -5959 -323 0
5960 -5959 323 0
5960 5959 -323 0
-5961 5960 325 0
-5961 -5960 -325 0
5961 -5960 325 0
5961 5960 -325 0
-5962 5961 326 0
-5962 -5961 -326 0
5962 -5961 326 0
5962 5961 -326 0
-5963 5962 327 0
-5963 -5962 -327 0
5963 -5962 327 0
5963 5962 -327 0
-5964 5963 328 0
-5964 -5963 -328 0
5964 -5963 328 0
5964 5963 -328 0
-5965 5964 330 0
-5965 -5964 -330 0
5965 -5964 330 0
5965 5964 -330 0
-227 -5965 0
-5966 332 334 0
-5966 -332 -334 0
5966 -332 334 0
5966 332 -334 0
-5967 5966 336 0
-5967 -5966 -336 0
5967 -5966 336 0
5967 5966 -336 0
-5968 5967 338 0
-5968 -5967 -338 0
5968 -5967 338 0
5968 5967 -338 0
-5969 5968 340 0
-5969 -5968 -340 0
5969 -5968 340 0
5969 5968 -340 0
-5970 5969 341 0
-5970 -5969 -341 0
5970 -5969 341 0
5970 5969 -341 0
-5971 5970 342 0
-5971 -5970 -342 0
5971 -5970 342 0
5971 5970 -342 0
-5972 5971 343 0
-5972 -5971 -343 0
5972 -5971 343 0
5972 5971 -343 0
-5973 5972 345 0
-5973 -5972 -345 0
5973 -5972 345 0
5973 5972 -345 0
-227 -5973 0
-5974 347 349 0
-5974 -347 -349 0
5974 -347 349 0
5974 347 -349 0
-5975 5974 351 0
-5975 -5974 -351 0
5975 -5974 351 0
5975 5974 -351 0
-5976 5975 353 0
-5976 -5975 -353 0
5976 -5975 353 0
5976 5975 -353 0
-5977 5976 355 0
-5977 -5976 -355 0
5977 -5976 355 0
5977 5976 -355 0
-5978 5977 356 0
-5978 -5977 -356 0
5978 -5977 356 0
5978 5977 -356 0
-5979 5978 357 0
-5979 -5978 -357 0
5979 -5978 357 0
5979 5978 -357 0
-5980 5979 358 0
-5980 -5979 -358 0
5980 -5979 358 0
5980 5979 -358 0
-5981 5980 360 0
-5981 -5980 -360 0
5981 -5980 360 0
5981 5980 -360 0
-227 -5981 0
-5982 362 364 0
-5982 -362 -364 0
5982 -362 364 0
5982 362 -364 0
-5983 5982 366 0
-5983 -5982 -366 0
5983 -5982 366 0
5983 5982 -366 0
-5984 5983 368 0
-5984 -5983 -368 0
5984 -5983 368 0
5984 5983 -368 0
-5985 5984 370 0
-5985 -5984 -370 0
5985 -5984 370 0
5985 5984 -370 0
-5986 5985 371 0
-5986 -5985 -371 0
5986 -5985 371 0
5986 5985 -371 0
-5987 5986 372 0
-5987 -5986 -372 0
5987 -5986 372 0
5987 5986 -372 0
-5988 5987 373 0
-5988 -5987 -373 0
5988 -5987 373 0
5988 5987 -373 0
-5989 5988 375 0
-5989 -5988 -375 0
5989 -5988 375 0
5989 5988 -375 0
-227 -5989 0
-5990 377 379 0
-5990 -377 -379 0
5990 -377 379 0
5990 377 -379 0
-5991 5990 381 0
-5991 -5990 -381 0
5991 -5990 381 0
5991 5990 -381 0
-5992 5991 383 0
-5992 -5991 -383 0
5992 -5991 383 0
5992 5991 -383 0
-5993 5992 385 0
-5993 -5992 -385 0
5993 -5992 385 0
5993 5992 -385 0
-5994 5993 386 0
-5994 -5993 -386 0
5994 -5993 386 0
5994 5993 -386 0
-5995 5994 387 0
-5995 -5994 -387 0
5995 -5994 387 0
5995 5994 -387 0
-5996 5995 388 0
-5996 -5995 -388 0
5996 -5995 388 0
5996 5995 -388 0
-5997 5996 390 0
-5997 -5996 -390 0
5997 -5996 390 0
5997 5996 -390 0
-227 -5997 0
-5998 316 320 0
-5998 -316 -320 0
5998 -316 320 0
5998 316 -320 0
-5999 5998 321 0
-5999 -5998 -321 0
5999 -5998 321 0
5999 5998 -321 0
-6000 5999 323 0
-6000 -5999 -323 0
6000 -5999 323 0
6000 5999 -323 0
-6001 6000 327 0
-6001 -6000 -327 0
6001 -6000 327 0
6001 6000 -327 0
-6002 6001 330 0
-6002 -6001 -330 0
6002 -6001 330 0
6002 6001 -330 0
-228 -6002 0
-6003 331 335 0
-6003 -331 -335 0
6003 -331 335 0
6003 331 -335 0
-6004 6003 336 0
-6004 -6003 -336 0
6004 -6003 336 0
6004 6003 -336 0
-6005 6004 338 0
-6005 -6004 -338 0
6005 -6004 338 0
6005 6004 -338 0
-6006 6005 342 0
-6006 -6005 -342 0
6006 -6005 342 0
6006 6005 -342 0
-6007 6006 345 0
-6007 -6006 -345 0
6007 -6006 345 0
6007 6006 -345 0
-228 -6007 0
-6008 346 350 0
-6008 -346 -350 0
6008 -346 350 0
6008 346 -350 0
-6009 6008 351 0
-6009 -6008 -351 0
6009 -6008 351 0
6009 6008 -351 0
-6010 6009 353 0
-6010 -6009 -353 0
6010 -6009 353 0
6010 6009 -353 0
-6011 6010 357 0
-6011 -6010 -357 0
6011 -6010 357 0
6011 6010 -357 0
-6012 6011 360 0
-6012 -6011 -360 0
6012 -6011 360 0
6012 6011 -360 0
-228 -6012 0
-6013 361 365 0
-6013 -361 -365 0
6013 -361 365 0
6013 361 -365 0
-6014 6013 366 0
-6014 -6013 -366 0
6014 -6013 366 0
6014 6013 -366 0
-6015 6014 368 0
-6015 -6014 -368 0
6015 -6014 368 0
6015 6014 -368 0
-6016 6015 372 0
-6016 -6015 -372 0
6016 -6015 372 0
6016 6015 -372 0
-6017 6016 375 0
-6017 -6016 -375 0
6017 -6016 375 0
6017 6016 -375 0
-228 -6017 0
-6018 376 380 0
-6018 -376 -380 0
6018 -376 380 0
6018 376 -380 0
-6019 6018 381 0
-6019 -6018 -381 0
6019 -6018 381 0
6019 6018 -381 0
-6020 6019 383 0
-6020 -6019 -383 0
6020 -6019 383 0
6020 6019 -383 0
-6021 6020 387 0
-6021 -6020 -387 0
6021 -6020 387 0
6021 6020 -387 0
-6022 6021 390 0
-6022 -6021 -390 0
6022 -6021 390 0
6022 6021 -390 0
-228 -6022 0
-6023 316 317 0
-6023 -316 -317 0
6023 -316 317 0
6023 316 -317 0
-6024 6023 319 0
-6024 -6023 -319 0
6024 -6023 319 0
6024 6023 -319 0
-6025 6024 320 0
-6025 -6024 -320 0
6025 -6024 320 0
6025 6024 -320 0
-6026 6025 321 0
-6026 -6025 -321 0
6026 -6025 321 0
6026 6025 -321 0
-6027 6026 323 0
-6027 -6026 -323 0
6027 -6026 323 0
6027 6026 -323 0
-6028 6027 327 0
-6028 -6027 -327 0
6028 -6027 327 0
6028 6027 -327 0
-6029 6028 330 0
-6029 -6028 -330 0
6029 -6028 330 0
6029 6028 -330 0
-229 -6029 0
-6030 331 332 0
-6030 -331 -332 0
6030 -331 332 0
6030 331 -332 0
-6031 6030 334 0
-6031 -6030 -334 0
6031 -6030 334 0
6031 6030 -334 0
-6032 6031 335 0
-6032 -6031 -335 0
6032 -6031 335 0
6032 6031 -335 0
-6033 6032 336 0
-6033 -6032 -336 0
6033 -6032 336 0
6033 6032 -336 0
-6034 6033 338 0
-6034 -6033 -338 0
6034 -6033 338 0
6034 6033 -338 0
-6035 6034 342 0
-6035 -6034 -342 0
6035 -6034 342 0
6035 6034 -342 0
-6036 6035 345 0
-6036 -6035 -345 0
6036 -6035 345 0
6036 6035 -345 0
-229 -6036 0
-6037 346 347 0
-6037 -346 -347 0
6037 -346 347 0
6037 346 -347 0
-6038 6037 349 0
-6038 -6037 -349 0
6038 -6037 349 0
6038 6037 -349 0
-6039 6038 350 0
-6039 -6038 -350 0
6039 -6038 350 0
6039 6038 -350 0
-6040 6039 351 0
-6040 -6039 -351 0
6040 -6039 351 0
6040 6039 -351 0
-6041 6040 353 0
-6041 -6040 -353 0
6041 -6040 353 0
6041 6040 -353 0
-6042 6041 357 0
-6042 -6041 -357 0
6042 -6041 357 0
6042 6041 -357 0
-6043 6042 360 0
-6043 -6042 -360 0
6043 -6042 360 0
6043 6042 -360 0
-229 -6043 0
-6044 361 362 0
-6044 -361 -362 0
6044 -361 362 0
6044 361 -362 0
-6045 6044 364 0
-6045 -6044 -364 0
6045 -6044 364 0
6045 6044 -364 0
-6046 6045 365 0
-6046 -6045 -365 0
6046 -6045 365 0
6046 6045 -365 0
-6047 6046 366 0
-6047 -6046 -366 0
6047 -6046 366 0
6047 6046 -366 0
-6048 6047 368 0
-6048 -6047 -368 0
6048 -6047 368 0
6048 6047 -368 0
-6049 6048 372 0
-6049 -6048 -372 0
6049 -6048 372 0
6049 6048 -372 0
-6050 6049 375 0
-6050 -6049 -375 0
6050 -6049 375 0
6050 6049 -375 0
-229 -6050 0
-6051 376 377 0
-6051 -376 -377 0
6051 -376 377 0
6051 376 -377 0
-6052 6051 379 0
-6052 -6051 -379 0
6052 -6051 379 0
6052 6051 -379 0
-6053 6052 380 0
-6053 -6052 -380 0
6053 -6052 380 0
6053 6052 -380 0
-6054 6053 381 0
-6054 -6053 -381 0
6054 -6053 381 0
6054 6053 -381 0
-6055 6054 383 0
-6055 -6054 -383 0
6055 -6054 383 0
6055 6054 -383 0
-6056 6055 387 0
-6056 -6055 -387 0
6056 -6055 387 0
6056 6055 -387 0
-6057 6056 390 0
-6057 -6056 -390 0
6057 -6056 390 0
6057 6056 -390 0
-229 -6057 0
-6058 316 317 0
-6058 -316 -317 0
6058 -316 317 0
6058 316 -317 0
-6059 6058 320 0
-6059 -6058 -320 0
6059 -6058 320 0
6059 6058 -320 0
-6060 6059 321 0
-6060 -6059 -321 0
6060 -6059 321 0
6060 6059 -321 0
-6061 6060 323 0
-6061 -6060 -323 0
6061 -6060 323 0
6061 6060 -323 0
-6062 6061 326 0
-6062 -6061 -326 0
6062 -6061 326 0
6062 6061 -326 0
-6063 6062 327 0
-6063 -6062 -327 0
6063 -6062 327 0
6063 6062 -327 0
-6064 6063 330 0
-6064 -6063 -330 0
6064 -6063 330 0
6064 6063 -330 0
-230 -6064 0
-6065 331 332 0
-6065 -331 -332 0
6065 -331 332 0
6065 331 -332 0
-6066 6065 335 0
-6066 -6065 -335 0
6066 -6065 335 0
6066 6065 -335 0
-6067 6066 336 0
-6067 -6066 -336 0
6067 -6066 336 0
6067 6066 -336 0
-6068 6067 338 0
-6068 -6067 -338 0
6068 -6067 338 0
6068 6067 -338 0
-6069 6068 341 0
-6069 -6068 -341 0
6069 -6068 341 0
6069 6068 -341 0
-6070 6069 342 0
-6070 -6069 -342 0
6070 -6069 342 0
6070 6069 -342 0
-6071 6070 345 0
-6071 -6070 -345 0
6071 -6070 345 0
6071 6070 -345 0
-230 -6071 0
-6072 346 347 0
-6072 -346 -347 0
6072 -346 347 0
6072 346 -347 0
-6073 6072 350 0
-6073 -6072 -350 0
6073 -6072 350 0
6073 6072 -350 0
-6074 6073 351 0
-6074 -6073 -351 0
6074 -6073 351 0
6074 6073 -351 0
-6075 6074 353 0
-6075 -6074 -353 0
6075 -6074 353 0
6075 6074 -353 0
-6076 6075 356 0
-6076 -6075 -356 0
6076 -6075 356 0
6076 6075 -356 0
-6077 6076 357 0
-6077 -6076 -357 0
6077 -6076 357 0
6077 6076 -357 0
-6078 6077 360 0
-6078 -6077 -360 0
6078 -6077 360 0
6078 6077 -360 0
-230 -6078 0
-6079 361 362 0
-6079 -361 -362 0
6079 -361 362 0
6079 361 -362 0
-6080 6079 365 0
-6080 -6079 -365 0
6080 -6079 365 0
6080 6079 -365 0
-6081 6080 366 0
-6081 -6080 -366 0
6081 -6080 366 0
6081 6080 -366 0
-6082 6081 368 0
-6082 -6081 -368 0
6082 -6081 368 0
6082 6081 -368 0
-6083 6082 371 0
-6083 -6082 -371 0
6083 -6082 371 0
6083 6082 -371 0
-6084 6083 372 0
-6084 -6083 -372 0
6084 -6083 372 0
6084 6083 -372 0
-6085 6084 375 0
-6085 -6084 -375 0
6085 -6084 375 0
6085 6084 -375 0
-230 -6085 0
-6086 376 377 0
-6086 -376 -377 0
6086 -376 377 0
6086 376 -377 0
-6087 6086 380 0
-6087 -6086 -380 0
6087 -6086 380 0
6087 6086 -380 0
-6088 6087 381 0
-6088 -6087 -381 0
6088 -6087 381 0
6088 6087 -381 0
-6089 6088 383 0
-6089 -6088 -383 0
6089 -6088 383 0
6089 6088 -383 0
-6090 6089 386 0
-6090 -6089 -386 0
6090 -6089 386 0
6090 6089 -386 0
-6091 6090 387 0
-6091 -6090 -387 0
6091 -6090 387 0
6091 6090 -387 0
-6092 6091 390 0
-6092 -6091 -390 0
6092 -6091 390 0
6092 6091 -390 0
-230 -6092 0
-6093 316 319 0
-6093 -316 -319 0
6093 -316 319 0
6093 316 -319 0
-6094 6093 320 0
-6094 -6093 -320 0
6094 -6093 320 0
6094 6093 -320 0
-6095 6094 321 0
-6095 -6094 -321 0
6095 -6094 321 0
6095 6094 -321 0
-6096 6095 323 0
-6096 -6095 -323 0
6096 -6095 323 0
6096 6095 -323 0
-6097 6096 326 0
-6097 -6096 -326 0
6097 -6096 326 0
6097 6096 -326 0
-6098 6097 327 0
-6098 -6097 -327 0
6098 -6097 327 0
6098 6097 -327 0
-6099 6098 330 0
-6099 -6098 -330 0
6099 -6098 330 0
6099 6098 -330 0
-231 -6099 0
-6100 331 334 0
-6100 -331 -334 0
6100 -331 334 0
6100 331 -334 0
-6101 6100 335 0
-6101 -6100 -335 0
6101 -6100 335 0
6101 6100 -335 0
-6102 6101 336 0
-6102 -6101 -336 0
6102 -6101 336 0
6102 6101 -336 0
-6103 6102 338 0
-6103 -6102 -338 0
6103 -6102 338 0
6103 6102 -338 0
-6104 6103 341 0
-6104 -6103 -341 0
6104 -6103 341 0
6104 6103 -341 0
-6105 6104 342 0
-6105 -6104 -342 0
6105 -6104 342 0
6105 6104 -342 0
-6106 6105 345 0
-6106 -6105 -345 0
6106 -6105 345 0
6106 6105 -345 0
-231 -6106 0
-6107 346 349 0
-6107 -346 -349 0
6107 -346 349 0
6107 346 -349 0
-6108 6107 350 0
-6108 -6107 -350 0
6108 -6107 350 0
6108 6107 -350 0
-6109 6108 351 0
-6109 -6108 -351 0
6109 -6108 351 0
6109 6108 -351 0
-6110 6109 353 0
-6110 -6109 -353 0
6110 -6109 353 0
6110 6109 -353 0
-6111 6110 356 0
-6111 -6110 -356 0
6111 -6110 356 0
6111 6110 -356 0
-6112 6111 357 0
-6112 -6111 -357 0
6112 -6111 357 0
6112 6111 -357 0
-6113 6112 360 0
-6113 -6112 -360 0
6113 -6112 360 0
6113 6112 -360 0
-231 -6113 0
-6114 361 364 0
-6114 -361 -364 0
6114 -361 364 0
6114 361 -364 0
-6115 6114 365 0
-6115 -6114 -365 0
6115 -6114 365 0
6115 6114 -365 0
-6116 6115 366 0
-6116 -6115 -366 0
6116 -6115 366 0
6116 6115 -366 0
-6117 6116 368 0
-6117 -6116 -368 0
6117 -6116 368 0
6117 6116 -368 0
-6118 6117 371 0
-6118 -6117 -371 0
6118 -6117 371 0
6118 6117 -371 0
-6119 6118 372 0
-6119 -6118 -372 0
6119 -6118 372 0
6119 6118 -372 0
-6120 6119 375 0
-6120 -6119 -375 0
6120 -6119 375 0
6120 6119 -375 0
-231 -6120 0
-6121 376 379 0
-6121 -376 -379 0
6121 -376 379 0
6121 376 -379 0
-6122 6121 380 0
-6122 -6121 -380 0
6122 -6121 380 0
6122 6121 -380 0
-6123 6122 381 0
-6123 -6122 -381 0
6123 -6122 381 0
6123 6122 -381 0
-6124 6123 383 0
-6124 -6123 -383 0
6124 -6123 383 0
6124 6123 -383 0
-6125 6124 386 0
-6125 -6124 -386 0
6125 -6124 386 0
6125 6124 -386 0
-6126 6125 387 0
-6126 -6125 -387 0
6126 -6125 387 0
6126 6125 -387 0
-6127 6126 390 0
-6127 -6126 -390 0
6127 -6126 390 0
6127 6126 -390 0
-231 -6127 0
-6128 318 320 0
-6128 -318 -320 0
6128 -318 320 0
6128 318 -320 0
-6129 6128 325 0
-6129 -6128 -325 0
6129 -6128 325 0
6129 6128 -325 0
-6130 6129 327 0
-6130 -6129 -327 0
6130 -6129 327 0
6130 6129 -327 0
-6131 6130 328 0
-6131 -6130 -328 0
6131 -6130 328 0
6131 6130 -328 0
-6132 6131 330 0
-6132 -6131 -330 0
6132 -6131 330 0
6132 6131 -330 0
-232 -6132 0
-6133 333 335 0
-6133 -333 -335 0
6133 -333 335 0
6133 333 -335 0
-6134 6133 340 0
-6134 -6133 -340 0
6134 -6133 340 0
6134 6133 -340 0
-6135 6134 342 0
-6135 -6134 -342 0
6135 -6134 342 0
6135 6134 -342 0
-6136 6135 343 0
-6136 -6135 -343 0
6136 -6135 343 0
6136 6135 -343 0
-6137 6136 345 0
-6137 -6136 -345 0
6137 -6136 345 0
6137 6136 -345 0
-232 -6137 0
-6138 348 350 0
-6138 -348 -350 0
6138 -348 350 0
6138 348 -350 0
-6139 6138 355 0
-6139 -6138 -355 0
6139 -6138 355 0
6139 6138 -355 0
-6140 6139 357 0
-6140 -6139 -357 0
6140 -6139 357 0
6140 6139 -357 0
-6141 6140 358 0
-6141 -6140 -358 0
6141 -6140 358 0
6141 6140 -358 0
-6142 6141 360 0
-6142 -6141 -360 0
6142 -6141 360 0
6142 6141 -360 0
-232 -6142 0
-6143 363 365 0
-6143 -363 -365 0
6143 -363 365 0
6143 363 -365 0
-6144 6143 370 0
-6144 -6143 -370 0
6144 -6143 370 0
6144 6143 -370 0
-6145 6144 372 0
-6145 -6144 -372 0
6145 -6144 372 0
6145 6144 -372 0
-6146 6145 373 0
-6146 -6145 -373 0
6146 -6145 373 0
6146 6145 -373 0
-6147 6146 375 0
-6147 -6146 -375 0
6147 -6146 375 0
6147 6146 -375 0
-232 -6147 0
-6148 378 380 0
-6148 -378 -380 0
6148 -378 380 0
6148 378 -380 0
-6149 6148 385 0
-6149 -6148 -385 0
6149 -6148 385 0
6149 6148 -385 0
-6150 6149 387 0
-6150 -6149 -387 0
6150 -6149 387 0
6150 6149 -387 0
-6151 6150 388 0
-6151 -6150 -388 0
6151 -6150 388 0
6151 6150 -388 0
-6152 6151 390 0
-6152 -6151 -390 0
6152 -6151 390 0
6152 6151 -390 0
-232 -6152 0
-6153 317 318 0
-6153 -317 -318 0
6153 -317 318 0
6153 317 -318 0
-6154 6153 319 0
-6154 -6153 -319 0
6154 -6153 319 0
6154 6153 -319 0
-6155 6154 320 0
-6155 -6154 -320 0
6155 -6154 320 0
6155 6154 -320 0
-6156 6155 325 0
-6156 -6155 -325 0
6156 -6155 325 0
6156 6155 -325 0
-6157 6156 327 0
-6157 -6156 -327 0
6157 -6156 327 0
6157 6156 -327 0
-6158 6157 328 0
-6158 -6157 -328 0
6158 -6157 328 0
6158 6157 -328 0
-6159 6158 330 0
-6159 -6158 -330 0
6159 -6158 330 0
6159 6158 -330 0
-233 -6159 0
-6160 332 333 0
-6160 -332 -333 0
6160 -332 333 0
6160 332 -333 0
-6161 6160 334 0
-6161 -6160 -334 0
6161 -6160 334 0
6161 6160 -334 0
-6162 6161 335 0
-6162 -6161 -335 0
6162 -6161 335 0
6162 6161 -335 0
-6163 6162 340 0
-6163 -6162 -340 0
6163 -6162 340 0
6163 6162 -340 0
-6164 6163 342 0
-6164 -6163 -342 0
6164 -6163 342 0
6164 6163 -342 0
-6165 6164 343 0
-6165 -6164 -343 0
6165 -6164 343 0
6165 6164 -343 0
-6166 6165 345 0
-6166 -6165 -345 0
6166 -6165 345 0
6166 6165 -345 0
-233 -6166 0
-6167 347 348 0
-6167 -347 -348 0
6167 -347 348 0
6167 347 -348 0
-6168 6167 349 0
-6168 -6167 -349 0
6168 -6167 349 0
6168 6167 -349 0
-6169 6168 350 0
-6169 -6168 -350 0
6169 -6168 350 0
6169 6168 -350 0
-6170 6169 355 0
-6170 -6169 -355 0
6170 -6169 355 0
6170 6169 -355 0
-6171 6170 357 0
-6171 -6170 -357 0
6171 -6170 357 0
6171 6170 -357 0
-6172 6171 358 0
-6172 -6171 -358 0
6172 -6171 358 0
6172 6171 -358 0
-6173 6172 360 0
-6173 -6172 -360 0
6173 -6172 360 0
6173 6172 -360 0
-233 -6173 0
-6174 362 363 0
-6174 -362 -363 0
6174 -362 363 0
6174 362 -363 0
-6175 6174 364 0
-6175 -6174 -364 0
6175 -6174 364 0
6175 6174 -364 0
-6176 6175 365 0
-6176 -6175 -365 0
6176 -6175 365 0
6176 6175 -365 0
-6177 6176 370 0
-6177 -6176 -370 0
6177 -6176 370 0
6177 6176 -370 0
-6178 6177 372 0
-6178 -6177 -372 0
6178 -6177 372 0
6178 6177 -372 0
-6179 6178 373 0
-6179 -6178 -373 0
6179 -6178 373 0
6179 6178 -373 0
-6180 6179 375 0
-6180 -6179 -375 0
6180 -6179 375 0
6180 6179 -375 0
-233 -6180 0
-6181 377 378 0
-6181 -377 -378 0
6181 -377 378 0
6181 377 -378 0
-6182 6181 379 0
-6182 -6181 -379 0
6182 -6181 379 0
6182 6181 -379 0
-6183 6182 380 0
-6183 -6182 -380 0
6183 -6182 380 0
6183 6182 -380 0
-6184 6183 385 0
-6184 -6183 -385 0
6184 -6183 385 0
6184 6183 -385 0
-6185 6184 387 0
-6185 -6184 -387 0
6185 -6184 387 0
6185 6184 -387 0
-6186 6185 388 0
-6186 -6185 -388 0
6186 -6185 388 0
6186 6185 -388 0
-6187 6186 390 0
-6187 -6186 -390 0
6187 -6186 390 0
6187 6186 -390 0
-233 -6187 0
-6188 317 318 0
-6188 -317 -318 0
6188 -317 318 0
6188 317 -318 0
-6189 6188 320 0
-6189 -6188 -320 0
6189 -6188 320 0
6189 6188 -320 0
-6190 6189 325 0
-6190 -6189 -325 0
6190 -6189 325 0
6190 6189 -325 0
-6191 6190 326 0
-6191 -6190 -326 0
6191 -6190 326 0
6191 6190 -326 0
-6192 6191 327 0
-6192 -6191 -327 0
6192 -6191 327 0
6192 6191 -327 0
-6193 6192 328 0
-6193 -6192 -328 0
6193 -6192 328 0
6193 6192 -328 0
-6194 6193 330 0
-6194 -6193 -330 0
6194 -6193 330 0
6194 6193 -330 0
-234 -6194 0
-6195 332 333 0
-6195 -332 -333 0
6195 -332 333 0
6195 332 -333 0
-6196 6195 335 0
-6196 -6195 -335 0
6196 -6195 335 0
6196 6195 -335 0
-6197 6196 340 0
-6197 -6196 -340 0
6197 -6196 340 0
6197 6196 -340 0
-6198 6197 341 0
-6198 -6197 -341 0
6198 -6197 341 0
6198 6197 -341 0
-6199 6198 342 0
-6199 -6198 -342 0
6199 -6198 342 0
6199 6198 -342 0
-6200 6199 343 0
-6200 -6199 -343 0
6200 -6199 343 0
6200 6199 -343 0
-6201 6200 345 0
-6201 -6200 -345 0
6201 -6200 345 0
6201 6200 -345 0
-234 -6201 0
-6202 347 348 0
-6202 -347 -348 0
6202 -347 348 0
6202 347 -348 0
-6203 6202 350 0
-6203 -6202 -350 0
6203 -6202 350 0
6203 6202 -350 0
-6204 6203 355 0
-6204 -6203 -355 0
6204 -6203 355 0
6204 6203 -355 0
-6205 6204 356 0
-6205 -6204 -356 0
6205 -6204 356 0
6205 6204 -356 0
-6206 6205 357 0
-6206 -6205 -357 0
6206 -6205 357 0
6206 6205 -357 0
-6207 6206 358 0
-6207 -6206 -358 0
6207 -6206 358 0
6207 6206 -358 0
-6208 6207 360 0
-6208 -6207 -360 0
6208 -6207 360 0
6208 6207 -360 0
-234 -6208 0
-6209 362 363 0
-6209 -362 -363 0
6209 -362 363 0
6209 362 -363 0
-6210 6209 365 0
-6210 -6209 -365 0
6210 -6209 365 0
6210 6209 -365 0
-6211 6210 370 0
-6211 -6210 -370 0
6211 -6210 370 0
6211 6210 -370 0
-6212 6211 371 0
-6212 -6211 -371 0
6212 -6211 371 0
6212 6211 -371 0
-6213 6212 372 0
-6213 -6212 -372 0
6213 -6212 372 0
6213 6212 -372 0
-6214 6213 373 0
-6214 -6213 -373 0
6214 -6213 373 0
6214 6213 -373 0
-6215 6214 375 0
-6215 -6214 -375 0
6215 -6214 375 0
6215 6214 -375 0
-234 -6215 0
-6216 377 378 0
-6216 -377 -378 0
6216 -377 378 0
6216 377 -378 0
-6217 6216 380 0
-6217 -6216 -380 0
6217 -6216 380 0
6217 6216 -380 0
-6218 6217 385 0
-6218 -6217 -385 0
6218 -6217 385 0
6218 6217 -385 0
-6219 6218 386 0
-6219 -6218 -386 0
6219 -6218 386 0
6219 6218 -386 0
-6220 6219 387 0
-6220 -6219 -387 0
6220 -6219 387 0
6220 6219 -387 0
-6221 6220 388 0
-6221 -6220 -388 0
6221 -6220 388 0
6221 6220 -388 0
-6222 6221 390 0
-6222 -6221 -390 0
6222 -6221 390 0
6222 6221 -390 0
-234 -6222 0
-6223 318 319 0
-6223 -318 -319 0
6223 -318 319 0
6223 318 -319 0
-6224 6223 320 0
-6224 -6223 -320 0
6224 -6223 320 0
6224 6223 -320 0
-6225 6224 325 0
-6225 -6224 -325 0
6225 -6224 325 0
6225 6224 -325 0
-6226 6225 326 0
-6226 -6225 -326 0
6226 -6225 326 0
6226 6225 -326 0
-6227 6226 327 0
-6227 -6226 -327 0
6227 -6226 327 0
6227 6226 -327 0
-6228 6227 328 0
-6228 -6227 -328 0
6228 -6227 328 0
6228 6227 -328 0
-6229 6228 330 0
-6229 -6228 -330 0
6229 -6228 330 0
6229 6228 -330 0
-235 -6229 0
-6230 333 334 0
-6230 -333 -334 0
6230 -333 334 0
6230 333 -334 0
-6231 6230 335 0
-6231 -6230 -335 0
6231 -6230 335 0
6231 6230 -335 0
-6232 6231 340 0
-6232 -6231 -340 0
6232 -6231 340 0
6232 6231 -340 0
-6233 6232 341 0
-6233 -6232 -341 0
6233 -6232 341 0
6233 6232 -341 0
-6234 6233 342 0
-6234 -6233 -342 0
6234 -6233 342 0
6234 6233 -342 0
-6235 6234 343 0
-6235 -6234 -343 0
6235 -6234 343 0
6235 6234 -343 0
-6236 6235 345 0
-6236 -6235 -345 0
6236 -6235 345 0
6236 6235 -345 0
-235 -6236 0
-6237 348 349 0
-6237 -348 -349 0
6237 -348 349 0
6237 348 -349 0
-6238 6237 350 0
-6238 -6237 -350 0
6238 -6237 350 0
6238 6237 -350 0
-6239 6238 355 0
-6239 -6238 -355 0
6239 -6238 355 0
6239 6238 -355 0
-6240 6239 356 0
-6240 -6239 -356 0
6240 -6239 356 0
6240 6239 -356 0
-6241 6240 357 0
-6241 -6240 -357 0
6241 -6240 357 0
6241 6240 -357 0
-6242 6241 358 0
-6242 -6241 -358 0
6242 -6241 358 0
6242 6241 -358 0
-6243 6242 360 0
-6243 -6242 -360 0
6243 -6242 360 0
6243 6242 -360 0
-235 -6243 0
-6244 363 364 0
-6244 -363 -364 0
6244 -363 364 0
6244 363 -364 0
-6245 6244 365 0
-6245 -6244 -365 0
6245 -6244 365 0
6245 6244 -365 0
-6246 6245 370 0
-6246 -6245 -370 0
6246 -6245 370 0
6246 6245 -370 0
-6247 6246 371 0
-6247 -6246 -371 0
6247 -6246 371 0
6247 6246 -371 0
-6248 6247 372 0
-6248 -6247 -372 0
6248 -6247 372 0
6248 6247 -372 0
-6249 6248 373 0
-6249 -6248 -373 0
6249 -6248 373 0
6249 6248 -373 0
-6250 6249 375 0
-6250 -6249 -375 0
6250 -6249 375 0
6250 6249 -375 0
-235 -6250 0
-6251 378 379 0
-6251 -378 -379 0
6251 -378 379 0
6251 378 -379 0
-6252 6251 380 0
-6252 -6251 -380 0
6252 -6251 380 0
6252 6251 -380 0
-6253 6252 385 0
-6253 -6252 -385 0
6253 -6252 385 0
6253 6252 -385 0
-6254 6253 386 0
-6254 -6253 -386 0
6254 -6253 386 0
6254 6253 -386 0
-6255 6254 387 0
-6255 -6254 -387 0
6255 -6254 387 0
6255 6254 -387 0
-6256 6255 388 0
-6256 -6255 -388 0
6256 -6255 388 0
6256 6255 -388 0
-6257 6256 390 0
-6257 -6256 -390 0
6257 -6256 390 0
6257 6256 -390 0
-235 -6257 0
-6258 316 317 0
-6258 -316 -317 0
6258 -316 317 0
6258 316 -317 0
-6259 6258 319 0
-6259 -6258 -319 0
6259 -6258 319 0
6259 6258 -319 0
-6260 6259 324 0
-6260 -6259 -324 0
6260 -6259 324 0
6260 6259 -324 0
-6261 6260 327 0
-6261 -6260 -327 0
6261 -6260 327 0
6261 6260 -327 0
-6262 6261 330 0
-6262 -6261 -330 0
6262 -6261 330 0
6262 6261 -330 0
-236 -6262 0
-6263 331 332 0
-6263 -331 -332 0
6263 -331 332 0
6263 331 -332 0
-6264 6263 334 0
-6264 -6263 -334 0
6264 -6263 334 0
6264 6263 -334 0
-6265 6264 339 0
-6265 -6264 -339 0
6265 -6264 339 0
6265 6264 -339 0
-6266 6265 342 0
-6266 -6265 -342 0
6266 -6265 342 0
6266 6265 -342 0
-6267 6266 345 0
-6267 -6266 -345 0
6267 -6266 345 0
6267 6266 -345 0
-236 -6267 0
-6268 346 347 0
-6268 -346 -347 0
6268 -346 347 0
6268 346 -347 0
-6269 6268 349 0
-6269 -6268 -349 0
6269 -6268 349 0
6269 6268 -349 0
-6270 6269 354 0
-6270 -6269 -354 0
6270 -6269 354 0
6270 6269 -354 0
-6271 6270 357 0
-6271 -6270 -357 0
6271 -6270 357 0
6271 6270 -357 0
-6272 6271 360 0
-6272 -6271 -360 0
6272 -6271 360 0
6272 6271 -360 0
-236 -6272 0
-6273 361 362 0
-6273 -361 -362 0
6273 -361 362 0
6273 361 -362 0
-6274 6273 364 0
-6274 -6273 -364 0
6274 -6273 364 0
6274 6273 -364 0
-6275 6274 369 0
-6275 -6274 -369 0
6275 -6274 369 0
6275 6274 -369 0
-6276 6275 372 0
-6276 -6275 -372 0
6276 -6275 372 0
6276 6275 -372 0
-6277 6276 375 0
-6277 -6276 -375 0
6277 -6276 375 0
6277 6276 -375 0
-236 -6277 0
-6278 376 377 0
-6278 -376 -377 0
6278 -376 377 0
6278 376 -377 0
-6279 6278 379 0
-6279 -6278 -379 0
6279 -6278 379 0
6279 6278 -379 0
-6280 6279 384 0
-6280 -6279 -384 0
6280 -6279 384 0
6280 6279 -384 0
-6281 6280 387 0
-6281 -6280 -387 0
6281 -6280 387 0
6281 6280 -387 0
-6282 6281 390 0
-6282 -6281 -390 0
6282 -6281 390 0
6282 6281 -390 0
-236 -6282 0
-6283 316 317 0
-6283 -316 -317 0
6283 -316 317 0
6283 316 -317 0
-6284 6283 319 0
-6284 -6283 -319 0
6284 -6283 319 0
6284 6283 -319 0
-6285 6284 321 0
-6285 -6284 -321 0
6285 -6284 321 0
6285 6284 -321 0
-6286 6285 323 0
-6286 -6285 -323 0
6286 -6285 323 0
6286 6285 -323 0
-6287 6286 324 0
-6287 -6286 -324 0
6287 -6286 324 0
6287 6286 -324 0
-6288 6287 327 0
-6288 -6287 -327 0
6288 -6287 327 0
6288 6287 -327 0
-6289 6288 330 0
-6289 -6288 -330 0
6289 -6288 330 0
6289 6288 -330 0
-237 -6289 0
-6290 331 332 0
-6290 -331 -332 0
6290 -331 332 0
6290 331 -332 0
-6291 6290 334 0
-6291 -6290 -334 0
6291 -6290 334 0
6291 6290 -334 0
-6292 6291 336 0
-6292 -6291 -336 0
6292 -6291 336 0
6292 6291 -336 0
-6293 6292 338 0
-6293 -6292 -338 0
6293 -6292 338 0
6293 6292 -338 0
-6294 6293 339 0
-6294 -6293 -339 0
6294 -6293 339 0
6294 6293 -339 0
-6295 6294 342 0
-6295 -6294 -342 0
6295 -6294 342 0
6295 6294 -342 0
-6296 6295 345 0
-6296 -6295 -345 0
6296 -6295 345 0
6296 6295 -345 0
-237 -6296 0
-6297 346 347 0
-6297 -346 -347 0
6297 -346 347 0
6297 346 -347 0
-6298 6297 349 0
-6298 -6297 -349 0
6298 -6297 349 0
6298 6297 -349 0
-6299 6298 351 0
-6299 -6298 -351 0
6299 -6298 351 0
6299 6298 -351 0
-6300 6299 353 0
-6300 -6299 -353 0
6300 -6299 353 0
6300 6299 -353 0
-6301 6300 354 0
-6301 -6300 -354 0
6301 -6300 354 0
6301 6300 -354 0
-6302 6301 357 0
-6302 -6301 -357 0
6302 -6301 357 0
6302 6301 -357 0
-6303 6302 360 0
-6303 -6302 -360 0
6303 -6302 360 0
6303 6302 -360 0
-237 -6303 0
-6304 361 362 0
-6304 -361 -362 0
6304 -361 362 0
6304 361 -362 0
-6305 6304 364 0
-6305 -6304 -364 0
6305 -6304 364 0
6305 6304 -364 0
-6306 6305 366 0
-6306 -6305 -366 0
6306 -6305 366 0
6306 6305 -366 0
-6307 6306 368 0
-6307 -6306 -368 0
6307 -6306 368 0
6307 6306 -368 0
-6308 6307 369 0
-6308 -6307 -369 0
6308 -6307 369 0
6308 6307 -369 0
-6309 6308 372 0
-6309 -6308 -372 0
6309 -6308 372 0
6309 6308 -372 0
-6310 6309 375 0
-6310 -6309 -375 0
6310 -6309 375 0
6310 6309 -375 0
-237 -6310 0
-6311 376 377 0
-6311 -376 -377 0
6311 -376 377 0
6311 376 -377 0
-6312 6311 379 0
-6312 -6311 -379 0
6312 -6311 379 0
6312 6311 -379 0
-6313 6312 381 0
-6313 -6312 -381 0
6313 -6312 381 0
6313 6312 -381 0
-6314 6313 383 0
-6314 -6313 -383 0
6314 -6313 383 0
6314 6313 -383 0
-6315 6314 384 0
-6315 -6314 -384 0
6315 -6314 384 0
6315 6314 -384 0
-6316 6315 387 0
-6316 -6315 -387 0
6316 -6315 387 0
6316 6315 -387 0
-6317 6316 390 0
-6317 -6316 -390 0
6317 -6316 390 0
6317 6316 -390 0
-237 -6317 0
-6318 316 317 0
-6318 -316 -317 0
6318 -316 317 0
6318 316 -317 0
-6319 6318 319 0
-6319 -6318 -319 0
6319 -6318 319 0
6319 6318 -319 0
-6320 6319 321 0
-6320 -6319 -321 0
6320 -6319 321 0
6320 6319 -321 0
-6321 6320 324 0
-6321 -6320 -324 0
6321 -6320 324 0
6321 6320 -324 0
-6322 6321 326 0
-6322 -6321 -326 0
6322 -6321 326 0
6322 6321 -326 0
-6323 6322 327 0
-6323 -6322 -327 0
6323 -6322 327 0
6323 6322 -327 0
-6324 6323 330 0
-6324 -6323 -330 0
6324 -6323 330 0
6324 6323 -330 0
-238 -6324 0
-6325 331 332 0
-6325 -331 -332 0
6325 -331 332 0
6325 331 -332 0
-6326 6325 334 0
-6326 -6325 -334 0
6326 -6325 334 0
6326 6325 -334 0
-6327 6326 336 0
-6327 -6326 -336 0
6327 -6326 336 0
6327 6326 -336 0
-6328 6327 339 0
-6328 -6327 -339 0
6328 -6327 339 0
6328 6327 -339 0
-6329 6328 341 0
-6329 -6328 -341 0
6329 -6328 341 0
6329 6328 -341 0
-6330 6329 342 0
-6330 -6329 -342 0
6330 -6329 342 0
6330 6329 -342 0
-6331 6330 345 0
-6331 -6330 -345 0
6331 -6330 345 0
6331 6330 -345 0
-238 -6331 0
-6332 346 347 0
-6332 -346 -347 0
6332 -346 347 0
6332 346 -347 0
-6333 6332 349 0
-6333 -6332 -349 0
6333 -6332 349 0
6333 6332 -349 0
-6334 6333 351 0
-6334 -6333 -351 0
6334 -6333 351 0
6334 6333 -351 0
-6335 6334 354 0
-6335 -6334 -354 0
6335 -6334 354 0
6335 6334 -354 0
-6336 6335 356 0
-6336 -6335 -356 0
6336 -6335 356 0
6336 6335 -356 0
-6337 6336 357 0
-6337 -6336 -357 0
6337 -6336 357 0
6337 6336 -357 0
-6338 6337 360 0
-6338 -6337 -360 0
6338 -6337 360 0
6338 6337 -360 0
-238 -6338 0
-6339 361 362 0
-6339 -361 -362 0
6339 -361 362 0
6339 361 -362 0
-6340 6339 364 0
-6340 -6339 -364 0
6340 -6339 364 0
6340 6339 -364 0
-6341 6340 366 0
-6341 -6340 -366 0
6341 -6340 366 0
6341 6340 -366 0
-6342 6341 369 0
-6342 -6341 -369 0
6342 -6341 369 0
6342 6341 -369 0
-6343 6342 371 0
-6343 -6342 -371 0
6343 -6342 371 0
6343 6342 -371 0
-6344 6343 372 0
-6344 -6343 -372 0
6344 -6343 372 0
6344 6343 -372 0
-6345 6344 375 0
-6345 -6344 -375 0
6345 -6344 375 0
6345 6344 -375 0
-238 -6345 0
-6346 376 377 0
-6346 -376 -377 0
6346 -376 377 0
6346 376 -377 0
-6347 6346 379 0
-6347 -6346 -379 0
6347 -6346 379 0
6347 6346 -379 0
-6348 6347 381 0
-6348 -6347 -381 0
6348 -6347 381 0
6348 6347 -381 0
-6349 6348 384 0
-6349 -6348 -384 0
6349 -6348 384 0
6349 6348 -384 0
-6350 6349 386 0
-6350 -6349 -386 0
6350 -6349 386 0
6350 6349 -386 0
-6351 6350 387 0
-6351 -6350 -387 0
6351 -6350 387 0
6351 6350 -387 0
-6352 6351 390 0
-6352 -6351 -390 0
6352 -6351 390 0
6352 6351 -390 0
-238 -6352 0
-6353 316 317 0
-6353 -316 -317 0
6353 -316 317 0
6353 316 -317 0
-6354 6353 319 0
-6354 -6353 -319 0
6354 -6353 319 0
6354 6353 -319 0
-6355 6354 323 0
-6355 -6354 -323 0
6355 -6354 323 0
6355 6354 -323 0
-6356 6355 324 0
-6356 -6355 -324 0
6356 -6355 324 0
6356 6355 -324 0
-6357 6356 326 0
-6357 -6356 -326 0
6357 -6356 326 0
6357 6356 -326 0
-6358 6357 327 0
-6358 -6357 -327 0
6358 -6357 327 0
6358 6357 -327 0
-6359 6358 330 0
-6359 -6358 -330 0
6359 -6358 330 0
6359 6358 -330 0
-239 -6359 0
-6360 331 332 0
-6360 -331 -332 0
6360 -331 332 0
6360 331 -332 0
-6361 6360 334 0
-6361 -6360 -334 0
6361 -6360 334 0
6361 6360 -334 0
-6362 6361 338 0
-6362 -6361 -338 0
6362 -6361 338 0
6362 6361 -338 0
-6363 6362 339 0
-6363 -6362 -339 0
6363 -6362 339 0
6363 6362 -339 0
-6364 6363 341 0
-6364 -6363 -341 0
6364 -6363 341 0
6364 6363 -341 0
-6365 6364 342 0
-6365 -6364 -342 0
6365 -6364 342 0
6365 6364 -342 0
-6366 6365 345 0
-6366 -6365 -345 0
6366 -6365 345 0
6366 6365 -345 0
-239 -6366 0
-6367 346 347 0
-6367 -346 -347 0
6367 -346 347 0
6367 346 -347 0
-6368 6367 349 0
-6368 -6367 -349 0
6368 -6367 349 0
6368 6367 -349 0
-6369 6368 353 0
-6369 -6368 -353 0
6369 -6368 353 0
6369 6368 -353 0
-6370 6369 354 0
-6370 -6369 -354 0
6370 -6369 354 0
6370 6369 -354 0
-6371 6370 356 0
-6371 -6370 -356 0
6371 -6370 356 0
6371 6370 -356 0
-6372 6371 357 0
-6372 -6371 -357 0
6372 -6371 357 0
6372 6371 -357 0
-6373 6372 360 0
-6373 -6372 -360 0
6373 -6372 360 0
6373 6372 -360 0
-239 -6373 0
-6374 361 362 0
-6374 -361 -362 0
6374 -361 362 0
6374 361 -362 0
-6375 6374 364 0
-6375 -6374 -364 0
6375 -6374 364 0
6375 6374 -364 0
-6376 6375 368 0
-6376 -6375 -368 0
6376 -6375 368 0
6376 6375 -368 0
-6377 6376 369 0
-6377 -6376 -369 0
6377 -6376 369 0
6377 6376 -369 0
-6378 6377 371 0
-6378 -6377 -371 0
6378 -6377 371 0
6378 6377 -371 0
-6379 6378 372 0
-6379 -6378 -372 0
6379 -6378 372 0
6379 6378 -372 0
-6380 6379 375 0
-6380 -6379 -375 0
6380 -6379 375 0
6380 6379 -375 0
-239 -6380 0
-6381 376 377 0
-6381 -376 -377 0
6381 -376 377 0
6381 376 -377 0
-6382 6381 379 0
-6382 -6381 -379 0
6382 -6381 379 0
6382 6381 -379 0
-6383 6382 383 0
-6383 -6382 -383 0
6383 -6382 383 0
6383 6382 -383 0
-6384 6383 384 0
-6384 -6383 -384 0
6384 -6383 384 0
6384 6383 -384 0
-6385 6384 386 0
-6385 -6384 -386 0
6385 -6384 386 0
6385 6384 -386 0
-6386 6385 387 0
-6386 -6385 -387 0
6386 -6385 387 0
6386 6385 -387 0
-6387 6386 390 0
-6387 -6386 -390 0
6387 -6386 390 0
6387 6386 -390 0
-239 -6387 0
-6388 322 324 0
-6388 -322 -324 0
6388 -322 324 0
6388 322 -324 0
-6389 6388 325 0
-6389 -6388 -325 0
6389 -6388 325 0
6389 6388 -325 0
-6390 6389 327 0
-6390 -6389 -327 0
6390 -6389 327 0
6390 6389 -327 0
-6391 6390 328 0
-6391 -6390 -328 0
6391 -6390 328 0
6391 6390 -328 0
-6392 6391 330 0
-6392 -6391 -330 0
6392 -6391 330 0
6392 6391 -330 0
-240 -6392 0
-6393 337 339 0
-6393 -337 -339 0
6393 -337 339 0
6393 337 -339 0
-6394 6393 340 0
-6394 -6393 -340 0
6394 -6393 340 0
6394 6393 -340 0
-6395 6394 342 0
-6395 -6394 -342 0
6395 -6394 342 0
6395 6394 -342 0
-6396 6395 343 0
-6396 -6395 -343 0
6396 -6395 343 0
6396 6395 -343 0
-6397 6396 345 0
-6397 -6396 -345 0
6397 -6396 345 0
6397 6396 -345 0
-240 -6397 0
-6398 352 354 0
-6398 -352 -354 0
6398 -352 354 0
6398 352 -354 0
-6399 6398 355 0
-6399 -6398 -355 0
6399 -6398 355 0
6399 6398 -355 0
-6400 6399 357 0
-6400 -6399 -357 0
6400 -6399 357 0
6400 6399 -357 0
-6401 6400 358 0
-6401 -6400 -358 0
6401 -6400 358 0
6401 6400 -358 0
-6402 6401 360 0
-6402 -6401 -360 0
6402 -6401 360 0
6402 6401 -360 0
-240 -6402 0
-6403 367 369 0
-6403 -367 -369 0
6403 -367 369 0
6403 367 -369 0
-6404 6403 370 0
-6404 -6403 -370 0
6404 -6403 370 0
6404 6403 -370 0
-6405 6404 372 0
-6405 -6404 -372 0
6405 -6404 372 0
6405 6404 -372 0
-6406 6405 373 0
-6406 -6405 -373 0
6406 -6405 373 0
6406 6405 -373 0
-6407 6406 375 0
-6407 -6406 -375 0
6407 -6406 375 0
6407 6406 -375 0
-240 -6407 0
-6408 382 384 0
-6408 -382 -384 0
6408 -382 384 0
6408 382 -384 0
-6409 6408 385 0
-6409 -6408 -385 0
6409 -6408 385 0
6409 6408 -385 0
-6410 6409 387 0
-6410 -6409 -387 0
6410 -6409 387 0
6410 6409 -387 0
-6411 6410 388 0
-6411 -6410 -388 0
6411 -6410 388 0
6411 6410 -388 0
-6412 6411 390 0
-6412 -6411 -390 0
6412 -6411 390 0
6412 6411 -390 0
-240 -6412 0
-6413 321 322 0
-6413 -321 -322 0
6413 -321 322 0
6413 321 -322 0
-6414 6413 323 0
-6414 -6413 -323 0
6414 -6413 323 0
6414 6413 -323 0
-6415 6414 324 0
-6415 -6414 -324 0
6415 -6414 324 0
6415 6414 -324 0
-6416 6415 325 0
-6416 -6415 -325 0
6416 -6415 325 0
6416 6415 -325 0
-6417 6416 327 0
-6417 -6416 -327 0
6417 -6416 327 0
6417 6416 -327 0
-6418 6417 328 0
-6418 -6417 -328 0
6418 -6417 328 0
6418 6417 -328 0
-6419 6418 330 0
-6419 -6418 -330 0
6419 -6418 330 0
6419 6418 -330 0
-241 -6419 0
-6420 336 337 0
-6420 -336 -337 0
6420 -336 337 0
6420 336 -337 0
-6421 6420 338 0
-6421 -6420 -338 0
6421 -6420 338 0
6421 6420 -338 0
-6422 6421 339 0
-6422 -6421 -339 0
6422 -6421 339 0
6422 6421 -339 0
-6423 6422 340 0
-6423 -6422 -340 0
6423 -6422 340 0
6423 6422 -340 0
-6424 6423 342 0
-6424 -6423 -342 0
6424 -6423 342 0
6424 6423 -342 0
-6425 6424 343 0
-6425 -6424 -343 0
6425 -6424 343 0
6425 6424 -343 0
-6426 6425 345 0
-6426 -6425 -345 0
6426 -6425 345 0
6426 6425 -345 0
-241 -6426 0
-6427 351 352 0
-6427 -351 -352 0
6427 -351 352 0
6427 351 -352 0
-6428 6427 353 0
-6428 -6427 -353 0
6428 -6427 353 0
6428 6427 -353 0
-6429 6428 354 0
-6429 -6428 -354 0
6429 -6428 354 0
6429 6428 -354 0
-6430 6429 355 0
-6430 -6429 -355 0
6430 -6429 355 0
6430 6429 -355 0
-6431 6430 357 0
-6431 -6430 -357 0
6431 -6430 357 0
6431 6430 -357 0
-6432 6431 358 0
-6432 -6431 -358 0
6432 -6431 358 0
6432 6431 -358 0
-6433 6432 360 0
-6433 -6432 -360 0
6433 -6432 360 0
6433 6432 -360 0
-241 -6433 0
-6434 366 367 0
-6434 -366 -367 0
6434 -366 367 0
6434 366 -367 0
-6435 6434 368 0
-6435 -6434 -368 0
6435 -6434 368 0
6435 6434 -368 0
-6436 6435 369 0
-6436 -6435 -369 0
6436 -6435 369 0
6436 6435 -369 0
-6437 6436 370 0
-6437 -6436 -370 0
6437 -6436 370 0
6437 6436 -370 0
-6438 6437 372 0
-6438 -6437 -372 0
6438 -6437 372 0
6438 6437 -372 0
-6439 6438 373 0
-6439 -6438 -373 0
6439 -6438 373 0
6439 6438 -373 0
-6440 6439 375 0
-6440 -6439 -375 0
6440 -6439 375 0
6440 6439 -375 0
-241 -6440 0
-6441 381 382 0
-6441 -381 -382 0
6441 -381 382 0
6441 381 -382 0
-6442 6441 383 0
-6442 -6441 -383 0
6442 -6441 383 0
6442 6441 -383 0
-6443 6442 384 0
-6443 -6442 -384 0
6443 -6442 384 0
6443 6442 -384 0
-6444 6443 385 0
-6444 -6443 -385 0
6444 -6443 385 0
6444 6443 -385 0
-6445 6444 387 0
-6445 -6444 -387 0
6445 -6444 387 0
6445 6444 -387 0
-6446 6445 388 0
-6446 -6445 -388 0
6446 -6445 388 0
6446 6445 -388 0
-6447 6446 390 0
-6447 -6446 -390 0
6447 -6446 390 0
6447 6446 -390 0
-241 -6447 0
-6448 321 322 0
-6448 -321 -322 0
6448 -321 322 0
6448 321 -322 0
-6449 6448 324 0
-6449 -6448 -324 0
6449 -6448 324 0
6449 6448 -324 0
-6450 6449 325 0
-6450 -6449 -325 0
6450 -6449 325 0
6450 6449 -325 0
-6451 6450 326 0
-6451 -6450 -326 0
6451 -6450 326 0
6451 6450 -326 0
-6452 6451 327 0
-6452 -6451 -327 0
6452 -6451 327 0
6452 6451 -327 0
-6453 6452 328 0
-6453 -6452 -328 0
6453 -6452 328 0
6453 6452 -328 0
-6454 6453 330 0
-6454 -6453 -330 0
6454 -6453 330 0
6454 6453 -330 0
-242 -6454 0
-6455 336 337 0
-6455 -336 -337 0
6455 -336 337 0
6455 336 -337 0
-6456 6455 339 0
-6456 -6455 -339 0
6456 -6455 339 0
6456 6455 -339 0
-6457 6456 340 0
-6457 -6456 -340 0
6457 -6456 340 0
6457 6456 -340 0
-6458 6457 341 0
-6458 -6457 -341 0
6458 -6457 341 0
6458 6457 -341 0
-6459 6458 342 0
-6459 -6458 -342 0
6459 -6458 342 0
6459 6458 -342 0
-6460 6459 343 0
-6460 -6459 -343 0
6460 -6459 343 0
6460 6459 -343 0
-6461 6460 345 0
-6461 -6460 -345 0
6461 -6460 345 0
6461 6460 -345 0
-242 -6461 0
-6462 351 352 0
-6462 -351 -352 0
6462 -351 352 0
6462 351 -352 0
-6463 6462 354 0
-6463 -6462 -354 0
6463 -6462 354 0
6463 6462 -354 0
-6464 6463 355 0
-6464 -6463 -355 0
6464 -6463 355 0
6464 6463 -355 0
-6465 6464 356 0
-6465 -6464 -356 0
6465 -6464 356 0
6465 6464 -356 0
-6466 6465 357 0
-6466 -6465 -357 0
6466 -6465 357 0
6466 6465 -357 0
-6467 6466 358 0
-6467 -6466 -358 0
6467 -6466 358 0
6467 6466 -358 0
-6468 6467 360 0
-6468 -6467 -360 0
6468 -6467 360 0
6468 6467 -360 0
-242 -6468 0
-6469 366 367 0
-6469 -366 -367 0
6469 -366 367 0
6469 366 -367 0
-6470 6469 369 0
-6470 -6469 -369 0
6470 -6469 369 0
6470 6469 -369 0
-6471 6470 370 0
-6471 -6470 -370 0
6471 -6470 370 0
6471 6470 -370 0
-6472 6471 371 0
-6472 -6471 -371 0
6472 -6471 371 0
6472 6471 -371 0
-6473 6472 372 0
-6473 -6472 -372 0
6473 -6472 372 0
6473 6472 -372 0
-6474 6473 373 0
-6474 -6473 -373 0
6474 -6473 373 0
6474 6473 -373 0
-6475 6474 375 0
-6475 -6474 -375 0
6475 -6474 375 0
6475 6474 -375 0
-242 -6475 0
-6476 381 382 0
-6476 -381 -382 0
6476 -381 382 0
6476 381 -382 0
-6477 6476 384 0
-6477 -6476 -384 0
6477 -6476 384 0
6477 6476 -384 0
-6478 6477 385 0
-6478 -6477 -385 0
6478 -6477 385 0
6478 6477 -385 0
-6479 6478 386 0
-6479 -6478 -386 0
6479 -6478 386 0
6479 6478 -386 0
-6480 6479 387 0
-6480 -6479 -387 0
6480 -6479 387 0
6480 6479 -387 0
-6481 6480 388 0
-6481 -6480 -388 0
6481 -6480 388 0
6481 6480 -388 0
-6482 6481 390 0
-6482 -6481 -390 0
6482 -6481 390 0
6482 6481 -390 0
-242 -6482 0
-6483 322 323 0
-6483 -322 -323 0
6483 -322 323 0
6483 322 -323 0
-6484 6483 324 0
-6484 -6483 -324 0
6484 -6483 324 0
6484 6483 -324 0
-6485 6484 325 0
-6485 -6484 -325 0
6485 -6484 325 0
6485 6484 -325 0
-6486 6485 326 0
-6486 -6485 -326 0
6486 -6485 326 0
6486 6485 -326 0
-6487 6486 327 0
-6487 -6486 -327 0
6487 -6486 327 0
6487 6486 -327 0
-6488 6487 328 0
-6488 -6487 -328 0
6488 -6487 328 0
6488 6487 -328 0
-6489 6488 330 0
-6489 -6488 -330 0
6489 -6488 330 0
6489 6488 -330 0
-243 -6489 0
-6490 337 338 0
-6490 -337 -338 0
6490 -337 338 0
6490 337 -338 0
-6491 6490 339 0
-6491 -6490 -339 0
6491 -6490 339 0
6491 6490 -339 0
-6492 6491 340 0
-6492 -6491 -340 0
6492 -6491 340 0
6492 6491 -340 0
-6493 6492 341 0
-6493 -6492 -341 0
6493 -6492 341 0
6493 6492 -341 0
-6494 6493 342 0
-6494 -6493 -342 0
6494 -6493 342 0
6494 6493 -342 0
-6495 6494 343 0
-6495 -6494 -343 0
6495 -6494 343 0
6495 6494 -343 0
-6496 6495 345 0
-6496 -6495 -345 0
6496 -6495 345 0
6496 6495 -345 0
-243 -6496 0
-6497 352 353 0
-6497 -352 -353 0
6497 -352 353 0
6497 352 -353 0
-6498 6497 354 0
-6498 -6497 -354 0
6498 -6497 354 0
6498 6497 -354 0
-6499 6498 355 0
-6499 -6498 -355 0
6499 -6498 355 0
6499 6498 -355 0
-6500 6499 356 0
-6500 -6499 -356 0
6500 -6499 356 0
6500 6499 -356 0
-6501 6500 357 0
-6501 -6500 -357 0
6501 -6500 357 0
6501 6500 -357 0
-6502 6501 358 0
-6502 -6501 -358 0
6502 -6501 358 0
6502 6501 -358 0
-6503 6502 360 0
-6503 -6502 -360 0
6503 -6502 360 0
6503 6502 -360 0
-243 -6503 0
-6504 367 368 0
-6504 -367 -368 0
6504 -367 368 0
6504 367 -368 0
-6505 6504 369 0
-6505 -6504 -369 0
6505 -6504 369 0
6505 6504 -369 0
-6506 6505 370 0
-6506 -6505 -370 0
6506 -6505 370 0
6506 6505 -370 0
-6507 6506 371 0
-6507 -6506 -371 0
6507 -6506 371 0
6507 6506 -371 0
-6508 6507 372 0
-6508 -6507 -372 0
6508 -6507 372 0
6508 6507 -372 0
-6509 6508 373 0
-6509 -6508 -373 0
6509 -6508 373 0
6509 6508 -373 0
-6510 6509 375 0
-6510 -6509 -375 0
6510 -6509 375 0
6510 6509 -375 0
-243 -6510 0
-6511 382 383 0
-6511 -382 -383 0
6511 -382 383 0
6511 382 -383 0
-6512 6511 384 0
-6512 -6511 -384 0
6512 -6511 384 0
6512 6511 -384 0
-6513 6512 385 0
-6513 -6512 -385 0
6513 -6512 385 0
6513 6512 -385 0
-6514 6513 386 0
-6514 -6513 -386 0
6514 -6513 386 0
6514 6513 -386 0
-6515 6514 387 0
-6515 -6514 -387 0
6515 -6514 387 0
6515 6514 -387 0
-6516 6515 388 0
-6516 -6515 -388 0
6516 -6515 388 0
6516 6515 -388 0
-6517 6516 390 0
-6517 -6516 -390 0
6517 -6516 390 0
6517 6516 -390 0
-243 -6517 0
-6518 316 317 0
-6518 -316 -317 0
6518 -316 317 0
6518 316 -317 0
-6519 6518 319 0
-6519 -6518 -319 0
6519 -6518 319 0
6519 6518 -319 0
-6520 6519 320 0
-6520 -6519 -320 0
6520 -6519 320 0
6520 6519 -320 0
-6521 6520 324 0
-6521 -6520 -324 0
6521 -6520 324 0
6521 6520 -324 0
-6522 6521 327 0
-6522 -6521 -327 0
6522 -6521 327 0
6522 6521 -327 0
-6523 6522 330 0
-6523 -6522 -330 0
6523 -6522 330 0
6523 6522 -330 0
-244 -6523 0
-6524 331 332 0
-6524 -331 -332 0
6524 -331 332 0
6524 331 -332 0
-6525 6524 334 0
-6525 -6524 -334 0
6525 -6524 334 0
6525 6524 -334 0
-6526 6525 335 0
-6526 -6525 -335 0
6526 -6525 335 0
6526 6525 -335 0
-6527 6526 339 0
-6527 -6526 -339 0
6527 -6526 339 0
6527 6526 -339 0
-6528 6527 342 0
-6528 -6527 -342 0
6528 -6527 342 0
6528 6527 -342 0
-6529 6528 345 0
-6529 -6528 -345 0
6529 -6528 345 0
6529 6528 -345 0
-244 -6529 0
-6530 346 347 0
-6530 -346 -347 0
6530 -346 347 0
6530 346 -347 0
-6531 6530 349 0
-6531 -6530 -349 0
6531 -6530 349 0
6531 6530 -349 0
-6532 6531 350 0
-6532 -6531 -350 0
6532 -6531 350 0
6532 6531 -350 0
-6533 6532 354 0
-6533 -6532 -354 0
6533 -6532 354 0
6533 6532 -354 0
-6534 6533 357 0
-6534 -6533 -357 0
6534 -6533 357 0
6534 6533 -357 0
-6535 6534 360 0
-6535 -6534 -360 0
6535 -6534 360 0
6535 6534 -360 0
-244 -6535 0
-6536 361 362 0
-6536 -361 -362 0
6536 -361 362 0
6536 361 -362 0
-6537 6536 364 0
-6537 -6536 -364 0
6537 -6536 364 0
6537 6536 -364 0
-6538 6537 365 0
-6538 -6537 -365 0
6538 -6537 365 0
6538 6537 -365 0
-6539 6538 369 0
-6539 -6538 -369 0
6539 -6538 369 0
6539 6538 -369 0
-6540 6539 372 0
-6540 -6539 -372 0
6540 -6539 372 0
6540 6539 -372 0
-6541 6540 375 0
-6541 -6540 -375 0
6541 -6540 375 0
6541 6540 -375 0
-244 -6541 0
-6542 376 377 0
-6542 -376 -377 0
6542 -376 377 0
6542 376 -377 0
-6543 6542 379 0
-6543 -6542 -379 0
6543 -6542 379 0
6543 6542 -379 0
-6544 6543 380 0
-6544 -6543 -380 0
6544 -6543 380 0
6544 6543 -380 0
-6545 6544 384 0
-6545 -6544 -384 0
6545 -6544 384 0
6545 6544 -384 0
-6546 6545 387 0
-6546 -6545 -387 0
6546 -6545 387 0
6546 6545 -387 0
-6547 6546 390 0
-6547 -6546 -390 0
6547 -6546 390 0
6547 6546 -390 0
-244 -6547 0
-6548 316 320 0
-6548 -316 -320 0
6548 -316 320 0
6548 316 -320 0
-6549 6548 321 0
-6549 -6548 -321 0
6549 -6548 321 0
6549 6548 -321 0
-6550 6549 323 0
-6550 -6549 -323 0
6550 -6549 323 0
6550 6549 -323 0
-6551 6550 324 0
-6551 -6550 -324 0
6551 -6550 324 0
6551 6550 -324 0
-6552 6551 327 0
-6552 -6551 -327 0
6552 -6551 327 0
6552 6551 -327 0
-6553 6552 330 0
-6553 -6552 -330 0
6553 -6552 330 0
6553 6552 -330 0
-245 -6553 0
-6554 331 335 0
-6554 -331 -335 0
6554 -331 335 0
6554 331 -335 0
-6555 6554 336 0
-6555 -6554 -336 0
6555 -6554 336 0
6555 6554 -336 0
-6556 6555 338 0
-6556 -6555 -338 0
6556 -6555 338 0
6556 6555 -338 0
-6557 6556 339 0
-6557 -6556 -339 0
6557 -6556 339 0
6557 6556 -339 0
-6558 6557 342 0
-6558 -6557 -342 0
6558 -6557 342 0
6558 6557 -342 0
-6559 6558 345 0
-6559 -6558 -345 0
6559 -6558 345 0
6559 6558 -345 0
-245 -6559 0
-6560 346 350 0
-6560 -346 -350 0
6560 -346 350 0
6560 346 -350 0
-6561 6560 351 0
-6561 -6560 -351 0
6561 -6560 351 0
6561 6560 -351 0
-6562 6561 353 0
-6562 -6561 -353 0
6562 -6561 353 0
6562 6561 -353 0
-6563 6562 354 0
-6563 -6562 -354 0
6563 -6562 354 0
6563 6562 -354 0
-6564 6563 357 0
-6564 -6563 -357 0
6564 -6563 357 0
6564 6563 -357 0
-6565 6564 360 0
-6565 -6564 -360 0
6565 -6564 360 0
6565 6564 -360 0
-245 -6565 0
-6566 361 365 0
-6566 -361 -365 0
6566 -361 365 0
6566 361 -365 0
-6567 6566 366 0
-6567 -6566 -366 0
6567 -6566 366 0
6567 6566 -366 0
-6568 6567 368 0
-6568 -6567 -368 0
6568 -6567 368 0
6568 6567 -368 0
-6569 6568 369 0
-6569 -6568 -369 0
6569 -6568 369 0
6569 6568 -369 0
-6570 6569 372 0
-6570 -6569 -372 0
6570 -6569 372 0
6570 6569 -372 0
-6571 6570 375 0
-6571 -6570 -375 0
6571 -6570 375 0
6571 6570 -375 0
-245 -6571 0
-6572 376 380 0
-6572 -376 -380 0
6572 -376 380 0
6572 376 -380 0
-6573 6572 381 0
-6573 -6572 -381 0
6573 -6572 381 0
6573 6572 -381 0
-6574 6573 383 0
-6574 -6573 -383 0
6574 -6573 383 0
6574 6573 -383 0
-6575 6574 384 0
-6575 -6574 -384 0
6575 -6574 384 0
6575 6574 -384 0
-6576 6575 387 0
-6576 -6575 -387 0
6576 -6575 387 0
6576 6575 -387 0
-6577 6576 390 0
-6577 -6576 -390 0
6577 -6576 390 0
6577 6576 -390 0
-245 -6577 0
-6578 316 319 0
-6578 -316 -319 0
6578 -316 319 0
6578 316 -319 0
-6579 6578 320 0
-6579 -6578 -320 0
6579 -6578 320 0
6579 6578 -320 0
-6580 6579 321 0
-6580 -6579 -321 0
6580 -6579 321 0
6580 6579 -321 0
-6581 6580 324 0
-6581 -6580 -324 0
6581 -6580 324 0
6581 6580 -324 0
-6582 6581 326 0
-6582 -6581 -326 0
6582 -6581 326 0
6582 6581 -326 0
-6583 6582 327 0
-6583 -6582 -327 0
6583 -6582 327 0
6583 6582 -327 0
-6584 6583 330 0
-6584 -6583 -330 0
6584 -6583 330 0
6584 6583 -330 0
-246 -6584 0
-6585 331 334 0
-6585 -331 -334 0
6585 -331 334 0
6585 331 -334 0
-6586 6585 335 0
-6586 -6585 -335 0
6586 -6585 335 0
6586 6585 -335 0
-6587 6586 336 0
-6587 -6586 -336 0
6587 -6586 336 0
6587 6586 -336 0
-6588 6587 339 0
-6588 -6587 -339 0
6588 -6587 339 0
6588 6587 -339 0
-6589 6588 341 0
-6589 -6588 -341 0
6589 -6588 341 0
6589 6588 -341 0
-6590 6589 342 0
-6590 -6589 -342 0
6590 -6589 342 0
6590 6589 -342 0
-6591 6590 345 0
-6591 -6590 -345 0
6591 -6590 345 0
6591 6590 -345 0
-246 -6591 0
-6592 346 349 0
-6592 -346 -349 0
6592 -346 349 0
6592 346 -349 0
-6593 6592 350 0
-6593 -6592 -350 0
6593 -6592 350 0
6593 6592 -350 0
-6594 6593 351 0
-6594 -6593 -351 0
6594 -6593 351 0
6594 6593 -351 0
-6595 6594 354 0
-6595 -6594 -354 0
6595 -6594 354 0
6595 6594 -354 0
-6596 6595 356 0
-6596 -6595 -356 0
6596 -6595 356 0
6596 6595 -356 0
-6597 6596 357 0
-6597 -6596 -357 0
6597 -6596 357 0
6597 6596 -357 0
-6598 6597 360 0
-6598 -6597 -360 0
6598 -6597 360 0
6598 6597 -360 0
-246 -6598 0
-6599 361 364 0
-6599 -361 -364 0
6599 -361 364 0
6599 361 -364 0
-6600 6599 365 0
-6600 -6599 -365 0
6600 -6599 365 0
6600 6599 -365 0
-6601 6600 366 0
-6601 -6600 -366 0
6601 -6600 366 0
6601 6600 -366 0
-6602 6601 369 0
-6602 -6601 -369 0
6602 -6601 369 0
6602 6601 -369 0
-6603 6602 371 0
-6603 -6602 -371 0
6603 -6602 371 0
6603 6602 -371 0
-6604 6603 372 0
-6604 -6603 -372 0
6604 -6603 372 0
6604 6603 -372 0
-6605 6604 375 0
-6605 -6604 -375 0
6605 -6604 375 0
6605 6604 -375 0
-246 -6605 0
-6606 376 379 0
-6606 -376 -379 0
6606 -376 379 0
6606 376 -379 0
-6607 6606 380 0
-6607 -6606 -380 0
6607 -6606 380 0
6607 6606 -380 0
-6608 6607 381 0
-6608 -6607 -381 0
6608 -6607 381 0
6608 6607 -381 0
-6609 6608 384 0
-6609 -6608 -384 0
6609 -6608 384 0
6609 6608 -384 0
-6610 6609 386 0
-6610 -6609 -386 0
6610 -6609 386 0
6610 6609 -386 0
-6611 6610 387 0
-6611 -6610 -387 0
6611 -6610 387 0
6611 6610 -387 0
-6612 6611 390 0
-6612 -6611 -390 0
6612 -6611 390 0
6612 6611 -390 0
-246 -6612 0
-6613 316 317 0
-6613 -316 -317 0
6613 -316 317 0
6613 316 -317 0
-6614 6613 320 0
-6614 -6613 -320 0
6614 -6613 320 0
6614 6613 -320 0
-6615 6614 323 0
-6615 -6614 -323 0
6615 -6614 323 0
6615 6614 -323 0
-6616 6615 324 0
-6616 -6615 -324 0
6616 -6615 324 0
6616 6615 -324 0
-6617 6616 326 0
-6617 -6616 -326 0
6617 -6616 326 0
6617 6616 -326 0
-6618 6617 327 0
-6618 -6617 -327 0
6618 -6617 327 0
6618 6617 -327 0
-6619 6618 330 0
-6619 -6618 -330 0
6619 -6618 330 0
6619 6618 -330 0
-247 -6619 0
-6620 331 332 0
-6620 -331 -332 0
6620 -331 332 0
6620 331 -332 0
-6621 6620 335 0
-6621 -6620 -335 0
6621 -6620 335 0
6621 6620 -335 0
-6622 6621 338 0
-6622 -6621 -338 0
6622 -6621 338 0
6622 6621 -338 0
-6623 6622 339 0
-6623 -6622 -339 0
6623 -6622 339 0
6623 6622 -339 0
-6624 6623 341 0
-6624 -6623 -341 0
6624 -6623 341 0
6624 6623 -341 0
-6625 6624 342 0
-6625 -6624 -342 0
6625 -6624 342 0
6625 6624 -342 0
-6626 6625 345 0
-6626 -6625 -345 0
6626 -6625 345 0
6626 6625 -345 0
-247 -6626 0
-6627 346 347 0
-6627 -346 -347 0
6627 -346 347 0
6627 346 -347 0
-6628 6627 350 0
-6628 -6627 -350 0
6628 -6627 350 0
6628 6627 -350 0
-6629 6628 353 0
-6629 -6628 -353 0
6629 -6628 353 0
6629 6628 -353 0
-6630 6629 354 0
-6630 -6629 -354 0
6630 -6629 354 0
6630 6629 -354 0
-6631 6630 356 0
-6631 -6630 -356 0
6631 -6630 356 0
6631 6630 -356 0
-6632 6631 357 0
-6632 -6631 -357 0
6632 -6631 357 0
6632 6631 -357 0
-6633 6632 360 0
-6633 -6632 -360 0
6633 -6632 360 0
6633 6632 -360 0
-247 -6633 0
-6634 361 362 0
-6634 -361 -362 0
6634 -361 362 0
6634 361 -362 0
-6635 6634 365 0
-6635 -6634 -365 0
6635 -6634 365 0
6635 6634 -365 0
-6636 6635 368 0
-6636 -6635 -368 0
6636 -6635 368 0
6636 6635 -368 0
-6637 6636 369 0
-6637 -6636 -369 0
6637 -6636 369 0
6637 6636 -369 0
-6638 6637 371 0
-6638 -6637 -371 0
6638 -6637 371 0
6638 6637 -371 0
-6639 6638 372 0
-6639 -6638 -372 0
6639 -6638 372 0
6639 6638 -372 0
-6640 6639 375 0
-6640 -6639 -375 0
6640 -6639 375 0
6640 6639 -375 0
-247 -6640 0
-6641 376 377 0
-6641 -376 -377 0
6641 -376 377 0
6641 376 -377 0
-6642 6641 380 0
-6642 -6641 -380 0
6642 -6641 380 0
6642 6641 -380 0
-6643 6642 383 0
-6643 -6642 -383 0
6643 -6642 383 0
6643 6642 -383 0
-6644 6643 384 0
-6644 -6643 -384 0
6644 -6643 384 0
6644 6643 -384 0
-6645 6644 386 0
-6645 -6644 -386 0
6645 -6644 386 0
6645 6644 -386 0
-6646 6645 387 0
-6646 -6645 -387 0
6646 -6645 387 0
6646 6645 -387 0
-6647 6646 390 0
-6647 -6646 -390 0
6647 -6646 390 0
6647 6646 -390 0
-247 -6647 0
-6648 318 320 0
-6648 -318 -320 0
6648 -318 320 0
6648 318 -320 0
-6649 6648 322 0
-6649 -6648 -322 0
6649 -6648 322 0
6649 6648 -322 0
-6650 6649 324 0
-6650 -6649 -324 0
6650 -6649 324 0
6650 6649 -324 0
-6651 6650 325 0
-6651 -6650 -325 0
6651 -6650 325 0
6651 6650 -325 0
-6652 6651 327 0
-6652 -6651 -327 0
6652 -6651 327 0
6652 6651 -327 0
-6653 6652 328 0
-6653 -6652 -328 0
6653 -6652 328 0
6653 6652 -328 0
-6654 6653 330 0
-6654 -6653 -330 0
6654 -6653 330 0
6654 6653 -330 0
-248 -6654 0
-6655 333 335 0
-6655 -333 -335 0
6655 -333 335 0
6655 333 -335 0
-6656 6655 337 0
-6656 -6655 -337 0
6656 -6655 337 0
6656 6655 -337 0
-6657 6656 339 0
-6657 -6656 -339 0
6657 -6656 339 0
6657 6656 -339 0
-6658 6657 340 0
-6658 -6657 -340 0
6658 -6657 340 0
6658 6657 -340 0
-6659 6658 342 0
-6659 -6658 -342 0
6659 -6658 342 0
6659 6658 -342 0
-6660 6659 343 0
-6660 -6659 -343 0
6660 -6659 343 0
6660 6659 -343 0
-6661 6660 345 0
-6661 -6660 -345 0
6661 -6660 345 0
6661 6660 -345 0
-248 -6661 0
-6662 348 350 0
-6662 -348 -350 0
6662 -348 350 0
6662 348 -350 0
-6663 6662 352 0
-6663 -6662 -352 0
6663 -6662 352 0
6663 6662 -352 0
-6664 6663 354 0
-6664 -6663 -354 0
6664 -6663 354 0
6664 6663 -354 0
-6665 6664 355 0
-6665 -6664 -355 0
6665 -6664 355 0
6665 6664 -355 0
-6666 6665 357 0
-6666 -6665 -357 0
6666 -6665 357 0
6666 6665 -357 0
-6667 6666 358 0
-6667 -6666 -358 0
6667 -6666 358 0
6667 6666 -358 0
-6668 6667 360 0
-6668 -6667 -360 0
6668 -6667 360 0
6668 6667 -360 0
-248 -6668 0
-6669 363 365 0
-6669 -363 -365 0
6669 -363 365 0
6669 363 -365 0
-6670 6669 367 0
-6670 -6669 -367 0
6670 -6669 367 0
6670 6669 -367 0
-6671 6670 369 0
-6671 -6670 -369 0
6671 -6670 369 0
6671 6670 -369 0
-6672 6671 370 0
-6672 -6671 -370 0
6672 -6671 370 0
6672 6671 -370 0
-6673 6672 372 0
-6673 -6672 -372 0
6673 -6672 372 0
6673 6672 -372 0
-6674 6673 373 0
-6674 -6673 -373 0
6674 -6673 373 0
6674 6673 -373 0
-6675 6674 375 0
-6675 -6674 -375 0
6675 -6674 375 0
6675 6674 -375 0
-248 -6675 0
-6676 378 380 0
-6676 -378 -380 0
6676 -378 380 0
6676 378 -380 0
-6677 6676 382 0
-6677 -6676 -382 0
6677 -6676 382 0
6677 6676 -382 0
-6678 6677 384 0
-6678 -6677 -384 0
6678 -6677 384 0
6678 6677 -384 0
-6679 6678 385 0
-6679 -6678 -385 0
6679 -6678 385 0
6679 6678 -385 0
-6680 6679 387 0
-6680 -6679 -387 0
6680 -6679 387 0
6680 6679 -387 0
-6681 6680 388 0
-6681 -6680 -388 0
6681 -6680 388 0
6681 6680 -388 0
-6682 6681 390 0
-6682 -6681 -390 0
6682 -6681 390 0
6682 6681 -390 0
-248 -6682 0
-6683 317 318 0
-6683 -317 -318 0
6683 -317 318 0
6683 317 -318 0
-6684 6683 319 0
-6684 -6683 -319 0
6684 -6683 319 0
6684 6683 -319 0
-6685 6684 320 0
-6685 -6684 -320 0
6685 -6684 320 0
6685 6684 -320 0
-6686 6685 321 0
-6686 -6685 -321 0
6686 -6685 321 0
6686 6685 -321 0
-6687 6686 322 0
-6687 -6686 -322 0
6687 -6686 322 0
6687 6686 -322 0
-6688 6687 323 0
-6688 -6687 -323 0
6688 -6687 323 0
6688 6687 -323 0
-6689 6688 324 0
-6689 -6688 -324 0
6689 -6688 324 0
6689 6688 -324 0
-6690 6689 325 0
-6690 -6689 -325 0
6690 -6689 325 0
6690 6689 -325 0
-6691 6690 327 0
-6691 -6690 -327 0
6691 -6690 327 0
6691 6690 -327 0
-6692 6691 328 0
-6692 -6691 -328 0
6692 -6691 328 0
6692 6691 -328 0
-6693 6692 330 0
-6693 -6692 -330 0
6693 -6692 330 0
6693 6692 -330 0
-249 -6693 0
-6694 332 333 0
-6694 -332 -333 0
6694 -332 333 0
6694 332 -333 0
-6695 6694 334 0
-6695 -6694 -334 0
6695 -6694 334 0
6695 6694 -334 0
-6696 6695 335 0
-6696 -6695 -335 0
6696 -6695 335 0
6696 6695 -335 0
-6697 6696 336 0
-6697 -6696 -336 0
6697 -6696 336 0
6697 6696 -336 0
-6698 6697 337 0
-6698 -6697 -337 0
6698 -6697 337 0
6698 6697 -337 0
-6699 6698 338 0
-6699 -6698 -338 0
6699 -6698 338 0
6699 6698 -338 0
-6700 6699 339 0
-6700 -6699 -339 0
6700 -6699 339 0
6700 6699 -339 0
-6701 6700 340 0
-6701 -6700 -340 0
6701 -6700 340 0
6701 6700 -340 0
-6702 6701 342 0
-6702 -6701 -342 0
6702 -6701 342 0
6702 6701 -342 0
-6703 6702 343 0
-6703 -6702 -343 0
6703 -6702 343 0
6703 6702 -343 0
-6704 6703 345 0
-6704 -6703 -345 0
6704 -6703 345 0
6704 6703 -345 0
-249 -6704 0
-6705 347 348 0
-6705 -347 -348 0
6705 -347 348 0
6705 347 -348 0
-6706 6705 349 0
-6706 -6705 -349 0
6706 -6705 349 0
6706 6705 -349 0
-6707 6706 350 0
-6707 -6706 -350 0
6707 -6706 350 0
6707 6706 -350 0
-6708 6707 351 0
-6708 -6707 -351 0
6708 -6707 351 0
6708 6707 -351 0
-6709 6708 352 0
-6709 -6708 -352 0
6709 -6708 352 0
6709 6708 -352 0
-6710 6709 353 0
-6710 -6709 -353 0
6710 -6709 353 0
6710 6709 -353 0
-6711 6710 354 0
-6711 -6710 -354 0
6711 -6710 354 0
6711 6710 -354 0
-6712 6711 355 0
-6712 -6711 -355 0
6712 -6711 355 0
6712 6711 -355 0
-6713 6712 357 0
-6713 -6712 -357 0
6713 -6712 357 0
6713 6712 -357 0
-6714 6713 358 0
-6714 -6713 -358 0
6714 -6713 358 0
6714 6713 -358 0
-6715 6714 360 0
-6715 -6714 -360 0
6715 -6714 360 0
6715 6714 -360 0
-249 -6715 0
-6716 362 363 0
-6716 -362 -363 0
6716 -362 363 0
6716 362 -363 0
-6717 6716 364 0
-6717 -6716 -364 0
6717 -6716 364 0
6717 6716 -364 0
-6718 6717 365 0
-6718 -6717 -365 0
6718 -6717 365 0
6718 6717 -365 0
-6719 6718 366 0
-6719 -6718 -366 0
6719 -6718 366 0
6719 6718 -366 0
-6720 6719 367 0
-6720 -6719 -367 0
6720 -6719 367 0
6720 6719 -367 0
-6721 6720 368 0
-6721 -6720 -368 0
6721 -6720 368 0
6721 6720 -368 0
-6722 6721 369 0
-6722 -6721 -369 0
6722 -6721 369 0
6722 6721 -369 0
-6723 6722 370 0
-6723 -6722 -370 0
6723 -6722 370 0
6723 6722 -370 0
-6724 6723 372 0
-6724 -6723 -372 0
6724 -6723 372 0
6724 6723 -372 0
-6725 6724 373 0
-6725 -6724 -373 0
6725 -6724 373 0
6725 6724 -373 0
-6726 6725 375 0
-6726 -6725 -375 0
6726 -6725 375 0
6726 6725 -375 0
-249 -6726 0
-6727 377 378 0
-6727 -377 -378 0
6727 -377 378 0
6727 377 -378 0
-6728 6727 379 0
-6728 -6727 -379 0
6728 -6727 379 0
6728 6727 -379 0
-6729 6728 380 0
-6729 -6728 -380 0
6729 -6728 380 0
6729 6728 -380 0
-6730 6729 381 0
-6730 -6729 -381 0
6730 -6729 381 0
6730 6729 -381 0
-6731 6730 382 0
-6731 -6730 -382 0
6731 -6730 382 0
6731 6730 -382 0
-6732 6731 383 0
-6732 -6731 -383 0
6732 -6731 383 0
6732 6731 -383 0
-6733 6732 384 0
-6733 -6732 -384 0
6733 -6732 384 0
6733 6732 -384 0
-6734 6733 385 0
-6734 -6733 -385 0
6734 -6733 385 0
6734 6733 -385 0
-6735 6734 387 0
-6735 -6734 -387 0
6735 -6734 387 0
6735 6734 -387 0
-6736 6735 388 0
-6736 -6735 -388 0
6736 -6735 388 0
6736 6735 -388 0
-6737 6736 390 0
-6737 -6736 -390 0
6737 -6736 390 0
6737 6736 -390 0
-249 -6737 0
-6738 317 318 0
-6738 -317 -318 0
6738 -317 318 0
6738 317 -318 0
-6739 6738 320 0
-6739 -6738 -320 0
6739 -6738 320 0
6739 6738 -320 0
-6740 6739 321 0
-6740 -6739 -321 0
6740 -6739 321 0
6740 6739 -321 0
-6741 6740 322 0
-6741 -6740 -322 0
6741 -6740 322 0
6741 6740 -322 0
-6742 6741 324 0
-6742 -6741 -324 0
6742 -6741 324 0
6742 6741 -324 0
-6743 6742 325 0
-6743 -6742 -325 0
6743 -6742 325 0
6743 6742 -325 0
-6744 6743 326 0
-6744 -6743 -326 0
6744 -6743 326 0
6744 6743 -326 0
-6745 6744 327 0
-6745 -6744 -327 0
6745 -6744 327 0
6745 6744 -327 0
-6746 6745 328 0
-6746 -6745 -328 0
6746 -6745 328 0
6746 6745 -328 0
-6747 6746 330 0
-6747 -6746 -330 0
6747 -6746 330 0
6747 6746 -330 0
-250 -6747 0
-6748 332 333 0
-6748 -332 -333 0
6748 -332 333 0
6748 332 -333 0
-6749 6748 335 0
-6749 -6748 -335 0
6749 -6748 335 0
6749 6748 -335 0
-6750 6749 336 0
-6750 -6749 -336 0
6750 -6749 336 0
6750 6749 -336 0
-6751 6750 337 0
-6751 -6750 -337 0
6751 -6750 337 0
6751 6750 -337 0
-6752 6751 339 0
-6752 -6751 -339 0
6752 -6751 339 0
6752 6751 -339 0
-6753 6752 340 0
-6753 -6752 -340 0
6753 -6752 340 0
6753 6752 -340 0
-6754 6753 341 0
-6754 -6753 -341 0
6754 -6753 341 0
6754 6753 -341 0
-6755 6754 342 0
-6755 -6754 -342 0
6755 -6754 342 0
6755 6754 -342 0
-6756 6755 343 0
-6756 -6755 -343 0
6756 -6755 343 0
6756 6755 -343 0
-6757 6756 345 0
-6757 -6756 -345 0
6757 -6756 345 0
6757 6756 -345 0
-250 -6757 0
-6758 347 348 0
-6758 -347 -348 0
6758 -347 348 0
6758 347 -348 0
-6759 6758 350 0
-6759 -6758 -350 0
6759 -6758 350 0
6759 6758 -350 0
-6760 6759 351 0
-6760 -6759 -351 0
6760 -6759 351 0
6760 6759 -351 0
-6761 6760 352 0
-6761 -6760 -352 0
6761 -6760 352 0
6761 6760 -352 0
-6762 6761 354 0
-6762 -6761 -354 0
6762 -6761 354 0
6762 6761 -354 0
-6763 6762 355 0
-6763 -6762 -355 0
6763 -6762 355 0
6763 6762 -355 0
-6764 6763 356 0
-6764 -6763 -356 0
6764 -6763 356 0
6764 6763 -356 0
-6765 6764 357 0
-6765 -6764 -357 0
6765 -6764 357 0
6765 6764 -357 0
-6766 6765 358 0
-6766 -6765 -358 0
6766 -6765 358 0
6766 6765 -358 0
-6767 6766 360 0
-6767 -6766 -360 0
6767 -6766 360 0
6767 6766 -360 0
-250 -6767 0
-6768 362 363 0
-6768 -362 -363 0
6768 -362 363 0
6768 362 -363 0
-6769 6768 365 0
-6769 -6768 -365 0
6769 -6768 365 0
6769 6768 -365 0
-6770 6769 366 0
-6770 -6769 -366 0
6770 -6769 366 0
6770 6769 -366 0
-6771 6770 367 0
-6771 -6770 -367 0
6771 -6770 367 0
6771 6770 -367 0
-6772 6771 369 0
-6772 -6771 -369 0
6772 -6771 369 0
6772 6771 -369 0
-6773 6772 370 0
-6773 -6772 -370 0
6773 -6772 370 0
6773 6772 -370 0
-6774 6773 371 0
-6774 -6773 -371 0
6774 -6773 371 0
6774 6773 -371 0
-6775 6774 372 0
-6775 -6774 -372 0
6775 -6774 372 0
6775 6774 -372 0
-6776 6775 373 0
-6776 -6775 -373 0
6776 -6775 373 0
6776 6775 -373 0
-6777 6776 375 0
-6777 -6776 -375 0
6777 -6776 375 0
6777 6776 -375 0
-250 -6777 0
-6778 377 378 0
-6778 -377 -378 0
6778 -377 378 0
6778 377 -378 0
-6779 6778 380 0
-6779 -6778 -380 0
6779 -6778 380 0
6779 6778 -380 0
-6780 6779 381 0
-6780 -6779 -381 0
6780 -6779 381 0
6780 6779 -381 0
-6781 6780 382 0
-6781 -6780 -382 0
6781 -6780 382 0
6781 6780 -382 0
-6782 6781 384 0
-6782 -6781 -384 0
6782 -6781 384 0
6782 6781 -384 0
-6783 6782 385 0
-6783 -6782 -385 0
6783 -6782 385 0
6783 6782 -385 0
-6784 6783 386 0
-6784 -6783 -386 0
6784 -6783 386 0
6784 6783 -386 0
-6785 6784 387 0
-6785 -6784 -387 0
6785 -6784 387 0
6785 6784 -387 0
-6786 6785 388 0
-6786 -6785 -388 0
6786 -6785 388 0
6786 6785 -388 0
-6787 6786 390 0
-6787 -6786 -390 0
6787 -6786 390 0
6787 6786 -390 0
-250 -6787 0
-6788 318 319 0
-6788 -318 -319 0
6788 -318 319 0
6788 318 -319 0
-6789 6788 320 0
-6789 -6788 -320 0
6789 -6788 320 0
6789 6788 -320 0
-6790 6789 322 0
-6790 -6789 -322 0
6790 -6789 322 0
6790 6789 -322 0
-6791 6790 323 0
-6791 -6790 -323 0
6791 -6790 323 0
6791 6790 -323 0
-6792 6791 324 0
-6792 -6791 -324 0
6792 -6791 324 0
6792 6791 -324 0
-6793 6792 325 0
-6793 -6792 -325 0
6793 -6792 325 0
6793 6792 -325 0
-6794 6793 326 0
-6794 -6793 -326 0
6794 -6793 326 0
6794 6793 -326 0
-6795 6794 327 0
-6795 -6794 -327 0
6795 -6794 327 0
6795 6794 -327 0
-6796 6795 328 0
-6796 -6795 -328 0
6796 -6795 328 0
6796 6795 -328 0
-6797 6796 330 0
-6797 -6796 -330 0
6797 -6796 330 0
6797 6796 -330 0
-251 -6797 0
-6798 333 334 0
-6798 -333 -334 0
6798 -333 334 0
6798 333 -334 0
-6799 6798 335 0
-6799 -6798 -335 0
6799 -6798 335 0
6799 6798 -335 0
-6800 6799 337 0
-6800 -6799 -337 0
6800 -6799 337 0
6800 6799 -337 0
-6801 6800 338 0
-6801 -6800 -338 0
6801 -6800 338 0
6801 6800 -338 0
-6802 6801 339 0
-6802 -6801 -339 0
6802 -6801 339 0
6802 6801 -339 0
-6803 6802 340 0
-6803 -6802 -340 0
6803 -6802 340 0
6803 6802 -340 0
-6804 6803 341 0
-6804 -6803 -341 0
6804 -6803 341 0
6804 6803 -341 0
-6805 6804 342 0
-6805 -6804 -342 0
6805 -6804 342 0
6805 6804 -342 0
-6806 6805 343 0
-6806 -6805 -343 0
6806 -6805 343 0
6806 6805 -343 0
-6807 6806 345 0
-6807 -6806 -345 0
6807 -6806 345 0
6807 6806 -345 0
-251 -6807 0
-6808 348 349 0
-6808 -348 -349 0
6808 -348 349 0
6808 348 -349 0
-6809 6808 350 0
-6809 -6808 -350 0
6809 -6808 350 0
6809 6808 -350 0
-6810 6809 352 0
-6810 -6809 -352 0
6810 -6809 352 0
6810 6809 -352 0
-6811 6810 353 0
-6811 -6810 -353 0
6811 -6810 353 0
6811 6810 -353 0
-6812 6811 354 0
-6812 -6811 -354 0
6812 -6811 354 0
6812 6811 -354 0
-6813 6812 355 0
-6813 -6812 -355 0
6813 -6812 355 0
6813 6812 -355 0
-6814 6813 356 0
-6814 -6813 -356 0
6814 -6813 356 0
6814 6813 -356 0
-6815 6814 357 0
-6815 -6814 -357 0
6815 -6814 357 0
6815 6814 -357 0
-6816 6815 358 0
-6816 -6815 -358 0
6816 -6815 358 0
6816 6815 -358 0
-6817 6816 360 0
-6817 -6816 -360 0
6817 -6816 360 0
6817 6816 -360 0
-251 -6817 0
-6818 363 364 0
-6818 -363 -364 0
6818 -363 364 0
6818 363 -364 0
-6819 6818 365 0
-6819 -6818 -365 0
6819 -6818 365 0
6819 6818 -365 0
-6820 6819 367 0
-6820 -6819 -367 0
6820 -6819 367 0
6820 6819 -367 0
-6821 6820 368 0
-6821 -6820 -368 0
6821 -6820 368 0
6821 6820 -368 0
-6822 6821 369 0
-6822 -6821 -369 0
6822 -6821 369 0
6822 6821 -369 0
-6823 6822 370 0
-6823 -6822 -370 0
6823 -6822 370 0
6823 6822 -370 0
-6824 6823 371 0
-6824 -6823 -371 0
6824 -6823 371 0
6824 6823 -371 0
-6825 6824 372 0
-6825 -6824 -372 0
6825 -6824 372 0
6825 6824 -372 0
-6826 6825 373 0
-6826 -6825 -373 0
6826 -6825 373 0
6826 6825 -373 0
-6827 6826 375 0
-6827 -6826 -375 0
6827 -6826 375 0
6827 6826 -375 0
-251 -6827 0
-6828 378 379 0
-6828 -378 -379 0
6828 -378 379 0
6828 378 -379 0
-6829 6828 380 0
-6829 -6828 -380 0
6829 -6828 380 0
6829 6828 -380 0
-6830 6829 382 0
-6830 -6829 -382 0
6830 -6829 382 0
6830 6829 -382 0
-6831 6830 383 0
-6831 -6830 -383 0
6831 -6830 383 0
6831 6830 -383 0
-6832 6831 384 0
-6832 -6831 -384 0
6832 -6831 384 0
6832 6831 -384 0
-6833 6832 385 0
-6833 -6832 -385 0
6833 -6832 385 0
6833 6832 -385 0
-6834 6833 386 0
-6834 -6833 -386 0
6834 -6833 386 0
6834 6833 -386 0
-6835 6834 387 0
-6835 -6834 -387 0
6835 -6834 387 0
6835 6834 -387 0
-6836 6835 388 0
-6836 -6835 -388 0
6836 -6835 388 0
6836 6835 -388 0
-6837 6836 390 0
-6837 -6836 -390 0
6837 -6836 390 0
6837 6836 -390 0
-251 -6837 0
-6838 325 326 0
-6838 -325 -326 0
6838 -325 326 0
6838 325 -326 0
-6839 6838 329 0
-6839 -6838 -329 0
6839 -6838 329 0
6839 6838 -329 0
-6840 6839 330 0
-6840 -6839 -330 0
6840 -6839 330 0
6840 6839 -330 0
-252 -6840 0
-6841 340 341 0
-6841 -340 -341 0
6841 -340 341 0
6841 340 -341 0
-6842 6841 344 0
-6842 -6841 -344 0
6842 -6841 344 0
6842 6841 -344 0
-6843 6842 345 0
-6843 -6842 -345 0
6843 -6842 345 0
6843 6842 -345 0
-252 -6843 0
-6844 355 356 0
-6844 -355 -356 0
6844 -355 356 0
6844 355 -356 0
-6845 6844 359 0
-6845 -6844 -359 0
6845 -6844 359 0
6845 6844 -359 0
-6846 6845 360 0
-6846 -6845 -360 0
6846 -6845 360 0
6846 6845 -360 0
-252 -6846 0
-6847 370 371 0
-6847 -370 -371 0
6847 -370 371 0
6847 370 -371 0
-6848 6847 374 0
-6848 -6847 -374 0
6848 -6847 374 0
6848 6847 -374 0
-6849 6848 375 0
-6849 -6848 -375 0
6849 -6848 375 0
6849 6848 -375 0
-252 -6849 0
-6850 385 386 0
-6850 -385 -386 0
6850 -385 386 0
6850 385 -386 0
-6851 6850 389 0
-6851 -6850 -389 0
6851 -6850 389 0
6851 6850 -389 0
-6852 6851 390 0
-6852 -6851 -390 0
6852 -6851 390 0
6852 6851 -390 0
-252 -6852 0
-6853 318 319 0
-6853 -318 -319 0
6853 -318 319 0
6853 318 -319 0
-6854 6853 325 0
-6854 -6853 -325 0
6854 -6853 325 0
6854 6853 -325 0
-6855 6854 326 0
-6855 -6854 -326 0
6855 -6854 326 0
6855 6854 -326 0
-6856 6855 329 0
-6856 -6855 -329 0
6856 -6855 329 0
6856 6855 -329 0
-6857 6856 330 0
-6857 -6856 -330 0
6857 -6856 330 0
6857 6856 -330 0
-253 -6857 0
-6858 333 334 0
-6858 -333 -334 0
6858 -333 334 0
6858 333 -334 0
-6859 6858 340 0
-6859 -6858 -340 0
6859 -6858 340 0
6859 6858 -340 0
-6860 6859 341 0
-6860 -6859 -341 0
6860 -6859 341 0
6860 6859 -341 0
-6861 6860 344 0
-6861 -6860 -344 0
6861 -6860 344 0
6861 6860 -344 0
-6862 6861 345 0
-6862 -6861 -345 0
6862 -6861 345 0
6862 6861 -345 0
-253 -6862 0
-6863 348 349 0
-6863 -348 -349 0
6863 -348 349 0
6863 348 -349 0
-6864 6863 355 0
-6864 -6863 -355 0
6864 -6863 355 0
6864 6863 -355 0
-6865 6864 356 0
-6865 -6864 -356 0
6865 -6864 356 0
6865 6864 -356 0
-6866 6865 359 0
-6866 -6865 -359 0
6866 -6865 359 0
6866 6865 -359 0
-6867 6866 360 0
-6867 -6866 -360 0
6867 -6866 360 0
6867 6866 -360 0
-253 -6867 0
-6868 363 364 0
-6868 -363 -364 0
6868 -363 364 0
6868 363 -364 0
-6869 6868 370 0
-6869 -6868 -370 0
6869 -6868 370 0
6869 6868 -370 0
-6870 6869 371 0
-6870 -6869 -371 0
6870 -6869 371 0
6870 6869 -371 0
-6871 6870 374 0
-6871 -6870 -374 0
6871 -6870 374 0
6871 6870 -374 0
-6872 6871 375 0
-6872 -6871 -375 0
6872 -6871 375 0
6872 6871 -375 0
-253 -6872 0
-6873 378 379 0
-6873 -378 -379 0
6873 -378 379 0
6873 378 -379 0
-6874 6873 385 0
-6874 -6873 -385 0
6874 -6873 385 0
6874 6873 -385 0
-6875 6874 386 0
-6875 -6874 -386 0
6875 -6874 386 0
6875 6874 -386 0
-6876 6875 389 0
-6876 -6875 -389 0
6876 -6875 389 0
6876 6875 -389 0
-6877 6876 390 0
-6877 -6876 -390 0
6877 -6876 390 0
6877 6876 -390 0
-253 -6877 0
-6878 322 323 0
-6878 -322 -323 0
6878 -322 323 0
6878 322 -323 0
-6879 6878 325 0
-6879 -6878 -325 0
6879 -6878 325 0
6879 6878 -325 0
-6880 6879 326 0
-6880 -6879 -326 0
6880 -6879 326 0
6880 6879 -326 0
-6881 6880 329 0
-6881 -6880 -329 0
6881 -6880 329 0
6881 6880 -329 0
-6882 6881 330 0
-6882 -6881 -330 0
6882 -6881 330 0
6882 6881 -330 0
-254 -6882 0
-6883 337 338 0
-6883 -337 -338 0
6883 -337 338 0
6883 337 -338 0
-6884 6883 340 0
-6884 -6883 -340 0
6884 -6883 340 0
6884 6883 -340 0
-6885 6884 341 0
-6885 -6884 -341 0
6885 -6884 341 0
6885 6884 -341 0
-6886 6885 344 0
-6886 -6885 -344 0
6886 -6885 344 0
6886 6885 -344 0
-6887 6886 345 0
-6887 -6886 -345 0
6887 -6886 345 0
6887 6886 -345 0
-254 -6887 0
-6888 352 353 0
-6888 -352 -353 0
6888 -352 353 0
6888 352 -353 0
-6889 6888 355 0
-6889 -6888 -355 0
6889 -6888 355 0
6889 6888 -355 0
-6890 6889 356 0
-6890 -6889 -356 0
6890 -6889 356 0
6890 6889 -356 0
-6891 6890 359 0
-6891 -6890 -359 0
6891 -6890 359 0
6891 6890 -359 0
-6892 6891 360 0
-6892 -6891 -360 0
6892 -6891 360 0
6892 6891 -360 0
-254 -6892 0
-6893 367 368 0
-6893 -367 -368 0
6893 -367 368 0
6893 367 -368 0
-6894 6893 370 0
-6894 -6893 -370 0
6894 -6893 370 0
6894 6893 -370 0
-6895 6894 371 0
-6895 -6894 -371 0
6895 -6894 371 0
6895 6894 -371 0
-6896 6895 374 0
-6896 -6895 -374 0
6896 -6895 374 0
6896 6895 -374 0
-6897 6896 375 0
-6897 -6896 -375 0
6897 -6896 375 0
6897 6896 -375 0
-254 -6897 0
-6898 382 383 0
-6898 -382 -383 0
6898 -382 383 0
6898 382 -383 0
-6899 6898 385 0
-6899 -6898 -385 0
6899 -6898 385 0
6899 6898 -385 0
-6900 6899 386 0
-6900 -6899 -386 0
6900 -6899 386 0
6900 6899 -386 0
-6901 6900 389 0
-6901 -6900 -389 0
6901 -6900 389 0
6901 6900 -389 0
-6902 6901 390 0
-6902 -6901 -390 0
6902 -6901 390 0
6902 6901 -390 0
-254 -6902 0
-6903 318 319 0
-6903 -318 -319 0
6903 -318 319 0
6903 318 -319 0
-6904 6903 322 0
-6904 -6903 -322 0
6904 -6903 322 0
6904 6903 -322 0
-6905 6904 323 0
-6905 -6904 -323 0
6905 -6904 323 0
6905 6904 -323 0
-6906 6905 325 0
-6906 -6905 -325 0
6906 -6905 325 0
6906 6905 -325 0
-6907 6906 326 0
-6907 -6906 -326 0
6907 -6906 326 0
6907 6906 -326 0
-6908 6907 329 0
-6908 -6907 -329 0
6908 -6907 329 0
6908 6907 -329 0
-6909 6908 330 0
-6909 -6908 -330 0
6909 -6908 330 0
6909 6908 -330 0
-255 -6909 0
-6910 333 334 0
-6910 -333 -334 0
6910 -333 334 0
6910 333 -334 0
-6911 6910 337 0
-6911 -6910 -337 0
6911 -6910 337 0
6911 6910 -337 0
-6912 6911 338 0
-6912 -6911 -338 0
6912 -6911 338 0
6912 6911 -338 0
-6913 6912 340 0
-6913 -6912 -340 0
6913 -6912 340 0
6913 6912 -340 0
-6914 6913 341 0
-6914 -6913 -341 0
6914 -6913 341 0
6914 6913 -341 0
-6915 6914 344 0
-6915 -6914 -344 0
6915 -6914 344 0
6915 6914 -344 0
-6916 6915 345 0
-6916 -6915 -345 0
6916 -6915 345 0
6916 6915 -345 0
-255 -6916 0
-6917 348 349 0
-6917 -348 -349 0
6917 -348 349 0
6917 348 -349 0
-6918 6917 352 0
-6918 -6917 -352 0
6918 -6917 352 0
6918 6917 -352 0
-6919 6918 353 0
-6919 -6918 -353 0
6919 -6918 353 0
6919 6918 -353 0
-6920 6919 355 0
-6920 -6919 -355 0
6920 -6919 355 0
6920 6919 -355 0
-6921 6920 356 0
-6921 -6920 -356 0
6921 -6920 356 0
6921 6920 -356 0
-6922 6921 359 0
-6922 -6921 -359 0
6922 -6921 359 0
6922 6921 -359 0
-6923 6922 360 0
-6923 -6922 -360 0
6923 -6922 360 0
6923 6922 -360 0
-255 -6923 0
-6924 363 364 0
-6924 -363 -364 0
6924 -363 364 0
6924 363 -364 0
-6925 6924 367 0
-6925 -6924 -367 0
6925 -6924 367 0
6925 6924 -367 0
-6926 6925 368 0
-6926 -6925 -368 0
6926 -6925 368 0
6926 6925 -368 0
-6927 6926 370 0
-6927 -6926 -370 0
6927 -6926 370 0
6927 6926 -370 0
-6928 6927 371 0
-6928 -6927 -371 0
6928 -6927 371 0
6928 6927 -371 0
-6929 6928 374 0
-6929 -6928 -374 0
6929 -6928 374 0
6929 6928 -374 0
-6930 6929 375 0
-6930 -6929 -375 0
6930 -6929 375 0
6930 6929 -375 0
-255 -6930 0
-6931 378 379 0
-6931 -378 -379 0
6931 -378 379 0
6931 378 -379 0
-6932 6931 382 0
-6932 -6931 -382 0
6932 -6931 382 0
6932 6931 -382 0
-6933 6932 383 0
-6933 -6932 -383 0
6933 -6932 383 0
6933 6932 -383 0
-6934 6933 385 0
-6934 -6933 -385 0
6934 -6933 385 0
6934 6933 -385 0
-6935 6934 386 0
-6935 -6934 -386 0
6935 -6934 386 0
6935 6934 -386 0
-6936 6935 389 0
-6936 -6935 -389 0
6936 -6935 389 0
6936 6935 -389 0
-6937 6936 390 0
-6937 -6936 -390 0
6937 -6936 390 0
6937 6936 -390 0
-255 -6937 0
-6938 325 326 0
-6938 -325 -326 0
6938 -325 326 0
6938 325 -326 0
-6939 6938 328 0
-6939 -6938 -328 0
6939 -6938 328 0
6939 6938 -328 0
-6940 6939 329 0
-6940 -6939 -329 0
6940 -6939 329 0
6940 6939 -329 0
-6941 6940 330 0
-6941 -6940 -330 0
6941 -6940 330 0
6941 6940 -330 0
-256 -6941 0
-6942 340 341 0
-6942 -340 -341 0
6942 -340 341 0
6942 340 -341 0
-6943 6942 343 0
-6943 -6942 -343 0
6943 -6942 343 0
6943 6942 -343 0
-6944 6943 344 0
-6944 -6943 -344 0
6944 -6943 344 0
6944 6943 -344 0
-6945 6944 345 0
-6945 -6944 -345 0
6945 -6944 345 0
6945 6944 -345 0
-256 -6945 0
-6946 355 356 0
-6946 -355 -356 0
6946 -355 356 0
6946 355 -356 0
-6947 6946 358 0
-6947 -6946 -358 0
6947 -6946 358 0
6947 6946 -358 0
-6948 6947 359 0
-6948 -6947 -359 0
6948 -6947 359 0
6948 6947 -359 0
-6949 6948 360 0
-6949 -6948 -360 0
6949 -6948 360 0
6949 6948 -360 0
-256 -6949 0
-6950 370 371 0
-6950 -370 -371 0
6950 -370 371 0
6950 370 -371 0
-6951 6950 373 0
-6951 -6950 -373 0
6951 -6950 373 0
6951 6950 -373 0
-6952 6951 374 0
-6952 -6951 -374 0
6952 -6951 374 0
6952 6951 -374 0
-6953 6952 375 0
-6953 -6952 -375 0
6953 -6952 375 0
6953 6952 -375 0
-256 -6953 0
-6954 385 386 0
-6954 -385 -386 0
6954 -385 386 0
6954 385 -386 0
-6955 6954 388 0
-6955 -6954 -388 0
6955 -6954 388 0
6955 6954 -388 0
-6956 6955 389 0
-6956 -6955 -389 0
6956 -6955 389 0
6956 6955 -389 0
-6957 6956 390 0
-6957 -6956 -390 0
6957 -6956 390 0
6957 6956 -390 0
-256 -6957 0
-6958 318 319 0
-6958 -318 -319 0
6958 -318 319 0
6958 318 -319 0
-6959 6958 325 0
-6959 -6958 -325 0
6959 -6958 325 0
6959 6958 -325 0
-6960 6959 326 0
-6960 -6959 -326 0
6960 -6959 326 0
6960 6959 -326 0
-6961 6960 328 0
-6961 -6960 -328 0
6961 -6960 328 0
6961 6960 -328 0
-6962 6961 329 0
-6962 -6961 -329 0
6962 -6961 329 0
6962 6961 -329 0
-6963 6962 330 0
-6963 -6962 -330 0
6963 -6962 330 0
6963 6962 -330 0
-257 -6963 0
-6964 333 334 0
-6964 -333 -334 0
6964 -333 334 0
6964 333 -334 0
-6965 6964 340 0
-6965 -6964 -340 0
6965 -6964 340 0
6965 6964 -340 0
-6966 6965 341 0
-6966 -6965 -341 0
6966 -6965 341 0
6966 6965 -341 0
-6967 6966 343 0
-6967 -6966 -343 0
6967 -6966 343 0
6967 6966 -343 0
-6968 6967 344 0
-6968 -6967 -344 0
6968 -6967 344 0
6968 6967 -344 0
-6969 6968 345 0
-6969 -6968 -345 0
6969 -6968 345 0
6969 6968 -345 0
-257 -6969 0
-6970 348 349 0
-6970 -348 -349 0
6970 -348 349 0
6970 348 -349 0
-6971 6970 355 0
-6971 -6970 -355 0
6971 -6970 355 0
6971 6970 -355 0
-6972 6971 356 0
-6972 -6971 -356 0
6972 -6971 356 0
6972 6971 -356 0
-6973 6972 358 0
-6973 -6972 -358 0
6973 -6972 358 0
6973 6972 -358 0
-6974 6973 359 0
-6974 -6973 -359 0
6974 -6973 359 0
6974 6973 -359 0
-6975 6974 360 0
-6975 -6974 -360 0
6975 -6974 360 0
6975 6974 -360 0
-257 -6975 0
-6976 363 364 0
-6976 -363 -364 0
6976 -363 364 0
6976 363 -364 0
-6977 6976 370 0
-6977 -6976 -370 0
6977 -6976 370 0
6977 6976 -370 0
-6978 6977 371 0
-6978 -6977 -371 0
6978 -6977 371 0
6978 6977 -371 0
-6979 6978 373 0
-6979 -6978 -373 0
6979 -6978 373 0
6979 6978 -373 0
-6980 6979 374 0
-6980 -6979 -374 0
6980 -6979 374 0
6980 6979 -374 0
-6981 6980 375 0
-6981 -6980 -375 0
6981 -6980 375 0
6981 6980 -375 0
-257 -6981 0
-6982 378 379 0
-6982 -378 -379 0
6982 -378 379 0
6982 378 -379 0
-6983 6982 385 0
-6983 -6982 -385 0
6983 -6982 385 0
6983 6982 -385 0
-6984 6983 386 0
-6984 -6983 -386 0
6984 -6983 386 0
6984 6983 -386 0
-6985 6984 388 0
-6985 -6984 -388 0
6985 -6984 388 0
6985 6984 -388 0
-6986 6985 389 0
-6986 -6985 -389 0
6986 -6985 389 0
6986 6985 -389 0
-6987 6986 390 0
-6987 -6986 -390 0
6987 -6986 390 0
6987 6986 -390 0
-257 -6987 0
-6988 322 323 0
-6988 -322 -323 0
6988 -322 323 0
6988 322 -323 0
-6989 6988 325 0
-6989 -6988 -325 0
6989 -6988 325 0
6989 6988 -325 0
-6990 6989 326 0
-6990 -6989 -326 0
6990 -6989 326 0
6990 6989 -326 0
-6991 6990 328 0
-6991 -6990 -328 0
6991 -6990 328 0
6991 6990 -328 0
-6992 6991 329 0
-6992 -6991 -329 0
6992 -6991 329 0
6992 6991 -329 0
-6993 6992 330 0
-6993 -6992 -330 0
6993 -6992 330 0
6993 6992 -330 0
-258 -6993 0
-6994 337 338 0
-6994 -337 -338 0
6994 -337 338 0
6994 337 -338 0
-6995 6994 340 0
-6995 -6994 -340 0
6995 -6994 340 0
6995 6994 -340 0
-6996 6995 341 0
-6996 -6995 -341 0
6996 -6995 341 0
6996 6995 -341 0
-6997 6996 343 0
-6997 -6996 -343 0
6997 -6996 343 0
6997 6996 -343 0
-6998 6997 344 0
-6998 -6997 -344 0
6998 -6997 344 0
6998 6997 -344 0
-6999 6998 345 0
-6999 -6998 -345 0
6999 -6998 345 0
6999 6998 -345 0
-258 -6999 0
-7000 352 353 0
-7000 -352 -353 0
7000 -352 353 0
7000 352 -353 0
-7001 7000 355 0
-7001 -7000 -355 0
7001 -7000 355 0
7001 7000 -355 0
-7002 7001 356 0
-7002 -7001 -356 0
7002 -7001 356 0
7002 7001 -356 0
-7003 7002 358 0
-7003 -7002 -358 0
7003 -7002 358 0
7003 7002 -358 0
-7004 7003 359 0
-7004 -7003 -359 0
7004 -7003 359 0
7004 7003 -359 0
-7005 7004 360 0
-7005 -7004 -360 0
7005 -7004 360 0
7005 7004 -360 0
-258 -7005 0
-7006 367 368 0
-7006 -367 -368 0
7006 -367 368 0
7006 367 -368 0
-7007 7006 370 0
-7007 -7006 -370 0
7007 -7006 370 0
7007 7006 -370 0
-7008 7007 371 0
-7008 -7007 -371 0
7008 -7007 371 0
7008 7007 -371 0
-7009 7008 373 0
-7009 -7008 -373 0
7009 -7008 373 0
7009 7008 -373 0
-7010 7009 374 0
-7010 -7009 -374 0
7010 -7009 374 0
7010 7009 -374 0
-7011 7010 375 0
-7011 -7010 -375 0
7011 -7010 375 0
7011 7010 -375 0
-258 -7011 0
-7012 382 383 0
-7012 -382 -383 0
7012 -382 383 0
7012 382 -383 0
-7013 7012 385 0
-7013 -7012 -385 0
7013 -7012 385 0
7013 7012 -385 0
-7014 7013 386 0
-7014 -7013 -386 0
7014 -7013 386 0
7014 7013 -386 0
-7015 7014 388 0
-7015 -7014 -388 0
7015 -7014 388 0
7015 7014 -388 0
-7016 7015 389 0
-7016 -7015 -389 0
7016 -7015 389 0
7016 7015 -389 0
-7017 7016 390 0
-7017 -7016 -390 0
7017 -7016 390 0
7017 7016 -390 0
-258 -7017 0
-7018 318 319 0
-7018 -318 -319 0
7018 -318 319 0
7018 318 -319 0
-7019 7018 322 0
-7019 -7018 -322 0
7019 -7018 322 0
7019 7018 -322 0
-7020 7019 323 0
-7020 -7019 -323 0
7020 -7019 323 0
7020 7019 -323 0
-7021 7020 325 0
-7021 -7020 -325 0
7021 -7020 325 0
7021 7020 -325 0
-7022 7021 326 0
-7022 -7021 -326 0
7022 -7021 326 0
7022 7021 -326 0
-7023 7022 328 0
-7023 -7022 -328 0
7023 -7022 328 0
7023 7022 -328 0
-7024 7023 329 0
-7024 -7023 -329 0
7024 -7023 329 0
7024 7023 -329 0
-7025 7024 330 0
-7025 -7024 -330 0
7025 -7024 330 0
7025 7024 -330 0
-259 -7025 0
-7026 333 334 0
-7026 -333 -334 0
7026 -333 334 0
7026 333 -334 0
-7027 7026 337 0
-7027 -7026 -337 0
7027 -7026 337 0
7027 7026 -337 0
-7028 7027 338 0
-7028 -7027 -338 0
7028 -7027 338 0
7028 7027 -338 0
-7029 7028 340 0
-7029 -7028 -340 0
7029 -7028 340 0
7029 7028 -340 0
-7030 7029 341 0
-7030 -7029 -341 0
7030 -7029 341 0
7030 7029 -341 0
-7031 7030 343 0
-7031 -7030 -343 0
7031 -7030 343 0
7031 7030 -343 0
-7032 7031 344 0
-7032 -7031 -344 0
7032 -7031 344 0
7032 7031 -344 0
-7033 7032 345 0
-7033 -7032 -345 0
7033 -7032 345 0
7033 7032 -345 0
-259 -7033 0
-7034 348 349 0
-7034 -348 -349 0
7034 -348 349 0
7034 348 -349 0
-7035 7034 352 0
-7035 -7034 -352 0
7035 -7034 352 0
7035 7034 -352 0
-7036 7035 353 0
-7036 -7035 -353 0
7036 -7035 353 0
7036 7035 -353 0
-7037 7036 355 0
-7037 -7036 -355 0
7037 -7036 355 0
7037 7036 -355 0
-7038 7037 356 0
-7038 -7037 -356 0
7038 -7037 356 0
7038 7037 -356 0
-7039 7038 358 0
-7039 -7038 -358 0
7039 -7038 358 0
7039 7038 -358 0
-7040 7039 359 0
-7040 -7039 -359 0
7040 -7039 359 0
7040 7039 -359 0
-7041 7040 360 0
-7041 -7040 -360 0
7041 -7040 360 0
7041 7040 -360 0
-259 -7041 0
-7042 363 364 0
-7042 -363 -364 0
7042 -363 364 0
7042 363 -364 0
-7043 7042 367 0
-7043 -7042 -367 0
7043 -7042 367 0
7043 7042 -367 0
-7044 7043 368 0
-7044 -7043 -368 0
7044 -7043 368 0
7044 7043 -368 0
-7045 7044 370 0
-7045 -7044 -370 0
7045 -7044 370 0
7045 7044 -370 0
-7046 7045 371 0
-7046 -7045 -371 0
7046 -7045 371 0
7046 7045 -371 0
-7047 7046 373 0
-7047 -7046 -373 0
7047 -7046 373 0
7047 7046 -373 0
-7048 7047 374 0
-7048 -7047 -374 0
7048 -7047 374 0
7048 7047 -374 0
-7049 7048 375 0
-7049 -7048 -375 0
7049 -7048 375 0
7049 7048 -375 0
-259 -7049 0
-7050 378 379 0
-7050 -378 -379 0
7050 -378 379 0
7050 378 -379 0
-7051 7050 382 0
-7051 -7050 -382 0
7051 -7050 382 0
7051 7050 -382 0
-7052 7051 383 0
-7052 -7051 -383 0
7052 -7051 383 0
7052 7051 -383 0
-7053 7052 385 0
-7053 -7052 -385 0
7053 -7052 385 0
7053 7052 -385 0
-7054 7053 386 0
-7054 -7053 -386 0
7054 -7053 386 0
7054 7053 -386 0
-7055 7054 388 0
-7055 -7054 -388 0
7055 -7054 388 0
7055 7054 -388 0
-7056 7055 389 0
-7056 -7055 -389 0
7056 -7055 389 0
7056 7055 -389 0
-7057 7056 390 0
-7057 -7056 -390 0
7057 -7056 390 0
7057 7056 -390 0
-259 -7057 0
-7058 316 320 0
-7058 -316 -320 0
7058 -316 320 0
7058 316 -320 0
-7059 7058 322 0
-7059 -7058 -322 0
7059 -7058 322 0
7059 7058 -322 0
-7060 7059 323 0
-7060 -7059 -323 0
7060 -7059 323 0
7060 7059 -323 0
-7061 7060 329 0
-7061 -7060 -329 0
7061 -7060 329 0
7061 7060 -329 0
-7062 7061 330 0
-7062 -7061 -330 0
7062 -7061 330 0
7062 7061 -330 0
-260 -7062 0
-7063 331 335 0
-7063 -331 -335 0
7063 -331 335 0
7063 331 -335 0
-7064 7063 337 0
-7064 -7063 -337 0
7064 -7063 337 0
7064 7063 -337 0
-7065 7064 338 0
-7065 -7064 -338 0
7065 -7064 338 0
7065 7064 -338 0
-7066 7065 344 0
-7066 -7065 -344 0
7066 -7065 344 0
7066 7065 -344 0
-7067 7066 345 0
-7067 -7066 -345 0
7067 -7066 345 0
7067 7066 -345 0
-260 -7067 0
-7068 346 350 0
-7068 -346 -350 0
7068 -346 350 0
7068 346 -350 0
-7069 7068 352 0
-7069 -7068 -352 0
7069 -7068 352 0
7069 7068 -352 0
-7070 7069 353 0
-7070 -7069 -353 0
7070 -7069 353 0
7070 7069 -353 0
-7071 7070 359 0
-7071 -7070 -359 0
7071 -7070 359 0
7071 7070 -359 0
-7072 7071 360 0
-7072 -7071 -360 0
7072 -7071 360 0
7072 7071 -360 0
-260 -7072 0
-7073 361 365 0
-7073 -361 -365 0
7073 -361 365 0
7073 361 -365 0
-7074 7073 367 0
-7074 -7073 -367 0
7074 -7073 367 0
7074 7073 -367 0
-7075 7074 368 0
-7075 -7074 -368 0
7075 -7074 368 0
7075 7074 -368 0
-7076 7075 374 0
-7076 -7075 -374 0
7076 -7075 374 0
7076 7075 -374 0
-7077 7076 375 0
-7077 -7076 -375 0
7077 -7076 375 0
7077 7076 -375 0
-260 -7077 0
-7078 376 380 0
-7078 -376 -380 0
7078 -376 380 0
7078 376 -380 0
-7079 7078 382 0
-7079 -7078 -382 0
7079 -7078 382 0
7079 7078 -382 0
-7080 7079 383 0
-7080 -7079 -383 0
7080 -7079 383 0
7080 7079 -383 0
-7081 7080 389 0
-7081 -7080 -389 0
7081 -7080 389 0
7081 7080 -389 0
-7082 7081 390 0
-7082 -7081 -390 0
7082 -7081 390 0
7082 7081 -390 0
-260 -7082 0
-7083 316 318 0
-7083 -316 -318 0
7083 -316 318 0
7083 316 -318 0
-7084 7083 319 0
-7084 -7083 -319 0
7084 -7083 319 0
7084 7083 -319 0
-7085 7084 320 0
-7085 -7084 -320 0
7085 -7084 320 0
7085 7084 -320 0
-7086 7085 322 0
-7086 -7085 -322 0
7086 -7085 322 0
7086 7085 -322 0
-7087 7086 323 0
-7087 -7086 -323 0
7087 -7086 323 0
7087 7086 -323 0
-7088 7087 329 0
-7088 -7087 -329 0
7088 -7087 329 0
7088 7087 -329 0
-7089 7088 330 0
-7089 -7088 -330 0
7089 -7088 330 0
7089 7088 -330 0
-261 -7089 0
-7090 331 333 0
-7090 -331 -333 0
7090 -331 333 0
7090 331 -333 0
-7091 7090 334 0
-7091 -7090 -334 0
7091 -7090 334 0
7091 7090 -334 0
-7092 7091 335 0
-7092 -7091 -335 0
7092 -7091 335 0
7092 7091 -335 0
-7093 7092 337 0
-7093 -7092 -337 0
7093 -7092 337 0
7093 7092 -337 0
-7094 7093 338 0
-7094 -7093 -338 0
7094 -7093 338 0
7094 7093 -338 0
-7095 7094 344 0
-7095 -7094 -344 0
7095 -7094 344 0
7095 7094 -344 0
-7096 7095 345 0
-7096 -7095 -345 0
7096 -7095 345 0
7096 7095 -345 0
-261 -7096 0
-7097 346 348 0
-7097 -346 -348 0
7097 -346 348 0
7097 346 -348 0
-7098 7097 349 0
-7098 -7097 -349 0
7098 -7097 349 0
7098 7097 -349 0
-7099 7098 350 0
-7099 -7098 -350 0
7099 -7098 350 0
7099 7098 -350 0
-7100 7099 352 0
-7100 -7099 -352 0
7100 -7099 352 0
7100 7099 -352 0
-7101 7100 353 0
-7101 -7100 -353 0
7101 -7100 353 0
7101 7100 -353 0
-7102 7101 359 0
-7102 -7101 -359 0
7102 -7101 359 0
7102 7101 -359 0
-7103 7102 360 0
-7103 -7102 -360 0
7103 -7102 360 0
7103 7102 -360 0
-261 -7103 0
-7104 361 363 0
-7104 -361 -363 0
7104 -361 363 0
7104 361 -363 0
-7105 7104 364 0
-7105 -7104 -364 0
7105 -7104 364 0
7105 7104 -364 0
-7106 7105 365 0
-7106 -7105 -365 0
7106 -7105 365 0
7106 7105 -365 0
-7107 7106 367 0
-7107 -7106 -367 0
7107 -7106 367 0
7107 7106 -367 0
-7108 7107 368 0
-7108 -7107 -368 0
7108 -7107 368 0
7108 7107 -368 0
-7109 7108 374 0
-7109 -7108 -374 0
7109 -7108 374 0
7109 7108 -374 0
-7110 7109 375 0
-7110 -7109 -375 0
7110 -7109 375 0
7110 7109 -375 0
-261 -7110 0
-7111 376 378 0
-7111 -376 -378 0
7111 -376 378 0
7111 376 -378 0
-7112 7111 379 0
-7112 -7111 -379 0
7112 -7111 379 0
7112 7111 -379 0
-7113 7112 380 0
-7113 -7112 -380 0
7113 -7112 380 0
7113 7112 -380 0
-7114 7113 382 0
-7114 -7113 -382 0
7114 -7113 382 0
7114 7113 -382 0
-7115 7114 383 0
-7115 -7114 -383 0
7115 -7114 383 0
7115 7114 -383 0
-7116 7115 389 0
-7116 -7115 -389 0
7116 -7115 389 0
7116 7115 -389 0
-7117 7116 390 0
-7117 -7116 -390 0
7117 -7116 390 0
7117 7116 -390 0
-261 -7117 0
-7118 317 320 0
-7118 -317 -320 0
7118 -317 320 0
7118 317 -320 0
-7119 7118 325 0
-7119 -7118 -325 0
7119 -7118 325 0
7119 7118 -325 0
-7120 7119 326 0
-7120 -7119 -326 0
7120 -7119 326 0
7120 7119 -326 0
-7121 7120 329 0
-7121 -7120 -329 0
7121 -7120 329 0
7121 7120 -329 0
-7122 7121 330 0
-7122 -7121 -330 0
7122 -7121 330 0
7122 7121 -330 0
-262 -7122 0
-7123 332 335 0
-7123 -332 -335 0
7123 -332 335 0
7123 332 -335 0
-7124 7123 340 0
-7124 -7123 -340 0
7124 -7123 340 0
7124 7123 -340 0
-7125 7124 341 0
-7125 -7124 -341 0
7125 -7124 341 0
7125 7124 -341 0
-7126 7125 344 0
-7126 -7125 -344 0
7126 -7125 344 0
7126 7125 -344 0
-7127 7126 345 0
-7127 -7126 -345 0
7127 -7126 345 0
7127 7126 -345 0
-262 -7127 0
-7128 347 350 0
-7128 -347 -350 0
7128 -347 350 0
7128 347 -350 0
-7129 7128 355 0
-7129 -7128 -355 0
7129 -7128 355 0
7129 7128 -355 0
-7130 7129 356 0
-7130 -7129 -356 0
7130 -7129 356 0
7130 7129 -356 0
-7131 7130 359 0
-7131 -7130 -359 0
7131 -7130 359 0
7131 7130 -359 0
-7132 7131 360 0
-7132 -7131 -360 0
7132 -7131 360 0
7132 7131 -360 0
-262 -7132 0
-7133 362 365 0
-7133 -362 -365 0
7133 -362 365 0
7133 362 -365 0
-7134 7133 370 0
-7134 -7133 -370 0
7134 -7133 370 0
7134 7133 -370 0
-7135 7134 371 0
-7135 -7134 -371 0
7135 -7134 371 0
7135 7134 -371 0
-7136 7135 374 0
-7136 -7135 -374 0
7136 -7135 374 0
7136 7135 -374 0
-7137 7136 375 0
-7137 -7136 -375 0
7137 -7136 375 0
7137 7136 -375 0
-262 -7137 0
-7138 377 380 0
-7138 -377 -380 0
7138 -377 380 0
7138 377 -380 0
-7139 7138 385 0
-7139 -7138 -385 0
7139 -7138 385 0
7139 7138 -385 0
-7140 7139 386 0
-7140 -7139 -386 0
7140 -7139 386 0
7140 7139 -386 0
-7141 7140 389 0
-7141 -7140 -389 0
7141 -7140 389 0
7141 7140 -389 0
-7142 7141 390 0
-7142 -7141 -390 0
7142 -7141 390 0
7142 7141 -390 0
-262 -7142 0
-7143 317 318 0
-7143 -317 -318 0
7143 -317 318 0
7143 317 -318 0
-7144 7143 319 0
-7144 -7143 -319 0
7144 -7143 319 0
7144 7143 -319 0
-7145 7144 320 0
-7145 -7144 -320 0
7145 -7144 320 0
7145 7144 -320 0
-7146 7145 325 0
-7146 -7145 -325 0
7146 -7145 325 0
7146 7145 -325 0
-7147 7146 326 0
-7147 -7146 -326 0
7147 -7146 326 0
7147 7146 -326 0
-7148 7147 329 0
-7148 -7147 -329 0
7148 -7147 329 0
7148 7147 -329 0
-7149 7148 330 0
-7149 -7148 -330 0
7149 -7148 330 0
7149 7148 -330 0
-263 -7149 0
-7150 332 333 0
-7150 -332 -333 0
7150 -332 333 0
7150 332 -333 0
-7151 7150 334 0
-7151 -7150 -334 0
7151 -7150 334 0
7151 7150 -334 0
-7152 7151 335 0
-7152 -7151 -335 0
7152 -7151 335 0
7152 7151 -335 0
-7153 7152 340 0
-7153 -7152 -340 0
7153 -7152 340 0
7153 7152 -340 0
-7154 7153 341 0
-7154 -7153 -341 0
7154 -7153 341 0
7154 7153 -341 0
-7155 7154 344 0
-7155 -7154 -344 0
7155 -7154 344 0
7155 7154 -344 0
-7156 7155 345 0
-7156 -7155 -345 0
7156 -7155 345 0
7156 7155 -345 0
-263 -7156 0
-7157 347 348 0
-7157 -347 -348 0
7157 -347 348 0
7157 347 -348 0
-7158 7157 349 0
-7158 -7157 -349 0
7158 -7157 349 0
7158 7157 -349 0
-7159 7158 350 0
-7159 -7158 -350 0
7159 -7158 350 0
7159 7158 -350 0
-7160 7159 355 0
-7160 -7159 -355 0
7160 -7159 355 0
7160 7159 -355 0
-7161 7160 356 0
-7161 -7160 -356 0
7161 -7160 356 0
7161 7160 -356 0
-7162 7161 359 0
-7162 -7161 -359 0
7162 -7161 359 0
7162 7161 -359 0
-7163 7162 360 0
-7163 -7162 -360 0
7163 -7162 360 0
7163 7162 -360 0
-263 -7163 0
-7164 362 363 0
-7164 -362 -363 0
7164 -362 363 0
7164 362 -363 0
-7165 7164 364 0
-7165 -7164 -364 0
7165 -7164 364 0
7165 7164 -364 0
-7166 7165 365 0
-7166 -7165 -365 0
7166 -7165 365 0
7166 7165 -365 0
-7167 7166 370 0
-7167 -7166 -370 0
7167 -7166 370 0
7167 7166 -370 0
-7168 7167 371 0
-7168 -7167 -371 0
7168 -7167 371 0
7168 7167 -371 0
-7169 7168 374 0
-7169 -7168 -374 0
7169 -7168 374 0
7169 7168 -374 0
-7170 7169 375 0
-7170 -7169 -375 0
7170 -7169 375 0
7170 7169 -375 0
-263 -7170 0
-7171 377 378 0
-7171 -377 -378 0
7171 -377 378 0
7171 377 -378 0
-7172 7171 379 0
-7172 -7171 -379 0
7172 -7171 379 0
7172 7171 -379 0
-7173 7172 380 0
-7173 -7172 -380 0
7173 -7172 380 0
7173 7172 -380 0
-7174 7173 385 0
-7174 -7173 -385 0
7174 -7173 385 0
7174 7173 -385 0
-7175 7174 386 0
-7175 -7174 -386 0
7175 -7174 386 0
7175 7174 -386 0
-7176 7175 389 0
-7176 -7175 -389 0
7176 -7175 389 0
7176 7175 -389 0
-7177 7176 390 0
-7177 -7176 -390 0
7177 -7176 390 0
7177 7176 -390 0
-263 -7177 0
-7178 316 318 0
-7178 -316 -318 0
7178 -316 318 0
7178 316 -318 0
-7179 7178 320 0
-7179 -7178 -320 0
7179 -7178 320 0
7179 7178 -320 0
-7180 7179 322 0
-7180 -7179 -322 0
7180 -7179 322 0
7180 7179 -322 0
-7181 7180 323 0
-7181 -7180 -323 0
7181 -7180 323 0
7181 7180 -323 0
-7182 7181 328 0
-7182 -7181 -328 0
7182 -7181 328 0
7182 7181 -328 0
-7183 7182 329 0
-7183 -7182 -329 0
7183 -7182 329 0
7183 7182 -329 0
-7184 7183 330 0
-7184 -7183 -330 0
7184 -7183 330 0
7184 7183 -330 0
-264 -7184 0
-7185 331 333 0
-7185 -331 -333 0
7185 -331 333 0
7185 331 -333 0
-7186 7185 335 0
-7186 -7185 -335 0
7186 -7185 335 0
7186 7185 -335 0
-7187 7186 337 0
-7187 -7186 -337 0
7187 -7186 337 0
7187 7186 -337 0
-7188 7187 338 0
-7188 -7187 -338 0
7188 -7187 338 0
7188 7187 -338 0
-7189 7188 343 0
-7189 -7188 -343 0
7189 -7188 343 0
7189 7188 -343 0
-7190 7189 344 0
-7190 -7189 -344 0
7190 -7189 344 0
7190 7189 -344 0
-7191 7190 345 0
-7191 -7190 -345 0
7191 -7190 345 0
7191 7190 -345 0
-264 -7191 0
-7192 346 348 0
-7192 -346 -348 0
7192 -346 348 0
7192 346 -348 0
-7193 7192 350 0
-7193 -7192 -350 0
7193 -7192 350 0
7193 7192 -350 0
-7194 7193 352 0
-7194 -7193 -352 0
7194 -7193 352 0
7194 7193 -352 0
-7195 7194 353 0
-7195 -7194 -353 0
7195 -7194 353 0
7195 7194 -353 0
-7196 7195 358 0
-7196 -7195 -358 0
7196 -7195 358 0
7196 7195 -358 0
-7197 7196 359 0
-7197 -7196 -359 0
7197 -7196 359 0
7197 7196 -359 0
-7198 7197 360 0
-7198 -7197 -360 0
7198 -7197 360 0
7198 7197 -360 0
-264 -7198 0
-7199 361 363 0
-7199 -361 -363 0
7199 -361 363 0
7199 361 -363 0
-7200 7199 365 0
-7200 -7199 -365 0
7200 -7199 365 0
7200 7199 -365 0
-7201 7200 367 0
-7201 -7200 -367 0
7201 -7200 367 0
7201 7200 -367 0
-7202 7201 368 0
-7202 -7201 -368 0
7202 -7201 368 0
7202 7201 -368 0
-7203 7202 373 0
-7203 -7202 -373 0
7203 -7202 373 0
7203 7202 -373 0
-7204 7203 374 0
-7204 -7203 -374 0
7204 -7203 374 0
7204 7203 -374 0
-7205 7204 375 0
-7205 -7204 -375 0
7205 -7204 375 0
7205 7204 -375 0
-264 -7205 0
-7206 376 378 0
-7206 -376 -378 0
7206 -376 378 0
7206 376 -378 0
-7207 7206 380 0
-7207 -7206 -380 0
7207 -7206 380 0
7207 7206 -380 0
-7208 7207 382 0
-7208 -7207 -382 0
7208 -7207 382 0
7208 7207 -382 0
-7209 7208 383 0
-7209 -7208 -383 0
7209 -7208 383 0
7209 7208 -383 0
-7210 7209 388 0
-7210 -7209 -388 0
7210 -7209 388 0
7210 7209 -388 0
-7211 7210 389 0
-7211 -7210 -389 0
7211 -7210 389 0
7211 7210 -389 0
-7212 7211 390 0
-7212 -7211 -390 0
7212 -7211 390 0
7212 7211 -390 0
-264 -7212 0
-7213 316 319 0
-7213 -316 -319 0
7213 -316 319 0
7213 316 -319 0
-7214 7213 320 0
-7214 -7213 -320 0
7214 -7213 320 0
7214 7213 -320 0
-7215 7214 322 0
-7215 -7214 -322 0
7215 -7214 322 0
7215 7214 -322 0
-7216 7215 323 0
-7216 -7215 -323 0
7216 -7215 323 0
7216 7215 -323 0
-7217 7216 328 0
-7217 -7216 -328 0
7217 -7216 328 0
7217 7216 -328 0
-7218 7217 329 0
-7218 -7217 -329 0
7218 -7217 329 0
7218 7217 -329 0
-7219 7218 330 0
-7219 -7218 -330 0
7219 -7218 330 0
7219 7218 -330 0
-265 -7219 0
-7220 331 334 0
-7220 -331 -334 0
7220 -331 334 0
7220 331 -334 0
-7221 7220 335 0
-7221 -7220 -335 0
7221 -7220 335 0
7221 7220 -335 0
-7222 7221 337 0
-7222 -7221 -337 0
7222 -7221 337 0
7222 7221 -337 0
-7223 7222 338 0
-7223 -7222 -338 0
7223 -7222 338 0
7223 7222 -338 0
-7224 7223 343 0
-7224 -7223 -343 0
7224 -7223 343 0
7224 7223 -343 0
-7225 7224 344 0
-7225 -7224 -344 0
7225 -7224 344 0
7225 7224 -344 0
-7226 7225 345 0
-7226 -7225 -345 0
7226 -7225 345 0
7226 7225 -345 0
-265 -7226 0
-7227 346 349 0
-7227 -346 -349 0
7227 -346 349 0
7227 346 -349 0
-7228 7227 350 0
-7228 -7227 -350 0
7228 -7227 350 0
7228 7227 -350 0
-7229 7228 352 0
-7229 -7228 -352 0
7229 -7228 352 0
7229 7228 -352 0
-7230 7229 353 0
-7230 -7229 -353 0
7230 -7229 353 0
7230 7229 -353 0
-7231 7230 358 0
-7231 -7230 -358 0
7231 -7230 358 0
7231 7230 -358 0
-7232 7231 359 0
-7232 -7231 -359 0
7232 -7231 359 0
7232 7231 -359 0
-7233 7232 360 0
-7233 -7232 -360 0
7233 -7232 360 0
7233 7232 -360 0
-265 -7233 0
-7234 361 364 0
-7234 -361 -364 0
7234 -361 364 0
7234 361 -364 0
-7235 7234 365 0
-7235 -7234 -365 0
7235 -7234 365 0
7235 7234 -365 0
-7236 7235 367 0
-7236 -7235 -367 0
7236 -7235 367 0
7236 7235 -367 0
-7237 7236 368 0
-7237 -7236 -368 0
7237 -7236 368 0
7237 7236 -368 0
-7238 7237 373 0
-7238 -7237 -373 0
7238 -7237 373 0
7238 7237 -373 0
-7239 7238 374 0
-7239 -7238 -374 0
7239 -7238 374 0
7239 7238 -374 0
-7240 7239 375 0
-7240 -7239 -375 0
7240 -7239 375 0
7240 7239 -375 0
-265 -7240 0
-7241 376 379 0
-7241 -376 -379 0
7241 -376 379 0
7241 376 -379 0
-7242 7241 380 0
-7242 -7241 -380 0
7242 -7241 380 0
7242 7241 -380 0
-7243 7242 382 0
-7243 -7242 -382 0
7243 -7242 382 0
7243 7242 -382 0
-7244 7243 383 0
-7244 -7243 -383 0
7244 -7243 383 0
7244 7243 -383 0
-7245 7244 388 0
-7245 -7244 -388 0
7245 -7244 388 0
7245 7244 -388 0
-7246 7245 389 0
-7246 -7245 -389 0
7246 -7245 389 0
7246 7245 -389 0
-7247 7246 390 0
-7247 -7246 -390 0
7247 -7246 390 0
7247 7246 -390 0
-265 -7247 0
-7248 317 318 0
-7248 -317 -318 0
7248 -317 318 0
7248 317 -318 0
-7249 7248 320 0
-7249 -7248 -320 0
7249 -7248 320 0
7249 7248 -320 0
-7250 7249 325 0
-7250 -7249 -325 0
7250 -7249 325 0
7250 7249 -325 0
-7251 7250 326 0
-7251 -7250 -326 0
7251 -7250 326 0
7251 7250 -326 0
-7252 7251 328 0
-7252 -7251 -328 0
7252 -7251 328 0
7252 7251 -328 0
-7253 7252 329 0
-7253 -7252 -329 0
7253 -7252 329 0
7253 7252 -329 0
-7254 7253 330 0
-7254 -7253 -330 0
7254 -7253 330 0
7254 7253 -330 0
-266 -7254 0
-7255 332 333 0
-7255 -332 -333 0
7255 -332 333 0
7255 332 -333 0
-7256 7255 335 0
-7256 -7255 -335 0
7256 -7255 335 0
7256 7255 -335 0
-7257 7256 340 0
-7257 -7256 -340 0
7257 -7256 340 0
7257 7256 -340 0
-7258 7257 341 0
-7258 -7257 -341 0
7258 -7257 341 0
7258 7257 -341 0
-7259 7258 343 0
-7259 -7258 -343 0
7259 -7258 343 0
7259 7258 -343 0
-7260 7259 344 0
-7260 -7259 -344 0
7260 -7259 344 0
7260 7259 -344 0
-7261 7260 345 0
-7261 -7260 -345 0
7261 -7260 345 0
7261 7260 -345 0
-266 -7261 0
-7262 347 348 0
-7262 -347 -348 0
7262 -347 348 0
7262 347 -348 0
-7263 7262 350 0
-7263 -7262 -350 0
7263 -7262 350 0
7263 7262 -350 0
-7264 7263 355 0
-7264 -7263 -355 0
7264 -7263 355 0
7264 7263 -355 0
-7265 7264 356 0
-7265 -7264 -356 0
7265 -7264 356 0
7265 7264 -356 0
-7266 7265 358 0
-7266 -7265 -358 0
7266 -7265 358 0
7266 7265 -358 0
-7267 7266 359 0
-7267 -7266 -359 0
7267 -7266 359 0
7267 7266 -359 0
-7268 7267 360 0
-7268 -7267 -360 0
7268 -7267 360 0
7268 7267 -360 0
-266 -7268 0
-7269 362 363 0
-7269 -362 -363 0
7269 -362 363 0
7269 362 -363 0
-7270 7269 365 0
-7270 -7269 -365 0
7270 -7269 365 0
7270 7269 -365 0
-7271 7270 370 0
-7271 -7270 -370 0
7271 -7270 370 0
7271 7270 -370 0
-7272 7271 371 0
-7272 -7271 -371 0
7272 -7271 371 0
7272 7271 -371 0
-7273 7272 373 0
-7273 -7272 -373 0
7273 -7272 373 0
7273 7272 -373 0
-7274 7273 374 0
-7274 -7273 -374 0
7274 -7273 374 0
7274 7273 -374 0
-7275 7274 375 0
-7275 -7274 -375 0
7275 -7274 375 0
7275 7274 -375 0
-266 -7275 0
-7276 377 378 0
-7276 -377 -378 0
7276 -377 378 0
7276 377 -378 0
-7277 7276 380 0
-7277 -7276 -380 0
7277 -7276 380 0
7277 7276 -380 0
-7278 7277 385 0
-7278 -7277 -385 0
7278 -7277 385 0
7278 7277 -385 0
-7279 7278 386 0
-7279 -7278 -386 0
7279 -7278 386 0
7279 7278 -386 0
-7280 7279 388 0
-7280 -7279 -388 0
7280 -7279 388 0
7280 7279 -388 0
-7281 7280 389 0
-7281 -7280 -389 0
7281 -7280 389 0
7281 7280 -389 0
-7282 7281 390 0
-7282 -7281 -390 0
7282 -7281 390 0
7282 7281 -390 0
-266 -7282 0
-7283 317 319 0
-7283 -317 -319 0
7283 -317 319 0
7283 317 -319 0
-7284 7283 320 0
-7284 -7283 -320 0
7284 -7283 320 0
7284 7283 -320 0
-7285 7284 325 0
-7285 -7284 -325 0
7285 -7284 325 0
7285 7284 -325 0
-7286 7285 326 0
-7286 -7285 -326 0
7286 -7285 326 0
7286 7285 -326 0
-7287 7286 328 0
-7287 -7286 -328 0
7287 -7286 328 0
7287 7286 -328 0
-7288 7287 329 0
-7288 -7287 -329 0
7288 -7287 329 0
7288 7287 -329 0
-7289 7288 330 0
-7289 -7288 -330 0
7289 -7288 330 0
7289 7288 -330 0
-267 -7289 0
-7290 332 334 0
-7290 -332 -334 0
7290 -332 334 0
7290 332 -334 0
-7291 7290 335 0
-7291 -7290 -335 0
7291 -7290 335 0
7291 7290 -335 0
-7292 7291 340 0
-7292 -7291 -340 0
7292 -7291 340 0
7292 7291 -340 0
-7293 7292 341 0
-7293 -7292 -341 0
7293 -7292 341 0
7293 7292 -341 0
-7294 7293 343 0
-7294 -7293 -343 0
7294 -7293 343 0
7294 7293 -343 0
-7295 7294 344 0
-7295 -7294 -344 0
7295 -7294 344 0
7295 7294 -344 0
-7296 7295 345 0
-7296 -7295 -345 0
7296 -7295 345 0
7296 7295 -345 0
-267 -7296 0
-7297 347 349 0
-7297 -347 -349 0
7297 -347 349 0
7297 347 -349 0
-7298 7297 350 0
-7298 -7297 -350 0
7298 -7297 350 0
7298 7297 -350 0
-7299 7298 355 0
-7299 -7298 -355 0
7299 -7298 355 0
7299 7298 -355 0
-7300 7299 356 0
-7300 -7299 -356 0
7300 -7299 356 0
7300 7299 -356 0
-7301 7300 358 0
-7301 -7300 -358 0
7301 -7300 358 0
7301 7300 -358 0
-7302 7301 359 0
-7302 -7301 -359 0
7302 -7301 359 0
7302 7301 -359 0
-7303 7302 360 0
-7303 -7302 -360 0
7303 -7302 360 0
7303 7302 -360 0
-267 -7303 0
-7304 362 364 0
-7304 -362 -364 0
7304 -362 364 0
7304 362 -364 0
-7305 7304 365 0
-7305 -7304 -365 0
7305 -7304 365 0
7305 7304 -365 0
-7306 7305 370 0
-7306 -7305 -370 0
7306 -7305 370 0
7306 7305 -370 0
-7307 7306 371 0
-7307 -7306 -371 0
7307 -7306 371 0
7307 7306 -371 0
-7308 7307 373 0
-7308 -7307 -373 0
7308 -7307 373 0
7308 7307 -373 0
-7309 7308 374 0
-7309 -7308 -374 0
7309 -7308 374 0
7309 7308 -374 0
-7310 7309 375 0
-7310 -7309 -375 0
7310 -7309 375 0
7310 7309 -375 0
-267 -7310 0
-7311 377 379 0
-7311 -377 -379 0
7311 -377 379 0
7311 377 -379 0
-7312 7311 380 0
-7312 -7311 -380 0
7312 -7311 380 0
7312 7311 -380 0
-7313 7312 385 0
-7313 -7312 -385 0
7313 -7312 385 0
7313 7312 -385 0
-7314 7313 386 0
-7314 -7313 -386 0
7314 -7313 386 0
7314 7313 -386 0
-7315 7314 388 0
-7315 -7314 -388 0
7315 -7314 388 0
7315 7314 -388 0
-7316 7315 389 0
-7316 -7315 -389 0
7316 -7315 389 0
7316 7315 -389 0
-7317 7316 390 0
-7317 -7316 -390 0
7317 -7316 390 0
7317 7316 -390 0
-267 -7317 0
-7318 316 318 0
-7318 -316 -318 0
7318 -316 318 0
7318 316 -318 0
-7319 7318 319 0
-7319 -7318 -319 0
7319 -7318 319 0
7319 7318 -319 0
-7320 7319 324 0
-7320 -7319 -324 0
7320 -7319 324 0
7320 7319 -324 0
-7321 7320 329 0
-7321 -7320 -329 0
7321 -7320 329 0
7321 7320 -329 0
-7322 7321 330 0
-7322 -7321 -330 0
7322 -7321 330 0
7322 7321 -330 0
-268 -7322 0
-7323 331 333 0
-7323 -331 -333 0
7323 -331 333 0
7323 331 -333 0
-7324 7323 334 0
-7324 -7323 -334 0
7324 -7323 334 0
7324 7323 -334 0
-7325 7324 339 0
-7325 -7324 -339 0
7325 -7324 339 0
7325 7324 -339 0
-7326 7325 344 0
-7326 -7325 -344 0
7326 -7325 344 0
7326 7325 -344 0
-7327 7326 345 0
-7327 -7326 -345 0
7327 -7326 345 0
7327 7326 -345 0
-268 -7327 0
-7328 346 348 0
-7328 -346 -348 0
7328 -346 348 0
7328 346 -348 0
-7329 7328 349 0
-7329 -7328 -349 0
7329 -7328 349 0
7329 7328 -349 0
-7330 7329 354 0
-7330 -7329 -354 0
7330 -7329 354 0
7330 7329 -354 0
-7331 7330 359 0
-7331 -7330 -359 0
7331 -7330 359 0
7331 7330 -359 0
-7332 7331 360 0
-7332 -7331 -360 0
7332 -7331 360 0
7332 7331 -360 0
-268 -7332 0
-7333 361 363 0
-7333 -361 -363 0
7333 -361 363 0
7333 361 -363 0
-7334 7333 364 0
-7334 -7333 -364 0
7334 -7333 364 0
7334 7333 -364 0
-7335 7334 369 0
-7335 -7334 -369 0
7335 -7334 369 0
7335 7334 -369 0
-7336 7335 374 0
-7336 -7335 -374 0
7336 -7335 374 0
7336 7335 -374 0
-7337 7336 375 0
-7337 -7336 -375 0
7337 -7336 375 0
7337 7336 -375 0
-268 -7337 0
-7338 376 378 0
-7338 -376 -378 0
7338 -376 378 0
7338 376 -378 0
-7339 7338 379 0
-7339 -7338 -379 0
7339 -7338 379 0
7339 7338 -379 0
-7340 7339 384 0
-7340 -7339 -384 0
7340 -7339 384 0
7340 7339 -384 0
-7341 7340 389 0
-7341 -7340 -389 0
7341 -7340 389 0
7341 7340 -389 0
-7342 7341 390 0
-7342 -7341 -390 0
7342 -7341 390 0
7342 7341 -390 0
-268 -7342 0
-7343 316 318 0
-7343 -316 -318 0
7343 -316 318 0
7343 316 -318 0
-7344 7343 319 0
-7344 -7343 -319 0
7344 -7343 319 0
7344 7343 -319 0
-7345 7344 322 0
-7345 -7344 -322 0
7345 -7344 322 0
7345 7344 -322 0
-7346 7345 323 0
-7346 -7345 -323 0
7346 -7345 323 0
7346 7345 -323 0
-7347 7346 324 0
-7347 -7346 -324 0
7347 -7346 324 0
7347 7346 -324 0
-7348 7347 329 0
-7348 -7347 -329 0
7348 -7347 329 0
7348 7347 -329 0
-7349 7348 330 0
-7349 -7348 -330 0
7349 -7348 330 0
7349 7348 -330 0
-269 -7349 0
-7350 331 333 0
-7350 -331 -333 0
7350 -331 333 0
7350 331 -333 0
-7351 7350 334 0
-7351 -7350 -334 0
7351 -7350 334 0
7351 7350 -334 0
-7352 7351 337 0
-7352 -7351 -337 0
7352 -7351 337 0
7352 7351 -337 0
-7353 7352 338 0
-7353 -7352 -338 0
7353 -7352 338 0
7353 7352 -338 0
-7354 7353 339 0
-7354 -7353 -339 0
7354 -7353 339 0
7354 7353 -339 0
-7355 7354 344 0
-7355 -7354 -344 0
7355 -7354 344 0
7355 7354 -344 0
-7356 7355 345 0
-7356 -7355 -345 0
7356 -7355 345 0
7356 7355 -345 0
-269 -7356 0
-7357 346 348 0
-7357 -346 -348 0
7357 -346 348 0
7357 346 -348 0
-7358 7357 349 0
-7358 -7357 -349 0
7358 -7357 349 0
7358 7357 -349 0
-7359 7358 352 0
-7359 -7358 -352 0
7359 -7358 352 0
7359 7358 -352 0
-7360 7359 353 0
-7360 -7359 -353 0
7360 -7359 353 0
7360 7359 -353 0
-7361 7360 354 0
-7361 -7360 -354 0
7361 -7360 354 0
7361 7360 -354 0
-7362 7361 359 0
-7362 -7361 -359 0
7362 -7361 359 0
7362 7361 -359 0
-7363 7362 360 0
-7363 -7362 -360 0
7363 -7362 360 0
7363 7362 -360 0
-269 -7363 0
-7364 361 363 0
-7364 -361 -363 0
7364 -361 363 0
7364 361 -363 0
-7365 7364 364 0
-7365 -7364 -364 0
7365 -7364 364 0
7365 7364 -364 0
-7366 7365 367 0
-7366 -7365 -367 0
7366 -7365 367 0
7366 7365 -367 0
-7367 7366 368 0
-7367 -7366 -368 0
7367 -7366 368 0
7367 7366 -368 0
-7368 7367 369 0
-7368 -7367 -369 0
7368 -7367 369 0
7368 7367 -369 0
-7369 7368 374 0
-7369 -7368 -374 0
7369 -7368 374 0
7369 7368 -374 0
-7370 7369 375 0
-7370 -7369 -375 0
7370 -7369 375 0
7370 7369 -375 0
-269 -7370 0
-7371 376 378 0
-7371 -376 -378 0
7371 -376 378 0
7371 376 -378 0
-7372 7371 379 0
-7372 -7371 -379 0
7372 -7371 379 0
7372 7371 -379 0
-7373 7372 382 0
-7373 -7372 -382 0
7373 -7372 382 0
7373 7372 -382 0
-7374 7373 383 0
-7374 -7373 -383 0
7374 -7373 383 0
7374 7373 -383 0
-7375 7374 384 0
-7375 -7374 -384 0
7375 -7374 384 0
7375 7374 -384 0
-7376 7375 389 0
-7376 -7375 -389 0
7376 -7375 389 0
7376 7375 -389 0
-7377 7376 390 0
-7377 -7376 -390 0
7377 -7376 390 0
7377 7376 -390 0
-269 -7377 0
-7378 321 324 0
-7378 -321 -324 0
7378 -321 324 0
7378 321 -324 0
-7379 7378 325 0
-7379 -7378 -325 0
7379 -7378 325 0
7379 7378 -325 0
-7380 7379 326 0
-7380 -7379 -326 0
7380 -7379 326 0
7380 7379 -326 0
-7381 7380 329 0
-7381 -7380 -329 0
7381 -7380 329 0
7381 7380 -329 0
-7382 7381 330 0
-7382 -7381 -330 0
7382 -7381 330 0
7382 7381 -330 0
-270 -7382 0
-7383 336 339 0
-7383 -336 -339 0
7383 -336 339 0
7383 336 -339 0
-7384 7383 340 0
-7384 -7383 -340 0
7384 -7383 340 0
7384 7383 -340 0
-7385 7384 341 0
-7385 -7384 -341 0
7385 -7384 341 0
7385 7384 -341 0
-7386 7385 344 0
-7386 -7385 -344 0
7386 -7385 344 0
7386 7385 -344 0
-7387 7386 345 0
-7387 -7386 -345 0
7387 -7386 345 0
7387 7386 -345 0
-270 -7387 0
-7388 351 354 0
-7388 -351 -354 0
7388 -351 354 0
7388 351 -354 0
-7389 7388 355 0
-7389 -7388 -355 0
7389 -7388 355 0
7389 7388 -355 0
-7390 7389 356 0
-7390 -7389 -356 0
7390 -7389 356 0
7390 7389 -356 0
-7391 7390 359 0
-7391 -7390 -359 0
7391 -7390 359 0
7391 7390 -359 0
-7392 7391 360 0
-7392 -7391 -360 0
7392 -7391 360 0
7392 7391 -360 0
-270 -7392 0
-7393 366 369 0
-7393 -366 -369 0
7393 -366 369 0
7393 366 -369 0
-7394 7393 370 0
-7394 -7393 -370 0
7394 -7393 370 0
7394 7393 -370 0
-7395 7394 371 0
-7395 -7394 -371 0
7395 -7394 371 0
7395 7394 -371 0
-7396 7395 374 0
-7396 -7395 -374 0
7396 -7395 374 0
7396 7395 -374 0
-7397 7396 375 0
-7397 -7396 -375 0
7397 -7396 375 0
7397 7396 -375 0
-270 -7397 0
-7398 381 384 0
-7398 -381 -384 0
7398 -381 384 0
7398 381 -384 0
-7399 7398 385 0
-7399 -7398 -385 0
7399 -7398 385 0
7399 7398 -385 0
-7400 7399 386 0
-7400 -7399 -386 0
7400 -7399 386 0
7400 7399 -386 0
-7401 7400 389 0
-7401 -7400 -389 0
7401 -7400 389 0
7401 7400 -389 0
-7402 7401 390 0
-7402 -7401 -390 0
7402 -7401 390 0
7402 7401 -390 0
-270 -7402 0
-7403 321 322 0
-7403 -321 -322 0
7403 -321 322 0
7403 321 -322 0
-7404 7403 323 0
-7404 -7403 -323 0
7404 -7403 323 0
7404 7403 -323 0
-7405 7404 324 0
-7405 -7404 -324 0
7405 -7404 324 0
7405 7404 -324 0
-7406 7405 325 0
-7406 -7405 -325 0
7406 -7405 325 0
7406 7405 -325 0
-7407 7406 326 0
-7407 -7406 -326 0
7407 -7406 326 0
7407 7406 -326 0
-7408 7407 329 0
-7408 -7407 -329 0
7408 -7407 329 0
7408 7407 -329 0
-7409 7408 330 0
-7409 -7408 -330 0
7409 -7408 330 0
7409 7408 -330 0
-271 -7409 0
-7410 336 337 0
-7410 -336 -337 0
7410 -336 337 0
7410 336 -337 0
-7411 7410 338 0
-7411 -7410 -338 0
7411 -7410 338 0
7411 7410 -338 0
-7412 7411 339 0
-7412 -7411 -339 0
7412 -7411 339 0
7412 7411 -339 0
-7413 7412 340 0
-7413 -7412 -340 0
7413 -7412 340 0
7413 7412 -340 0
-7414 7413 341 0
-7414 -7413 -341 0
7414 -7413 341 0
7414 7413 -341 0
-7415 7414 344 0
-7415 -7414 -344 0
7415 -7414 344 0
7415 7414 -344 0
-7416 7415 345 0
-7416 -7415 -345 0
7416 -7415 345 0
7416 7415 -345 0
-271 -7416 0
-7417 351 352 0
-7417 -351 -352 0
7417 -351 352 0
7417 351 -352 0
-7418 7417 353 0
-7418 -7417 -353 0
7418 -7417 353 0
7418 7417 -353 0
-7419 7418 354 0
-7419 -7418 -354 0
7419 -7418 354 0
7419 7418 -354 0
-7420 7419 355 0
-7420 -7419 -355 0
7420 -7419 355 0
7420 7419 -355 0
-7421 7420 356 0
-7421 -7420 -356 0
7421 -7420 356 0
7421 7420 -356 0
-7422 7421 359 0
-7422 -7421 -359 0
7422 -7421 359 0
7422 7421 -359 0
-7423 7422 360 0
-7423 -7422 -360 0
7423 -7422 360 0
7423 7422 -360 0
-271 -7423 0
-7424 366 367 0
-7424 -366 -367 0
7424 -366 367 0
7424 366 -367 0
-7425 7424 368 0
-7425 -7424 -368 0
7425 -7424 368 0
7425 7424 -368 0
-7426 7425 369 0
-7426 -7425 -369 0
7426 -7425 369 0
7426 7425 -369 0
-7427 7426 370 0
-7427 -7426 -370 0
7427 -7426 370 0
7427 7426 -370 0
-7428 7427 371 0
-7428 -7427 -371 0
7428 -7427 371 0
7428 7427 -371 0
-7429 7428 374 0
-7429 -7428 -374 0
7429 -7428 374 0
7429 7428 -374 0
-7430 7429 375 0
-7430 -7429 -375 0
7430 -7429 375 0
7430 7429 -375 0
-271 -7430 0
-7431 381 382 0
-7431 -381 -382 0
7431 -381 382 0
7431 381 -382 0
-7432 7431 383 0
-7432 -7431 -383 0
7432 -7431 383 0
7432 7431 -383 0
-7433 7432 384 0
-7433 -7432 -384 0
7433 -7432 384 0
7433 7432 -384 0
-7434 7433 385 0
-7434 -7433 -385 0
7434 -7433 385 0
7434 7433 -385 0
-7435 7434 386 0
-7435 -7434 -386 0
7435 -7434 386 0
7435 7434 -386 0
-7436 7435 389 0
-7436 -7435 -389 0
7436 -7435 389 0
7436 7435 -389 0
-7437 7436 390 0
-7437 -7436 -390 0
7437 -7436 390 0
7437 7436 -390 0
-271 -7437 0
-7438 316 318 0
-7438 -316 -318 0
7438 -316 318 0
7438 316 -318 0
-7439 7438 319 0
-7439 -7438 -319 0
7439 -7438 319 0
7439 7438 -319 0
-7440 7439 322 0
-7440 -7439 -322 0
7440 -7439 322 0
7440 7439 -322 0
-7441 7440 324 0
-7441 -7440 -324 0
7441 -7440 324 0
7441 7440 -324 0
-7442 7441 328 0
-7442 -7441 -328 0
7442 -7441 328 0
7442 7441 -328 0
-7443 7442 329 0
-7443 -7442 -329 0
7443 -7442 329 0
7443 7442 -329 0
-7444 7443 330 0
-7444 -7443 -330 0
7444 -7443 330 0
7444 7443 -330 0
-272 -7444 0
-7445 331 333 0
-7445 -331 -333 0
7445 -331 333 0
7445 331 -333 0
-7446 7445 334 0
-7446 -7445 -334 0
7446 -7445 334 0
7446 7445 -334 0
-7447 7446 337 0
-7447 -7446 -337 0
7447 -7446 337 0
7447 7446 -337 0
-7448 7447 339 0
-7448 -7447 -339 0
7448 -7447 339 0
7448 7447 -339 0
-7449 7448 343 0
-7449 -7448 -343 0
7449 -7448 343 0
7449 7448 -343 0
-7450 7449 344 0
-7450 -7449 -344 0
7450 -7449 344 0
7450 7449 -344 0
-7451 7450 345 0
-7451 -7450 -345 0
7451 -7450 345 0
7451 7450 -345 0
-272 -7451 0
-7452 346 348 0
-7452 -346 -348 0
7452 -346 348 0
7452 346 -348 0
-7453 7452 349 0
-7453 -7452 -349 0
7453 -7452 349 0
7453 7452 -349 0
-7454 7453 352 0
-7454 -7453 -352 0
7454 -7453 352 0
7454 7453 -352 0
-7455 7454 354 0
-7455 -7454 -354 0
7455 -7454 354 0
7455 7454 -354 0
-7456 7455 358 0
-7456 -7455 -358 0
7456 -7455 358 0
7456 7455 -358 0
-7457 7456 359 0
-7457 -7456 -359 0
7457 -7456 359 0
7457 7456 -359 0
-7458 7457 360 0
-7458 -7457 -360 0
7458 -7457 360 0
7458 7457 -360 0
-272 -7458 0
-7459 361 363 0
-7459 -361 -363 0
7459 -361 363 0
7459 361 -363 0
-7460 7459 364 0
-7460 -7459 -364 0
7460 -7459 364 0
7460 7459 -364 0
-7461 7460 367 0
-7461 -7460 -367 0
7461 -7460 367 0
7461 7460 -367 0
-7462 7461 369 0
-7462 -7461 -369 0
7462 -7461 369 0
7462 7461 -369 0
-7463 7462 373 0
-7463 -7462 -373 0
7463 -7462 373 0
7463 7462 -373 0
-7464 7463 374 0
-7464 -7463 -374 0
7464 -7463 374 0
7464 7463 -374 0
-7465 7464 375 0
-7465 -7464 -375 0
7465 -7464 375 0
7465 7464 -375 0
-272 -7465 0
-7466 376 378 0
-7466 -376 -378 0
7466 -376 378 0
7466 376 -378 0
-7467 7466 379 0
-7467 -7466 -379 0
7467 -7466 379 0
7467 7466 -379 0
-7468 7467 382 0
-7468 -7467 -382 0
7468 -7467 382 0
7468 7467 -382 0
-7469 7468 384 0
-7469 -7468 -384 0
7469 -7468 384 0
7469 7468 -384 0
-7470 7469 388 0
-7470 -7469 -388 0
7470 -7469 388 0
7470 7469 -388 0
-7471 7470 389 0
-7471 -7470 -389 0
7471 -7470 389 0
7471 7470 -389 0
-7472 7471 390 0
-7472 -7471 -390 0
7472 -7471 390 0
7472 7471 -390 0
-272 -7472 0
-7473 316 318 0
-7473 -316 -318 0
7473 -316 318 0
7473 316 -318 0
-7474 7473 319 0
-7474 -7473 -319 0
7474 -7473 319 0
7474 7473 -319 0
-7475 7474 323 0
-7475 -7474 -323 0
7475 -7474 323 0
7475 7474 -323 0
-7476 7475 324 0
-7476 -7475 -324 0
7476 -7475 324 0
7476 7475 -324 0
-7477 7476 328 0
-7477 -7476 -328 0
7477 -7476 328 0
7477 7476 -328 0
-7478 7477 329 0
-7478 -7477 -329 0
7478 -7477 329 0
7478 7477 -329 0
-7479 7478 330 0
-7479 -7478 -330 0
7479 -7478 330 0
7479 7478 -330 0
-273 -7479 0
-7480 331 333 0
-7480 -331 -333 0
7480 -331 333 0
7480 331 -333 0
-7481 7480 334 0
-7481 -7480 -334 0
7481 -7480 334 0
7481 7480 -334 0
-7482 7481 338 0
-7482 -7481 -338 0
7482 -7481 338 0
7482 7481 -338 0
-7483 7482 339 0
-7483 -7482 -339 0
7483 -7482 339 0
7483 7482 -339 0
-7484 7483 343 0
-7484 -7483 -343 0
7484 -7483 343 0
7484 7483 -343 0
-7485 7484 344 0
-7485 -7484 -344 0
7485 -7484 344 0
7485 7484 -344 0
-7486 7485 345 0
-7486 -7485 -345 0
7486 -7485 345 0
7486 7485 -345 0
-273 -7486 0
-7487 346 348 0
-7487 -346 -348 0
7487 -346 348 0
7487 346 -348 0
-7488 7487 349 0
-7488 -7487 -349 0
7488 -7487 349 0
7488 7487 -349 0
-7489 7488 353 0
-7489 -7488 -353 0
7489 -7488 353 0
7489 7488 -353 0
-7490 7489 354 0
-7490 -7489 -354 0
7490 -7489 354 0
7490 7489 -354 0
-7491 7490 358 0
-7491 -7490 -358 0
7491 -7490 358 0
7491 7490 -358 0
-7492 7491 359 0
-7492 -7491 -359 0
7492 -7491 359 0
7492 7491 -359 0
-7493 7492 360 0
-7493 -7492 -360 0
7493 -7492 360 0
7493 7492 -360 0
-273 -7493 0
-7494 361 363 0
-7494 -361 -363 0
7494 -361 363 0
7494 361 -363 0
-7495 7494 364 0
-7495 -7494 -364 0
7495 -7494 364 0
7495 7494 -364 0
-7496 7495 368 0
-7496 -7495 -368 0
7496 -7495 368 0
7496 7495 -368 0
-7497 7496 369 0
-7497 -7496 -369 0
7497 -7496 369 0
7497 7496 -369 0
-7498 7497 373 0
-7498 -7497 -373 0
7498 -7497 373 0
7498 7497 -373 0
-7499 7498 374 0
-7499 -7498 -374 0
7499 -7498 374 0
7499 7498 -374 0
-7500 7499 375 0
-7500 -7499 -375 0
7500 -7499 375 0
7500 7499 -375 0
-273 -7500 0
-7501 376 378 0
-7501 -376 -378 0
7501 -376 378 0
7501 376 -378 0
-7502 7501 379 0
-7502 -7501 -379 0
7502 -7501 379 0
7502 7501 -379 0
-7503 7502 383 0
-7503 -7502 -383 0
7503 -7502 383 0
7503 7502 -383 0
-7504 7503 384 0
-7504 -7503 -384 0
7504 -7503 384 0
7504 7503 -384 0
-7505 7504 388 0
-7505 -7504 -388 0
7505 -7504 388 0
7505 7504 -388 0
-7506 7505 389 0
-7506 -7505 -389 0
7506 -7505 389 0
7506 7505 -389 0
-7507 7506 390 0
-7507 -7506 -390 0
7507 -7506 390 0
7507 7506 -390 0
-273 -7507 0
-7508 321 322 0
-7508 -321 -322 0
7508 -321 322 0
7508 321 -322 0
-7509 7508 324 0
-7509 -7508 -324 0
7509 -7508 324 0
7509 7508 -324 0
-7510 7509 325 0
-7510 -7509 -325 0
7510 -7509 325 0
7510 7509 -325 0
-7511 7510 326 0
-7511 -7510 -326 0
7511 -7510 326 0
7511 7510 -326 0
-7512 7511 328 0
-7512 -7511 -328 0
7512 -7511 328 0
7512 7511 -328 0
-7513 7512 329 0
-7513 -7512 -329 0
7513 -7512 329 0
7513 7512 -329 0
-7514 7513 330 0
-7514 -7513 -330 0
7514 -7513 330 0
7514 7513 -330 0
-274 -7514 0
-7515 336 337 0
-7515 -336 -337 0
7515 -336 337 0
7515 336 -337 0
-7516 7515 339 0
-7516 -7515 -339 0
7516 -7515 339 0
7516 7515 -339 0
-7517 7516 340 0
-7517 -7516 -340 0
7517 -7516 340 0
7517 7516 -340 0
-7518 7517 341 0
-7518 -7517 -341 0
7518 -7517 341 0
7518 7517 -341 0
-7519 7518 343 0
-7519 -7518 -343 0
7519 -7518 343 0
7519 7518 -343 0
-7520 7519 344 0
-7520 -7519 -344 0
7520 -7519 344 0
7520 7519 -344 0
-7521 7520 345 0
-7521 -7520 -345 0
7521 -7520 345 0
7521 7520 -345 0
-274 -7521 0
-7522 351 352 0
-7522 -351 -352 0
7522 -351 352 0
7522 351 -352 0
-7523 7522 354 0
-7523 -7522 -354 0
7523 -7522 354 0
7523 7522 -354 0
-7524 7523 355 0
-7524 -7523 -355 0
7524 -7523 355 0
7524 7523 -355 0
-7525 7524 356 0
-7525 -7524 -356 0
7525 -7524 356 0
7525 7524 -356 0
-7526 7525 358 0
-7526 -7525 -358 0
7526 -7525 358 0
7526 7525 -358 0
-7527 7526 359 0
-7527 -7526 -359 0
7527 -7526 359 0
7527 7526 -359 0
-7528 7527 360 0
-7528 -7527 -360 0
7528 -7527 360 0
7528 7527 -360 0
-274 -7528 0
-7529 366 367 0
-7529 -366 -367 0
7529 -366 367 0
7529 366 -367 0
-7530 7529 369 0
-7530 -7529 -369 0
7530 -7529 369 0
7530 7529 -369 0
-7531 7530 370 0
-7531 -7530 -370 0
7531 -7530 370 0
7531 7530 -370 0
-7532 7531 371 0
-7532 -7531 -371 0
7532 -7531 371 0
7532 7531 -371 0
-7533 7532 373 0
-7533 -7532 -373 0
7533 -7532 373 0
7533 7532 -373 0
-7534 7533 374 0
-7534 -7533 -374 0
7534 -7533 374 0
7534 7533 -374 0
-7535 7534 375 0
-7535 -7534 -375 0
7535 -7534 375 0
7535 7534 -375 0
-274 -7535 0
-7536 381 382 0
-7536 -381 -382 0
7536 -381 382 0
7536 381 -382 0
-7537 7536 384 0
-7537 -7536 -384 0
7537 -7536 384 0
7537 7536 -384 0
-7538 7537 385 0
-7538 -7537 -385 0
7538 -7537 385 0
7538 7537 -385 0
-7539 7538 386 0
-7539 -7538 -386 0
7539 -7538 386 0
7539 7538 -386 0
-7540 7539 388 0
-7540 -7539 -388 0
7540 -7539 388 0
7540 7539 -388 0
-7541 7540 389 0
-7541 -7540 -389 0
7541 -7540 389 0
7541 7540 -389 0
-7542 7541 390 0
-7542 -7541 -390 0
7542 -7541 390 0
7542 7541 -390 0
-274 -7542 0
-7543 321 323 0
-7543 -321 -323 0
7543 -321 323 0
7543 321 -323 0
-7544 7543 324 0
-7544 -7543 -324 0
7544 -7543 324 0
7544 7543 -324 0
-7545 7544 325 0
-7545 -7544 -325 0
7545 -7544 325 0
7545 7544 -325 0
-7546 7545 326 0
-7546 -7545 -326 0
7546 -7545 326 0
7546 7545 -326 0
-7547 7546 328 0
-7547 -7546 -328 0
7547 -7546 328 0
7547 7546 -328 0
-7548 7547 329 0
-7548 -7547 -329 0
7548 -7547 329 0
7548 7547 -329 0
-7549 7548 330 0
-7549 -7548 -330 0
7549 -7548 330 0
7549 7548 -330 0
-275 -7549 0
-7550 336 338 0
-7550 -336 -338 0
7550 -336 338 0
7550 336 -338 0
-7551 7550 339 0
-7551 -7550 -339 0
7551 -7550 339 0
7551 7550 -339 0
-7552 7551 340 0
-7552 -7551 -340 0
7552 -7551 340 0
7552 7551 -340 0
-7553 7552 341 0
-7553 -7552 -341 0
7553 -7552 341 0
7553 7552 -341 0
-7554 7553 343 0
-7554 -7553 -343 0
7554 -7553 343 0
7554 7553 -343 0
-7555 7554 344 0
-7555 -7554 -344 0
7555 -7554 344 0
7555 7554 -344 0
-7556 7555 345 0
-7556 -7555 -345 0
7556 -7555 345 0
7556 7555 -345 0
-275 -7556 0
-7557 351 353 0
-7557 -351 -353 0
7557 -351 353 0
7557 351 -353 0
-7558 7557 354 0
-7558 -7557 -354 0
7558 -7557 354 0
7558 7557 -354 0
-7559 7558 355 0
-7559 -7558 -355 0
7559 -7558 355 0
7559 7558 -355 0
-7560 7559 356 0
-7560 -7559 -356 0
7560 -7559 356 0
7560 7559 -356 0
-7561 7560 358 0
-7561 -7560 -358 0
7561 -7560 358 0
7561 7560 -358 0
-7562 7561 359 0
-7562 -7561 -359 0
7562 -7561 359 0
7562 7561 -359 0
-7563 7562 360 0
-7563 -7562 -360 0
7563 -7562 360 0
7563 7562 -360 0
-275 -7563 0
-7564 366 368 0
-7564 -366 -368 0
7564 -366 368 0
7564 366 -368 0
-7565 7564 369 0
-7565 -7564 -369 0
7565 -7564 369 0
7565 7564 -369 0
-7566 7565 370 0
-7566 -7565 -370 0
7566 -7565 370 0
7566 7565 -370 0
-7567 7566 371 0
-7567 -7566 -371 0
7567 -7566 371 0
7567 7566 -371 0
-7568 7567 373 0
-7568 -7567 -373 0
7568 -7567 373 0
7568 7567 -373 0
-7569 7568 374 0
-7569 -7568 -374 0
7569 -7568 374 0
7569 7568 -374 0
-7570 7569 375 0
-7570 -7569 -375 0
7570 -7569 375 0
7570 7569 -375 0
-275 -7570 0
-7571 381 383 0
-7571 -381 -383 0
7571 -381 383 0
7571 381 -383 0
-7572 7571 384 0
-7572 -7571 -384 0
7572 -7571 384 0
7572 7571 -384 0
-7573 7572 385 0
-7573 -7572 -385 0
7573 -7572 385 0
7573 7572 -385 0
-7574 7573 386 0
-7574 -7573 -386 0
7574 -7573 386 0
7574 7573 -386 0
-7575 7574 388 0
-7575 -7574 -388 0
7575 -7574 388 0
7575 7574 -388 0
-7576 7575 389 0
-7576 -7575 -389 0
7576 -7575 389 0
7576 7575 -389 0
-7577 7576 390 0
-7577 -7576 -390 0
7577 -7576 390 0
7577 7576 -390 0
-275 -7577 0
-7578 316 318 0
-7578 -316 -318 0
7578 -316 318 0
7578 316 -318 0
-7579 7578 319 0
-7579 -7578 -319 0
7579 -7578 319 0
7579 7578 -319 0
-7580 7579 320 0
-7580 -7579 -320 0
7580 -7579 320 0
7580 7579 -320 0
-7581 7580 324 0
-7581 -7580 -324 0
7581 -7580 324 0
7581 7580 -324 0
-7582 7581 329 0
-7582 -7581 -329 0
7582 -7581 329 0
7582 7581 -329 0
-7583 7582 330 0
-7583 -7582 -330 0
7583 -7582 330 0
7583 7582 -330 0
-276 -7583 0
-7584 331 333 0
-7584 -331 -333 0
7584 -331 333 0
7584 331 -333 0
-7585 7584 334 0
-7585 -7584 -334 0
7585 -7584 334 0
7585 7584 -334 0
-7586 7585 335 0
-7586 -7585 -335 0
7586 -7585 335 0
7586 7585 -335 0
-7587 7586 339 0
-7587 -7586 -339 0
7587 -7586 339 0
7587 7586 -339 0
-7588 7587 344 0
-7588 -7587 -344 0
7588 -7587 344 0
7588 7587 -344 0
-7589 7588 345 0
-7589 -7588 -345 0
7589 -7588 345 0
7589 7588 -345 0
-276 -7589 0
-7590 346 348 0
-7590 -346 -348 0
7590 -346 348 0
7590 346 -348 0
-7591 7590 349 0
-7591 -7590 -349 0
7591 -7590 349 0
7591 7590 -349 0
-7592 7591 350 0
-7592 -7591 -350 0
7592 -7591 350 0
7592 7591 -350 0
-7593 7592 354 0
-7593 -7592 -354 0
7593 -7592 354 0
7593 7592 -354 0
-7594 7593 359 0
-7594 -7593 -359 0
7594 -7593 359 0
7594 7593 -359 0
-7595 7594 360 0
-7595 -7594 -360 0
7595 -7594 360 0
7595 7594 -360 0
-276 -7595 0
-7596 361 363 0
-7596 -361 -363 0
7596 -361 363 0
7596 361 -363 0
-7597 7596 364 0
-7597 -7596 -364 0
7597 -7596 364 0
7597 7596 -364 0
-7598 7597 365 0
-7598 -7597 -365 0
7598 -7597 365 0
7598 7597 -365 0
-7599 7598 369 0
-7599 -7598 -369 0
7599 -7598 369 0
7599 7598 -369 0
-7600 7599 374 0
-7600 -7599 -374 0
7600 -7599 374 0
7600 7599 -374 0
-7601 7600 375 0
-7601 -7600 -375 0
7601 -7600 375 0
7601 7600 -375 0
-276 -7601 0
-7602 376 378 0
-7602 -376 -378 0
7602 -376 378 0
7602 376 -378 0
-7603 7602 379 0
-7603 -7602 -379 0
7603 -7602 379 0
7603 7602 -379 0
-7604 7603 380 0
-7604 -7603 -380 0
7604 -7603 380 0
7604 7603 -380 0
-7605 7604 384 0
-7605 -7604 -384 0
7605 -7604 384 0
7605 7604 -384 0
-7606 7605 389 0
-7606 -7605 -389 0
7606 -7605 389 0
7606 7605 -389 0
-7607 7606 390 0
-7607 -7606 -390 0
7607 -7606 390 0
7607 7606 -390 0
-276 -7607 0
-7608 316 320 0
-7608 -316 -320 0
7608 -316 320 0
7608 316 -320 0
-7609 7608 322 0
-7609 -7608 -322 0
7609 -7608 322 0
7609 7608 -322 0
-7610 7609 323 0
-7610 -7609 -323 0
7610 -7609 323 0
7610 7609 -323 0
-7611 7610 324 0
-7611 -7610 -324 0
7611 -7610 324 0
7611 7610 -324 0
-7612 7611 329 0
-7612 -7611 -329 0
7612 -7611 329 0
7612 7611 -329 0
-7613 7612 330 0
-7613 -7612 -330 0
7613 -7612 330 0
7613 7612 -330 0
-277 -7613 0
-7614 331 335 0
-7614 -331 -335 0
7614 -331 335 0
7614 331 -335 0
-7615 7614 337 0
-7615 -7614 -337 0
7615 -7614 337 0
7615 7614 -337 0
-7616 7615 338 0
-7616 -7615 -338 0
7616 -7615 338 0
7616 7615 -338 0
-7617 7616 339 0
-7617 -7616 -339 0
7617 -7616 339 0
7617 7616 -339 0
-7618 7617 344 0
-7618 -7617 -344 0
7618 -7617 344 0
7618 7617 -344 0
-7619 7618 345 0
-7619 -7618 -345 0
7619 -7618 345 0
7619 7618 -345 0
-277 -7619 0
-7620 346 350 0
-7620 -346 -350 0
7620 -346 350 0
7620 346 -350 0
-7621 7620 352 0
-7621 -7620 -352 0
7621 -7620 352 0
7621 7620 -352 0
-7622 7621 353 0
-7622 -7621 -353 0
7622 -7621 353 0
7622 7621 -353 0
-7623 7622 354 0
-7623 -7622 -354 0
7623 -7622 354 0
7623 7622 -354 0
-7624 7623 359 0
-7624 -7623 -359 0
7624 -7623 359 0
7624 7623 -359 0
-7625 7624 360 0
-7625 -7624 -360 0
7625 -7624 360 0
7625 7624 -360 0
-277 -7625 0
-7626 361 365 0
-7626 -361 -365 0
7626 -361 365 0
7626 361 -365 0
-7627 7626 367 0
-7627 -7626 -367 0
7627 -7626 367 0
7627 7626 -367 0
-7628 7627 368 0
-7628 -7627 -368 0
7628 -7627 368 0
7628 7627 -368 0
-7629 7628 369 0
-7629 -7628 -369 0
7629 -7628 369 0
7629 7628 -369 0
-7630 7629 374 0
-7630 -7629 -374 0
7630 -7629 374 0
7630 7629 -374 0
-7631 7630 375 0
-7631 -7630 -375 0
7631 -7630 375 0
7631 7630 -375 0
-277 -7631 0
-7632 376 380 0
-7632 -376 -380 0
7632 -376 380 0
7632 376 -380 0
-7633 7632 382 0
-7633 -7632 -382 0
7633 -7632 382 0
7633 7632 -382 0
-7634 7633 383 0
-7634 -7633 -383 0
7634 -7633 383 0
7634 7633 -383 0
-7635 7634 384 0
-7635 -7634 -384 0
7635 -7634 384 0
7635 7634 -384 0
-7636 7635 389 0
-7636 -7635 -389 0
7636 -7635 389 0
7636 7635 -389 0
-7637 7636 390 0
-7637 -7636 -390 0
7637 -7636 390 0
7637 7636 -390 0
-277 -7637 0
-7638 317 320 0
-7638 -317 -320 0
7638 -317 320 0
7638 317 -320 0
-7639 7638 321 0
-7639 -7638 -321 0
7639 -7638 321 0
7639 7638 -321 0
-7640 7639 324 0
-7640 -7639 -324 0
7640 -7639 324 0
7640 7639 -324 0
-7641 7640 325 0
-7641 -7640 -325 0
7641 -7640 325 0
7641 7640 -325 0
-7642 7641 326 0
-7642 -7641 -326 0
7642 -7641 326 0
7642 7641 -326 0
-7643 7642 329 0
-7643 -7642 -329 0
7643 -7642 329 0
7643 7642 -329 0
-7644 7643 330 0
-7644 -7643 -330 0
7644 -7643 330 0
7644 7643 -330 0
-278 -7644 0
-7645 332 335 0
-7645 -332 -335 0
7645 -332 335 0
7645 332 -335 0
-7646 7645 336 0
-7646 -7645 -336 0
7646 -7645 336 0
7646 7645 -336 0
-7647 7646 339 0
-7647 -7646 -339 0
7647 -7646 339 0
7647 7646 -339 0
-7648 7647 340 0
-7648 -7647 -340 0
7648 -7647 340 0
7648 7647 -340 0
-7649 7648 341 0
-7649 -7648 -341 0
7649 -7648 341 0
7649 7648 -341 0
-7650 7649 344 0
-7650 -7649 -344 0
7650 -7649 344 0
7650 7649 -344 0
-7651 7650 345 0
-7651 -7650 -345 0
7651 -7650 345 0
7651 7650 -345 0
-278 -7651 0
-7652 347 350 0
-7652 -347 -350 0
7652 -347 350 0
7652 347 -350 0
-7653 7652 351 0
-7653 -7652 -351 0
7653 -7652 351 0
7653 7652 -351 0
-7654 7653 354 0
-7654 -7653 -354 0
7654 -7653 354 0
7654 7653 -354 0
-7655 7654 355 0
-7655 -7654 -355 0
7655 -7654 355 0
7655 7654 -355 0
-7656 7655 356 0
-7656 -7655 -356 0
7656 -7655 356 0
7656 7655 -356 0
-7657 7656 359 0
-7657 -7656 -359 0
7657 -7656 359 0
7657 7656 -359 0
-7658 7657 360 0
-7658 -7657 -360 0
7658 -7657 360 0
7658 7657 -360 0
-278 -7658 0
-7659 362 365 0
-7659 -362 -365 0
7659 -362 365 0
7659 362 -365 0
-7660 7659 366 0
-7660 -7659 -366 0
7660 -7659 366 0
7660 7659 -366 0
-7661 7660 369 0
-7661 -7660 -369 0
7661 -7660 369 0
7661 7660 -369 0
-7662 7661 370 0
-7662 -7661 -370 0
7662 -7661 370 0
7662 7661 -370 0
-7663 7662 371 0
-7663 -7662 -371 0
7663 -7662 371 0
7663 7662 -371 0
-7664 7663 374 0
-7664 -7663 -374 0
7664 -7663 374 0
7664 7663 -374 0
-7665 7664 375 0
-7665 -7664 -375 0
7665 -7664 375 0
7665 7664 -375 0
-278 -7665 0
-7666 377 380 0
-7666 -377 -380 0
7666 -377 380 0
7666 377 -380 0
-7667 7666 381 0
-7667 -7666 -381 0
7667 -7666 381 0
7667 7666 -381 0
-7668 7667 384 0
-7668 -7667 -384 0
7668 -7667 384 0
7668 7667 -384 0
-7669 7668 385 0
-7669 -7668 -385 0
7669 -7668 385 0
7669 7668 -385 0
-7670 7669 386 0
-7670 -7669 -386 0
7670 -7669 386 0
7670 7669 -386 0
-7671 7670 389 0
-7671 -7670 -389 0
7671 -7670 389 0
7671 7670 -389 0
-7672 7671 390 0
-7672 -7671 -390 0
7672 -7671 390 0
7672 7671 -390 0
-278 -7672 0
-7673 317 318 0
-7673 -317 -318 0
7673 -317 318 0
7673 317 -318 0
-7674 7673 319 0
-7674 -7673 -319 0
7674 -7673 319 0
7674 7673 -319 0
-7675 7674 320 0
-7675 -7674 -320 0
7675 -7674 320 0
7675 7674 -320 0
-7676 7675 321 0
-7676 -7675 -321 0
7676 -7675 321 0
7676 7675 -321 0
-7677 7676 322 0
-7677 -7676 -322 0
7677 -7676 322 0
7677 7676 -322 0
-7678 7677 323 0
-7678 -7677 -323 0
7678 -7677 323 0
7678 7677 -323 0
-7679 7678 324 0
-7679 -7678 -324 0
7679 -7678 324 0
7679 7678 -324 0
-7680 7679 325 0
-7680 -7679 -325 0
7680 -7679 325 0
7680 7679 -325 0
-7681 7680 326 0
-7681 -7680 -326 0
7681 -7680 326 0
7681 7680 -326 0
-7682 7681 329 0
-7682 -7681 -329 0
7682 -7681 329 0
7682 7681 -329 0
-7683 7682 330 0
-7683 -7682 -330 0
7683 -7682 330 0
7683 7682 -330 0
-279 -7683 0
-7684 332 333 0
-7684 -332 -333 0
7684 -332 333 0
7684 332 -333 0
-7685 7684 334 0
-7685 -7684 -334 0
7685 -7684 334 0
7685 7684 -334 0
-7686 7685 335 0
-7686 -7685 -335 0
7686 -7685 335 0
7686 7685 -335 0
-7687 7686 336 0
-7687 -7686 -336 0
7687 -7686 336 0
7687 7686 -336 0
-7688 7687 337 0
-7688 -7687 -337 0
7688 -7687 337 0
7688 7687 -337 0
-7689 7688 338 0
-7689 -7688 -338 0
7689 -7688 338 0
7689 7688 -338 0
-7690 7689 339 0
-7690 -7689 -339 0
7690 -7689 339 0
7690 7689 -339 0
-7691 7690 340 0
-7691 -7690 -340 0
7691 -7690 340 0
7691 7690 -340 0
-7692 7691 341 0
-7692 -7691 -341 0
7692 -7691 341 0
7692 7691 -341 0
-7693 7692 344 0
-7693 -7692 -344 0
7693 -7692 344 0
7693 7692 -344 0
-7694 7693 345 0
-7694 -7693 -345 0
7694 -7693 345 0
7694 7693 -345 0
-279 -7694 0
-7695 347 348 0
-7695 -347 -348 0
7695 -347 348 0
7695 347 -348 0
-7696 7695 349 0
-7696 -7695 -349 0
7696 -7695 349 0
7696 7695 -349 0
-7697 7696 350 0
-7697 -7696 -350 0
7697 -7696 350 0
7697 7696 -350 0
-7698 7697 351 0
-7698 -7697 -351 0
7698 -7697 351 0
7698 7697 -351 0
-7699 7698 352 0
-7699 -7698 -352 0
7699 -7698 352 0
7699 7698 -352 0
-7700 7699 353 0
-7700 -7699 -353 0
7700 -7699 353 0
7700 7699 -353 0
-7701 7700 354 0
-7701 -7700 -354 0
7701 -7700 354 0
7701 7700 -354 0
-7702 7701 355 0
-7702 -7701 -355 0
7702 -7701 355 0
7702 7701 -355 0
-7703 7702 356 0
-7703 -7702 -356 0
7703 -7702 356 0
7703 7702 -356 0
-7704 7703 359 0
-7704 -7703 -359 0
7704 -7703 359 0
7704 7703 -359 0
-7705 7704 360 0
-7705 -7704 -360 0
7705 -7704 360 0
7705 7704 -360 0
-279 -7705 0
-7706 362 363 0
-7706 -362 -363 0
7706 -362 363 0
7706 362 -363 0
-7707 7706 364 0
-7707 -7706 -364 0
7707 -7706 364 0
7707 7706 -364 0
-7708 7707 365 0
-7708 -7707 -365 0
7708 -7707 365 0
7708 7707 -365 0
-7709 7708 366 0
-7709 -7708 -366 0
7709 -7708 366 0
7709 7708 -366 0
-7710 7709 367 0
-7710 -7709 -367 0
7710 -7709 367 0
7710 7709 -367 0
-7711 7710 368 0
-7711 -7710 -368 0
7711 -7710 368 0
7711 7710 -368 0
-7712 7711 369 0
-7712 -7711 -369 0
7712 -7711 369 0
7712 7711 -369 0
-7713 7712 370 0
-7713 -7712 -370 0
7713 -7712 370 0
7713 7712 -370 0
-7714 7713 371 0
-7714 -7713 -371 0
7714 -7713 371 0
7714 7713 -371 0
-7715 7714 374 0
-7715 -7714 -374 0
7715 -7714 374 0
7715 7714 -374 0
-7716 7715 375 0
-7716 -7715 -375 0
7716 -7715 375 0
7716 7715 -375 0
-279 -7716 0
-7717 377 378 0
-7717 -377 -378 0
7717 -377 378 0
7717 377 -378 0
-7718 7717 379 0
-7718 -7717 -379 0
7718 -7717 379 0
7718 7717 -379 0
-7719 7718 380 0
-7719 -7718 -380 0
7719 -7718 380 0
7719 7718 -380 0
-7720 7719 381 0
-7720 -7719 -381 0
7720 -7719 381 0
7720 7719 -381 0
-7721 7720 382 0
-7721 -7720 -382 0
7721 -7720 382 0
7721 7720 -382 0
-7722 7721 383 0
-7722 -7721 -383 0
7722 -7721 383 0
7722 7721 -383 0
-7723 7722 384 0
-7723 -7722 -384 0
7723 -7722 384 0
7723 7722 -384 0
-7724 7723 385 0
-7724 -7723 -385 0
7724 -7723 385 0
7724 7723 -385 0
-7725 7724 386 0
-7725 -7724 -386 0
7725 -7724 386 0
7725 7724 -386 0
-7726 7725 389 0
-7726 -7725 -389 0
7726 -7725 389 0
7726 7725 -389 0
-7727 7726 390 0
-7727 -7726 -390 0
7727 -7726 390 0
7727 7726 -390 0
-279 -7727 0
-7728 316 319 0
-7728 -316 -319 0
7728 -316 319 0
7728 316 -319 0
-7729 7728 320 0
-7729 -7728 -320 0
7729 -7728 320 0
7729 7728 -320 0
-7730 7729 322 0
-7730 -7729 -322 0
7730 -7729 322 0
7730 7729 -322 0
-7731 7730 324 0
-7731 -7730 -324 0
7731 -7730 324 0
7731 7730 -324 0
-7732 7731 328 0
-7732 -7731 -328 0
7732 -7731 328 0
7732 7731 -328 0
-7733 7732 329 0
-7733 -7732 -329 0
7733 -7732 329 0
7733 7732 -329 0
-7734 7733 330 0
-7734 -7733 -330 0
7734 -7733 330 0
7734 7733 -330 0
-280 -7734 0
-7735 331 334 0
-7735 -331 -334 0
7735 -331 334 0
7735 331 -334 0
-7736 7735 335 0
-7736 -7735 -335 0
7736 -7735 335 0
7736 7735 -335 0
-7737 7736 337 0
-7737 -7736 -337 0
7737 -7736 337 0
7737 7736 -337 0
-7738 7737 339 0
-7738 -7737 -339 0
7738 -7737 339 0
7738 7737 -339 0
-7739 7738 343 0
-7739 -7738 -343 0
7739 -7738 343 0
7739 7738 -343 0
-7740 7739 344 0
-7740 -7739 -344 0
7740 -7739 344 0
7740 7739 -344 0
-7741 7740 345 0
-7741 -7740 -345 0
7741 -7740 345 0
7741 7740 -345 0
-280 -7741 0
-7742 346 349 0
-7742 -346 -349 0
7742 -346 349 0
7742 346 -349 0
-7743 7742 350 0
-7743 -7742 -350 0
7743 -7742 350 0
7743 7742 -350 0
-7744 7743 352 0
-7744 -7743 -352 0
7744 -7743 352 0
7744 7743 -352 0
-7745 7744 354 0
-7745 -7744 -354 0
7745 -7744 354 0
7745 7744 -354 0
-7746 7745 358 0
-7746 -7745 -358 0
7746 -7745 358 0
7746 7745 -358 0
-7747 7746 359 0
-7747 -7746 -359 0
7747 -7746 359 0
7747 7746 -359 0
-7748 7747 360 0
-7748 -7747 -360 0
7748 -7747 360 0
7748 7747 -360 0
-280 -7748 0
-7749 361 364 0
-7749 -361 -364 0
7749 -361 364 0
7749 361 -364 0
-7750 7749 365 0
-7750 -7749 -365 0
7750 -7749 365 0
7750 7749 -365 0
-7751 7750 367 0
-7751 -7750 -367 0
7751 -7750 367 0
7751 7750 -367 0
-7752 7751 369 0
-7752 -7751 -369 0
7752 -7751 369 0
7752 7751 -369 0
-7753 7752 373 0
-7753 -7752 -373 0
7753 -7752 373 0
7753 7752 -373 0
-7754 7753 374 0
-7754 -7753 -374 0
7754 -7753 374 0
7754 7753 -374 0
-7755 7754 375 0
-7755 -7754 -375 0
7755 -7754 375 0
7755 7754 -375 0
-280 -7755 0
-7756 376 379 0
-7756 -376 -379 0
7756 -376 379 0
7756 376 -379 0
-7757 7756 380 0
-7757 -7756 -380 0
7757 -7756 380 0
7757 7756 -380 0
-7758 7757 382 0
-7758 -7757 -382 0
7758 -7757 382 0
7758 7757 -382 0
-7759 7758 384 0
-7759 -7758 -384 0
7759 -7758 384 0
7759 7758 -384 0
-7760 7759 388 0
-7760 -7759 -388 0
7760 -7759 388 0
7760 7759 -388 0
-7761 7760 389 0
-7761 -7760 -389 0
7761 -7760 389 0
7761 7760 -389 0
-7762 7761 390 0
-7762 -7761 -390 0
7762 -7761 390 0
7762 7761 -390 0
-280 -7762 0
-7763 316 318 0
-7763 -316 -318 0
7763 -316 318 0
7763 316 -318 0
-7764 7763 320 0
-7764 -7763 -320 0
7764 -7763 320 0
7764 7763 -320 0
-7765 7764 323 0
-7765 -7764 -323 0
7765 -7764 323 0
7765 7764 -323 0
-7766 7765 324 0
-7766 -7765 -324 0
7766 -7765 324 0
7766 7765 -324 0
-7767 7766 328 0
-7767 -7766 -328 0
7767 -7766 328 0
7767 7766 -328 0
-7768 7767 329 0
-7768 -7767 -329 0
7768 -7767 329 0
7768 7767 -329 0
-7769 7768 330 0
-7769 -7768 -330 0
7769 -7768 330 0
7769 7768 -330 0
-281 -7769 0
-7770 331 333 0
-7770 -331 -333 0
7770 -331 333 0
7770 331 -333 0
-7771 7770 335 0
-7771 -7770 -335 0
7771 -7770 335 0
7771 7770 -335 0
-7772 7771 338 0
-7772 -7771 -338 0
7772 -7771 338 0
7772 7771 -338 0
-7773 7772 339 0
-7773 -7772 -339 0
7773 -7772 339 0
7773 7772 -339 0
-7774 7773 343 0
-7774 -7773 -343 0
7774 -7773 343 0
7774 7773 -343 0
-7775 7774 344 0
-7775 -7774 -344 0
7775 -7774 344 0
7775 7774 -344 0
-7776 7775 345 0
-7776 -7775 -345 0
7776 -7775 345 0
7776 7775 -345 0
-281 -7776 0
-7777 346 348 0
-7777 -346 -348 0
7777 -346 348 0
7777 346 -348 0
-7778 7777 350 0
-7778 -7777 -350 0
7778 -7777 350 0
7778 7777 -350 0
-7779 7778 353 0
-7779 -7778 -353 0
7779 -7778 353 0
7779 7778 -353 0
-7780 7779 354 0
-7780 -7779 -354 0
7780 -7779 354 0
7780 7779 -354 0
-7781 7780 358 0
-7781 -7780 -358 0
7781 -7780 358 0
7781 7780 -358 0
-7782 7781 359 0
-7782 -7781 -359 0
7782 -7781 359 0
7782 7781 -359 0
-7783 7782 360 0
-7783 -7782 -360 0
7783 -7782 360 0
7783 7782 -360 0
-281 -7783 0
-7784 361 363 0
-7784 -361 -363 0
7784 -361 363 0
7784 361 -363 0
-7785 7784 365 0
-7785 -7784 -365 0
7785 -7784 365 0
7785 7784 -365 0
-7786 7785 368 0
-7786 -7785 -368 0
7786 -7785 368 0
7786 7785 -368 0
-7787 7786 369 0
-7787 -7786 -369 0
7787 -7786 369 0
7787 7786 -369 0
-7788 7787 373 0
-7788 -7787 -373 0
7788 -7787 373 0
7788 7787 -373 0
-7789 7788 374 0
-7789 -7788 -374 0
7789 -7788 374 0
7789 7788 -374 0
-7790 7789 375 0
-7790 -7789 -375 0
7790 -7789 375 0
7790 7789 -375 0
-281 -7790 0
-7791 376 378 0
-7791 -376 -378 0
7791 -376 378 0
7791 376 -378 0
-7792 7791 380 0
-7792 -7791 -380 0
7792 -7791 380 0
7792 7791 -380 0
-7793 7792 383 0
-7793 -7792 -383 0
7793 -7792 383 0
7793 7792 -383 0
-7794 7793 384 0
-7794 -7793 -384 0
7794 -7793 384 0
7794 7793 -384 0
-7795 7794 388 0
-7795 -7794 -388 0
7795 -7794 388 0
7795 7794 -388 0
-7796 7795 389 0
-7796 -7795 -389 0
7796 -7795 389 0
7796 7795 -389 0
-7797 7796 390 0
-7797 -7796 -390 0
7797 -7796 390 0
7797 7796 -390 0
-281 -7797 0
-7798 317 318 0
-7798 -317 -318 0
7798 -317 318 0
7798 317 -318 0
-7799 7798 320 0
-7799 -7798 -320 0
7799 -7798 320 0
7799 7798 -320 0
-7800 7799 321 0
-7800 -7799 -321 0
7800 -7799 321 0
7800 7799 -321 0
-7801 7800 322 0
-7801 -7800 -322 0
7801 -7800 322 0
7801 7800 -322 0
-7802 7801 324 0
-7802 -7801 -324 0
7802 -7801 324 0
7802 7801 -324 0
-7803 7802 325 0
-7803 -7802 -325 0
7803 -7802 325 0
7803 7802 -325 0
-7804 7803 326 0
-7804 -7803 -326 0
7804 -7803 326 0
7804 7803 -326 0
-7805 7804 328 0
-7805 -7804 -328 0
7805 -7804 328 0
7805 7804 -328 0
-7806 7805 329 0
-7806 -7805 -329 0
7806 -7805 329 0
7806 7805 -329 0
-7807 7806 330 0
-7807 -7806 -330 0
7807 -7806 330 0
7807 7806 -330 0
-282 -7807 0
-7808 332 333 0
-7808 -332 -333 0
7808 -332 333 0
7808 332 -333 0
-7809 7808 335 0
-7809 -7808 -335 0
7809 -7808 335 0
7809 7808 -335 0
-7810 7809 336 0
-7810 -7809 -336 0
7810 -7809 336 0
7810 7809 -336 0
-7811 7810 337 0
-7811 -7810 -337 0
7811 -7810 337 0
7811 7810 -337 0
-7812 7811 339 0
-7812 -7811 -339 0
7812 -7811 339 0
7812 7811 -339 0
-7813 7812 340 0
-7813 -7812 -340 0
7813 -7812 340 0
7813 7812 -340 0
-7814 7813 341 0
-7814 -7813 -341 0
7814 -7813 341 0
7814 7813 -341 0
-7815 7814 343 0
-7815 -7814 -343 0
7815 -7814 343 0
7815 7814 -343 0
-7816 7815 344 0
-7816 -7815 -344 0
7816 -7815 344 0
7816 7815 -344 0
-7817 7816 345 0
-7817 -7816 -345 0
7817 -7816 345 0
7817 7816 -345 0
-282 -7817 0
-7818 347 348 0
-7818 -347 -348 0
7818 -347 348 0
7818 347 -348 0
-7819 7818 350 0
-7819 -7818 -350 0
7819 -7818 350 0
7819 7818 -350 0
-7820 7819 351 0
-7820 -7819 -351 0
7820 -7819 351 0
7820 7819 -351 0
-7821 7820 352 0
-7821 -7820 -352 0
7821 -7820 352 0
7821 7820 -352 0
-7822 7821 354 0
-7822 -7821 -354 0
7822 -7821 354 0
7822 7821 -354 0
-7823 7822 355 0
-7823 -7822 -355 0
7823 -7822 355 0
7823 7822 -355 0
-7824 7823 356 0
-7824 -7823 -356 0
7824 -7823 356 0
7824 7823 -356 0
-7825 7824 358 0
-7825 -7824 -358 0
7825 -7824 358 0
7825 7824 -358 0
-7826 7825 359 0
-7826 -7825 -359 0
7826 -7825 359 0
7826 7825 -359 0
-7827 7826 360 0
-7827 -7826 -360 0
7827 -7826 360 0
7827 7826 -360 0
-282 -7827 0
-7828 362 363 0
-7828 -362 -363 0
7828 -362 363 0
7828 362 -363 0
-7829 7828 365 0
-7829 -7828 -365 0
7829 -7828 365 0
7829 7828 -365 0
-7830 7829 366 0
-7830 -7829 -366 0
7830 -7829 366 0
7830 7829 -366 0
-7831 7830 367 0
-7831 -7830 -367 0
7831 -7830 367 0
7831 7830 -367 0
-7832 7831 369 0
-7832 -7831 -369 0
7832 -7831 369 0
7832 7831 -369 0
-7833 7832 370 0
-7833 -7832 -370 0
7833 -7832 370 0
7833 7832 -370 0
-7834 7833 371 0
-7834 -7833 -371 0
7834 -7833 371 0
7834 7833 -371 0
-7835 7834 373 0
-7835 -7834 -373 0
7835 -7834 373 0
7835 7834 -373 0
-7836 7835 374 0
-7836 -7835 -374 0
7836 -7835 374 0
7836 7835 -374 0
-7837 7836 375 0
-7837 -7836 -375 0
7837 -7836 375 0
7837 7836 -375 0
-282 -7837 0
-7838 377 378 0
-7838 -377 -378 0
7838 -377 378 0
7838 377 -378 0
-7839 7838 380 0
-7839 -7838 -380 0
7839 -7838 380 0
7839 7838 -380 0
-7840 7839 381 0
-7840 -7839 -381 0
7840 -7839 381 0
7840 7839 -381 0
-7841 7840 382 0
-7841 -7840 -382 0
7841 -7840 382 0
7841 7840 -382 0
-7842 7841 384 0
-7842 -7841 -384 0
7842 -7841 384 0
7842 7841 -384 0
-7843 7842 385 0
-7843 -7842 -385 0
7843 -7842 385 0
7843 7842 -385 0
-7844 7843 386 0
-7844 -7843 -386 0
7844 -7843 386 0
7844 7843 -386 0
-7845 7844 388 0
-7845 -7844 -388 0
7845 -7844 388 0
7845 7844 -388 0
-7846 7845 389 0
-7846 -7845 -389 0
7846 -7845 389 0
7846 7845 -389 0
-7847 7846 390 0
-7847 -7846 -390 0
7847 -7846 390 0
7847 7846 -390 0
-282 -7847 0
-7848 317 319 0
-7848 -317 -319 0
7848 -317 319 0
7848 317 -319 0
-7849 7848 320 0
-7849 -7848 -320 0
7849 -7848 320 0
7849 7848 -320 0
-7850 7849 321 0
-7850 -7849 -321 0
7850 -7849 321 0
7850 7849 -321 0
-7851 7850 323 0
-7851 -7850 -323 0
7851 -7850 323 0
7851 7850 -323 0
-7852 7851 324 0
-7852 -7851 -324 0
7852 -7851 324 0
7852 7851 -324 0
-7853 7852 325 0
-7853 -7852 -325 0
7853 -7852 325 0
7853 7852 -325 0
-7854 7853 326 0
-7854 -7853 -326 0
7854 -7853 326 0
7854 7853 -326 0
-7855 7854 328 0
-7855 -7854 -328 0
7855 -7854 328 0
7855 7854 -328 0
-7856 7855 329 0
-7856 -7855 -329 0
7856 -7855 329 0
7856 7855 -329 0
-7857 7856 330 0
-7857 -7856 -330 0
7857 -7856 330 0
7857 7856 -330 0
-283 -7857 0
-7858 332 334 0
-7858 -332 -334 0
7858 -332 334 0
7858 332 -334 0
-7859 7858 335 0
-7859 -7858 -335 0
7859 -7858 335 0
7859 7858 -335 0
-7860 7859 336 0
-7860 -7859 -336 0
7860 -7859 336 0
7860 7859 -336 0
-7861 7860 338 0
-7861 -7860 -338 0
7861 -7860 338 0
7861 7860 -338 0
-7862 7861 339 0
-7862 -7861 -339 0
7862 -7861 339 0
7862 7861 -339 0
-7863 7862 340 0
-7863 -7862 -340 0
7863 -7862 340 0
7863 7862 -340 0
-7864 7863 341 0
-7864 -7863 -341 0
7864 -7863 341 0
7864 7863 -341 0
-7865 7864 343 0
-7865 -7864 -343 0
7865 -7864 343 0
7865 7864 -343 0
-7866 7865 344 0
-7866 -7865 -344 0
7866 -7865 344 0
7866 7865 -344 0
-7867 7866 345 0
-7867 -7866 -345 0
7867 -7866 345 0
7867 7866 -345 0
-283 -7867 0
-7868 347 349 0
-7868 -347 -349 0
7868 -347 349 0
7868 347 -349 0
-7869 7868 350 0
-7869 -7868 -350 0
7869 -7868 350 0
7869 7868 -350 0
-7870 7869 351 0
-7870 -7869 -351 0
7870 -7869 351 0
7870 7869 -351 0
-7871 7870 353 0
-7871 -7870 -353 0
7871 -7870 353 0
7871 7870 -353 0
-7872 7871 354 0
-7872 -7871 -354 0
7872 -7871 354 0
7872 7871 -354 0
-7873 7872 355 0
-7873 -7872 -355 0
7873 -7872 355 0
7873 7872 -355 0
-7874 7873 356 0
-7874 -7873 -356 0
7874 -7873 356 0
7874 7873 -356 0
-7875 7874 358 0
-7875 -7874 -358 0
7875 -7874 358 0
7875 7874 -358 0
-7876 7875 359 0
-7876 -7875 -359 0
7876 -7875 359 0
7876 7875 -359 0
-7877 7876 360 0
-7877 -7876 -360 0
7877 -7876 360 0
7877 7876 -360 0
-283 -7877 0
-7878 362 364 0
-7878 -362 -364 0
7878 -362 364 0
7878 362 -364 0
-7879 7878 365 0
-7879 -7878 -365 0
7879 -7878 365 0
7879 7878 -365 0
-7880 7879 366 0
-7880 -7879 -366 0
7880 -7879 366 0
7880 7879 -366 0
-7881 7880 368 0
-7881 -7880 -368 0
7881 -7880 368 0
7881 7880 -368 0
-7882 7881 369 0
-7882 -7881 -369 0
7882 -7881 369 0
7882 7881 -369 0
-7883 7882 370 0
-7883 -7882 -370 0
7883 -7882 370 0
7883 7882 -370 0
-7884 7883 371 0
-7884 -7883 -371 0
7884 -7883 371 0
7884 7883 -371 0
-7885 7884 373 0
-7885 -7884 -373 0
7885 -7884 373 0
7885 7884 -373 0
-7886 7885 374 0
-7886 -7885 -374 0
7886 -7885 374 0
7886 7885 -374 0
-7887 7886 375 0
-7887 -7886 -375 0
7887 -7886 375 0
7887 7886 -375 0
-283 -7887 0
-7888 377 379 0
-7888 -377 -379 0
7888 -377 379 0
7888 377 -379 0
-7889 7888 380 0
-7889 -7888 -380 0
7889 -7888 380 0
7889 7888 -380 0
-7890 7889 381 0
-7890 -7889 -381 0
7890 -7889 381 0
7890 7889 -381 0
-7891 7890 383 0
-7891 -7890 -383 0
7891 -7890 383 0
7891 7890 -383 0
-7892 7891 384 0
-7892 -7891 -384 0
7892 -7891 384 0
7892 7891 -384 0
-7893 7892 385 0
-7893 -7892 -385 0
7893 -7892 385 0
7893 7892 -385 0
-7894 7893 386 0
-7894 -7893 -386 0
7894 -7893 386 0
7894 7893 -386 0
-7895 7894 388 0
-7895 -7894 -388 0
7895 -7894 388 0
7895 7894 -388 0
-7896 7895 389 0
-7896 -7895 -389 0
7896 -7895 389 0
7896 7895 -389 0
-7897 7896 390 0
-7897 -7896 -390 0
7897 -7896 390 0
7897 7896 -390 0
-283 -7897 0
-7898 325 326 0
-7898 -325 -326 0
7898 -325 326 0
7898 325 -326 0
-7899 7898 327 0
-7899 -7898 -327 0
7899 -7898 327 0
7899 7898 -327 0
-7900 7899 329 0
-7900 -7899 -329 0
7900 -7899 329 0
7900 7899 -329 0
-7901 7900 330 0
-7901 -7900 -330 0
7901 -7900 330 0
7901 7900 -330 0
-284 -7901 0
-7902 340 341 0
-7902 -340 -341 0
7902 -340 341 0
7902 340 -341 0
-7903 7902 342 0
-7903 -7902 -342 0
7903 -7902 342 0
7903 7902 -342 0
-7904 7903 344 0
-7904 -7903 -344 0
7904 -7903 344 0
7904 7903 -344 0
-7905 7904 345 0
-7905 -7904 -345 0
7905 -7904 345 0
7905 7904 -345 0
-284 -7905 0
-7906 355 356 0
-7906 -355 -356 0
7906 -355 356 0
7906 355 -356 0
-7907 7906 357 0
-7907 -7906 -357 0
7907 -7906 357 0
7907 7906 -357 0
-7908 7907 359 0
-7908 -7907 -359 0
7908 -7907 359 0
7908 7907 -359 0
-7909 7908 360 0
-7909 -7908 -360 0
7909 -7908 360 0
7909 7908 -360 0
-284 -7909 0
-7910 370 371 0
-7910 -370 -371 0
7910 -370 371 0
7910 370 -371 0
-7911 7910 372 0
-7911 -7910 -372 0
7911 -7910 372 0
7911 7910 -372 0
-7912 7911 374 0
-7912 -7911 -374 0
7912 -7911 374 0
7912 7911 -374 0
-7913 7912 375 0
-7913 -7912 -375 0
7913 -7912 375 0
7913 7912 -375 0
-284 -7913 0
-7914 385 386 0
-7914 -385 -386 0
7914 -385 386 0
7914 385 -386 0
-7915 7914 387 0
-7915 -7914 -387 0
7915 -7914 387 0
7915 7914 -387 0
-7916 7915 389 0
-7916 -7915 -389 0
7916 -7915 389 0
7916 7915 -389 0
-7917 7916 390 0
-7917 -7916 -390 0
7917 -7916 390 0
7917 7916 -390 0
-284 -7917 0
-7918 317 318 0
-7918 -317 -318 0
7918 -317 318 0
7918 317 -318 0
-7919 7918 319 0
-7919 -7918 -319 0
7919 -7918 319 0
7919 7918 -319 0
-7920 7919 325 0
-7920 -7919 -325 0
7920 -7919 325 0
7920 7919 -325 0
-7921 7920 326 0
-7921 -7920 -326 0
7921 -7920 326 0
7921 7920 -326 0
-7922 7921 327 0
-7922 -7921 -327 0
7922 -7921 327 0
7922 7921 -327 0
-7923 7922 329 0
-7923 -7922 -329 0
7923 -7922 329 0
7923 7922 -329 0
-7924 7923 330 0
-7924 -7923 -330 0
7924 -7923 330 0
7924 7923 -330 0
-285 -7924 0
-7925 332 333 0
-7925 -332 -333 0
7925 -332 333 0
7925 332 -333 0
-7926 7925 334 0
-7926 -7925 -334 0
7926 -7925 334 0
7926 7925 -334 0
-7927 7926 340 0
-7927 -7926 -340 0
7927 -7926 340 0
7927 7926 -340 0
-7928 7927 341 0
-7928 -7927 -341 0
7928 -7927 341 0
7928 7927 -341 0
-7929 7928 342 0
-7929 -7928 -342 0
7929 -7928 342 0
7929 7928 -342 0
-7930 7929 344 0
-7930 -7929 -344 0
7930 -7929 344 0
7930 7929 -344 0
-7931 7930 345 0
-7931 -7930 -345 0
7931 -7930 345 0
7931 7930 -345 0
-285 -7931 0
-7932 347 348 0
-7932 -347 -348 0
7932 -347 348 0
7932 347 -348 0
-7933 7932 349 0
-7933 -7932 -349 0
7933 -7932 349 0
7933 7932 -349 0
-7934 7933 355 0
-7934 -7933 -355 0
7934 -7933 355 0
7934 7933 -355 0
-7935 7934 356 0
-7935 -7934 -356 0
7935 -7934 356 0
7935 7934 -356 0
-7936 7935 357 0
-7936 -7935 -357 0
7936 -7935 357 0
7936 7935 -357 0
-7937 7936 359 0
-7937 -7936 -359 0
7937 -7936 359 0
7937 7936 -359 0
-7938 7937 360 0
-7938 -7937 -360 0
7938 -7937 360 0
7938 7937 -360 0
-285 -7938 0
-7939 362 363 0
-7939 -362 -363 0
7939 -362 363 0
7939 362 -363 0
-7940 7939 364 0
-7940 -7939 -364 0
7940 -7939 364 0
7940 7939 -364 0
-7941 7940 370 0
-7941 -7940 -370 0
7941 -7940 370 0
7941 7940 -370 0
-7942 7941 371 0
-7942 -7941 -371 0
7942 -7941 371 0
7942 7941 -371 0
-7943 7942 372 0
-7943 -7942 -372 0
7943 -7942 372 0
7943 7942 -372 0
-7944 7943 374 0
-7944 -7943 -374 0
7944 -7943 374 0
7944 7943 -374 0
-7945 7944 375 0
-7945 -7944 -375 0
7945 -7944 375 0
7945 7944 -375 0
-285 -7945 0
-7946 377 378 0
-7946 -377 -378 0
7946 -377 378 0
7946 377 -378 0
-7947 7946 379 0
-7947 -7946 -379 0
7947 -7946 379 0
7947 7946 -379 0
-7948 7947 385 0
-7948 -7947 -385 0
7948 -7947 385 0
7948 7947 -385 0
-7949 7948 386 0
-7949 -7948 -386 0
7949 -7948 386 0
7949 7948 -386 0
-7950 7949 387 0
-7950 -7949 -387 0
7950 -7949 387 0
7950 7949 -387 0
-7951 7950 389 0
-7951 -7950 -389 0
7951 -7950 389 0
7951 7950 -389 0
-7952 7951 390 0
-7952 -7951 -390 0
7952 -7951 390 0
7952 7951 -390 0
-285 -7952 0
-7953 321 322 0
-7953 -321 -322 0
7953 -321 322 0
7953 321 -322 0
-7954 7953 323 0
-7954 -7953 -323 0
7954 -7953 323 0
7954 7953 -323 0
-7955 7954 325 0
-7955 -7954 -325 0
7955 -7954 325 0
7955 7954 -325 0
-7956 7955 326 0
-7956 -7955 -326 0
7956 -7955 326 0
7956 7955 -326 0
-7957 7956 327 0
-7957 -7956 -327 0
7957 -7956 327 0
7957 7956 -327 0
-7958 7957 329 0
-7958 -7957 -329 0
7958 -7957 329 0
7958 7957 -329 0
-7959 7958 330 0
-7959 -7958 -330 0
7959 -7958 330 0
7959 7958 -330 0
-286 -7959 0
-7960 336 337 0
-7960 -336 -337 0
7960 -336 337 0
7960 336 -337 0
-7961 7960 338 0
-7961 -7960 -338 0
7961 -7960 338 0
7961 7960 -338 0
-7962 7961 340 0
-7962 -7961 -340 0
7962 -7961 340 0
7962 7961 -340 0
-7963 7962 341 0
-7963 -7962 -341 0
7963 -7962 341 0
7963 7962 -341 0
-7964 7963 342 0
-7964 -7963 -342 0
7964 -7963 342 0
7964 7963 -342 0
-7965 7964 344 0
-7965 -7964 -344 0
7965 -7964 344 0
7965 7964 -344 0
-7966 7965 345 0
-7966 -7965 -345 0
7966 -7965 345 0
7966 7965 -345 0
-286 -7966 0
-7967 351 352 0
-7967 -351 -352 0
7967 -351 352 0
7967 351 -352 0
-7968 7967 353 0
-7968 -7967 -353 0
7968 -7967 353 0
7968 7967 -353 0
-7969 7968 355 0
-7969 -7968 -355 0
7969 -7968 355 0
7969 7968 -355 0
-7970 7969 356 0
-7970 -7969 -356 0
7970 -7969 356 0
7970 7969 -356 0
-7971 7970 357 0
-7971 -7970 -357 0
7971 -7970 357 0
7971 7970 -357 0
-7972 7971 359 0
-7972 -7971 -359 0
7972 -7971 359 0
7972 7971 -359 0
-7973 7972 360 0
-7973 -7972 -360 0
7973 -7972 360 0
7973 7972 -360 0
-286 -7973 0
-7974 366 367 0
-7974 -366 -367 0
7974 -366 367 0
7974 366 -367 0
-7975 7974 368 0
-7975 -7974 -368 0
7975 -7974 368 0
7975 7974 -368 0
-7976 7975 370 0
-7976 -7975 -370 0
7976 -7975 370 0
7976 7975 -370 0
-7977 7976 371 0
-7977 -7976 -371 0
7977 -7976 371 0
7977 7976 -371 0
-7978 7977 372 0
-7978 -7977 -372 0
7978 -7977 372 0
7978 7977 -372 0
-7979 7978 374 0
-7979 -7978 -374 0
7979 -7978 374 0
7979 7978 -374 0
-7980 7979 375 0
-7980 -7979 -375 0
7980 -7979 375 0
7980 7979 -375 0
-286 -7980 0
-7981 381 382 0
-7981 -381 -382 0
7981 -381 382 0
7981 381 -382 0
-7982 7981 383 0
-7982 -7981 -383 0
7982 -7981 383 0
7982 7981 -383 0
-7983 7982 385 0
-7983 -7982 -385 0
7983 -7982 385 0
7983 7982 -385 0
-7984 7983 386 0
-7984 -7983 -386 0
7984 -7983 386 0
7984 7983 -386 0
-7985 7984 387 0
-7985 -7984 -387 0
7985 -7984 387 0
7985 7984 -387 0
-7986 7985 389 0
-7986 -7985 -389 0
7986 -7985 389 0
7986 7985 -389 0
-7987 7986 390 0
-7987 -7986 -390 0
7987 -7986 390 0
7987 7986 -390 0
-286 -7987 0
-7988 317 318 0
-7988 -317 -318 0
7988 -317 318 0
7988 317 -318 0
-7989 7988 319 0
-7989 -7988 -319 0
7989 -7988 319 0
7989 7988 -319 0
-7990 7989 321 0
-7990 -7989 -321 0
7990 -7989 321 0
7990 7989 -321 0
-7991 7990 322 0
-7991 -7990 -322 0
7991 -7990 322 0
7991 7990 -322 0
-7992 7991 323 0
-7992 -7991 -323 0
7992 -7991 323 0
7992 7991 -323 0
-7993 7992 325 0
-7993 -7992 -325 0
7993 -7992 325 0
7993 7992 -325 0
-7994 7993 326 0
-7994 -7993 -326 0
7994 -7993 326 0
7994 7993 -326 0
-7995 7994 327 0
-7995 -7994 -327 0
7995 -7994 327 0
7995 7994 -327 0
-7996 7995 329 0
-7996 -7995 -329 0
7996 -7995 329 0
7996 7995 -329 0
-7997 7996 330 0
-7997 -7996 -330 0
7997 -7996 330 0
7997 7996 -330 0
-287 -7997 0
-7998 332 333 0
-7998 -332 -333 0
7998 -332 333 0
7998 332 -333 0
-7999 7998 334 0
-7999 -7998 -334 0
7999 -7998 334 0
7999 7998 -334 0
-8000 7999 336 0
-8000 -7999 -336 0
8000 -7999 336 0
8000 7999 -336 0
-8001 8000 337 0
-8001 -8000 -337 0
8001 -8000 337 0
8001 8000 -337 0
-8002 8001 338 0
-8002 -8001 -338 0
8002 -8001 338 0
8002 8001 -338 0
-8003 8002 340 0
-8003 -8002 -340 0
8003 -8002 340 0
8003 8002 -340 0
-8004 8003 341 0
-8004 -8003 -341 0
8004 -8003 341 0
8004 8003 -341 0
-8005 8004 342 0
-8005 -8004 -342 0
8005 -8004 342 0
8005 8004 -342 0
-8006 8005 344 0
-8006 -8005 -344 0
8006 -8005 344 0
8006 8005 -344 0
-8007 8006 345 0
-8007 -8006 -345 0
8007 -8006 345 0
8007 8006 -345 0
-287 -8007 0
-8008 347 348 0
-8008 -347 -348 0
8008 -347 348 0
8008 347 -348 0
-8009 8008 349 0
-8009 -8008 -349 0
8009 -8008 349 0
8009 8008 -349 0
-8010 8009 351 0
-8010 -8009 -351 0
8010 -8009 351 0
8010 8009 -351 0
-8011 8010 352 0
-8011 -8010 -352 0
8011 -8010 352 0
8011 8010 -352 0
-8012 8011 353 0
-8012 -8011 -353 0
8012 -8011 353 0
8012 8011 -353 0
-8013 8012 355 0
-8013 -8012 -355 0
8013 -8012 355 0
8013 8012 -355 0
-8014 8013 356 0
-8014 -8013 -356 0
8014 -8013 356 0
8014 8013 -356 0
-8015 8014 357 0
-8015 -8014 -357 0
8015 -8014 357 0
8015 8014 -357 0
-8016 8015 359 0
-8016 -8015 -359 0
8016 -8015 359 0
8016 8015 -359 0
-8017 8016 360 0
-8017 -8016 -360 0
8017 -8016 360 0
8017 8016 -360 0
-287 -8017 0
-8018 362 363 0
-8018 -362 -363 0
8018 -362 363 0
8018 362 -363 0
-8019 8018 364 0
-8019 -8018 -364 0
8019 -8018 364 0
8019 8018 -364 0
-8020 8019 366 0
-8020 -8019 -366 0
8020 -8019 366 0
8020 8019 -366 0
-8021 8020 367 0
-8021 -8020 -367 0
8021 -8020 367 0
8021 8020 -367 0
-8022 8021 368 0
-8022 -8021 -368 0
8022 -8021 368 0
8022 8021 -368 0
-8023 8022 370 0
-8023 -8022 -370 0
8023 -8022 370 0
8023 8022 -370 0
-8024 8023 371 0
-8024 -8023 -371 0
8024 -8023 371 0
8024 8023 -371 0
-8025 8024 372 0
-8025 -8024 -372 0
8025 -8024 372 0
8025 8024 -372 0
-8026 8025 374 0
-8026 -8025 -374 0
8026 -8025 374 0
8026 8025 -374 0
-8027 8026 375 0
-8027 -8026 -375 0
8027 -8026 375 0
8027 8026 -375 0
-287 -8027 0
-8028 377 378 0
-8028 -377 -378 0
8028 -377 378 0
8028 377 -378 0
-8029 8028 379 0
-8029 -8028 -379 0
8029 -8028 379 0
8029 8028 -379 0
-8030 8029 381 0
-8030 -8029 -381 0
8030 -8029 381 0
8030 8029 -381 0
-8031 8030 382 0
-8031 -8030 -382 0
8031 -8030 382 0
8031 8030 -382 0
-8032 8031 383 0
-8032 -8031 -383 0
8032 -8031 383 0
8032 8031 -383 0
-8033 8032 385 0
-8033 -8032 -385 0
8033 -8032 385 0
8033 8032 -385 0
-8034 8033 386 0
-8034 -8033 -386 0
8034 -8033 386 0
8034 8033 -386 0
-8035 8034 387 0
-8035 -8034 -387 0
8035 -8034 387 0
8035 8034 -387 0
-8036 8035 389 0
-8036 -8035 -389 0
8036 -8035 389 0
8036 8035 -389 0
-8037 8036 390 0
-8037 -8036 -390 0
8037 -8036 390 0
8037 8036 -390 0
-287 -8037 0
-8038 325 327 0
-8038 -325 -327 0
8038 -325 327 0
8038 325 -327 0
-8039 8038 328 0
-8039 -8038 -328 0
8039 -8038 328 0
8039 8038 -328 0
-8040 8039 329 0
-8040 -8039 -329 0
8040 -8039 329 0
8040 8039 -329 0
-8041 8040 330 0
-8041 -8040 -330 0
8041 -8040 330 0
8041 8040 -330 0
-288 -8041 0
-8042 340 342 0
-8042 -340 -342 0
8042 -340 342 0
8042 340 -342 0
-8043 8042 343 0
-8043 -8042 -343 0
8043 -8042 343 0
8043 8042 -343 0
-8044 8043 344 0
-8044 -8043 -344 0
8044 -8043 344 0
8044 8043 -344 0
-8045 8044 345 0
-8045 -8044 -345 0
8045 -8044 345 0
8045 8044 -345 0
-288 -8045 0
-8046 355 357 0
-8046 -355 -357 0
8046 -355 357 0
8046 355 -357 0
-8047 8046 358 0
-8047 -8046 -358 0
8047 -8046 358 0
8047 8046 -358 0
-8048 8047 359 0
-8048 -8047 -359 0
8048 -8047 359 0
8048 8047 -359 0
-8049 8048 360 0
-8049 -8048 -360 0
8049 -8048 360 0
8049 8048 -360 0
-288 -8049 0
-8050 370 372 0
-8050 -370 -372 0
8050 -370 372 0
8050 370 -372 0
-8051 8050 373 0
-8051 -8050 -373 0
8051 -8050 373 0
8051 8050 -373 0
-8052 8051 374 0
-8052 -8051 -374 0
8052 -8051 374 0
8052 8051 -374 0
-8053 8052 375 0
-8053 -8052 -375 0
8053 -8052 375 0
8053 8052 -375 0
-288 -8053 0
-8054 385 387 0
-8054 -385 -387 0
8054 -385 387 0
8054 385 -387 0
-8055 8054 388 0
-8055 -8054 -388 0
8055 -8054 388 0
8055 8054 -388 0
-8056 8055 389 0
-8056 -8055 -389 0
8056 -8055 389 0
8056 8055 -389 0
-8057 8056 390 0
-8057 -8056 -390 0
8057 -8056 390 0
8057 8056 -390 0
-288 -8057 0
-8058 317 318 0
-8058 -317 -318 0
8058 -317 318 0
8058 317 -318 0
-8059 8058 319 0
-8059 -8058 -319 0
8059 -8058 319 0
8059 8058 -319 0
-8060 8059 325 0
-8060 -8059 -325 0
8060 -8059 325 0
8060 8059 -325 0
-8061 8060 327 0
-8061 -8060 -327 0
8061 -8060 327 0
8061 8060 -327 0
-8062 8061 328 0
-8062 -8061 -328 0
8062 -8061 328 0
8062 8061 -328 0
-8063 8062 329 0
-8063 -8062 -329 0
8063 -8062 329 0
8063 8062 -329 0
-8064 8063 330 0
-8064 -8063 -330 0
8064 -8063 330 0
8064 8063 -330 0
-289 -8064 0
-8065 332 333 0
-8065 -332 -333 0
8065 -332 333 0
8065 332 -333 0
-8066 8065 334 0
-8066 -8065 -334 0
8066 -8065 334 0
8066 8065 -334 0
-8067 8066 340 0
-8067 -8066 -340 0
8067 -8066 340 0
8067 8066 -340 0
-8068 8067 342 0
-8068 -8067 -342 0
8068 -8067 342 0
8068 8067 -342 0
-8069 8068 343 0
-8069 -8068 -343 0
8069 -8068 343 0
8069 8068 -343 0
-8070 8069 344 0
-8070 -8069 -344 0
8070 -8069 344 0
8070 8069 -344 0
-8071 8070 345 0
-8071 -8070 -345 0
8071 -8070 345 0
8071 8070 -345 0
-289 -8071 0
-8072 347 348 0
-8072 -347 -348 0
8072 -347 348 0
8072 347 -348 0
-8073 8072 349 0
-8073 -8072 -349 0
8073 -8072 349 0
8073 8072 -349 0
-8074 8073 355 0
-8074 -8073 -355 0
8074 -8073 355 0
8074 8073 -355 0
-8075 8074 357 0
-8075 -8074 -357 0
8075 -8074 357 0
8075 8074 -357 0
-8076 8075 358 0
-8076 -8075 -358 0
8076 -8075 358 0
8076 8075 -358 0
-8077 8076 359 0
-8077 -8076 -359 0
8077 -8076 359 0
8077 8076 -359 0
-8078 8077 360 0
-8078 -8077 -360 0
8078 -8077 360 0
8078 8077 -360 0
-289 -8078 0
-8079 362 363 0
-8079 -362 -363 0
8079 -362 363 0
8079 362 -363 0
-8080 8079 364 0
-8080 -8079 -364 0
8080 -8079 364 0
8080 8079 -364 0
-8081 8080 370 0
-8081 -8080 -370 0
8081 -8080 370 0
8081 8080 -370 0
-8082 8081 372 0
-8082 -8081 -372 0
8082 -8081 372 0
8082 8081 -372 0
-8083 8082 373 0
-8083 -8082 -373 0
8083 -8082 373 0
8083 8082 -373 0
-8084 8083 374 0
-8084 -8083 -374 0
8084 -8083 374 0
8084 8083 -374 0
-8085 8084 375 0
-8085 -8084 -375 0
8085 -8084 375 0
8085 8084 -375 0
-289 -8085 0
-8086 377 378 0
-8086 -377 -378 0
8086 -377 378 0
8086 377 -378 0
-8087 8086 379 0
-8087 -8086 -379 0
8087 -8086 379 0
8087 8086 -379 0
-8088 8087 385 0
-8088 -8087 -385 0
8088 -8087 385 0
8088 8087 -385 0
-8089 8088 387 0
-8089 -8088 -387 0
8089 -8088 387 0
8089 8088 -387 0
-8090 8089 388 0
-8090 -8089 -388 0
8090 -8089 388 0
8090 8089 -388 0
-8091 8090 389 0
-8091 -8090 -389 0
8091 -8090 389 0
8091 8090 -389 0
-8092 8091 390 0
-8092 -8091 -390 0
8092 -8091 390 0
8092 8091 -390 0
-289 -8092 0
-8093 321 322 0
-8093 -321 -322 0
8093 -321 322 0
8093 321 -322 0
-8094 8093 323 0
-8094 -8093 -323 0
8094 -8093 323 0
8094 8093 -323 0
-8095 8094 325 0
-8095 -8094 -325 0
8095 -8094 325 0
8095 8094 -325 0
-8096 8095 327 0
-8096 -8095 -327 0
8096 -8095 327 0
8096 8095 -327 0
-8097 8096 328 0
-8097 -8096 -328 0
8097 -8096 328 0
8097 8096 -328 0
-8098 8097 329 0
-8098 -8097 -329 0
8098 -8097 329 0
8098 8097 -329 0
-8099 8098 330 0
-8099 -8098 -330 0
8099 -8098 330 0
8099 8098 -330 0
-290 -8099 0
-8100 336 337 0
-8100 -336 -337 0
8100 -336 337 0
8100 336 -337 0
-8101 8100 338 0
-8101 -8100 -338 0
8101 -8100 338 0
8101 8100 -338 0
-8102 8101 340 0
-8102 -8101 -340 0
8102 -8101 340 0
8102 8101 -340 0
-8103 8102 342 0
-8103 -8102 -342 0
8103 -8102 342 0
8103 8102 -342 0
-8104 8103 343 0
-8104 -8103 -343 0
8104 -8103 343 0
8104 8103 -343 0
-8105 8104 344 0
-8105 -8104 -344 0
8105 -8104 344 0
8105 8104 -344 0
-8106 8105 345 0
-8106 -8105 -345 0
8106 -8105 345 0
8106 8105 -345 0
-290 -8106 0
-8107 351 352 0
-8107 -351 -352 0
8107 -351 352 0
8107 351 -352 0
-8108 8107 353 0
-8108 -8107 -353 0
8108 -8107 353 0
8108 8107 -353 0
-8109 8108 355 0
-8109 -8108 -355 0
8109 -8108 355 0
8109 8108 -355 0
-8110 8109 357 0
-8110 -8109 -357 0
8110 -8109 357 0
8110 8109 -357 0
-8111 8110 358 0
-8111 -8110 -358 0
8111 -8110 358 0
8111 8110 -358 0
-8112 8111 359 0
-8112 -8111 -359 0
8112 -8111 359 0
8112 8111 -359 0
-8113 8112 360 0
-8113 -8112 -360 0
8113 -8112 360 0
8113 8112 -360 0
-290 -8113 0
-8114 366 367 0
-8114 -366 -367 0
8114 -366 367 0
8114 366 -367 0
-8115 8114 368 0
-8115 -8114 -368 0
8115 -8114 368 0
8115 8114 -368 0
-8116 8115 370 0
-8116 -8115 -370 0
8116 -8115 370 0
8116 8115 -370 0
-8117 8116 372 0
-8117 -8116 -372 0
8117 -8116 372 0
8117 8116 -372 0
-8118 8117 373 0
-8118 -8117 -373 0
8118 -8117 373 0
8118 8117 -373 0
-8119 8118 374 0
-8119 -8118 -374 0
8119 -8118 374 0
8119 8118 -374 0
-8120 8119 375 0
-8120 -8119 -375 0
8120 -8119 375 0
8120 8119 -375 0
-290 -8120 0
-8121 381 382 0
-8121 -381 -382 0
8121 -381 382 0
8121 381 -382 0
-8122 8121 383 0
-8122 -8121 -383 0
8122 -8121 383 0
8122 8121 -383 0
-8123 8122 385 0
-8123 -8122 -385 0
8123 -8122 385 0
8123 8122 -385 0
-8124 8123 387 0
-8124 -8123 -387 0
8124 -8123 387 0
8124 8123 -387 0
-8125 8124 388 0
-8125 -8124 -388 0
8125 -8124 388 0
8125 8124 -388 0
-8126 8125 389 0
-8126 -8125 -389 0
8126 -8125 389 0
8126 8125 -389 0
-8127 8126 390 0
-8127 -8126 -390 0
8127 -8126 390 0
8127 8126 -390 0
-290 -8127 0
-8128 317 318 0
-8128 -317 -318 0
8128 -317 318 0
8128 317 -318 0
-8129 8128 319 0
-8129 -8128 -319 0
8129 -8128 319 0
8129 8128 -319 0
-8130 8129 321 0
-8130 -8129 -321 0
8130 -8129 321 0
8130 8129 -321 0
-8131 8130 322 0
-8131 -8130 -322 0
8131 -8130 322 0
8131 8130 -322 0
-8132 8131 323 0
-8132 -8131 -323 0
8132 -8131 323 0
8132 8131 -323 0
-8133 8132 325 0
-8133 -8132 -325 0
8133 -8132 325 0
8133 8132 -325 0
-8134 8133 327 0
-8134 -8133 -327 0
8134 -8133 327 0
8134 8133 -327 0
-8135 8134 328 0
-8135 -8134 -328 0
8135 -8134 328 0
8135 8134 -328 0
-8136 8135 329 0
-8136 -8135 -329 0
8136 -8135 329 0
8136 8135 -329 0
-8137 8136 330 0
-8137 -8136 -330 0
8137 -8136 330 0
8137 8136 -330 0
-291 -8137 0
-8138 332 333 0
-8138 -332 -333 0
8138 -332 333 0
8138 332 -333 0
-8139 8138 334 0
-8139 -8138 -334 0
8139 -8138 334 0
8139 8138 -334 0
-8140 8139 336 0
-8140 -8139 -336 0
8140 -8139 336 0
8140 8139 -336 0
-8141 8140 337 0
-8141 -8140 -337 0
8141 -8140 337 0
8141 8140 -337 0
-8142 8141 338 0
-8142 -8141 -338 0
8142 -8141 338 0
8142 8141 -338 0
-8143 8142 340 0
-8143 -8142 -340 0
8143 -8142 340 0
8143 8142 -340 0
-8144 8143 342 0
-8144 -8143 -342 0
8144 -8143 342 0
8144 8143 -342 0
-8145 8144 343 0
-8145 -8144 -343 0
8145 -8144 343 0
8145 8144 -343 0
-8146 8145 344 0
-8146 -8145 -344 0
8146 -8145 344 0
8146 8145 -344 0
-8147 8146 345 0
-8147 -8146 -345 0
8147 -8146 345 0
8147 8146 -345 0
-291 -8147 0
-8148 347 348 0
-8148 -347 -348 0
8148 -347 348 0
8148 347 -348 0
-8149 8148 349 0
-8149 -8148 -349 0
8149 -8148 349 0
8149 8148 -349 0
-8150 8149 351 0
-8150 -8149 -351 0
8150 -8149 351 0
8150 8149 -351 0
-8151 8150 352 0
-8151 -8150 -352 0
8151 -8150 352 0
8151 8150 -352 0
-8152 8151 353 0
-8152 -8151 -353 0
8152 -8151 353 0
8152 8151 -353 0
-8153 8152 355 0
-8153 -8152 -355 0
8153 -8152 355 0
8153 8152 -355 0
-8154 8153 357 0
-8154 -8153 -357 0
8154 -8153 357 0
8154 8153 -357 0
-8155 8154 358 0
-8155 -8154 -358 0
8155 -8154 358 0
8155 8154 -358 0
-8156 8155 359 0
-8156 -8155 -359 0
8156 -8155 359 0
8156 8155 -359 0
-8157 8156 360 0
-8157 -8156 -360 0
8157 -8156 360 0
8157 8156 -360 0
-291 -8157 0
-8158 362 363 0
-8158 -362 -363 0
8158 -362 363 0
8158 362 -363 0
-8159 8158 364 0
-8159 -8158 -364 0
8159 -8158 364 0
8159 8158 -364 0
-8160 8159 366 0
-8160 -8159 -366 0
8160 -8159 366 0
8160 8159 -366 0
-8161 8160 367 0
-8161 -8160 -367 0
8161 -8160 367 0
8161 8160 -367 0
-8162 8161 368 0
-8162 -8161 -368 0
8162 -8161 368 0
8162 8161 -368 0
-8163 8162 370 0
-8163 -8162 -370 0
8163 -8162 370 0
8163 8162 -370 0
-8164 8163 372 0
-8164 -8163 -372 0
8164 -8163 372 0
8164 8163 -372 0
-8165 8164 373 0
-8165 -8164 -373 0
8165 -8164 373 0
8165 8164 -373 0
-8166 8165 374 0
-8166 -8165 -374 0
8166 -8165 374 0
8166 8165 -374 0
-8167 8166 375 0
-8167 -8166 -375 0
8167 -8166 375 0
8167 8166 -375 0
-291 -8167 0
-8168 377 378 0
-8168 -377 -378 0
8168 -377 378 0
8168 377 -378 0
-8169 8168 379 0
-8169 -8168 -379 0
8169 -8168 379 0
8169 8168 -379 0
-8170 8169 381 0
-8170 -8169 -381 0
8170 -8169 381 0
8170 8169 -381 0
-8171 8170 382 0
-8171 -8170 -382 0
8171 -8170 382 0
8171 8170 -382 0
-8172 8171 383 0
-8172 -8171 -383 0
8172 -8171 383 0
8172 8171 -383 0
-8173 8172 385 0
-8173 -8172 -385 0
8173 -8172 385 0
8173 8172 -385 0
-8174 8173 387 0
-8174 -8173 -387 0
8174 -8173 387 0
8174 8173 -387 0
-8175 8174 388 0
-8175 -8174 -388 0
8175 -8174 388 0
8175 8174 -388 0
-8176 8175 389 0
-8176 -8175 -389 0
8176 -8175 389 0
8176 8175 -389 0
-8177 8176 390 0
-8177 -8176 -390 0
8177 -8176 390 0
8177 8176 -390 0
-291 -8177 0
-8178 316 320 0
-8178 -316 -320 0
8178 -316 320 0
8178 316 -320 0
-8179 8178 321 0
-8179 -8178 -321 0
8179 -8178 321 0
8179 8178 -321 0
-8180 8179 322 0
-8180 -8179 -322 0
8180 -8179 322 0
8180 8179 -322 0
-8181 8180 323 0
-8181 -8180 -323 0
8181 -8180 323 0
8181 8180 -323 0
-8182 8181 327 0
-8182 -8181 -327 0
8182 -8181 327 0
8182 8181 -327 0
-8183 8182 329 0
-8183 -8182 -329 0
8183 -8182 329 0
8183 8182 -329 0
-8184 8183 330 0
-8184 -8183 -330 0
8184 -8183 330 0
8184 8183 -330 0
-292 -8184 0
-8185 331 335 0
-8185 -331 -335 0
8185 -331 335 0
8185 331 -335 0
-8186 8185 336 0
-8186 -8185 -336 0
8186 -8185 336 0
8186 8185 -336 0
-8187 8186 337 0
-8187 -8186 -337 0
8187 -8186 337 0
8187 8186 -337 0
-8188 8187 338 0
-8188 -8187 -338 0
8188 -8187 338 0
8188 8187 -338 0
-8189 8188 342 0
-8189 -8188 -342 0
8189 -8188 342 0
8189 8188 -342 0
-8190 8189 344 0
-8190 -8189 -344 0
8190 -8189 344 0
8190 8189 -344 0
-8191 8190 345 0
-8191 -8190 -345 0
8191 -8190 345 0
8191 8190 -345 0
-292 -8191 0
-8192 346 350 0
-8192 -346 -350 0
8192 -346 350 0
8192 346 -350 0
-8193 8192 351 0
-8193 -8192 -351 0
8193 -8192 351 0
8193 8192 -351 0
-8194 8193 352 0
-8194 -8193 -352 0
8194 -8193 352 0
8194 8193 -352 0
-8195 8194 353 0
-8195 -8194 -353 0
8195 -8194 353 0
8195 8194 -353 0
-8196 8195 357 0
-8196 -8195 -357 0
8196 -8195 357 0
8196 8195 -357 0
-8197 8196 359 0
-8197 -8196 -359 0
8197 -8196 359 0
8197 8196 -359 0
-8198 8197 360 0
-8198 -8197 -360 0
8198 -8197 360 0
8198 8197 -360 0
-292 -8198 0
-8199 361 365 0
-8199 -361 -365 0
8199 -361 365 0
8199 361 -365 0
-8200 8199 366 0
-8200 -8199 -366 0
8200 -8199 366 0
8200 8199 -366 0
-8201 8200 367 0
-8201 -8200 -367 0
8201 -8200 367 0
8201 8200 -367 0
-8202 8201 368 0
-8202 -8201 -368 0
8202 -8201 368 0
8202 8201 -368 0
-8203 8202 372 0
-8203 -8202 -372 0
8203 -8202 372 0
8203 8202 -372 0
-8204 8203 374 0
-8204 -8203 -374 0
8204 -8203 374 0
8204 8203 -374 0
-8205 8204 375 0
-8205 -8204 -375 0
8205 -8204 375 0
8205 8204 -375 0
-292 -8205 0
-8206 376 380 0
-8206 -376 -380 0
8206 -376 380 0
8206 376 -380 0
-8207 8206 381 0
-8207 -8206 -381 0
8207 -8206 381 0
8207 8206 -381 0
-8208 8207 382 0
-8208 -8207 -382 0
8208 -8207 382 0
8208 8207 -382 0
-8209 8208 383 0
-8209 -8208 -383 0
8209 -8208 383 0
8209 8208 -383 0
-8210 8209 387 0
-8210 -8209 -387 0
8210 -8209 387 0
8210 8209 -387 0
-8211 8210 389 0
-8211 -8210 -389 0
8211 -8210 389 0
8211 8210 -389 0
-8212 8211 390 0
-8212 -8211 -390 0
8212 -8211 390 0
8212 8211 -390 0
-292 -8212 0
-8213 316 317 0
-8213 -316 -317 0
8213 -316 317 0
8213 316 -317 0
-8214 8213 318 0
-8214 -8213 -318 0
8214 -8213 318 0
8214 8213 -318 0
-8215 8214 319 0
-8215 -8214 -319 0
8215 -8214 319 0
8215 8214 -319 0
-8216 8215 320 0
-8216 -8215 -320 0
8216 -8215 320 0
8216 8215 -320 0
-8217 8216 321 0
-8217 -8216 -321 0
8217 -8216 321 0
8217 8216 -321 0
-8218 8217 322 0
-8218 -8217 -322 0
8218 -8217 322 0
8218 8217 -322 0
-8219 8218 323 0
-8219 -8218 -323 0
8219 -8218 323 0
8219 8218 -323 0
-8220 8219 327 0
-8220 -8219 -327 0
8220 -8219 327 0
8220 8219 -327 0
-8221 8220 329 0
-8221 -8220 -329 0
8221 -8220 329 0
8221 8220 -329 0
-8222 8221 330 0
-8222 -8221 -330 0
8222 -8221 330 0
8222 8221 -330 0
-293 -8222 0
-8223 331 332 0
-8223 -331 -332 0
8223 -331 332 0
8223 331 -332 0
-8224 8223 333 0
-8224 -8223 -333 0
8224 -8223 333 0
8224 8223 -333 0
-8225 8224 334 0
-8225 -8224 -334 0
8225 -8224 334 0
8225 8224 -334 0
-8226 8225 335 0
-8226 -8225 -335 0
8226 -8225 335 0
8226 8225 -335 0
-8227 8226 336 0
-8227 -8226 -336 0
8227 -8226 336 0
8227 8226 -336 0
-8228 8227 337 0
-8228 -8227 -337 0
8228 -8227 337 0
8228 8227 -337 0
-8229 8228 338 0
-8229 -8228 -338 0
8229 -8228 338 0
8229 8228 -338 0
-8230 8229 342 0
-8230 -8229 -342 0
8230 -8229 342 0
8230 8229 -342 0
-8231 8230 344 0
-8231 -8230 -344 0
8231 -8230 344 0
8231 8230 -344 0
-8232 8231 345 0
-8232 -8231 -345 0
8232 -8231 345 0
8232 8231 -345 0
-293 -8232 0
-8233 346 347 0
-8233 -346 -347 0
8233 -346 347 0
8233 346 -347 0
-8234 8233 348 0
-8234 -8233 -348 0
8234 -8233 348 0
8234 8233 -348 0
-8235 8234 349 0
-8235 -8234 -349 0
8235 -8234 349 0
8235 8234 -349 0
-8236 8235 350 0
-8236 -8235 -350 0
8236 -8235 350 0
8236 8235 -350 0
-8237 8236 351 0
-8237 -8236 -351 0
8237 -8236 351 0
8237 8236 -351 0
-8238 8237 352 0
-8238 -8237 -352 0
8238 -8237 352 0
8238 8237 -352 0
-8239 8238 353 0
-8239 -8238 -353 0
8239 -8238 353 0
8239 8238 -353 0
-8240 8239 357 0
-8240 -8239 -357 0
8240 -8239 357 0
8240 8239 -357 0
-8241 8240 359 0
-8241 -8240 -359 0
8241 -8240 359 0
8241 8240 -359 0
-8242 8241 360 0
-8242 -8241 -360 0
8242 -8241 360 0
8242 8241 -360 0
-293 -8242 0
-8243 361 362 0
-8243 -361 -362 0
8243 -361 362 0
8243 361 -362 0
-8244 8243 363 0
-8244 -8243 -363 0
8244 -8243 363 0
8244 8243 -363 0
-8245 8244 364 0
-8245 -8244 -364 0
8245 -8244 364 0
8245 8244 -364 0
-8246 8245 365 0
-8246 -8245 -365 0
8246 -8245 365 0
8246 8245 -365 0
-8247 8246 366 0
-8247 -8246 -366 0
8247 -8246 366 0
8247 8246 -366 0
-8248 8247 367 0
-8248 -8247 -367 0
8248 -8247 367 0
8248 8247 -367 0
-8249 8248 368 0
-8249 -8248 -368 0
8249 -8248 368 0
8249 8248 -368 0
-8250 8249 372 0
-8250 -8249 -372 0
8250 -8249 372 0
8250 8249 -372 0
-8251 8250 374 0
-8251 -8250 -374 0
8251 -8250 374 0
8251 8250 -374 0
-8252 8251 375 0
-8252 -8251 -375 0
8252 -8251 375 0
8252 8251 -375 0
-293 -8252 0
-8253 376 377 0
-8253 -376 -377 0
8253 -376 377 0
8253 376 -377 0
-8254 8253 378 0
-8254 -8253 -378 0
8254 -8253 378 0
8254 8253 -378 0
-8255 8254 379 0
-8255 -8254 -379 0
8255 -8254 379 0
8255 8254 -379 0
-8256 8255 380 0
-8256 -8255 -380 0
8256 -8255 380 0
8256 8255 -380 0
-8257 8256 381 0
-8257 -8256 -381 0
8257 -8256 381 0
8257 8256 -381 0
-8258 8257 382 0
-8258 -8257 -382 0
8258 -8257 382 0
8258 8257 -382 0
-8259 8258 383 0
-8259 -8258 -383 0
8259 -8258 383 0
8259 8258 -383 0
-8260 8259 387 0
-8260 -8259 -387 0
8260 -8259 387 0
8260 8259 -387 0
-8261 8260 389 0
-8261 -8260 -389 0
8261 -8260 389 0
8261 8260 -389 0
-8262 8261 390 0
-8262 -8261 -390 0
8262 -8261 390 0
8262 8261 -390 0
-293 -8262 0
-8263 317 320 0
-8263 -317 -320 0
8263 -317 320 0
8263 317 -320 0
-8264 8263 325 0
-8264 -8263 -325 0
8264 -8263 325 0
8264 8263 -325 0
-8265 8264 326 0
-8265 -8264 -326 0
8265 -8264 326 0
8265 8264 -326 0
-8266 8265 327 0
-8266 -8265 -327 0
8266 -8265 327 0
8266 8265 -327 0
-8267 8266 329 0
-8267 -8266 -329 0
8267 -8266 329 0
8267 8266 -329 0
-8268 8267 330 0
-8268 -8267 -330 0
8268 -8267 330 0
8268 8267 -330 0
-294 -8268 0
-8269 332 335 0
-8269 -332 -335 0
8269 -332 335 0
8269 332 -335 0
-8270 8269 340 0
-8270 -8269 -340 0
8270 -8269 340 0
8270 8269 -340 0
-8271 8270 341 0
-8271 -8270 -341 0
8271 -8270 341 0
8271 8270 -341 0
-8272 8271 342 0
-8272 -8271 -342 0
8272 -8271 342 0
8272 8271 -342 0
-8273 8272 344 0
-8273 -8272 -344 0
8273 -8272 344 0
8273 8272 -344 0
-8274 8273 345 0
-8274 -8273 -345 0
8274 -8273 345 0
8274 8273 -345 0
-294 -8274 0
-8275 347 350 0
-8275 -347 -350 0
8275 -347 350 0
8275 347 -350 0
-8276 8275 355 0
-8276 -8275 -355 0
8276 -8275 355 0
8276 8275 -355 0
-8277 8276 356 0
-8277 -8276 -356 0
8277 -8276 356 0
8277 8276 -356 0
-8278 8277 357 0
-8278 -8277 -357 0
8278 -8277 357 0
8278 8277 -357 0
-8279 8278 359 0
-8279 -8278 -359 0
8279 -8278 359 0
8279 8278 -359 0
-8280 8279 360 0
-8280 -8279 -360 0
8280 -8279 360 0
8280 8279 -360 0
-294 -8280 0
-8281 362 365 0
-8281 -362 -365 0
8281 -362 365 0
8281 362 -365 0
-8282 8281 370 0
-8282 -8281 -370 0
8282 -8281 370 0
8282 8281 -370 0
-8283 8282 371 0
-8283 -8282 -371 0
8283 -8282 371 0
8283 8282 -371 0
-8284 8283 372 0
-8284 -8283 -372 0
8284 -8283 372 0
8284 8283 -372 0
-8285 8284 374 0
-8285 -8284 -374 0
8285 -8284 374 0
8285 8284 -374 0
-8286 8285 375 0
-8286 -8285 -375 0
8286 -8285 375 0
8286 8285 -375 0
-294 -8286 0
-8287 377 380 0
-8287 -377 -380 0
8287 -377 380 0
8287 377 -380 0
-8288 8287 385 0
-8288 -8287 -385 0
8288 -8287 385 0
8288 8287 -385 0
-8289 8288 386 0
-8289 -8288 -386 0
8289 -8288 386 0
8289 8288 -386 0
-8290 8289 387 0
-8290 -8289 -387 0
8290 -8289 387 0
8290 8289 -387 0
-8291 8290 389 0
-8291 -8290 -389 0
8291 -8290 389 0
8291 8290 -389 0
-8292 8291 390 0
-8292 -8291 -390 0
8292 -8291 390 0
8292 8291 -390 0
-294 -8292 0
-8293 318 319 0
-8293 -318 -319 0
8293 -318 319 0
8293 318 -319 0
-8294 8293 320 0
-8294 -8293 -320 0
8294 -8293 320 0
8294 8293 -320 0
-8295 8294 325 0
-8295 -8294 -325 0
8295 -8294 325 0
8295 8294 -325 0
-8296 8295 326 0
-8296 -8295 -326 0
8296 -8295 326 0
8296 8295 -326 0
-8297 8296 327 0
-8297 -8296 -327 0
8297 -8296 327 0
8297 8296 -327 0
-8298 8297 329 0
-8298 -8297 -329 0
8298 -8297 329 0
8298 8297 -329 0
-8299 8298 330 0
-8299 -8298 -330 0
8299 -8298 330 0
8299 8298 -330 0
-295 -8299 0
-8300 333 334 0
-8300 -333 -334 0
8300 -333 334 0
8300 333 -334 0
-8301 8300 335 0
-8301 -8300 -335 0
8301 -8300 335 0
8301 8300 -335 0
-8302 8301 340 0
-8302 -8301 -340 0
8302 -8301 340 0
8302 8301 -340 0
-8303 8302 341 0
-8303 -8302 -341 0
8303 -8302 341 0
8303 8302 -341 0
-8304 8303 342 0
-8304 -8303 -342 0
8304 -8303 342 0
8304 8303 -342 0
-8305 8304 344 0
-8305 -8304 -344 0
8305 -8304 344 0
8305 8304 -344 0
-8306 8305 345 0
-8306 -8305 -345 0
8306 -8305 345 0
8306 8305 -345 0
-295 -8306 0
-8307 348 349 0
-8307 -348 -349 0
8307 -348 349 0
8307 348 -349 0
-8308 8307 350 0
-8308 -8307 -350 0
8308 -8307 350 0
8308 8307 -350 0
-8309 8308 355 0
-8309 -8308 -355 0
8309 -8308 355 0
8309 8308 -355 0
-8310 8309 356 0
-8310 -8309 -356 0
8310 -8309 356 0
8310 8309 -356 0
-8311 8310 357 0
-8311 -8310 -357 0
8311 -8310 357 0
8311 8310 -357 0
-8312 8311 359 0
-8312 -8311 -359 0
8312 -8311 359 0
8312 8311 -359 0
-8313 8312 360 0
-8313 -8312 -360 0
8313 -8312 360 0
8313 8312 -360 0
-295 -8313 0
-8314 363 364 0
-8314 -363 -364 0
8314 -363 364 0
8314 363 -364 0
-8315 8314 365 0
-8315 -8314 -365 0
8315 -8314 365 0
8315 8314 -365 0
-8316 8315 370 0
-8316 -8315 -370 0
8316 -8315 370 0
8316 8315 -370 0
-8317 8316 371 0
-8317 -8316 -371 0
8317 -8316 371 0
8317 8316 -371 0
-8318 8317 372 0
-8318 -8317 -372 0
8318 -8317 372 0
8318 8317 -372 0
-8319 8318 374 0
-8319 -8318 -374 0
8319 -8318 374 0
8319 8318 -374 0
-8320 8319 375 0
-8320 -8319 -375 0
8320 -8319 375 0
8320 8319 -375 0
-295 -8320 0
-8321 378 379 0
-8321 -378 -379 0
8321 -378 379 0
8321 378 -379 0
-8322 8321 380 0
-8322 -8321 -380 0
8322 -8321 380 0
8322 8321 -380 0
-8323 8322 385 0
-8323 -8322 -385 0
8323 -8322 385 0
8323 8322 -385 0
-8324 8323 386 0
-8324 -8323 -386 0
8324 -8323 386 0
8324 8323 -386 0
-8325 8324 387 0
-8325 -8324 -387 0
8325 -8324 387 0
8325 8324 -387 0
-8326 8325 389 0
-8326 -8325 -389 0
8326 -8325 389 0
8326 8325 -389 0
-8327 8326 390 0
-8327 -8326 -390 0
8327 -8326 390 0
8327 8326 -390 0
-295 -8327 0
-8328 318 320 0
-8328 -318 -320 0
8328 -318 320 0
8328 318 -320 0
-8329 8328 325 0
-8329 -8328 -325 0
8329 -8328 325 0
8329 8328 -325 0
-8330 8329 327 0
-8330 -8329 -327 0
8330 -8329 327 0
8330 8329 -327 0
-8331 8330 328 0
-8331 -8330 -328 0
8331 -8330 328 0
8331 8330 -328 0
-8332 8331 329 0
-8332 -8331 -329 0
8332 -8331 329 0
8332 8331 -329 0
-8333 8332 330 0
-8333 -8332 -330 0
8333 -8332 330 0
8333 8332 -330 0
-296 -8333 0
-8334 333 335 0
-8334 -333 -335 0
8334 -333 335 0
8334 333 -335 0
-8335 8334 340 0
-8335 -8334 -340 0
8335 -8334 340 0
8335 8334 -340 0
-8336 8335 342 0
-8336 -8335 -342 0
8336 -8335 342 0
8336 8335 -342 0
-8337 8336 343 0
-8337 -8336 -343 0
8337 -8336 343 0
8337 8336 -343 0
-8338 8337 344 0
-8338 -8337 -344 0
8338 -8337 344 0
8338 8337 -344 0
-8339 8338 345 0
-8339 -8338 -345 0
8339 -8338 345 0
8339 8338 -345 0
-296 -8339 0
-8340 348 350 0
-8340 -348 -350 0
8340 -348 350 0
8340 348 -350 0
-8341 8340 355 0
-8341 -8340 -355 0
8341 -8340 355 0
8341 8340 -355 0
-8342 8341 357 0
-8342 -8341 -357 0
8342 -8341 357 0
8342 8341 -357 0
-8343 8342 358 0
-8343 -8342 -358 0
8343 -8342 358 0
8343 8342 -358 0
-8344 8343 359 0
-8344 -8343 -359 0
8344 -8343 359 0
8344 8343 -359 0
-8345 8344 360 0
-8345 -8344 -360 0
8345 -8344 360 0
8345 8344 -360 0
-296 -8345 0
-8346 363 365 0
-8346 -363 -365 0
8346 -363 365 0
8346 363 -365 0
-8347 8346 370 0
-8347 -8346 -370 0
8347 -8346 370 0
8347 8346 -370 0
-8348 8347 372 0
-8348 -8347 -372 0
8348 -8347 372 0
8348 8347 -372 0
-8349 8348 373 0
-8349 -8348 -373 0
8349 -8348 373 0
8349 8348 -373 0
-8350 8349 374 0
-8350 -8349 -374 0
8350 -8349 374 0
8350 8349 -374 0
-8351 8350 375 0
-8351 -8350 -375 0
8351 -8350 375 0
8351 8350 -375 0
-296 -8351 0
-8352 378 380 0
-8352 -378 -380 0
8352 -378 380 0
8352 378 -380 0
-8353 8352 385 0
-8353 -8352 -385 0
8353 -8352 385 0
8353 8352 -385 0
-8354 8353 387 0
-8354 -8353 -387 0
8354 -8353 387 0
8354 8353 -387 0
-8355 8354 388 0
-8355 -8354 -388 0
8355 -8354 388 0
8355 8354 -388 0
-8356 8355 389 0
-8356 -8355 -389 0
8356 -8355 389 0
8356 8355 -389 0
-8357 8356 390 0
-8357 -8356 -390 0
8357 -8356 390 0
8357 8356 -390 0
-296 -8357 0
-8358 317 319 0
-8358 -317 -319 0
8358 -317 319 0
8358 317 -319 0
-8359 8358 320 0
-8359 -8358 -320 0
8359 -8358 320 0
8359 8358 -320 0
-8360 8359 325 0
-8360 -8359 -325 0
8360 -8359 325 0
8360 8359 -325 0
-8361 8360 327 0
-8361 -8360 -327 0
8361 -8360 327 0
8361 8360 -327 0
-8362 8361 328 0
-8362 -8361 -328 0
8362 -8361 328 0
8362 8361 -328 0
-8363 8362 329 0
-8363 -8362 -329 0
8363 -8362 329 0
8363 8362 -329 0
-8364 8363 330 0
-8364 -8363 -330 0
8364 -8363 330 0
8364 8363 -330 0
-297 -8364 0
-8365 332 334 0
-8365 -332 -334 0
8365 -332 334 0
8365 332 -334 0
-8366 8365 335 0
-8366 -8365 -335 0
8366 -8365 335 0
8366 8365 -335 0
-8367 8366 340 0
-8367 -8366 -340 0
8367 -8366 340 0
8367 8366 -340 0
-8368 8367 342 0
-8368 -8367 -342 0
8368 -8367 342 0
8368 8367 -342 0
-8369 8368 343 0
-8369 -8368 -343 0
8369 -8368 343 0
8369 8368 -343 0
-8370 8369 344 0
-8370 -8369 -344 0
8370 -8369 344 0
8370 8369 -344 0
-8371 8370 345 0
-8371 -8370 -345 0
8371 -8370 345 0
8371 8370 -345 0
-297 -8371 0
-8372 347 349 0
-8372 -347 -349 0
8372 -347 349 0
8372 347 -349 0
-8373 8372 350 0
-8373 -8372 -350 0
8373 -8372 350 0
8373 8372 -350 0
-8374 8373 355 0
-8374 -8373 -355 0
8374 -8373 355 0
8374 8373 -355 0
-8375 8374 357 0
-8375 -8374 -357 0
8375 -8374 357 0
8375 8374 -357 0
-8376 8375 358 0
-8376 -8375 -358 0
8376 -8375 358 0
8376 8375 -358 0
-8377 8376 359 0
-8377 -8376 -359 0
8377 -8376 359 0
8377 8376 -359 0
-8378 8377 360 0
-8378 -8377 -360 0
8378 -8377 360 0
8378 8377 -360 0
-297 -8378 0
-8379 362 364 0
-8379 -362 -364 0
8379 -362 364 0
8379 362 -364 0
-8380 8379 365 0
-8380 -8379 -365 0
8380 -8379 365 0
8380 8379 -365 0
-8381 8380 370 0
-8381 -8380 -370 0
8381 -8380 370 0
8381 8380 -370 0
-8382 8381 372 0
-8382 -8381 -372 0
8382 -8381 372 0
8382 8381 -372 0
-8383 8382 373 0
-8383 -8382 -373 0
8383 -8382 373 0
8383 8382 -373 0
-8384 8383 374 0
-8384 -8383 -374 0
8384 -8383 374 0
8384 8383 -374 0
-8385 8384 375 0
-8385 -8384 -375 0
8385 -8384 375 0
8385 8384 -375 0
-297 -8385 0
-8386 377 379 0
-8386 -377 -379 0
8386 -377 379 0
8386 377 -379 0
-8387 8386 380 0
-8387 -8386 -380 0
8387 -8386 380 0
8387 8386 -380 0
-8388 8387 385 0
-8388 -8387 -385 0
8388 -8387 385 0
8388 8387 -385 0
-8389 8388 387 0
-8389 -8388 -387 0
8389 -8388 387 0
8389 8388 -387 0
-8390 8389 388 0
-8390 -8389 -388 0
8390 -8389 388 0
8390 8389 -388 0
-8391 8390 389 0
-8391 -8390 -389 0
8391 -8390 389 0
8391 8390 -389 0
-8392 8391 390 0
-8392 -8391 -390 0
8392 -8391 390 0
8392 8391 -390 0
-297 -8392 0
-8393 316 317 0
-8393 -316 -317 0
8393 -316 317 0
8393 316 -317 0
-8394 8393 318 0
-8394 -8393 -318 0
8394 -8393 318 0
8394 8393 -318 0
-8395 8394 320 0
-8395 -8394 -320 0
8395 -8394 320 0
8395 8394 -320 0
-8396 8395 321 0
-8396 -8395 -321 0
8396 -8395 321 0
8396 8395 -321 0
-8397 8396 322 0
-8397 -8396 -322 0
8397 -8396 322 0
8397 8396 -322 0
-8398 8397 323 0
-8398 -8397 -323 0
8398 -8397 323 0
8398 8397 -323 0
-8399 8398 326 0
-8399 -8398 -326 0
8399 -8398 326 0
8399 8398 -326 0
-8400 8399 327 0
-8400 -8399 -327 0
8400 -8399 327 0
8400 8399 -327 0
-8401 8400 328 0
-8401 -8400 -328 0
8401 -8400 328 0
8401 8400 -328 0
-8402 8401 329 0
-8402 -8401 -329 0
8402 -8401 329 0
8402 8401 -329 0
-8403 8402 330 0
-8403 -8402 -330 0
8403 -8402 330 0
8403 8402 -330 0
-298 -8403 0
-8404 331 332 0
-8404 -331 -332 0
8404 -331 332 0
8404 331 -332 0
-8405 8404 333 0
-8405 -8404 -333 0
8405 -8404 333 0
8405 8404 -333 0
-8406 8405 335 0
-8406 -8405 -335 0
8406 -8405 335 0
8406 8405 -335 0
-8407 8406 336 0
-8407 -8406 -336 0
8407 -8406 336 0
8407 8406 -336 0
-8408 8407 337 0
-8408 -8407 -337 0
8408 -8407 337 0
8408 8407 -337 0
-8409 8408 338 0
-8409 -8408 -338 0
8409 -8408 338 0
8409 8408 -338 0
-8410 8409 341 0
-8410 -8409 -341 0
8410 -8409 341 0
8410 8409 -341 0
-8411 8410 342 0
-8411 -8410 -342 0
8411 -8410 342 0
8411 8410 -342 0
-8412 8411 343 0
-8412 -8411 -343 0
8412 -8411 343 0
8412 8411 -343 0
-8413 8412 344 0
-8413 -8412 -344 0
8413 -8412 344 0
8413 8412 -344 0
-8414 8413 345 0
-8414 -8413 -345 0
8414 -8413 345 0
8414 8413 -345 0
-298 -8414 0
-8415 346 347 0
-8415 -346 -347 0
8415 -346 347 0
8415 346 -347 0
-8416 8415 348 0
-8416 -8415 -348 0
8416 -8415 348 0
8416 8415 -348 0
-8417 8416 350 0
-8417 -8416 -350 0
8417 -8416 350 0
8417 8416 -350 0
-8418 8417 351 0
-8418 -8417 -351 0
8418 -8417 351 0
8418 8417 -351 0
-8419 8418 352 0
-8419 -8418 -352 0
8419 -8418 352 0
8419 8418 -352 0
-8420 8419 353 0
-8420 -8419 -353 0
8420 -8419 353 0
8420 8419 -353 0
-8421 8420 356 0
-8421 -8420 -356 0
8421 -8420 356 0
8421 8420 -356 0
-8422 8421 357 0
-8422 -8421 -357 0
8422 -8421 357 0
8422 8421 -357 0
-8423 8422 358 0
-8423 -8422 -358 0
8423 -8422 358 0
8423 8422 -358 0
-8424 8423 359 0
-8424 -8423 -359 0
8424 -8423 359 0
8424 8423 -359 0
-8425 8424 360 0
-8425 -8424 -360 0
8425 -8424 360 0
8425 8424 -360 0
-298 -8425 0
-8426 361 362 0
-8426 -361 -362 0
8426 -361 362 0
8426 361 -362 0
-8427 8426 363 0
-8427 -8426 -363 0
8427 -8426 363 0
8427 8426 -363 0
-8428 8427 365 0
-8428 -8427 -365 0
8428 -8427 365 0
8428 8427 -365 0
-8429 8428 366 0
-8429 -8428 -366 0
8429 -8428 366 0
8429 8428 -366 0
-8430 8429 367 0
-8430 -8429 -367 0
8430 -8429 367 0
8430 8429 -367 0
-8431 8430 368 0
-8431 -8430 -368 0
8431 -8430 368 0
8431 8430 -368 0
-8432 8431 371 0
-8432 -8431 -371 0
8432 -8431 371 0
8432 8431 -371 0
-8433 8432 372 0
-8433 -8432 -372 0
8433 -8432 372 0
8433 8432 -372 0
-8434 8433 373 0
-8434 -8433 -373 0
8434 -8433 373 0
8434 8433 -373 0
-8435 8434 374 0
-8435 -8434 -374 0
8435 -8434 374 0
8435 8434 -374 0
-8436 8435 375 0
-8436 -8435 -375 0
8436 -8435 375 0
8436 8435 -375 0
-298 -8436 0
-8437 376 377 0
-8437 -376 -377 0
8437 -376 377 0
8437 376 -377 0
-8438 8437 378 0
-8438 -8437 -378 0
8438 -8437 378 0
8438 8437 -378 0
-8439 8438 380 0
-8439 -8438 -380 0
8439 -8438 380 0
8439 8438 -380 0
-8440 8439 381 0
-8440 -8439 -381 0
8440 -8439 381 0
8440 8439 -381 0
-8441 8440 382 0
-8441 -8440 -382 0
8441 -8440 382 0
8441 8440 -382 0
-8442 8441 383 0
-8442 -8441 -383 0
8442 -8441 383 0
8442 8441 -383 0
-8443 8442 386 0
-8443 -8442 -386 0
8443 -8442 386 0
8443 8442 -386 0
-8444 8443 387 0
-8444 -8443 -387 0
8444 -8443 387 0
8444 8443 -387 0
-8445 8444 388 0
-8445 -8444 -388 0
8445 -8444 388 0
8445 8444 -388 0
-8446 8445 389 0
-8446 -8445 -389 0
8446 -8445 389 0
8446 8445 -389 0
-8447 8446 390 0
-8447 -8446 -390 0
8447 -8446 390 0
8447 8446 -390 0
-298 -8447 0
-8448 316 319 0
-8448 -316 -319 0
8448 -316 319 0
8448 316 -319 0
-8449 8448 320 0
-8449 -8448 -320 0
8449 -8448 320 0
8449 8448 -320 0
-8450 8449 321 0
-8450 -8449 -321 0
8450 -8449 321 0
8450 8449 -321 0
-8451 8450 322 0
-8451 -8450 -322 0
8451 -8450 322 0
8451 8450 -322 0
-8452 8451 323 0
-8452 -8451 -323 0
8452 -8451 323 0
8452 8451 -323 0
-8453 8452 326 0
-8453 -8452 -326 0
8453 -8452 326 0
8453 8452 -326 0
-8454 8453 327 0
-8454 -8453 -327 0
8454 -8453 327 0
8454 8453 -327 0
-8455 8454 328 0
-8455 -8454 -328 0
8455 -8454 328 0
8455 8454 -328 0
-8456 8455 329 0
-8456 -8455 -329 0
8456 -8455 329 0
8456 8455 -329 0
-8457 8456 330 0
-8457 -8456 -330 0
8457 -8456 330 0
8457 8456 -330 0
-299 -8457 0
-8458 331 334 0
-8458 -331 -334 0
8458 -331 334 0
8458 331 -334 0
-8459 8458 335 0
-8459 -8458 -335 0
8459 -8458 335 0
8459 8458 -335 0
-8460 8459 336 0
-8460 -8459 -336 0
8460 -8459 336 0
8460 8459 -336 0
-8461 8460 337 0
-8461 -8460 -337 0
8461 -8460 337 0
8461 8460 -337 0
-8462 8461 338 0
-8462 -8461 -338 0
8462 -8461 338 0
8462 8461 -338 0
-8463 8462 341 0
-8463 -8462 -341 0
8463 -8462 341 0
8463 8462 -341 0
-8464 8463 342 0
-8464 -8463 -342 0
8464 -8463 342 0
8464 8463 -342 0
-8465 8464 343 0
-8465 -8464 -343 0
8465 -8464 343 0
8465 8464 -343 0
-8466 8465 344 0
-8466 -8465 -344 0
8466 -8465 344 0
8466 8465 -344 0
-8467 8466 345 0
-8467 -8466 -345 0
8467 -8466 345 0
8467 8466 -345 0
-299 -8467 0
-8468 346 349 0
-8468 -346 -349 0
8468 -346 349 0
8468 346 -349 0
-8469 8468 350 0
-8469 -8468 -350 0
8469 -8468 350 0
8469 8468 -350 0
-8470 8469 351 0
-8470 -8469 -351 0
8470 -8469 351 0
8470 8469 -351 0
-8471 8470 352 0
-8471 -8470 -352 0
8471 -8470 352 0
8471 8470 -352 0
-8472 8471 353 0
-8472 -8471 -353 0
8472 -8471 353 0
8472 8471 -353 0
-8473 8472 356 0
-8473 -8472 -356 0
8473 -8472 356 0
8473 8472 -356 0
-8474 8473 357 0
-8474 -8473 -357 0
8474 -8473 357 0
8474 8473 -357 0
-8475 8474 358 0
-8475 -8474 -358 0
8475 -8474 358 0
8475 8474 -358 0
-8476 8475 359 0
-8476 -8475 -359 0
8476 -8475 359 0
8476 8475 -359 0
-8477 8476 360 0
-8477 -8476 -360 0
8477 -8476 360 0
8477 8476 -360 0
-299 -8477 0
-8478 361 364 0
-8478 -361 -364 0
8478 -361 364 0
8478 361 -364 0
-8479 8478 365 0
-8479 -8478 -365 0
8479 -8478 365 0
8479 8478 -365 0
-8480 8479 366 0
-8480 -8479 -366 0
8480 -8479 366 0
8480 8479 -366 0
-8481 8480 367 0
-8481 -8480 -367 0
8481 -8480 367 0
8481 8480 -367 0
-8482 8481 368 0
-8482 -8481 -368 0
8482 -8481 368 0
8482 8481 -368 0
-8483 8482 371 0
-8483 -8482 -371 0
8483 -8482 371 0
8483 8482 -371 0
-8484 8483 372 0
-8484 -8483 -372 0
8484 -8483 372 0
8484 8483 -372 0
-8485 8484 373 0
-8485 -8484 -373 0
8485 -8484 373 0
8485 8484 -373 0
-8486 8485 374 0
-8486 -8485 -374 0
8486 -8485 374 0
8486 8485 -374 0
-8487 8486 375 0
-8487 -8486 -375 0
8487 -8486 375 0
8487 8486 -375 0
-299 -8487 0
-8488 376 379 0
-8488 -376 -379 0
8488 -376 379 0
8488 376 -379 0
-8489 8488 380 0
-8489 -8488 -380 0
8489 -8488 380 0
8489 8488 -380 0
-8490 8489 381 0
-8490 -8489 -381 0
8490 -8489 381 0
8490 8489 -381 0
-8491 8490 382 0
-8491 -8490 -382 0
8491 -8490 382 0
8491 8490 -382 0
-8492 8491 383 0
-8492 -8491 -383 0
8492 -8491 383 0
8492 8491 -383 0
-8493 8492 386 0
-8493 -8492 -386 0
8493 -8492 386 0
8493 8492 -386 0
-8494 8493 387 0
-8494 -8493 -387 0
8494 -8493 387 0
8494 8493 -387 0
-8495 8494 388 0
-8495 -8494 -388 0
8495 -8494 388 0
8495 8494 -388 0
-8496 8495 389 0
-8496 -8495 -389 0
8496 -8495 389 0
8496 8495 -389 0
-8497 8496 390 0
-8497 -8496 -390 0
8497 -8496 390 0
8497 8496 -390 0
-299 -8497 0
-8498 316 317 0
-8498 -316 -317 0
8498 -316 317 0
8498 316 -317 0
-8499 8498 318 0
-8499 -8498 -318 0
8499 -8498 318 0
8499 8498 -318 0
-8500 8499 319 0
-8500 -8499 -319 0
8500 -8499 319 0
8500 8499 -319 0
-8501 8500 324 0
-8501 -8500 -324 0
8501 -8500 324 0
8501 8500 -324 0
-8502 8501 327 0
-8502 -8501 -327 0
8502 -8501 327 0
8502 8501 -327 0
-8503 8502 329 0
-8503 -8502 -329 0
8503 -8502 329 0
8503 8502 -329 0
-8504 8503 330 0
-8504 -8503 -330 0
8504 -8503 330 0
8504 8503 -330 0
-300 -8504 0
-8505 331 332 0
-8505 -331 -332 0
8505 -331 332 0
8505 331 -332 0
-8506 8505 333 0
-8506 -8505 -333 0
8506 -8505 333 0
8506 8505 -333 0
-8507 8506 334 0
-8507 -8506 -334 0
8507 -8506 334 0
8507 8506 -334 0
-8508 8507 339 0
-8508 -8507 -339 0
8508 -8507 339 0
8508 8507 -339 0
-8509 8508 342 0
-8509 -8508 -342 0
8509 -8508 342 0
8509 8508 -342 0
-8510 8509 344 0
-8510 -8509 -344 0
8510 -8509 344 0
8510 8509 -344 0
-8511 8510 345 0
-8511 -8510 -345 0
8511 -8510 345 0
8511 8510 -345 0
-300 -8511 0
-8512 346 347 0
-8512 -346 -347 0
8512 -346 347 0
8512 346 -347 0
-8513 8512 348 0
-8513 -8512 -348 0
8513 -8512 348 0
8513 8512 -348 0
-8514 8513 349 0
-8514 -8513 -349 0
8514 -8513 349 0
8514 8513 -349 0
-8515 8514 354 0
-8515 -8514 -354 0
8515 -8514 354 0
8515 8514 -354 0
-8516 8515 357 0
-8516 -8515 -357 0
8516 -8515 357 0
8516 8515 -357 0
-8517 8516 359 0
-8517 -8516 -359 0
8517 -8516 359 0
8517 8516 -359 0
-8518 8517 360 0
-8518 -8517 -360 0
8518 -8517 360 0
8518 8517 -360 0
-300 -8518 0
-8519 361 362 0
-8519 -361 -362 0
8519 -361 362 0
8519 361 -362 0
-8520 8519 363 0
-8520 -8519 -363 0
8520 -8519 363 0
8520 8519 -363 0
-8521 8520 364 0
-8521 -8520 -364 0
8521 -8520 364 0
8521 8520 -364 0
-8522 8521 369 0
-8522 -8521 -369 0
8522 -8521 369 0
8522 8521 -369 0
-8523 8522 372 0
-8523 -8522 -372 0
8523 -8522 372 0
8523 8522 -372 0
-8524 8523 374 0
-8524 -8523 -374 0
8524 -8523 374 0
8524 8523 -374 0
-8525 8524 375 0
-8525 -8524 -375 0
8525 -8524 375 0
8525 8524 -375 0
-300 -8525 0
-8526 376 377 0
-8526 -376 -377 0
8526 -376 377 0
8526 376 -377 0
-8527 8526 378 0
-8527 -8526 -378 0
8527 -8526 378 0
8527 8526 -378 0
-8528 8527 379 0
-8528 -8527 -379 0
8528 -8527 379 0
8528 8527 -379 0
-8529 8528 384 0
-8529 -8528 -384 0
8529 -8528 384 0
8529 8528 -384 0
-8530 8529 387 0
-8530 -8529 -387 0
8530 -8529 387 0
8530 8529 -387 0
-8531 8530 389 0
-8531 -8530 -389 0
8531 -8530 389 0
8531 8530 -389 0
-8532 8531 390 0
-8532 -8531 -390 0
8532 -8531 390 0
8532 8531 -390 0
-300 -8532 0
-8533 316 317 0
-8533 -316 -317 0
8533 -316 317 0
8533 316 -317 0
-8534 8533 318 0
-8534 -8533 -318 0
8534 -8533 318 0
8534 8533 -318 0
-8535 8534 319 0
-8535 -8534 -319 0
8535 -8534 319 0
8535 8534 -319 0
-8536 8535 321 0
-8536 -8535 -321 0
8536 -8535 321 0
8536 8535 -321 0
-8537 8536 322 0
-8537 -8536 -322 0
8537 -8536 322 0
8537 8536 -322 0
-8538 8537 323 0
-8538 -8537 -323 0
8538 -8537 323 0
8538 8537 -323 0
-8539 8538 324 0
-8539 -8538 -324 0
8539 -8538 324 0
8539 8538 -324 0
-8540 8539 327 0
-8540 -8539 -327 0
8540 -8539 327 0
8540 8539 -327 0
-8541 8540 329 0
-8541 -8540 -329 0
8541 -8540 329 0
8541 8540 -329 0
-8542 8541 330 0
-8542 -8541 -330 0
8542 -8541 330 0
8542 8541 -330 0
-301 -8542 0
-8543 331 332 0
-8543 -331 -332 0
8543 -331 332 0
8543 331 -332 0
-8544 8543 333 0
-8544 -8543 -333 0
8544 -8543 333 0
8544 8543 -333 0
-8545 8544 334 0
-8545 -8544 -334 0
8545 -8544 334 0
8545 8544 -334 0
-8546 8545 336 0
-8546 -8545 -336 0
8546 -8545 336 0
8546 8545 -336 0
-8547 8546 337 0
-8547 -8546 -337 0
8547 -8546 337 0
8547 8546 -337 0
-8548 8547 338 0
-8548 -8547 -338 0
8548 -8547 338 0
8548 8547 -338 0
-8549 8548 339 0
-8549 -8548 -339 0
8549 -8548 339 0
8549 8548 -339 0
-8550 8549 342 0
-8550 -8549 -342 0
8550 -8549 342 0
8550 8549 -342 0
-8551 8550 344 0
-8551 -8550 -344 0
8551 -8550 344 0
8551 8550 -344 0
-8552 8551 345 0
-8552 -8551 -345 0
8552 -8551 345 0
8552 8551 -345 0
-301 -8552 0
-8553 346 347 0
-8553 -346 -347 0
8553 -346 347 0
8553 346 -347 0
-8554 8553 348 0
-8554 -8553 -348 0
8554 -8553 348 0
8554 8553 -348 0
-8555 8554 349 0
-8555 -8554 -349 0
8555 -8554 349 0
8555 8554 -349 0
-8556 8555 351 0
-8556 -8555 -351 0
8556 -8555 351 0
8556 8555 -351 0
-8557 8556 352 0
-8557 -8556 -352 0
8557 -8556 352 0
8557 8556 -352 0
-8558 8557 353 0
-8558 -8557 -353 0
8558 -8557 353 0
8558 8557 -353 0
-8559 8558 354 0
-8559 -8558 -354 0
8559 -8558 354 0
8559 8558 -354 0
-8560 8559 357 0
-8560 -8559 -357 0
8560 -8559 357 0
8560 8559 -357 0
-8561 8560 359 0
-8561 -8560 -359 0
8561 -8560 359 0
8561 8560 -359 0
-8562 8561 360 0
-8562 -8561 -360 0
8562 -8561 360 0
8562 8561 -360 0
-301 -8562 0
-8563 361 362 0
-8563 -361 -362 0
8563 -361 362 0
8563 361 -362 0
-8564 8563 363 0
-8564 -8563 -363 0
8564 -8563 363 0
8564 8563 -363 0
-8565 8564 364 0
-8565 -8564 -364 0
8565 -8564 364 0
8565 8564 -364 0
-8566 8565 366 0
-8566 -8565 -366 0
8566 -8565 366 0
8566 8565 -366 0
-8567 8566 367 0
-8567 -8566 -367 0
8567 -8566 367 0
8567 8566 -367 0
-8568 8567 368 0
-8568 -8567 -368 0
8568 -8567 368 0
8568 8567 -368 0
-8569 8568 369 0
-8569 -8568 -369 0
8569 -8568 369 0
8569 8568 -369 0
-8570 8569 372 0
-8570 -8569 -372 0
8570 -8569 372 0
8570 8569 -372 0
-8571 8570 374 0
-8571 -8570 -374 0
8571 -8570 374 0
8571 8570 -374 0
-8572 8571 375 0
-8572 -8571 -375 0
8572 -8571 375 0
8572 8571 -375 0
-301 -8572 0
-8573 376 377 0
-8573 -376 -377 0
8573 -376 377 0
8573 376 -377 0
-8574 8573 378 0
-8574 -8573 -378 0
8574 -8573 378 0
8574 8573 -378 0
-8575 8574 379 0
-8575 -8574 -379 0
8575 -8574 379 0
8575 8574 -379 0
-8576 8575 381 0
-8576 -8575 -381 0
8576 -8575 381 0
8576 8575 -381 0
-8577 8576 382 0
-8577 -8576 -382 0
8577 -8576 382 0
8577 8576 -382 0
-8578 8577 383 0
-8578 -8577 -383 0
8578 -8577 383 0
8578 8577 -383 0
-8579 8578 384 0
-8579 -8578 -384 0
8579 -8578 384 0
8579 8578 -384 0
-8580 8579 387 0
-8580 -8579 -387 0
8580 -8579 387 0
8580 8579 -387 0
-8581 8580 389 0
-8581 -8580 -389 0
8581 -8580 389 0
8581 8580 -389 0
-8582 8581 390 0
-8582 -8581 -390 0
8582 -8581 390 0
8582 8581 -390 0
-301 -8582 0
-8583 321 324 0
-8583 -321 -324 0
8583 -321 324 0
8583 321 -324 0
-8584 8583 325 0
-8584 -8583 -325 0
8584 -8583 325 0
8584 8583 -325 0
-8585 8584 326 0
-8585 -8584 -326 0
8585 -8584 326 0
8585 8584 -326 0
-8586 8585 327 0
-8586 -8585 -327 0
8586 -8585 327 0
8586 8585 -327 0
-8587 8586 329 0
-8587 -8586 -329 0
8587 -8586 329 0
8587 8586 -329 0
-8588 8587 330 0
-8588 -8587 -330 0
8588 -8587 330 0
8588 8587 -330 0
-302 -8588 0
-8589 336 339 0
-8589 -336 -339 0
8589 -336 339 0
8589 336 -339 0
-8590 8589 340 0
-8590 -8589 -340 0
8590 -8589 340 0
8590 8589 -340 0
-8591 8590 341 0
-8591 -8590 -341 0
8591 -8590 341 0
8591 8590 -341 0
-8592 8591 342 0
-8592 -8591 -342 0
8592 -8591 342 0
8592 8591 -342 0
-8593 8592 344 0
-8593 -8592 -344 0
8593 -8592 344 0
8593 8592 -344 0
-8594 8593 345 0
-8594 -8593 -345 0
8594 -8593 345 0
8594 8593 -345 0
-302 -8594 0
-8595 351 354 0
-8595 -351 -354 0
8595 -351 354 0
8595 351 -354 0
-8596 8595 355 0
-8596 -8595 -355 0
8596 -8595 355 0
8596 8595 -355 0
-8597 8596 356 0
-8597 -8596 -356 0
8597 -8596 356 0
8597 8596 -356 0
-8598 8597 357 0
-8598 -8597 -357 0
8598 -8597 357 0
8598 8597 -357 0
-8599 8598 359 0
-8599 -8598 -359 0
8599 -8598 359 0
8599 8598 -359 0
-8600 8599 360 0
-8600 -8599 -360 0
8600 -8599 360 0
8600 8599 -360 0
-302 -8600 0
-8601 366 369 0
-8601 -366 -369 0
8601 -366 369 0
8601 366 -369 0
-8602 8601 370 0
-8602 -8601 -370 0
8602 -8601 370 0
8602 8601 -370 0
-8603 8602 371 0
-8603 -8602 -371 0
8603 -8602 371 0
8603 8602 -371 0
-8604 8603 372 0
-8604 -8603 -372 0
8604 -8603 372 0
8604 8603 -372 0
-8605 8604 374 0
-8605 -8604 -374 0
8605 -8604 374 0
8605 8604 -374 0
-8606 8605 375 0
-8606 -8605 -375 0
8606 -8605 375 0
8606 8605 -375 0
-302 -8606 0
-8607 381 384 0
-8607 -381 -384 0
8607 -381 384 0
8607 381 -384 0
-8608 8607 385 0
-8608 -8607 -385 0
8608 -8607 385 0
8608 8607 -385 0
-8609 8608 386 0
-8609 -8608 -386 0
8609 -8608 386 0
8609 8608 -386 0
-8610 8609 387 0
-8610 -8609 -387 0
8610 -8609 387 0
8610 8609 -387 0
-8611 8610 389 0
-8611 -8610 -389 0
8611 -8610 389 0
8611 8610 -389 0
-8612 8611 390 0
-8612 -8611 -390 0
8612 -8611 390 0
8612 8611 -390 0
-302 -8612 0
-8613 322 323 0
-8613 -322 -323 0
8613 -322 323 0
8613 322 -323 0
-8614 8613 324 0
-8614 -8613 -324 0
8614 -8613 324 0
8614 8613 -324 0
-8615 8614 325 0
-8615 -8614 -325 0
8615 -8614 325 0
8615 8614 -325 0
-8616 8615 326 0
-8616 -8615 -326 0
8616 -8615 326 0
8616 8615 -326 0
-8617 8616 327 0
-8617 -8616 -327 0
8617 -8616 327 0
8617 8616 -327 0
-8618 8617 329 0
-8618 -8617 -329 0
8618 -8617 329 0
8618 8617 -329 0
-8619 8618 330 0
-8619 -8618 -330 0
8619 -8618 330 0
8619 8618 -330 0
-303 -8619 0
-8620 337 338 0
-8620 -337 -338 0
8620 -337 338 0
8620 337 -338 0
-8621 8620 339 0
-8621 -8620 -339 0
8621 -8620 339 0
8621 8620 -339 0
-8622 8621 340 0
-8622 -8621 -340 0
8622 -8621 340 0
8622 8621 -340 0
-8623 8622 341 0
-8623 -8622 -341 0
8623 -8622 341 0
8623 8622 -341 0
-8624 8623 342 0
-8624 -8623 -342 0
8624 -8623 342 0
8624 8623 -342 0
-8625 8624 344 0
-8625 -8624 -344 0
8625 -8624 344 0
8625 8624 -344 0
-8626 8625 345 0
-8626 -8625 -345 0
8626 -8625 345 0
8626 8625 -345 0
-303 -8626 0
-8627 352 353 0
-8627 -352 -353 0
8627 -352 353 0
8627 352 -353 0
-8628 8627 354 0
-8628 -8627 -354 0
8628 -8627 354 0
8628 8627 -354 0
-8629 8628 355 0
-8629 -8628 -355 0
8629 -8628 355 0
8629 8628 -355 0
-8630 8629 356 0
-8630 -8629 -356 0
8630 -8629 356 0
8630 8629 -356 0
-8631 8630 357 0
-8631 -8630 -357 0
8631 -8630 357 0
8631 8630 -357 0
-8632 8631 359 0
-8632 -8631 -359 0
8632 -8631 359 0
8632 8631 -359 0
-8633 8632 360 0
-8633 -8632 -360 0
8633 -8632 360 0
8633 8632 -360 0
-303 -8633 0
-8634 367 368 0
-8634 -367 -368 0
8634 -367 368 0
8634 367 -368 0
-8635 8634 369 0
-8635 -8634 -369 0
8635 -8634 369 0
8635 8634 -369 0
-8636 8635 370 0
-8636 -8635 -370 0
8636 -8635 370 0
8636 8635 -370 0
-8637 8636 371 0
-8637 -8636 -371 0
8637 -8636 371 0
8637 8636 -371 0
-8638 8637 372 0
-8638 -8637 -372 0
8638 -8637 372 0
8638 8637 -372 0
-8639 8638 374 0
-8639 -8638 -374 0
8639 -8638 374 0
8639 8638 -374 0
-8640 8639 375 0
-8640 -8639 -375 0
8640 -8639 375 0
8640 8639 -375 0
-303 -8640 0
-8641 382 383 0
-8641 -382 -383 0
8641 -382 383 0
8641 382 -383 0
-8642 8641 384 0
-8642 -8641 -384 0
8642 -8641 384 0
8642 8641 -384 0
-8643 8642 385 0
-8643 -8642 -385 0
8643 -8642 385 0
8643 8642 -385 0
-8644 8643 386 0
-8644 -8643 -386 0
8644 -8643 386 0
8644 8643 -386 0
-8645 8644 387 0
-8645 -8644 -387 0
8645 -8644 387 0
8645 8644 -387 0
-8646 8645 389 0
-8646 -8645 -389 0
8646 -8645 389 0
8646 8645 -389 0
-8647 8646 390 0
-8647 -8646 -390 0
8647 -8646 390 0
8647 8646 -390 0
-303 -8647 0
-8648 322 324 0
-8648 -322 -324 0
8648 -322 324 0
8648 322 -324 0
-8649 8648 325 0
-8649 -8648 -325 0
8649 -8648 325 0
8649 8648 -325 0
-8650 8649 327 0
-8650 -8649 -327 0
8650 -8649 327 0
8650 8649 -327 0
-8651 8650 328 0
-8651 -8650 -328 0
8651 -8650 328 0
8651 8650 -328 0
-8652 8651 329 0
-8652 -8651 -329 0
8652 -8651 329 0
8652 8651 -329 0
-8653 8652 330 0
-8653 -8652 -330 0
8653 -8652 330 0
8653 8652 -330 0
-304 -8653 0
-8654 337 339 0
-8654 -337 -339 0
8654 -337 339 0
8654 337 -339 0
-8655 8654 340 0
-8655 -8654 -340 0
8655 -8654 340 0
8655 8654 -340 0
-8656 8655 342 0
-8656 -8655 -342 0
8656 -8655 342 0
8656 8655 -342 0
-8657 8656 343 0
-8657 -8656 -343 0
8657 -8656 343 0
8657 8656 -343 0
-8658 8657 344 0
-8658 -8657 -344 0
8658 -8657 344 0
8658 8657 -344 0
-8659 8658 345 0
-8659 -8658 -345 0
8659 -8658 345 0
8659 8658 -345 0
-304 -8659 0
-8660 352 354 0
-8660 -352 -354 0
8660 -352 354 0
8660 352 -354 0
-8661 8660 355 0
-8661 -8660 -355 0
8661 -8660 355 0
8661 8660 -355 0
-8662 8661 357 0
-8662 -8661 -357 0
8662 -8661 357 0
8662 8661 -357 0
-8663 8662 358 0
-8663 -8662 -358 0
8663 -8662 358 0
8663 8662 -358 0
-8664 8663 359 0
-8664 -8663 -359 0
8664 -8663 359 0
8664 8663 -359 0
-8665 8664 360 0
-8665 -8664 -360 0
8665 -8664 360 0
8665 8664 -360 0
-304 -8665 0
-8666 367 369 0
-8666 -367 -369 0
8666 -367 369 0
8666 367 -369 0
-8667 8666 370 0
-8667 -8666 -370 0
8667 -8666 370 0
8667 8666 -370 0
-8668 8667 372 0
-8668 -8667 -372 0
8668 -8667 372 0
8668 8667 -372 0
-8669 8668 373 0
-8669 -8668 -373 0
8669 -8668 373 0
8669 8668 -373 0
-8670 8669 374 0
-8670 -8669 -374 0
8670 -8669 374 0
8670 8669 -374 0
-8671 8670 375 0
-8671 -8670 -375 0
8671 -8670 375 0
8671 8670 -375 0
-304 -8671 0
-8672 382 384 0
-8672 -382 -384 0
8672 -382 384 0
8672 382 -384 0
-8673 8672 385 0
-8673 -8672 -385 0
8673 -8672 385 0
8673 8672 -385 0
-8674 8673 387 0
-8674 -8673 -387 0
8674 -8673 387 0
8674 8673 -387 0
-8675 8674 388 0
-8675 -8674 -388 0
8675 -8674 388 0
8675 8674 -388 0
-8676 8675 389 0
-8676 -8675 -389 0
8676 -8675 389 0
8676 8675 -389 0
-8677 8676 390 0
-8677 -8676 -390 0
8677 -8676 390 0
8677 8676 -390 0
-304 -8677 0
-8678 321 323 0
-8678 -321 -323 0
8678 -321 323 0
8678 321 -323 0
-8679 8678 324 0
-8679 -8678 -324 0
8679 -8678 324 0
8679 8678 -324 0
-8680 8679 325 0
-8680 -8679 -325 0
8680 -8679 325 0
8680 8679 -325 0
-8681 8680 327 0
-8681 -8680 -327 0
8681 -8680 327 0
8681 8680 -327 0
-8682 8681 328 0
-8682 -8681 -328 0
8682 -8681 328 0
8682 8681 -328 0
-8683 8682 329 0
-8683 -8682 -329 0
8683 -8682 329 0
8683 8682 -329 0
-8684 8683 330 0
-8684 -8683 -330 0
8684 -8683 330 0
8684 8683 -330 0
-305 -8684 0
-8685 336 338 0
-8685 -336 -338 0
8685 -336 338 0
8685 336 -338 0
-8686 8685 339 0
-8686 -8685 -339 0
8686 -8685 339 0
8686 8685 -339 0
-8687 8686 340 0
-8687 -8686 -340 0
8687 -8686 340 0
8687 8686 -340 0
-8688 8687 342 0
-8688 -8687 -342 0
8688 -8687 342 0
8688 8687 -342 0
-8689 8688 343 0
-8689 -8688 -343 0
8689 -8688 343 0
8689 8688 -343 0
-8690 8689 344 0
-8690 -8689 -344 0
8690 -8689 344 0
8690 8689 -344 0
-8691 8690 345 0
-8691 -8690 -345 0
8691 -8690 345 0
8691 8690 -345 0
-305 -8691 0
-8692 351 353 0
-8692 -351 -353 0
8692 -351 353 0
8692 351 -353 0
-8693 8692 354 0
-8693 -8692 -354 0
8693 -8692 354 0
8693 8692 -354 0
-8694 8693 355 0
-8694 -8693 -355 0
8694 -8693 355 0
8694 8693 -355 0
-8695 8694 357 0
-8695 -8694 -357 0
8695 -8694 357 0
8695 8694 -357 0
-8696 8695 358 0
-8696 -8695 -358 0
8696 -8695 358 0
8696 8695 -358 0
-8697 8696 359 0
-8697 -8696 -359 0
8697 -8696 359 0
8697 8696 -359 0
-8698 8697 360 0
-8698 -8697 -360 0
8698 -8697 360 0
8698 8697 -360 0
-305 -8698 0
-8699 366 368 0
-8699 -366 -368 0
8699 -366 368 0
8699 366 -368 0
-8700 8699 369 0
-8700 -8699 -369 0
8700 -8699 369 0
8700 8699 -369 0
-8701 8700 370 0
-8701 -8700 -370 0
8701 -8700 370 0
8701 8700 -370 0
-8702 8701 372 0
-8702 -8701 -372 0
8702 -8701 372 0
8702 8701 -372 0
-8703 8702 373 0
-8703 -8702 -373 0
8703 -8702 373 0
8703 8702 -373 0
-8704 8703 374 0
-8704 -8703 -374 0
8704 -8703 374 0
8704 8703 -374 0
-8705 8704 375 0
-8705 -8704 -375 0
8705 -8704 375 0
8705 8704 -375 0
-305 -8705 0
-8706 381 383 0
-8706 -381 -383 0
8706 -381 383 0
8706 381 -383 0
-8707 8706 384 0
-8707 -8706 -384 0
8707 -8706 384 0
8707 8706 -384 0
-8708 8707 385 0
-8708 -8707 -385 0
8708 -8707 385 0
8708 8707 -385 0
-8709 8708 387 0
-8709 -8708 -387 0
8709 -8708 387 0
8709 8708 -387 0
-8710 8709 388 0
-8710 -8709 -388 0
8710 -8709 388 0
8710 8709 -388 0
-8711 8710 389 0
-8711 -8710 -389 0
8711 -8710 389 0
8711 8710 -389 0
-8712 8711 390 0
-8712 -8711 -390 0
8712 -8711 390 0
8712 8711 -390 0
-305 -8712 0
-8713 316 317 0
-8713 -316 -317 0
8713 -316 317 0
8713 316 -317 0
-8714 8713 318 0
-8714 -8713 -318 0
8714 -8713 318 0
8714 8713 -318 0
-8715 8714 319 0
-8715 -8714 -319 0
8715 -8714 319 0
8715 8714 -319 0
-8716 8715 321 0
-8716 -8715 -321 0
8716 -8715 321 0
8716 8715 -321 0
-8717 8716 322 0
-8717 -8716 -322 0
8717 -8716 322 0
8717 8716 -322 0
-8718 8717 324 0
-8718 -8717 -324 0
8718 -8717 324 0
8718 8717 -324 0
-8719 8718 326 0
-8719 -8718 -326 0
8719 -8718 326 0
8719 8718 -326 0
-8720 8719 327 0
-8720 -8719 -327 0
8720 -8719 327 0
8720 8719 -327 0
-8721 8720 328 0
-8721 -8720 -328 0
8721 -8720 328 0
8721 8720 -328 0
-8722 8721 329 0
-8722 -8721 -329 0
8722 -8721 329 0
8722 8721 -329 0
-8723 8722 330 0
-8723 -8722 -330 0
8723 -8722 330 0
8723 8722 -330 0
-306 -8723 0
-8724 331 332 0
-8724 -331 -332 0
8724 -331 332 0
8724 331 -332 0
-8725 8724 333 0
-8725 -8724 -333 0
8725 -8724 333 0
8725 8724 -333 0
-8726 8725 334 0
-8726 -8725 -334 0
8726 -8725 334 0
8726 8725 -334 0
-8727 8726 336 0
-8727 -8726 -336 0
8727 -8726 336 0
8727 8726 -336 0
-8728 8727 337 0
-8728 -8727 -337 0
8728 -8727 337 0
8728 8727 -337 0
-8729 8728 339 0
-8729 -8728 -339 0
8729 -8728 339 0
8729 8728 -339 0
-8730 8729 341 0
-8730 -8729 -341 0
8730 -8729 341 0
8730 8729 -341 0
-8731 8730 342 0
-8731 -8730 -342 0
8731 -8730 342 0
8731 8730 -342 0
-8732 8731 343 0
-8732 -8731 -343 0
8732 -8731 343 0
8732 8731 -343 0
-8733 8732 344 0
-8733 -8732 -344 0
8733 -8732 344 0
8733 8732 -344 0
-8734 8733 345 0
-8734 -8733 -345 0
8734 -8733 345 0
8734 8733 -345 0
-306 -8734 0
-8735 346 347 0
-8735 -346 -347 0
8735 -346 347 0
8735 346 -347 0
-8736 8735 348 0
-8736 -8735 -348 0
8736 -8735 348 0
8736 8735 -348 0
-8737 8736 349 0
-8737 -8736 -349 0
8737 -8736 349 0
8737 8736 -349 0
-8738 8737 351 0
-8738 -8737 -351 0
8738 -8737 351 0
8738 8737 -351 0
-8739 8738 352 0
-8739 -8738 -352 0
8739 -8738 352 0
8739 8738 -352 0
-8740 8739 354 0
-8740 -8739 -354 0
8740 -8739 354 0
8740 8739 -354 0
-8741 8740 356 0
-8741 -8740 -356 0
8741 -8740 356 0
8741 8740 -356 0
-8742 8741 357 0
-8742 -8741 -357 0
8742 -8741 357 0
8742 8741 -357 0
-8743 8742 358 0
-8743 -8742 -358 0
8743 -8742 358 0
8743 8742 -358 0
-8744 8743 359 0
-8744 -8743 -359 0
8744 -8743 359 0
8744 8743 -359 0
-8745 8744 360 0
-8745 -8744 -360 0
8745 -8744 360 0
8745 8744 -360 0
-306 -8745 0
-8746 361 362 0
-8746 -361 -362 0
8746 -361 362 0
8746 361 -362 0
-8747 8746 363 0
-8747 -8746 -363 0
8747 -8746 363 0
8747 8746 -363 0
-8748 8747 364 0
-8748 -8747 -364 0
8748 -8747 364 0
8748 8747 -364 0
-8749 8748 366 0
-8749 -8748 -366 0
8749 -8748 366 0
8749 8748 -366 0
-8750 8749 367 0
-8750 -8749 -367 0
8750 -8749 367 0
8750 8749 -367 0
-8751 8750 369 0
-8751 -8750 -369 0
8751 -8750 369 0
8751 8750 -369 0
-8752 8751 371 0
-8752 -8751 -371 0
8752 -8751 371 0
8752 8751 -371 0
-8753 8752 372 0
-8753 -8752 -372 0
8753 -8752 372 0
8753 8752 -372 0
-8754 8753 373 0
-8754 -8753 -373 0
8754 -8753 373 0
8754 8753 -373 0
-8755 8754 374 0
-8755 -8754 -374 0
8755 -8754 374 0
8755 8754 -374 0
-8756 8755 375 0
-8756 -8755 -375 0
8756 -8755 375 0
8756 8755 -375 0
-306 -8756 0
-8757 376 377 0
-8757 -376 -377 0
8757 -376 377 0
8757 376 -377 0
-8758 8757 378 0
-8758 -8757 -378 0
8758 -8757 378 0
8758 8757 -378 0
-8759 8758 379 0
-8759 -8758 -379 0
8759 -8758 379 0
8759 8758 -379 0
-8760 8759 381 0
-8760 -8759 -381 0
8760 -8759 381 0
8760 8759 -381 0
-8761 8760 382 0
-8761 -8760 -382 0
8761 -8760 382 0
8761 8760 -382 0
-8762 8761 384 0
-8762 -8761 -384 0
8762 -8761 384 0
8762 8761 -384 0
-8763 8762 386 0
-8763 -8762 -386 0
8763 -8762 386 0
8763 8762 -386 0
-8764 8763 387 0
-8764 -8763 -387 0
8764 -8763 387 0
8764 8763 -387 0
-8765 8764 388 0
-8765 -8764 -388 0
8765 -8764 388 0
8765 8764 -388 0
-8766 8765 389 0
-8766 -8765 -389 0
8766 -8765 389 0
8766 8765 -389 0
-8767 8766 390 0
-8767 -8766 -390 0
8767 -8766 390 0
8767 8766 -390 0
-306 -8767 0
-8768 316 317 0
-8768 -316 -317 0
8768 -316 317 0
8768 316 -317 0
-8769 8768 318 0
-8769 -8768 -318 0
8769 -8768 318 0
8769 8768 -318 0
-8770 8769 319 0
-8770 -8769 -319 0
8770 -8769 319 0
8770 8769 -319 0
-8771 8770 323 0
-8771 -8770 -323 0
8771 -8770 323 0
8771 8770 -323 0
-8772 8771 324 0
-8772 -8771 -324 0
8772 -8771 324 0
8772 8771 -324 0
-8773 8772 326 0
-8773 -8772 -326 0
8773 -8772 326 0
8773 8772 -326 0
-8774 8773 327 0
-8774 -8773 -327 0
8774 -8773 327 0
8774 8773 -327 0
-8775 8774 328 0
-8775 -8774 -328 0
8775 -8774 328 0
8775 8774 -328 0
-8776 8775 329 0
-8776 -8775 -329 0
8776 -8775 329 0
8776 8775 -329 0
-8777 8776 330 0
-8777 -8776 -330 0
8777 -8776 330 0
8777 8776 -330 0
-307 -8777 0
-8778 331 332 0
-8778 -331 -332 0
8778 -331 332 0
8778 331 -332 0
-8779 8778 333 0
-8779 -8778 -333 0
8779 -8778 333 0
8779 8778 -333 0
-8780 8779 334 0
-8780 -8779 -334 0
8780 -8779 334 0
8780 8779 -334 0
-8781 8780 338 0
-8781 -8780 -338 0
8781 -8780 338 0
8781 8780 -338 0
-8782 8781 339 0
-8782 -8781 -339 0
8782 -8781 339 0
8782 8781 -339 0
-8783 8782 341 0
-8783 -8782 -341 0
8783 -8782 341 0
8783 8782 -341 0
-8784 8783 342 0
-8784 -8783 -342 0
8784 -8783 342 0
8784 8783 -342 0
-8785 8784 343 0
-8785 -8784 -343 0
8785 -8784 343 0
8785 8784 -343 0
-8786 8785 344 0
-8786 -8785 -344 0
8786 -8785 344 0
8786 8785 -344 0
-8787 8786 345 0
-8787 -8786 -345 0
8787 -8786 345 0
8787 8786 -345 0
-307 -8787 0
-8788 346 347 0
-8788 -346 -347 0
8788 -346 347 0
8788 346 -347 0
-8789 8788 348 0
-8789 -8788 -348 0
8789 -8788 348 0
8789 8788 -348 0
-8790 8789 349 0
-8790 -8789 -349 0
8790 -8789 349 0
8790 8789 -349 0
-8791 8790 353 0
-8791 -8790 -353 0
8791 -8790 353 0
8791 8790 -353 0
-8792 8791 354 0
-8792 -8791 -354 0
8792 -8791 354 0
8792 8791 -354 0
-8793 8792 356 0
-8793 -8792 -356 0
8793 -8792 356 0
8793 8792 -356 0
-8794 8793 357 0
-8794 -8793 -357 0
8794 -8793 357 0
8794 8793 -357 0
-8795 8794 358 0
-8795 -8794 -358 0
8795 -8794 358 0
8795 8794 -358 0
-8796 8795 359 0
-8796 -8795 -359 0
8796 -8795 359 0
8796 8795 -359 0
-8797 8796 360 0
-8797 -8796 -360 0
8797 -8796 360 0
8797 8796 -360 0
-307 -8797 0
-8798 361 362 0
-8798 -361 -362 0
8798 -361 362 0
8798 361 -362 0
-8799 8798 363 0
-8799 -8798 -363 0
8799 -8798 363 0
8799 8798 -363 0
-8800 8799 364 0
-8800 -8799 -364 0
8800 -8799 364 0
8800 8799 -364 0
-8801 8800 368 0
-8801 -8800 -368 0
8801 -8800 368 0
8801 8800 -368 0
-8802 8801 369 0
-8802 -8801 -369 0
8802 -8801 369 0
8802 8801 -369 0
-8803 8802 371 0
-8803 -8802 -371 0
8803 -8802 371 0
8803 8802 -371 0
-8804 8803 372 0
-8804 -8803 -372 0
8804 -8803 372 0
8804 8803 -372 0
-8805 8804 373 0
-8805 -8804 -373 0
8805 -8804 373 0
8805 8804 -373 0
-8806 8805 374 0
-8806 -8805 -374 0
8806 -8805 374 0
8806 8805 -374 0
-8807 8806 375 0
-8807 -8806 -375 0
8807 -8806 375 0
8807 8806 -375 0
-307 -8807 0
-8808 376 377 0
-8808 -376 -377 0
8808 -376 377 0
8808 376 -377 0
-8809 8808 378 0
-8809 -8808 -378 0
8809 -8808 378 0
8809 8808 -378 0
-8810 8809 379 0
-8810 -8809 -379 0
8810 -8809 379 0
8810 8809 -379 0
-8811 8810 383 0
-8811 -8810 -383 0
8811 -8810 383 0
8811 8810 -383 0
-8812 8811 384 0
-8812 -8811 -384 0
8812 -8811 384 0
8812 8811 -384 0
-8813 8812 386 0
-8813 -8812 -386 0
8813 -8812 386 0
8813 8812 -386 0
-8814 8813 387 0
-8814 -8813 -387 0
8814 -8813 387 0
8814 8813 -387 0
-8815 8814 388 0
-8815 -8814 -388 0
8815 -8814 388 0
8815 8814 -388 0
-8816 8815 389 0
-8816 -8815 -389 0
8816 -8815 389 0
8816 8815 -389 0
-8817 8816 390 0
-8817 -8816 -390 0
8817 -8816 390 0
8817 8816 -390 0
-307 -8817 0
-8818 316 317 0
-8818 -316 -317 0
8818 -316 317 0
8818 316 -317 0
-8819 8818 318 0
-8819 -8818 -318 0
8819 -8818 318 0
8819 8818 -318 0
-8820 8819 319 0
-8820 -8819 -319 0
8820 -8819 319 0
8820 8819 -319 0
-8821 8820 320 0
-8821 -8820 -320 0
8821 -8820 320 0
8821 8820 -320 0
-8822 8821 324 0
-8822 -8821 -324 0
8822 -8821 324 0
8822 8821 -324 0
-8823 8822 327 0
-8823 -8822 -327 0
8823 -8822 327 0
8823 8822 -327 0
-8824 8823 329 0
-8824 -8823 -329 0
8824 -8823 329 0
8824 8823 -329 0
-8825 8824 330 0
-8825 -8824 -330 0
8825 -8824 330 0
8825 8824 -330 0
-308 -8825 0
-8826 331 332 0
-8826 -331 -332 0
8826 -331 332 0
8826 331 -332 0
-8827 8826 333 0
-8827 -8826 -333 0
8827 -8826 333 0
8827 8826 -333 0
-8828 8827 334 0
-8828 -8827 -334 0
8828 -8827 334 0
8828 8827 -334 0
-8829 8828 335 0
-8829 -8828 -335 0
8829 -8828 335 0
8829 8828 -335 0
-8830 8829 339 0
-8830 -8829 -339 0
8830 -8829 339 0
8830 8829 -339 0
-8831 8830 342 0
-8831 -8830 -342 0
8831 -8830 342 0
8831 8830 -342 0
-8832 8831 344 0
-8832 -8831 -344 0
8832 -8831 344 0
8832 8831 -344 0
-8833 8832 345 0
-8833 -8832 -345 0
8833 -8832 345 0
8833 8832 -345 0
-308 -8833 0
-8834 346 347 0
-8834 -346 -347 0
8834 -346 347 0
8834 346 -347 0
-8835 8834 348 0
-8835 -8834 -348 0
8835 -8834 348 0
8835 8834 -348 0
-8836 8835 349 0
-8836 -8835 -349 0
8836 -8835 349 0
8836 8835 -349 0
-8837 8836 350 0
-8837 -8836 -350 0
8837 -8836 350 0
8837 8836 -350 0
-8838 8837 354 0
-8838 -8837 -354 0
8838 -8837 354 0
8838 8837 -354 0
-8839 8838 357 0
-8839 -8838 -357 0
8839 -8838 357 0
8839 8838 -357 0
-8840 8839 359 0
-8840 -8839 -359 0
8840 -8839 359 0
8840 8839 -359 0
-8841 8840 360 0
-8841 -8840 -360 0
8841 -8840 360 0
8841 8840 -360 0
-308 -8841 0
-8842 361 362 0
-8842 -361 -362 0
8842 -361 362 0
8842 361 -362 0
-8843 8842 363 0
-8843 -8842 -363 0
8843 -8842 363 0
8843 8842 -363 0
-8844 8843 364 0
-8844 -8843 -364 0
8844 -8843 364 0
8844 8843 -364 0
-8845 8844 365 0
-8845 -8844 -365 0
8845 -8844 365 0
8845 8844 -365 0
-8846 8845 369 0
-8846 -8845 -369 0
8846 -8845 369 0
8846 8845 -369 0
-8847 8846 372 0
-8847 -8846 -372 0
8847 -8846 372 0
8847 8846 -372 0
-8848 8847 374 0
-8848 -8847 -374 0
8848 -8847 374 0
8848 8847 -374 0
-8849 8848 375 0
-8849 -8848 -375 0
8849 -8848 375 0
8849 8848 -375 0
-308 -8849 0
-8850 376 377 0
-8850 -376 -377 0
8850 -376 377 0
8850 376 -377 0
-8851 8850 378 0
-8851 -8850 -378 0
8851 -8850 378 0
8851 8850 -378 0
-8852 8851 379 0
-8852 -8851 -379 0
8852 -8851 379 0
8852 8851 -379 0
-8853 8852 380 0
-8853 -8852 -380 0
8853 -8852 380 0
8853 8852 -380 0
-8854 8853 384 0
-8854 -8853 -384 0
8854 -8853 384 0
8854 8853 -384 0
-8855 8854 387 0
-8855 -8854 -387 0
8855 -8854 387 0
8855 8854 -387 0
-8856 8855 389 0
-8856 -8855 -389 0
8856 -8855 389 0
8856 8855 -389 0
-8857 8856 390 0
-8857 -8856 -390 0
8857 -8856 390 0
8857 8856 -390 0
-308 -8857 0
-8858 316 320 0
-8858 -316 -320 0
8858 -316 320 0
8858 316 -320 0
-8859 8858 321 0
-8859 -8858 -321 0
8859 -8858 321 0
8859 8858 -321 0
-8860 8859 322 0
-8860 -8859 -322 0
8860 -8859 322 0
8860 8859 -322 0
-8861 8860 323 0
-8861 -8860 -323 0
8861 -8860 323 0
8861 8860 -323 0
-8862 8861 324 0
-8862 -8861 -324 0
8862 -8861 324 0
8862 8861 -324 0
-8863 8862 327 0
-8863 -8862 -327 0
8863 -8862 327 0
8863 8862 -327 0
-8864 8863 329 0
-8864 -8863 -329 0
8864 -8863 329 0
8864 8863 -329 0
-8865 8864 330 0
-8865 -8864 -330 0
8865 -8864 330 0
8865 8864 -330 0
-309 -8865 0
-8866 331 335 0
-8866 -331 -335 0
8866 -331 335 0
8866 331 -335 0
-8867 8866 336 0
-8867 -8866 -336 0
8867 -8866 336 0
8867 8866 -336 0
-8868 8867 337 0
-8868 -8867 -337 0
8868 -8867 337 0
8868 8867 -337 0
-8869 8868 338 0
-8869 -8868 -338 0
8869 -8868 338 0
8869 8868 -338 0
-8870 8869 339 0
-8870 -8869 -339 0
8870 -8869 339 0
8870 8869 -339 0
-8871 8870 342 0
-8871 -8870 -342 0
8871 -8870 342 0
8871 8870 -342 0
-8872 8871 344 0
-8872 -8871 -344 0
8872 -8871 344 0
8872 8871 -344 0
-8873 8872 345 0
-8873 -8872 -345 0
8873 -8872 345 0
8873 8872 -345 0
-309 -8873 0
-8874 346 350 0
-8874 -346 -350 0
8874 -346 350 0
8874 346 -350 0
-8875 8874 351 0
-8875 -8874 -351 0
8875 -8874 351 0
8875 8874 -351 0
-8876 8875 352 0
-8876 -8875 -352 0
8876 -8875 352 0
8876 8875 -352 0
-8877 8876 353 0
-8877 -8876 -353 0
8877 -8876 353 0
8877 8876 -353 0
-8878 8877 354 0
-8878 -8877 -354 0
8878 -8877 354 0
8878 8877 -354 0
-8879 8878 357 0
-8879 -8878 -357 0
8879 -8878 357 0
8879 8878 -357 0
-8880 8879 359 0
-8880 -8879 -359 0
8880 -8879 359 0
8880 8879 -359 0
-8881 8880 360 0
-8881 -8880 -360 0
8881 -8880 360 0
8881 8880 -360 0
-309 -8881 0
-8882 361 365 0
-8882 -361 -365 0
8882 -361 365 0
8882 361 -365 0
-8883 8882 366 0
-8883 -8882 -366 0
8883 -8882 366 0
8883 8882 -366 0
-8884 8883 367 0
-8884 -8883 -367 0
8884 -8883 367 0
8884 8883 -367 0
-8885 8884 368 0
-8885 -8884 -368 0
8885 -8884 368 0
8885 8884 -368 0
-8886 8885 369 0
-8886 -8885 -369 0
8886 -8885 369 0
8886 8885 -369 0
-8887 8886 372 0
-8887 -8886 -372 0
8887 -8886 372 0
8887 8886 -372 0
-8888 8887 374 0
-8888 -8887 -374 0
8888 -8887 374 0
8888 8887 -374 0
-8889 8888 375 0
-8889 -8888 -375 0
8889 -8888 375 0
8889 8888 -375 0
-309 -8889 0
-8890 376 380 0
-8890 -376 -380 0
8890 -376 380 0
8890 376 -380 0
-8891 8890 381 0
-8891 -8890 -381 0
8891 -8890 381 0
8891 8890 -381 0
-8892 8891 382 0
-8892 -8891 -382 0
8892 -8891 382 0
8892 8891 -382 0
-8893 8892 383 0
-8893 -8892 -383 0
8893 -8892 383 0
8893 8892 -383 0
-8894 8893 384 0
-8894 -8893 -384 0
8894 -8893 384 0
8894 8893 -384 0
-8895 8894 387 0
-8895 -8894 -387 0
8895 -8894 387 0
8895 8894 -387 0
-8896 8895 389 0
-8896 -8895 -389 0
8896 -8895 389 0
8896 8895 -389 0
-8897 8896 390 0
-8897 -8896 -390 0
8897 -8896 390 0
8897 8896 -390 0
-309 -8897 0
-8898 317 320 0
-8898 -317 -320 0
8898 -317 320 0
8898 317 -320 0
-8899 8898 321 0
-8899 -8898 -321 0
8899 -8898 321 0
8899 8898 -321 0
-8900 8899 324 0
-8900 -8899 -324 0
8900 -8899 324 0
8900 8899 -324 0
-8901 8900 325 0
-8901 -8900 -325 0
8901 -8900 325 0
8901 8900 -325 0
-8902 8901 326 0
-8902 -8901 -326 0
8902 -8901 326 0
8902 8901 -326 0
-8903 8902 327 0
-8903 -8902 -327 0
8903 -8902 327 0
8903 8902 -327 0
-8904 8903 329 0
-8904 -8903 -329 0
8904 -8903 329 0
8904 8903 -329 0
-8905 8904 330 0
-8905 -8904 -330 0
8905 -8904 330 0
8905 8904 -330 0
-310 -8905 0
-8906 332 335 0
-8906 -332 -335 0
8906 -332 335 0
8906 332 -335 0
-8907 8906 336 0
-8907 -8906 -336 0
8907 -8906 336 0
8907 8906 -336 0
-8908 8907 339 0
-8908 -8907 -339 0
8908 -8907 339 0
8908 8907 -339 0
-8909 8908 340 0
-8909 -8908 -340 0
8909 -8908 340 0
8909 8908 -340 0
-8910 8909 341 0
-8910 -8909 -341 0
8910 -8909 341 0
8910 8909 -341 0
-8911 8910 342 0
-8911 -8910 -342 0
8911 -8910 342 0
8911 8910 -342 0
-8912 8911 344 0
-8912 -8911 -344 0
8912 -8911 344 0
8912 8911 -344 0
-8913 8912 345 0
-8913 -8912 -345 0
8913 -8912 345 0
8913 8912 -345 0
-310 -8913 0
-8914 347 350 0
-8914 -347 -350 0
8914 -347 350 0
8914 347 -350 0
-8915 8914 351 0
-8915 -8914 -351 0
8915 -8914 351 0
8915 8914 -351 0
-8916 8915 354 0
-8916 -8915 -354 0
8916 -8915 354 0
8916 8915 -354 0
-8917 8916 355 0
-8917 -8916 -355 0
8917 -8916 355 0
8917 8916 -355 0
-8918 8917 356 0
-8918 -8917 -356 0
8918 -8917 356 0
8918 8917 -356 0
-8919 8918 357 0
-8919 -8918 -357 0
8919 -8918 357 0
8919 8918 -357 0
-8920 8919 359 0
-8920 -8919 -359 0
8920 -8919 359 0
8920 8919 -359 0
-8921 8920 360 0
-8921 -8920 -360 0
8921 -8920 360 0
8921 8920 -360 0
-310 -8921 0
-8922 362 365 0
-8922 -362 -365 0
8922 -362 365 0
8922 362 -365 0
-8923 8922 366 0
-8923 -8922 -366 0
8923 -8922 366 0
8923 8922 -366 0
-8924 8923 369 0
-8924 -8923 -369 0
8924 -8923 369 0
8924 8923 -369 0
-8925 8924 370 0
-8925 -8924 -370 0
8925 -8924 370 0
8925 8924 -370 0
-8926 8925 371 0
-8926 -8925 -371 0
8926 -8925 371 0
8926 8925 -371 0
-8927 8926 372 0
-8927 -8926 -372 0
8927 -8926 372 0
8927 8926 -372 0
-8928 8927 374 0
-8928 -8927 -374 0
8928 -8927 374 0
8928 8927 -374 0
-8929 8928 375 0
-8929 -8928 -375 0
8929 -8928 375 0
8929 8928 -375 0
-310 -8929 0
-8930 377 380 0
-8930 -377 -380 0
8930 -377 380 0
8930 377 -380 0
-8931 8930 381 0
-8931 -8930 -381 0
8931 -8930 381 0
8931 8930 -381 0
-8932 8931 384 0
-8932 -8931 -384 0
8932 -8931 384 0
8932 8931 -384 0
-8933 8932 385 0
-8933 -8932 -385 0
8933 -8932 385 0
8933 8932 -385 0
-8934 8933 386 0
-8934 -8933 -386 0
8934 -8933 386 0
8934 8933 -386 0
-8935 8934 387 0
-8935 -8934 -387 0
8935 -8934 387 0
8935 8934 -387 0
-8936 8935 389 0
-8936 -8935 -389 0
8936 -8935 389 0
8936 8935 -389 0
-8937 8936 390 0
-8937 -8936 -390 0
8937 -8936 390 0
8937 8936 -390 0
-310 -8937 0
-8938 318 319 0
-8938 -318 -319 0
8938 -318 319 0
8938 318 -319 0
-8939 8938 320 0
-8939 -8938 -320 0
8939 -8938 320 0
8939 8938 -320 0
-8940 8939 322 0
-8940 -8939 -322 0
8940 -8939 322 0
8940 8939 -322 0
-8941 8940 323 0
-8941 -8940 -323 0
8941 -8940 323 0
8941 8940 -323 0
-8942 8941 324 0
-8942 -8941 -324 0
8942 -8941 324 0
8942 8941 -324 0
-8943 8942 325 0
-8943 -8942 -325 0
8943 -8942 325 0
8943 8942 -325 0
-8944 8943 326 0
-8944 -8943 -326 0
8944 -8943 326 0
8944 8943 -326 0
-8945 8944 327 0
-8945 -8944 -327 0
8945 -8944 327 0
8945 8944 -327 0
-8946 8945 329 0
-8946 -8945 -329 0
8946 -8945 329 0
8946 8945 -329 0
-8947 8946 330 0
-8947 -8946 -330 0
8947 -8946 330 0
8947 8946 -330 0
-311 -8947 0
-8948 333 334 0
-8948 -333 -334 0
8948 -333 334 0
8948 333 -334 0
-8949 8948 335 0
-8949 -8948 -335 0
8949 -8948 335 0
8949 8948 -335 0
-8950 8949 337 0
-8950 -8949 -337 0
8950 -8949 337 0
8950 8949 -337 0
-8951 8950 338 0
-8951 -8950 -338 0
8951 -8950 338 0
8951 8950 -338 0
-8952 8951 339 0
-8952 -8951 -339 0
8952 -8951 339 0
8952 8951 -339 0
-8953 8952 340 0
-8953 -8952 -340 0
8953 -8952 340 0
8953 8952 -340 0
-8954 8953 341 0
-8954 -8953 -341 0
8954 -8953 341 0
8954 8953 -341 0
-8955 8954 342 0
-8955 -8954 -342 0
8955 -8954 342 0
8955 8954 -342 0
-8956 8955 344 0
-8956 -8955 -344 0
8956 -8955 344 0
8956 8955 -344 0
-8957 8956 345 0
-8957 -8956 -345 0
8957 -8956 345 0
8957 8956 -345 0
-311 -8957 0
-8958 348 349 0
-8958 -348 -349 0
8958 -348 349 0
8958 348 -349 0
-8959 8958 350 0
-8959 -8958 -350 0
8959 -8958 350 0
8959 8958 -350 0
-8960 8959 352 0
-8960 -8959 -352 0
8960 -8959 352 0
8960 8959 -352 0
-8961 8960 353 0
-8961 -8960 -353 0
8961 -8960 353 0
8961 8960 -353 0
-8962 8961 354 0
-8962 -8961 -354 0
8962 -8961 354 0
8962 8961 -354 0
-8963 8962 355 0
-8963 -8962 -355 0
8963 -8962 355 0
8963 8962 -355 0
-8964 8963 356 0
-8964 -8963 -356 0
8964 -8963 356 0
8964 8963 -356 0
-8965 8964 357 0
-8965 -8964 -357 0
8965 -8964 357 0
8965 8964 -357 0
-8966 8965 359 0
-8966 -8965 -359 0
8966 -8965 359 0
8966 8965 -359 0
-8967 8966 360 0
-8967 -8966 -360 0
8967 -8966 360 0
8967 8966 -360 0
-311 -8967 0
-8968 363 364 0
-8968 -363 -364 0
8968 -363 364 0
8968 363 -364 0
-8969 8968 365 0
-8969 -8968 -365 0
8969 -8968 365 0
8969 8968 -365 0
-8970 8969 367 0
-8970 -8969 -367 0
8970 -8969 367 0
8970 8969 -367 0
-8971 8970 368 0
-8971 -8970 -368 0
8971 -8970 368 0
8971 8970 -368 0
-8972 8971 369 0
-8972 -8971 -369 0
8972 -8971 369 0
8972 8971 -369 0
-8973 8972 370 0
-8973 -8972 -370 0
8973 -8972 370 0
8973 8972 -370 0
-8974 8973 371 0
-8974 -8973 -371 0
8974 -8973 371 0
8974 8973 -371 0
-8975 8974 372 0
-8975 -8974 -372 0
8975 -8974 372 0
8975 8974 -372 0
-8976 8975 374 0
-8976 -8975 -374 0
8976 -8975 374 0
8976 8975 -374 0
-8977 8976 375 0
-8977 -8976 -375 0
8977 -8976 375 0
8977 8976 -375 0
-311 -8977 0
-8978 378 379 0
-8978 -378 -379 0
8978 -378 379 0
8978 378 -379 0
-8979 8978 380 0
-8979 -8978 -380 0
8979 -8978 380 0
8979 8978 -380 0
-8980 8979 382 0
-8980 -8979 -382 0
8980 -8979 382 0
8980 8979 -382 0
-8981 8980 383 0
-8981 -8980 -383 0
8981 -8980 383 0
8981 8980 -383 0
-8982 8981 384 0
-8982 -8981 -384 0
8982 -8981 384 0
8982 8981 -384 0
-8983 8982 385 0
-8983 -8982 -385 0
8983 -8982 385 0
8983 8982 -385 0
-8984 8983 386 0
-8984 -8983 -386 0
8984 -8983 386 0
8984 8983 -386 0
-8985 8984 387 0
-8985 -8984 -387 0
8985 -8984 387 0
8985 8984 -387 0
-8986 8985 389 0
-8986 -8985 -389 0
8986 -8985 389 0
8986 8985 -389 0
-8987 8986 390 0
-8987 -8986 -390 0
8987 -8986 390 0
8987 8986 -390 0
-311 -8987 0
-8988 318 320 0
-8988 -318 -320 0
8988 -318 320 0
8988 318 -320 0
-8989 8988 322 0
-8989 -8988 -322 0
8989 -8988 322 0
8989 8988 -322 0
-8990 8989 324 0
-8990 -8989 -324 0
8990 -8989 324 0
8990 8989 -324 0
-8991 8990 325 0
-8991 -8990 -325 0
8991 -8990 325 0
8991 8990 -325 0
-8992 8991 327 0
-8992 -8991 -327 0
8992 -8991 327 0
8992 8991 -327 0
-8993 8992 328 0
-8993 -8992 -328 0
8993 -8992 328 0
8993 8992 -328 0
-8994 8993 329 0
-8994 -8993 -329 0
8994 -8993 329 0
8994 8993 -329 0
-8995 8994 330 0
-8995 -8994 -330 0
8995 -8994 330 0
8995 8994 -330 0
-312 -8995 0
-8996 333 335 0
-8996 -333 -335 0
8996 -333 335 0
8996 333 -335 0
-8997 8996 337 0
-8997 -8996 -337 0
8997 -8996 337 0
8997 8996 -337 0
-8998 8997 339 0
-8998 -8997 -339 0
8998 -8997 339 0
8998 8997 -339 0
-8999 8998 340 0
-8999 -8998 -340 0
8999 -8998 340 0
8999 8998 -340 0
-9000 8999 342 0
-9000 -8999 -342 0
9000 -8999 342 0
9000 8999 -342 0
-9001 9000 343 0
-9001 -9000 -343 0
9001 -9000 343 0
9001 9000 -343 0
-9002 9001 344 0
-9002 -9001 -344 0
9002 -9001 344 0
9002 9001 -344 0
-9003 9002 345 0
-9003 -9002 -345 0
9003 -9002 345 0
9003 9002 -345 0
-312 -9003 0
-9004 348 350 0
-9004 -348 -350 0
9004 -348 350 0
9004 348 -350 0
-9005 9004 352 0
-9005 -9004 -352 0
9005 -9004 352 0
9005 9004 -352 0
-9006 9005 354 0
-9006 -9005 -354 0
9006 -9005 354 0
9006 9005 -354 0
-9007 9006 355 0
-9007 -9006 -355 0
9007 -9006 355 0
9007 9006 -355 0
-9008 9007 357 0
-9008 -9007 -357 0
9008 -9007 357 0
9008 9007 -357 0
-9009 9008 358 0
-9009 -9008 -358 0
9009 -9008 358 0
9009 9008 -358 0
-9010 9009 359 0
-9010 -9009 -359 0
9010 -9009 359 0
9010 9009 -359 0
-9011 9010 360 0
-9011 -9010 -360 0
9011 -9010 360 0
9011 9010 -360 0
-312 -9011 0
-9012 363 365 0
-9012 -363 -365 0
9012 -363 365 0
9012 363 -365 0
-9013 9012 367 0
-9013 -9012 -367 0
9013 -9012 367 0
9013 9012 -367 0
-9014 9013 369 0
-9014 -9013 -369 0
9014 -9013 369 0
9014 9013 -369 0
-9015 9014 370 0
-9015 -9014 -370 0
9015 -9014 370 0
9015 9014 -370 0
-9016 9015 372 0
-9016 -9015 -372 0
9016 -9015 372 0
9016 9015 -372 0
-9017 9016 373 0
-9017 -9016 -373 0
9017 -9016 373 0
9017 9016 -373 0
-9018 9017 374 0
-9018 -9017 -374 0
9018 -9017 374 0
9018 9017 -374 0
-9019 9018 375 0
-9019 -9018 -375 0
9019 -9018 375 0
9019 9018 -375 0
-312 -9019 0
-9020 378 380 0
-9020 -378 -380 0
9020 -378 380 0
9020 378 -380 0
-9021 9020 382 0
-9021 -9020 -382 0
9021 -9020 382 0
9021 9020 -382 0
-9022 9021 384 0
-9022 -9021 -384 0
9022 -9021 384 0
9022 9021 -384 0
-9023 9022 385 0
-9023 -9022 -385 0
9023 -9022 385 0
9023 9022 -385 0
-9024 9023 387 0
-9024 -9023 -387 0
9024 -9023 387 0
9024 9023 -387 0
-9025 9024 388 0
-9025 -9024 -388 0
9025 -9024 388 0
9025 9024 -388 0
-9026 9025 389 0
-9026 -9025 -389 0
9026 -9025 389 0
9026 9025 -389 0
-9027 9026 390 0
-9027 -9026 -390 0
9027 -9026 390 0
9027 9026 -390 0
-312 -9027 0
-9028 317 319 0
-9028 -317 -319 0
9028 -317 319 0
9028 317 -319 0
-9029 9028 320 0
-9029 -9028 -320 0
9029 -9028 320 0
9029 9028 -320 0
-9030 9029 321 0
-9030 -9029 -321 0
9030 -9029 321 0
9030 9029 -321 0
-9031 9030 323 0
-9031 -9030 -323 0
9031 -9030 323 0
9031 9030 -323 0
-9032 9031 324 0
-9032 -9031 -324 0
9032 -9031 324 0
9032 9031 -324 0
-9033 9032 325 0
-9033 -9032 -325 0
9033 -9032 325 0
9033 9032 -325 0
-9034 9033 327 0
-9034 -9033 -327 0
9034 -9033 327 0
9034 9033 -327 0
-9035 9034 328 0
-9035 -9034 -328 0
9035 -9034 328 0
9035 9034 -328 0
-9036 9035 329 0
-9036 -9035 -329 0
9036 -9035 329 0
9036 9035 -329 0
-9037 9036 330 0
-9037 -9036 -330 0
9037 -9036 330 0
9037 9036 -330 0
-313 -9037 0
-9038 332 334 0
-9038 -332 -334 0
9038 -332 334 0
9038 332 -334 0
-9039 9038 335 0
-9039 -9038 -335 0
9039 -9038 335 0
9039 9038 -335 0
-9040 9039 336 0
-9040 -9039 -336 0
9040 -9039 336 0
9040 9039 -336 0
-9041 9040 338 0
-9041 -9040 -338 0
9041 -9040 338 0
9041 9040 -338 0
-9042 9041 339 0
-9042 -9041 -339 0
9042 -9041 339 0
9042 9041 -339 0
-9043 9042 340 0
-9043 -9042 -340 0
9043 -9042 340 0
9043 9042 -340 0
-9044 9043 342 0
-9044 -9043 -342 0
9044 -9043 342 0
9044 9043 -342 0
-9045 9044 343 0
-9045 -9044 -343 0
9045 -9044 343 0
9045 9044 -343 0
-9046 9045 344 0
-9046 -9045 -344 0
9046 -9045 344 0
9046 9045 -344 0
-9047 9046 345 0
-9047 -9046 -345 0
9047 -9046 345 0
9047 9046 -345 0
-313 -9047 0
-9048 347 349 0
-9048 -347 -349 0
9048 -347 349 0
9048 347 -349 0
-9049 9048 350 0
-9049 -9048 -350 0
9049 -9048 350 0
9049 9048 -350 0
-9050 9049 351 0
-9050 -9049 -351 0
9050 -9049 351 0
9050 9049 -351 0
-9051 9050 353 0
-9051 -9050 -353 0
9051 -9050 353 0
9051 9050 -353 0
-9052 9051 354 0
-9052 -9051 -354 0
9052 -9051 354 0
9052 9051 -354 0
-9053 9052 355 0
-9053 -9052 -355 0
9053 -9052 355 0
9053 9052 -355 0
-9054 9053 357 0
-9054 -9053 -357 0
9054 -9053 357 0
9054 9053 -357 0
-9055 9054 358 0
-9055 -9054 -358 0
9055 -9054 358 0
9055 9054 -358 0
-9056 9055 359 0
-9056 -9055 -359 0
9056 -9055 359 0
9056 9055 -359 0
-9057 9056 360 0
-9057 -9056 -360 0
9057 -9056 360 0
9057 9056 -360 0
-313 -9057 0
-9058 362 364 0
-9058 -362 -364 0
9058 -362 364 0
9058 362 -364 0
-9059 9058 365 0
-9059 -9058 -365 0
9059 -9058 365 0
9059 9058 -365 0
-9060 9059 366 0
-9060 -9059 -366 0
9060 -9059 366 0
9060 9059 -366 0
-9061 9060 368 0
-9061 -9060 -368 0
9061 -9060 368 0
9061 9060 -368 0
-9062 9061 369 0
-9062 -9061 -369 0
9062 -9061 369 0
9062 9061 -369 0
-9063 9062 370 0
-9063 -9062 -370 0
9063 -9062 370 0
9063 9062 -370 0
-9064 9063 372 0
-9064 -9063 -372 0
9064 -9063 372 0
9064 9063 -372 0
-9065 9064 373 0
-9065 -9064 -373 0
9065 -9064 373 0
9065 9064 -373 0
-9066 9065 374 0
-9066 -9065 -374 0
9066 -9065 374 0
9066 9065 -374 0
-9067 9066 375 0
-9067 -9066 -375 0
9067 -9066 375 0
9067 9066 -375 0
-313 -9067 0
-9068 377 379 0
-9068 -377 -379 0
9068 -377 379 0
9068 377 -379 0
-9069 9068 380 0
-9069 -9068 -380 0
9069 -9068 380 0
9069 9068 -380 0
-9070 9069 381 0
-9070 -9069 -381 0
9070 -9069 381 0
9070 9069 -381 0
-9071 9070 383 0
-9071 -9070 -383 0
9071 -9070 383 0
9071 9070 -383 0
-9072 9071 384 0
-9072 -9071 -384 0
9072 -9071 384 0
9072 9071 -384 0
-9073 9072 385 0
-9073 -9072 -385 0
9073 -9072 385 0
9073 9072 -385 0
-9074 9073 387 0
-9074 -9073 -387 0
9074 -9073 387 0
9074 9073 -387 0
-9075 9074 388 0
-9075 -9074 -388 0
9075 -9074 388 0
9075 9074 -388 0
-9076 9075 389 0
-9076 -9075 -389 0
9076 -9075 389 0
9076 9075 -389 0
-9077 9076 390 0
-9077 -9076 -390 0
9077 -9076 390 0
9077 9076 -390 0
-313 -9077 0
-9078 316 319 0
-9078 -316 -319 0
9078 -316 319 0
9078 316 -319 0
-9079 9078 320 0
-9079 -9078 -320 0
9079 -9078 320 0
9079 9078 -320 0
-9080 9079 321 0
-9080 -9079 -321 0
9080 -9079 321 0
9080 9079 -321 0
-9081 9080 322 0
-9081 -9080 -322 0
9081 -9080 322 0
9081 9080 -322 0
-9082 9081 324 0
-9082 -9081 -324 0
9082 -9081 324 0
9082 9081 -324 0
-9083 9082 326 0
-9083 -9082 -326 0
9083 -9082 326 0
9083 9082 -326 0
-9084 9083 327 0
-9084 -9083 -327 0
9084 -9083 327 0
9084 9083 -327 0
-9085 9084 328 0
-9085 -9084 -328 0
9085 -9084 328 0
9085 9084 -328 0
-9086 9085 329 0
-9086 -9085 -329 0
9086 -9085 329 0
9086 9085 -329 0
-9087 9086 330 0
-9087 -9086 -330 0
9087 -9086 330 0
9087 9086 -330 0
-314 -9087 0
-9088 331 334 0
-9088 -331 -334 0
9088 -331 334 0
9088 331 -334 0
-9089 9088 335 0
-9089 -9088 -335 0
9089 -9088 335 0
9089 9088 -335 0
-9090 9089 336 0
-9090 -9089 -336 0
9090 -9089 336 0
9090 9089 -336 0
-9091 9090 337 0
-9091 -9090 -337 0
9091 -9090 337 0
9091 9090 -337 0
-9092 9091 339 0
-9092 -9091 -339 0
9092 -9091 339 0
9092 9091 -339 0
-9093 9092 341 0
-9093 -9092 -341 0
9093 -9092 341 0
9093 9092 -341 0
-9094 9093 342 0
-9094 -9093 -342 0
9094 -9093 342 0
9094 9093 -342 0
-9095 9094 343 0
-9095 -9094 -343 0
9095 -9094 343 0
9095 9094 -343 0
-9096 9095 344 0
-9096 -9095 -344 0
9096 -9095 344 0
9096 9095 -344 0
-9097 9096 345 0
-9097 -9096 -345 0
9097 -9096 345 0
9097 9096 -345 0
-314 -9097 0
-9098 346 349 0
-9098 -346 -349 0
9098 -346 349 0
9098 346 -349 0
-9099 9098 350 0
-9099 -9098 -350 0
9099 -9098 350 0
9099 9098 -350 0
-9100 9099 351 0
-9100 -9099 -351 0
9100 -9099 351 0
9100 9099 -351 0
-9101 9100 352 0
-9101 -9100 -352 0
9101 -9100 352 0
9101 9100 -352 0
-9102 9101 354 0
-9102 -9101 -354 0
9102 -9101 354 0
9102 9101 -354 0
-9103 9102 356 0
-9103 -9102 -356 0
9103 -9102 356 0
9103 9102 -356 0
-9104 9103 357 0
-9104 -9103 -357 0
9104 -9103 357 0
9104 9103 -357 0
-9105 9104 358 0
-9105 -9104 -358 0
9105 -9104 358 0
9105 9104 -358 0
-9106 9105 359 0
-9106 -9105 -359 0
9106 -9105 359 0
9106 9105 -359 0
-9107 9106 360 0
-9107 -9106 -360 0
9107 -9106 360 0
9107 9106 -360 0
-314 -9107 0
-9108 361 364 0
-9108 -361 -364 0
9108 -361 364 0
9108 361 -364 0
-9109 9108 365 0
-9109 -9108 -365 0
9109 -9108 365 0
9109 9108 -365 0
-9110 9109 366 0
-9110 -9109 -366 0
9110 -9109 366 0
9110 9109 -366 0
-9111 9110 367 0
-9111 -9110 -367 0
9111 -9110 367 0
9111 9110 -367 0
-9112 9111 369 0
-9112 -9111 -369 0
9112 -9111 369 0
9112 9111 -369 0
-9113 9112 371 0
-9113 -9112 -371 0
9113 -9112 371 0
9113 9112 -371 0
-9114 9113 372 0
-9114 -9113 -372 0
9114 -9113 372 0
9114 9113 -372 0
-9115 9114 373 0
-9115 -9114 -373 0
9115 -9114 373 0
9115 9114 -373 0
-9116 9115 374 0
-9116 -9115 -374 0
9116 -9115 374 0
9116 9115 -374 0
-9117 9116 375 0
-9117 -9116 -375 0
9117 -9116 375 0
9117 9116 -375 0
-314 -9117 0
-9118 376 379 0
-9118 -376 -379 0
9118 -376 379 0
9118 376 -379 0
-9119 9118 380 0
-9119 -9118 -380 0
9119 -9118 380 0
9119 9118 -380 0
-9120 9119 381 0
-9120 -9119 -381 0
9120 -9119 381 0
9120 9119 -381 0
-9121 9120 382 0
-9121 -9120 -382 0
9121 -9120 382 0
9121 9120 -382 0
-9122 9121 384 0
-9122 -9121 -384 0
9122 -9121 384 0
9122 9121 -384 0
-9123 9122 386 0
-9123 -9122 -386 0
9123 -9122 386 0
9123 9122 -386 0
-9124 9123 387 0
-9124 -9123 -387 0
9124 -9123 387 0
9124 9123 -387 0
-9125 9124 388 0
-9125 -9124 -388 0
9125 -9124 388 0
9125 9124 -388 0
-9126 9125 389 0
-9126 -9125 -389 0
9126 -9125 389 0
9126 9125 -389 0
-9127 9126 390 0
-9127 -9126 -390 0
9127 -9126 390 0
9127 9126 -390 0
-314 -9127 0
-9128 316 317 0
-9128 -316 -317 0
9128 -316 317 0
9128 316 -317 0
-9129 9128 318 0
-9129 -9128 -318 0
9129 -9128 318 0
9129 9128 -318 0
-9130 9129 320 0
-9130 -9129 -320 0
9130 -9129 320 0
9130 9129 -320 0
-9131 9130 323 0
-9131 -9130 -323 0
9131 -9130 323 0
9131 9130 -323 0
-9132 9131 324 0
-9132 -9131 -324 0
9132 -9131 324 0
9132 9131 -324 0
-9133 9132 326 0
-9133 -9132 -326 0
9133 -9132 326 0
9133 9132 -326 0
-9134 9133 327 0
-9134 -9133 -327 0
9134 -9133 327 0
9134 9133 -327 0
-9135 9134 328 0
-9135 -9134 -328 0
9135 -9134 328 0
9135 9134 -328 0
-9136 9135 329 0
-9136 -9135 -329 0
9136 -9135 329 0
9136 9135 -329 0
-9137 9136 330 0
-9137 -9136 -330 0
9137 -9136 330 0
9137 9136 -330 0
-315 -9137 0
-9138 331 332 0
-9138 -331 -332 0
9138 -331 332 0
9138 331 -332 0
-9139 9138 333 0
-9139 -9138 -333 0
9139 -9138 333 0
9139 9138 -333 0
-9140 9139 335 0
-9140 -9139 -335 0
9140 -9139 335 0
9140 9139 -335 0
-9141 9140 338 0
-9141 -9140 -338 0
9141 -9140 338 0
9141 9140 -338 0
-9142 9141 339 0
-9142 -9141 -339 0
9142 -9141 339 0
9142 9141 -339 0
-9143 9142 341 0
-9143 -9142 -341 0
9143 -9142 341 0
9143 9142 -341 0
-9144 9143 342 0
-9144 -9143 -342 0
9144 -9143 342 0
9144 9143 -342 0
-9145 9144 343 0
-9145 -9144 -343 0
9145 -9144 343 0
9145 9144 -343 0
-9146 9145 344 0
-9146 -9145 -344 0
9146 -9145 344 0
9146 9145 -344 0
-9147 9146 345 0
-9147 -9146 -345 0
9147 -9146 345 0
9147 9146 -345 0
-315 -9147 0
-9148 346 347 0
-9148 -346 -347 0
9148 -346 347 0
9148 346 -347 0
-9149 9148 348 0
-9149 -9148 -348 0
9149 -9148 348 0
9149 9148 -348 0
-9150 9149 350 0
-9150 -9149 -350 0
9150 -9149 350 0
9150 9149 -350 0
-9151 9150 353 0
-9151 -9150 -353 0
9151 -9150 353 0
9151 9150 -353 0
-9152 9151 354 0
-9152 -9151 -354 0
9152 -9151 354 0
9152 9151 -354 0
-9153 9152 356 0
-9153 -9152 -356 0
9153 -9152 356 0
9153 9152 -356 0
-9154 9153 357 0
-9154 -9153 -357 0
9154 -9153 357 0
9154 9153 -357 0
-9155 9154 358 0
-9155 -9154 -358 0
9155 -9154 358 0
9155 9154 -358 0
-9156 9155 359 0
-9156 -9155 -359 0
9156 -9155 359 0
9156 9155 -359 0
-9157 9156 360 0
-9157 -9156 -360 0
9157 -9156 360 0
9157 9156 -360 0
-315 -9157 0
-9158 361 362 0
-9158 -361 -362 0
9158 -361 362 0
9158 361 -362 0
-9159 9158 363 0
-9159 -9158 -363 0
9159 -9158 363 0
9159 9158 -363 0
-9160 9159 365 0
-9160 -9159 -365 0
9160 -9159 365 0
9160 9159 -365 0
-9161 9160 368 0
-9161 -9160 -368 0
9161 -9160 368 0
9161 9160 -368 0
-9162 9161 369 0
-9162 -9161 -369 0
9162 -9161 369 0
9162 9161 -369 0
-9163 9162 371 0
-9163 -9162 -371 0
9163 -9162 371 0
9163 9162 -371 0
-9164 9163 372 0
-9164 -9163 -372 0
9164 -9163 372 0
9164 9163 -372 0
-9165 9164 373 0
-9165 -9164 -373 0
9165 -9164 373 0
9165 9164 -373 0
-9166 9165 374 0
-9166 -9165 -374 0
9166 -9165 374 0
9166 9165 -374 0
-9167 9166 375 0
-9167 -9166 -375 0
9167 -9166 375 0
9167 9166 -375 0
-315 -9167 0
-9168 376 377 0
-9168 -376 -377 0
9168 -376 377 0
9168 376 -377 0
-9169 9168 378 0
-9169 -9168 -378 0
9169 -9168 378 0
9169 9168 -378 0
-9170 9169 380 0
-9170 -9169 -380 0
9170 -9169 380 0
9170 9169 -380 0
-9171 9170 383 0
-9171 -9170 -383 0
9171 -9170 383 0
9171 9170 -383 0
-9172 9171 384 0
-9172 -9171 -384 0
9172 -9171 384 0
9172 9171 -384 0
-9173 9172 386 0
-9173 -9172 -386 0
9173 -9172 386 0
9173 9172 -386 0
-9174 9173 387 0
-9174 -9173 -387 0
9174 -9173 387 0
9174 9173 -387 0
-9175 9174 388 0
-9175 -9174 -388 0
9175 -9174 388 0
9175 9174 -388 0
-9176 9175 389 0
-9176 -9175 -389 0
9176 -9175 389 0
9176 9175 -389 0
-9177 9176 390 0
-9177 -9176 -390 0
9177 -9176 390 0
9177 9176 -390 0
-315 -9177 0
316 317 318 319 320 321 322 323 324 325 326 327 328 329 330 0
-316 317 318 319 320 321 322 323 324 -325 326 327 328 329 -330 0
331 332 333 334 335 336 337 338 339 340 341 342 343 344 345 0
-331 332 333 334 335 336 337 338 339 -340 341 342 343 344 -345 0
-9178 316 331 0
-9178 -316 -331 0
9178 -316 331 0
9178 316 -331 0
-9179 317 332 0
-9179 -317 -332 0
9179 -317 332 0
9179 317 -332 0
-9180 318 333 0
-9180 -318 -333 0
9180 -318 333 0
9180 318 -333 0
-9181 319 334 0
-9181 -319 -334 0
9181 -319 334 0
9181 319 -334 0
-9182 320 335 0
-9182 -320 -335 0
9182 -320 335 0
9182 320 -335 0
-9183 321 336 0
-9183 -321 -336 0
9183 -321 336 0
9183 321 -336 0
-9184 322 337 0
-9184 -322 -337 0
9184 -322 337 0
9184 322 -337 0
-9185 323 338 0
-9185 -323 -338 0
9185 -323 338 0
9185 323 -338 0
-9186 324 339 0
-9186 -324 -339 0
9186 -324 339 0
9186 324 -339 0
-9187 325 340 0
-9187 -325 -340 0
9187 -325 340 0
9187 325 -340 0
-9188 326 341 0
-9188 -326 -341 0
9188 -326 341 0
9188 326 -341 0
-9189 327 342 0
-9189 -327 -342 0
9189 -327 342 0
9189 327 -342 0
-9190 328 343 0
-9190 -328 -343 0
9190 -328 343 0
9190 328 -343 0
-9191 329 344 0
-9191 -329 -344 0
9191 -329 344 0
9191 329 -344 0
-9192 330 345 0
-9192 -330 -345 0
9192 -330 345 0
9192 330 -345 0
9178 9179 9180 9181 9182 9183 9184 9185 9186 9187 9188 9189 9190 9191 9192 0
-9193 316 331 0
-9193 -316 -331 0
9193 -316 331 0
9193 316 -331 0
-9194 317 332 0
-9194 -317 -332 0
9194 -317 332 0
9194 317 -332 0
-9195 318 333 0
-9195 -318 -333 0
9195 -318 333 0
9195 318 -333 0
-9196 319 334 0
-9196 -319 -334 0
9196 -319 334 0
9196 319 -334 0
-9197 320 335 0
-9197 -320 -335 0
9197 -320 335 0
9197 320 -335 0
-9198 321 336 0
-9198 -321 -336 0
9198 -321 336 0
9198 321 -336 0
-9199 322 337 0
-9199 -322 -337 0
9199 -322 337 0
9199 322 -337 0
-9200 323 338 0
-9200 -323 -338 0
9200 -323 338 0
9200 323 -338 0
-9201 324 339 0
-9201 -324 -339 0
9201 -324 339 0
9201 324 -339 0
-9202 325 340 0
-9202 -325 -340 0
9202 -325 340 0
9202 325 -340 0
-9203 326 341 0
-9203 -326 -341 0
9203 -326 341 0
9203 326 -341 0
-9204 327 342 0
-9204 -327 -342 0
9204 -327 342 0
9204 327 -342 0
-9205 328 343 0
-9205 -328 -343 0
9205 -328 343 0
9205 328 -343 0
-9206 329 344 0
-9206 -329 -344 0
9206 -329 344 0
9206 329 -344 0
-9207 330 345 0
-9207 -330 -345 0
9207 -330 345 0
9207 330 -345 0
-9193 9194 9195 9196 9197 9198 9199 9200 9201 -9202 9203 9204 9205 9206 -9207 0
346 347 348 349 350 351 352 353 354 355 356 357 358 359 360 0
-346 347 348 349 350 351 352 353 354 -355 356 357 358 359 -360 0
-9208 316 346 0
-9208 -316 -346 0
9208 -316 346 0
9208 316 -346 0
-9209 317 347 0
-9209 -317 -347 0
9209 -317 347 0
9209 317 -347 0
-9210 318 348 0
-9210 -318 -348 0
9210 -318 348 0
9210 318 -348 0
-9211 319 349 0
-9211 -319 -349 0
9211 -319 349 0
9211 319 -349 0
-9212 320 350 0
-9212 -320 -350 0
9212 -320 350 0
9212 320 -350 0
-9213 321 351 0
-9213 -321 -351 0
9213 -321 351 0
9213 321 -351 0
-9214 322 352 0
-9214 -322 -352 0
9214 -322 352 0
9214 322 -352 0
-9215 323 353 0
-9215 -323 -353 0
9215 -323 353 0
9215 323 -353 0
-9216 324 354 0
-9216 -324 -354 0
9216 -324 354 0
9216 324 -354 0
-9217 325 355 0
-9217 -325 -355 0
9217 -325 355 0
9217 325 -355 0
-9218 326 356 0
-9218 -326 -356 0
9218 -326 356 0
9218 326 -356 0
-9219 327 357 0
-9219 -327 -357 0
9219 -327 357 0
9219 327 -357 0
-9220 328 358 0
-9220 -328 -358 0
9220 -328 358 0
9220 328 -358 0
-9221 329 359 0
-9221 -329 -359 0
9221 -329 359 0
9221 329 -359 0
-9222 330 360 0
-9222 -330 -360 0
9222 -330 360 0
9222 330 -360 0
9208 9209 9210 9211 9212 9213 9214 9215 9216 9217 9218 9219 9220 9221 9222 0
-9223 316 346 0
-9223 -316 -346 0
9223 -316 346 0
9223 316 -346 0
-9224 317 347 0
-9224 -317 -347 0
9224 -317 347 0
9224 317 -347 0
-9225 318 348 0
-9225 -318 -348 0
9225 -318 348 0
9225 318 -348 0
-9226 319 349 0
-9226 -319 -349 0
9226 -319 349 0
9226 319 -349 0
-9227 320 350 0
-9227 -320 -350 0
9227 -320 350 0
9227 320 -350 0
-9228 321 351 0
-9228 -321 -351 0
9228 -321 351 0
9228 321 -351 0
-9229 322 352 0
-9229 -322 -352 0
9229 -322 352 0
9229 322 -352 0
-9230 323 353 0
-9230 -323 -353 0
9230 -323 353 0
9230 323 -353 0
-9231 324 354 0
-9231 -324 -354 0
9231 -324 354 0
9231 324 -354 0
-9232 325 355 0
-9232 -325 -355 0
9232 -325 355 0
9232 325 -355 0
-9233 326 356 0
-9233 -326 -356 0
9233 -326 356 0
9233 326 -356 0
-9234 327 357 0
-9234 -327 -357 0
9234 -327 357 0
9234 327 -357 0
-9235 328 358 0
-9235 -328 -358 0
9235 -328 358 0
9235 328 -358 0
-9236 329 359 0
-9236 -329 -359 0
9236 -329 359 0
9236 329 -359 0
-9237 330 360 0
-9237 -330 -360 0
9237 -330 360 0
9237 330 -360 0
-9223 9224 9225 9226 9227 9228 9229 9230 9231 -9232 9233 9234 9235 9236 -9237 0
-9238 331 346 0
-9238 -331 -346 0
9238 -331 346 0
9238 331 -346 0
-9239 332 347 0
-9239 -332 -347 0
9239 -332 347 0
9239 332 -347 0
-9240 333 348 0
-9240 -333 -348 0
9240 -333 348 0
9240 333 -348 0
-9241 334 349 0
-9241 -334 -349 0
9241 -334 349 0
9241 334 -349 0
-9242 335 350 0
-9242 -335 -350 0
9242 -335 350 0
9242 335 -350 0
-9243 336 351 0
-9243 -336 -351 0
9243 -336 351 0
9243 336 -351 0
-9244 337 352 0
-9244 -337 -352 0
9244 -337 352 0
9244 337 -352 0
-9245 338 353 0
-9245 -338 -353 0
9245 -338 353 0
9245 338 -353 0
-9246 339 354 0
-9246 -339 -354 0
9246 -339 354 0
9246 339 -354 0
-9247 340 355 0
-9247 -340 -355 0
9247 -340 355 0
9247 340 -355 0
-9248 341 356 0
-9248 -341 -356 0
9248 -341 356 0
9248 341 -356 0
-9249 342 357 0
-9249 -342 -357 0
9249 -342 357 0
9249 342 -357 0
-9250 343 358 0
-9250 -343 -358 0
9250 -343 358 0
9250 343 -358 0
-9251 344 359 0
-9251 -344 -359 0
9251 -344 359 0
9251 344 -359 0
-9252 345 360 0
-9252 -345 -360 0
9252 -345 360 0
9252 345 -360 0
9238 9239 9240 9241 9242 9243 9244 9245 9246 9247 9248 9249 9250 9251 9252 0
-9253 331 346 0
-9253 -331 -346 0
9253 -331 346 0
9253 331 -346 0
-9254 332 347 0
-9254 -332 -347 0
9254 -332 347 0
9254 332 -347 0
-9255 333 348 0
-9255 -333 -348 0
9255 -333 348 0
9255 333 -348 0
-9256 334 349 0
-9256 -334 -349 0
9256 -334 349 0
9256 334 -349 0
-9257 335 350 0
-9257 -335 -350 0
9257 -335 350 0
9257 335 -350 0
-9258 336 351 0
-9258 -336 -351 0
9258 -336 351 0
9258 336 -351 0
-9259 337 352 0
-9259 -337 -352 0
9259 -337 352 0
9259 337 -352 0
-9260 338 353 0
-9260 -338 -353 0
9260 -338 353 0
9260 338 -353 0
-9261 339 354 0
-9261 -339 -354 0
9261 -339 354 0
9261 339 -354 0
-9262 340 355 0
-9262 -340 -355 0
9262 -340 355 0
9262 340 -355 0
-9263 341 356 0
-9263 -341 -356 0
9263 -341 356 0
9263 341 -356 0
-9264 342 357 0
-9264 -342 -357 0
9264 -342 357 0
9264 342 -357 0
-9265 343 358 0
-9265 -343 -358 0
9265 -343 358 0
9265 343 -358 0
-9266 344 359 0
-9266 -344 -359 0
9266 -344 359 0
9266 344 -359 0
-9267 345 360 0
-9267 -345 -360 0
9267 -345 360 0
9267 345 -360 0
-9253 9254 9255 9256 9257 9258 9259 9260 9261 -9262 9263 9264 9265 9266 -9267 0
-9268 316 331 0
-9268 -316 -331 0
9268 -316 331 0
9268 316 -331 0
-9269 9268 346 0
-9269 -9268 -346 0
9269 -9268 346 0
9269 9268 -346 0
-9270 317 332 0
-9270 -317 -332 0
9270 -317 332 0
9270 317 -332 0
-9271 9270 347 0
-9271 -9270 -347 0
9271 -9270 347 0
9271 9270 -347 0
-9272 318 333 0
-9272 -318 -333 0
9272 -318 333 0
9272 318 -333 0
-9273 9272 348 0
-9273 -9272 -348 0
9273 -9272 348 0
9273 9272 -348 0
-9274 319 334 0
-9274 -319 -334 0
9274 -319 334 0
9274 319 -334 0
-9275 9274 349 0
-9275 -9274 -349 0
9275 -9274 349 0
9275 9274 -349 0
-9276 320 335 0
-9276 -320 -335 0
9276 -320 335 0
9276 320 -335 0
-9277 9276 350 0
-9277 -9276 -350 0
9277 -9276 350 0
9277 9276 -350 0
-9278 321 336 0
-9278 -321 -336 0
9278 -321 336 0
9278 321 -336 0
-9279 9278 351 0
-9279 -9278 -351 0
9279 -9278 351 0
9279 9278 -351 0
-9280 322 337 0
-9280 -322 -337 0
9280 -322 337 0
9280 322 -337 0
-9281 9280 352 0
-9281 -9280 -352 0
9281 -9280 352 0
9281 9280 -352 0
-9282 323 338 0
-9282 -323 -338 0
9282 -323 338 0
9282 323 -338 0
-9283 9282 353 0
-9283 -9282 -353 0
9283 -9282 353 0
9283 9282 -353 0
-9284 324 339 0
-9284 -324 -339 0
9284 -324 339 0
9284 324 -339 0
-9285 9284 354 0
-9285 -9284 -354 0
9285 -9284 354 0
9285 9284 -354 0
-9286 325 340 0
-9286 -325 -340 0
9286 -325 340 0
9286 325 -340 0
-9287 9286 355 0
-9287 -9286 -355 0
9287 -9286 355 0
9287 9286 -355 0
-9288 326 341 0
-9288 -326 -341 0
9288 -326 341 0
9288 326 -341 0
-9289 9288 356 0
-9289 -9288 -356 0
9289 -9288 356 0
9289 9288 -356 0
-9290 327 342 0
-9290 -327 -342 0
9290 -327 342 0
9290 327 -342 0
-9291 9290 357 0
-9291 -9290 -357 0
9291 -9290 357 0
9291 9290 -357 0
-9292 328 343 0
-9292 -328 -343 0
9292 -328 343 0
9292 328 -343 0
-9293 9292 358 0
-9293 -9292 -358 0
9293 -9292 358 0
9293 9292 -358 0
-9294 329 344 0
-9294 -329 -344 0
9294 -329 344 0
9294 329 -344 0
-9295 9294 359 0
-9295 -9294 -359 0
9295 -9294 359 0
9295 9294 -359 0
-9296 330 345 0
-9296 -330 -345 0
9296 -330 345 0
9296 330 -345 0
-9297 9296 360 0
-9297 -9296 -360 0
9297 -9296 360 0
9297 9296 -360 0
9269 9271 9273 9275 9277 9279 9281 9283 9285 9287 9289 9291 9293 9295 9297 0
-9298 316 331 0
-9298 -316 -331 0
9298 -316 331 0
9298 316 -331 0
-9299 9298 346 0
-9299 -9298 -346 0
9299 -9298 346 0
9299 9298 -346 0
-9300 317 332 0
-9300 -317 -332 0
9300 -317 332 0
9300 317 -332 0
-9301 9300 347 0
-9301 -9300 -347 0
9301 -9300 347 0
9301 9300 -347 0
-9302 318 333 0
-9302 -318 -333 0
9302 -318 333 0
9302 318 -333 0
-9303 9302 348 0
-9303 -9302 -348 0
9303 -9302 348 0
9303 9302 -348 0
-9304 319 334 0
-9304 -319 -334 0
9304 -319 334 0
9304 319 -334 0
-9305 9304 349 0
-9305 -9304 -349 0
9305 -9304 349 0
9305 9304 -349 0
-9306 320 335 0
-9306 -320 -335 0
9306 -320 335 0
9306 320 -335 0
-9307 9306 350 0
-9307 -9306 -350 0
9307 -9306 350 0
9307 9306 -350 0
-9308 321 336 0
-9308 -321 -336 0
9308 -321 336 0
9308 321 -336 0
-9309 9308 351 0
-9309 -9308 -351 0
9309 -9308 351 0
9309 9308 -351 0
-9310 322 337 0
-9310 -322 -337 0
9310 -322 337 0
9310 322 -337 0
-9311 9310 352 0
-9311 -9310 -352 0
9311 -9310 352 0
9311 9310 -352 0
-9312 323 338 0
-9312 -323 -338 0
9312 -323 338 0
9312 323 -338 0
-9313 9312 353 0
-9313 -9312 -353 0
9313 -9312 353 0
9313 9312 -353 0
-9314 324 339 0
-9314 -324 -339 0
9314 -324 339 0
9314 324 -339 0
-9315 9314 354 0
-9315 -9314 -354 0
9315 -9314 354 0
9315 9314 -354 0
-9316 325 340 0
-9316 -325 -340 0
9316 -325 340 0
9316 325 -340 0
-9317 9316 355 0
-9317 -9316 -355 0
9317 -9316 355 0
9317 9316 -355 0
-9318 326 341 0
-9318 -326 -341 0
9318 -326 341 0
9318 326 -341 0
-9319 9318 356 0
-9319 -9318 -356 0
9319 -9318 356 0
9319 9318 -356 0
-9320 327 342 0
-9320 -327 -342 0
9320 -327 342 0
9320 327 -342 0
-9321 9320 357 0
-9321 -9320 -357 0
9321 -9320 357 0
9321 9320 -357 0
-9322 328 343 0
-9322 -328 -343 0
9322 -328 343 0
9322 328 -343 0
-9323 9322 358 0
-9323 -9322 -358 0
9323 -9322 358 0
9323 9322 -358 0
-9324 329 344 0
-9324 -329 -344 0
9324 -329 344 0
9324 329 -344 0
-9325 9324 359 0
-9325 -9324 -359 0
9325 -9324 359 0
9325 9324 -359 0
-9326 330 345 0
-9326 -330 -345 0
9326 -330 345 0
9326 330 -345 0
-9327 9326 360 0
-9327 -9326 -360 0
9327 -9326 360 0
9327 9326 -360 0
-9299 9301 9303 9305 9307 9309 9311 9313 9315 -9317 9319 9321 9323 9325 -9327 0
361 362 363 364 365 366 367 368 369 370 371 372 373 374 375 0
-361 362 363 364 365 366 367 368 369 -370 371 372 373 374 -375 0
-9328 316 361 0
-9328 -316 -361 0
9328 -316 361 0
9328 316 -361 0
-9329 317 362 0
-9329 -317 -362 0
9329 -317 362 0
9329 317 -362 0
-9330 318 363 0
-9330 -318 -363 0
9330 -318 363 0
9330 318 -363 0
-9331 319 364 0
-9331 -319 -364 0
9331 -319 364 0
9331 319 -364 0
-9332 320 365 0
-9332 -320 -365 0
9332 -320 365 0
9332 320 -365 0
-9333 321 366 0
-9333 -321 -366 0
9333 -321 366 0
9333 321 -366 0
-9334 322 367 0
-9334 -322 -367 0
9334 -322 367 0
9334 322 -367 0
-9335 323 368 0
-9335 -323 -368 0
9335 -323 368 0
9335 323 -368 0
-9336 324 369 0
-9336 -324 -369 0
9336 -324 369 0
9336 324 -369 0
-9337 325 370 0
-9337 -325 -370 0
9337 -325 370 0
9337 325 -370 0
-9338 326 371 0
-9338 -326 -371 0
9338 -326 371 0
9338 326 -371 0
-9339 327 372 0
-9339 -327 -372 0
9339 -327 372 0
9339 327 -372 0
-9340 328 373 0
-9340 -328 -373 0
9340 -328 373 0
9340 328 -373 0
-9341 329 374 0
-9341 -329 -374 0
9341 -329 374 0
9341 329 -374 0
-9342 330 375 0
-9342 -330 -375 0
9342 -330 375 0
9342 330 -375 0
9328 9329 9330 9331 9332 9333 9334 9335 9336 9337 9338 9339 9340 9341 9342 0
-9343 316 361 0
-9343 -316 -361 0
9343 -316 361 0
9343 316 -361 0
-9344 317 362 0
-9344 -317 -362 0
9344 -317 362 0
9344 317 -362 0
-9345 318 363 0
-9345 -318 -363 0
9345 -318 363 0
9345 318 -363 0
-9346 319 364 0
-9346 -319 -364 0
9346 -319 364 0
9346 319 -364 0
-9347 320 365 0
-9347 -320 -365 0
9347 -320 365 0
9347 320 -365 0
-9348 321 366 0
-9348 -321 -366 0
9348 -321 366 0
9348 321 -366 0
-9349 322 367 0
-9349 -322 -367 0
9349 -322 367 0
9349 322 -367 0
-9350 323 368 0
-9350 -323 -368 0
9350 -323 368 0
9350 323 -368 0
-9351 324 369 0
-9351 -324 -369 0
9351 -324 369 0
9351 324 -369 0
-9352 325 370 0
-9352 -325 -370 0
9352 -325 370 0
9352 325 -370 0
-9353 326 371 0
-9353 -326 -371 0
9353 -326 371 0
9353 326 -371 0
-9354 327 372 0
-9354 -327 -372 0
9354 -327 372 0
9354 327 -372 0
-9355 328 373 0
-9355 -328 -373 0
9355 -328 373 0
9355 328 -373 0
-9356 329 374 0
-9356 -329 -374 0
9356 -329 374 0
9356 329 -374 0
-9357 330 375 0
-9357 -330 -375 0
9357 -330 375 0
9357 330 -375 0
-9343 9344 9345 9346 9347 9348 9349 9350 9351 -9352 9353 9354 9355 9356 -9357 0
-9358 331 361 0
-9358 -331 -361 0
9358 -331 361 0
9358 331 -361 0
-9359 332 362 0
-9359 -332 -362 0
9359 -332 362 0
9359 332 -362 0
-9360 333 363 0
-9360 -333 -363 0
9360 -333 363 0
9360 333 -363 0
-9361 334 364 0
-9361 -334 -364 0
9361 -334 364 0
9361 334 -364 0
-9362 335 365 0
-9362 -335 -365 0
9362 -335 365 0
9362 335 -365 0
-9363 336 366 0
-9363 -336 -366 0
9363 -336 366 0
9363 336 -366 0
-9364 337 367 0
-9364 -337 -367 0
9364 -337 367 0
9364 337 -367 0
-9365 338 368 0
-9365 -338 -368 0
9365 -338 368 0
9365 338 -368 0
-9366 339 369 0
-9366 -339 -369 0
9366 -339 369 0
9366 339 -369 0
-9367 340 370 0
-9367 -340 -370 0
9367 -340 370 0
9367 340 -370 0
-9368 341 371 0
-9368 -341 -371 0
9368 -341 371 0
9368 341 -371 0
-9369 342 372 0
-9369 -342 -372 0
9369 -342 372 0
9369 342 -372 0
-9370 343 373 0
-9370 -343 -373 0
9370 -343 373 0
9370 343 -373 0
-9371 344 374 0
-9371 -344 -374 0
9371 -344 374 0
9371 344 -374 0
-9372 345 375 0
-9372 -345 -375 0
9372 -345 375 0
9372 345 -375 0
9358 9359 9360 9361 9362 9363 9364 9365 9366 9367 9368 9369 9370 9371 9372 0
-9373 331 361 0
-9373 -331 -361 0
9373 -331 361 0
9373 331 -361 0
-9374 332 362 0
-9374 -332 -362 0
9374 -332 362 0
9374 332 -362 0
-9375 333 363 0
-9375 -333 -363 0
9375 -333 363 0
9375 333 -363 0
-9376 334 364 0
-9376 -334 -364 0
9376 -334 364 0
9376 334 -364 0
-9377 335 365 0
-9377 -335 -365 0
9377 -335 365 0
9377 335 -365 0
-9378 336 366 0
-9378 -336 -366 0
9378 -336 366 0
9378 336 -366 0
-9379 337 367 0
-9379 -337 -367 0
9379 -337 367 0
9379 337 -367 0
-9380 338 368 0
-9380 -338 -368 0
9380 -338 368 0
9380 338 -368 0
-9381 339 369 0
-9381 -339 -369 0
9381 -339 369 0
9381 339 -369 0
-9382 340 370 0
-9382 -340 -370 0
9382 -340 370 0
9382 340 -370 0
-9383 341 371 0
-9383 -341 -371 0
9383 -341 371 0
9383 341 -371 0
-9384 342 372 0
-9384 -342 -372 0
9384 -342 372 0
9384 342 -372 0
-9385 343 373 0
-9385 -343 -373 0
9385 -343 373 0
9385 343 -373 0
-9386 344 374 0
-9386 -344 -374 0
9386 -344 374 0
9386 344 -374 0
-9387 345 375 0
-9387 -345 -375 0
9387 -345 375 0
9387 345 -375 0
-9373 9374 9375 9376 9377 9378 9379 9380 9381 -9382 9383 9384 9385 9386 -9387 0
-9388 316 331 0
-9388 -316 -331 0
9388 -316 331 0
9388 316 -331 0
-9389 9388 361 0
-9389 -9388 -361 0
9389 -9388 361 0
9389 9388 -361 0
-9390 317 332 0
-9390 -317 -332 0
9390 -317 332 0
9390 317 -332 0
-9391 9390 362 0
-9391 -9390 -362 0
9391 -9390 362 0
9391 9390 -362 0
-9392 318 333 0
-9392 -318 -333 0
9392 -318 333 0
9392 318 -333 0
-9393 9392 363 0
-9393 -9392 -363 0
9393 -9392 363 0
9393 9392 -363 0
-9394 319 334 0
-9394 -319 -334 0
9394 -319 334 0
9394 319 -334 0
-9395 9394 364 0
-9395 -9394 -364 0
9395 -9394 364 0
9395 9394 -364 0
-9396 320 335 0
-9396 -320 -335 0
9396 -320 335 0
9396 320 -335 0
-9397 9396 365 0
-9397 -9396 -365 0
9397 -9396 365 0
9397 9396 -365 0
-9398 321 336 0
-9398 -321 -336 0
9398 -321 336 0
9398 321 -336 0
-9399 9398 366 0
-9399 -9398 -366 0
9399 -9398 366 0
9399 9398 -366 0
-9400 322 337 0
-9400 -322 -337 0
9400 -322 337 0
9400 322 -337 0
-9401 9400 367 0
-9401 -9400 -367 0
9401 -9400 367 0
9401 9400 -367 0
-9402 323 338 0
-9402 -323 -338 0
9402 -323 338 0
9402 323 -338 0
-9403 9402 368 0
-9403 -9402 -368 0
9403 -9402 368 0
9403 9402 -368 0
-9404 324 339 0
-9404 -324 -339 0
9404 -324 339 0
9404 324 -339 0
-9405 9404 369 0
-9405 -9404 -369 0
9405 -9404 369 0
9405 9404 -369 0
-9406 325 340 0
-9406 -325 -340 0
9406 -325 340 0
9406 325 -340 0
-9407 9406 370 0
-9407 -9406 -370 0
9407 -9406 370 0
9407 9406 -370 0
-9408 326 341 0
-9408 -326 -341 0
9408 -326 341 0
9408 326 -341 0
-9409 9408 371 0
-9409 -9408 -371 0
9409 -9408 371 0
9409 9408 -371 0
-9410 327 342 0
-9410 -327 -342 0
9410 -327 342 0
9410 327 -342 0
-9411 9410 372 0
-9411 -9410 -372 0
9411 -9410 372 0
9411 9410 -372 0
-9412 328 343 0
-9412 -328 -343 0
9412 -328 343 0
9412 328 -343 0
-9413 9412 373 0
-9413 -9412 -373 0
9413 -9412 373 0
9413 9412 -373 0
-9414 329 344 0
-9414 -329 -344 0
9414 -329 344 0
9414 329 -344 0
-9415 9414 374 0
-9415 -9414 -374 0
9415 -9414 374 0
9415 9414 -374 0
-9416 330 345 0
-9416 -330 -345 0
9416 -330 345 0
9416 330 -345 0
-9417 9416 375 0
-9417 -9416 -375 0
9417 -9416 375 0
9417 9416 -375 0
9389 9391 9393 9395 9397 9399 9401 9403 9405 9407 9409 9411 9413 9415 9417 0
-9418 316 331 0
-9418 -316 -331 0
9418 -316 331 0
9418 316 -331 0
-9419 9418 361 0
-9419 -9418 -361 0
9419 -9418 361 0
9419 9418 -361 0
-9420 317 332 0
-9420 -317 -332 0
9420 -317 332 0
9420 317 -332 0
-9421 9420 362 0
-9421 -9420 -362 0
9421 -9420 362 0
9421 9420 -362 0
-9422 318 333 0
-9422 -318 -333 0
9422 -318 333 0
9422 318 -333 0
-9423 9422 363 0
-9423 -9422 -363 0
9423 -9422 363 0
9423 9422 -363 0
-9424 319 334 0
-9424 -319 -334 0
9424 -319 334 0
9424 319 -334 0
-9425 9424 364 0
-9425 -9424 -364 0
9425 -9424 364 0
9425 9424 -364 0
-9426 320 335 0
-9426 -320 -335 0
9426 -320 335 0
9426 320 -335 0
-9427 9426 365 0
-9427 -9426 -365 0
9427 -9426 365 0
9427 9426 -365 0
-9428 321 336 0
-9428 -321 -336 0
9428 -321 336 0
9428 321 -336 0
-9429 9428 366 0
-9429 -9428 -366 0
9429 -9428 366 0
9429 9428 -366 0
-9430 322 337 0
-9430 -322 -337 0
9430 -322 337 0
9430 322 -337 0
-9431 9430 367 0
-9431 -9430 -367 0
9431 -9430 367 0
9431 9430 -367 0
-9432 323 338 0
-9432 -323 -338 0
9432 -323 338 0
9432 323 -338 0
-9433 9432 368 0
-9433 -9432 -368 0
9433 -9432 368 0
9433 9432 -368 0
-9434 324 339 0
-9434 -324 -339 0
9434 -324 339 0
9434 324 -339 0
-9435 9434 369 0
-9435 -9434 -369 0
9435 -9434 369 0
9435 9434 -369 0
-9436 325 340 0
-9436 -325 -340 0
9436 -325 340 0
9436 325 -340 0
-9437 9436 370 0
-9437 -9436 -370 0
9437 -9436 370 0
9437 9436 -370 0
-9438 326 341 0
-9438 -326 -341 0
9438 -326 341 0
9438 326 -341 0
-9439 9438 371 0
-9439 -9438 -371 0
9439 -9438 371 0
9439 9438 -371 0
-9440 327 342 0
-9440 -327 -342 0
9440 -327 342 0
9440 327 -342 0
-9441 9440 372 0
-9441 -9440 -372 0
9441 -9440 372 0
9441 9440 -372 0
-9442 328 343 0
-9442 -328 -343 0
9442 -328 343 0
9442 328 -343 0
-9443 9442 373 0
-9443 -9442 -373 0
9443 -9442 373 0
9443 9442 -373 0
-9444 329 344 0
-9444 -329 -344 0
9444 -329 344 0
9444 329 -344 0
-9445 9444 374 0
-9445 -9444 -374 0
9445 -9444 374 0
9445 9444 -374 0
-9446 330 345 0
-9446 -330 -345 0
9446 -330 345 0
9446 330 -345 0
-9447 9446 375 0
-9447 -9446 -375 0
9447 -9446 375 0
9447 9446 -375 0
-9419 9421 9423 9425 9427 9429 9431 9433 9435 -9437 9439 9441 9443 9445 -9447 0
-9448 346 361 0
-9448 -346 -361 0
9448 -346 361 0
9448 346 -361 0
-9449 347 362 0
-9449 -347 -362 0
9449 -347 362 0
9449 347 -362 0
-9450 348 363 0
-9450 -348 -363 0
9450 -348 363 0
9450 348 -363 0
-9451 349 364 0
-9451 -349 -364 0
9451 -349 364 0
9451 349 -364 0
-9452 350 365 0
-9452 -350 -365 0
9452 -350 365 0
9452 350 -365 0
-9453 351 366 0
-9453 -351 -366 0
9453 -351 366 0
9453 351 -366 0
-9454 352 367 0
-9454 -352 -367 0
9454 -352 367 0
9454 352 -367 0
-9455 353 368 0
-9455 -353 -368 0
9455 -353 368 0
9455 353 -368 0
-9456 354 369 0
-9456 -354 -369 0
9456 -354 369 0
9456 354 -369 0
-9457 355 370 0
-9457 -355 -370 0
9457 -355 370 0
9457 355 -370 0
-9458 356 371 0
-9458 -356 -371 0
9458 -356 371 0
9458 356 -371 0
-9459 357 372 0
-9459 -357 -372 0
9459 -357 372 0
9459 357 -372 0
-9460 358 373 0
-9460 -358 -373 0
9460 -358 373 0
9460 358 -373 0
-9461 359 374 0
-9461 -359 -374 0
9461 -359 374 0
9461 359 -374 0
-9462 360 375 0
-9462 -360 -375 0
9462 -360 375 0
9462 360 -375 0
9448 9449 9450 9451 9452 9453 9454 9455 9456 9457 9458 9459 9460 9461 9462 0
-9463 346 361 0
-9463 -346 -361 0
9463 -346 361 0
9463 346 -361 0
-9464 347 362 0
-9464 -347 -362 0
9464 -347 362 0
9464 347 -362 0
-9465 348 363 0
-9465 -348 -363 0
9465 -348 363 0
9465 348 -363 0
-9466 349 364 0
-9466 -349 -364 0
9466 -349 364 0
9466 349 -364 0
-9467 350 365 0
-9467 -350 -365 0
9467 -350 365 0
9467 350 -365 0
-9468 351 366 0
-9468 -351 -366 0
9468 -351 366 0
9468 351 -366 0
-9469 352 367 0
-9469 -352 -367 0
9469 -352 367 0
9469 352 -367 0
-9470 353 368 0
-9470 -353 -368 0
9470 -353 368 0
9470 353 -368 0
-9471 354 369 0
-9471 -354 -369 0
9471 -354 369 0
9471 354 -369 0
-9472 355 370 0
-9472 -355 -370 0
9472 -355 370 0
9472 355 -370 0
-9473 356 371 0
-9473 -356 -371 0
9473 -356 371 0
9473 356 -371 0
-9474 357 372 0
-9474 -357 -372 0
9474 -357 372 0
9474 357 -372 0
-9475 358 373 0
-9475 -358 -373 0
9475 -358 373 0
9475 358 -373 0
-9476 359 374 0
-9476 -359 -374 0
9476 -359 374 0
9476 359 -374 0
-9477 360 375 0
-9477 -360 -375 0
9477 -360 375 0
9477 360 -375 0
-9463 9464 9465 9466 9467 9468 9469 9470 9471 -9472 9473 9474 9475 9476 -9477 0
-9478 316 346 0
-9478 -316 -346 0
9478 -316 346 0
9478 316 -346 0
-9479 9478 361 0
-9479 -9478 -361 0
9479 -9478 361 0
9479 9478 -361 0
-9480 317 347 0
-9480 -317 -347 0
9480 -317 347 0
9480 317 -347 0
-9481 9480 362 0
-9481 -9480 -362 0
9481 -9480 362 0
9481 9480 -362 0
-9482 318 348 0
-9482 -318 -348 0
9482 -318 348 0
9482 318 -348 0
-9483 9482 363 0
-9483 -9482 -363 0
9483 -9482 363 0
9483 9482 -363 0
-9484 319 349 0
-9484 -319 -349 0
9484 -319 349 0
9484 319 -349 0
-9485 9484 364 0
-9485 -9484 -364 0
9485 -9484 364 0
9485 9484 -364 0
-9486 320 350 0
-9486 -320 -350 0
9486 -320 350 0
9486 320 -350 0
-9487 9486 365 0
-9487 -9486 -365 0
9487 -9486 365 0
9487 9486 -365 0
-9488 321 351 0
-9488 -321 -351 0
9488 -321 351 0
9488 321 -351 0
-9489 9488 366 0
-9489 -9488 -366 0
9489 -9488 366 0
9489 9488 -366 0
-9490 322 352 0
-9490 -322 -352 0
9490 -322 352 0
9490 322 -352 0
-9491 9490 367 0
-9491 -9490 -367 0
9491 -9490 367 0
9491 9490 -367 0
-9492 323 353 0
-9492 -323 -353 0
9492 -323 353 0
9492 323 -353 0
-9493 9492 368 0
-9493 -9492 -368 0
9493 -9492 368 0
9493 9492 -368 0
-9494 324 354 0
-9494 -324 -354 0
9494 -324 354 0
9494 324 -354 0
-9495 9494 369 0
-9495 -9494 -369 0
9495 -9494 369 0
9495 9494 -369 0
-9496 325 355 0
-9496 -325 -355 0
9496 -325 355 0
9496 325 -355 0
-9497 9496 370 0
-9497 -9496 -370 0
9497 -9496 370 0
9497 9496 -370 0
-9498 326 356 0
-9498 -326 -356 0
9498 -326 356 0
9498 326 -356 0
-9499 9498 371 0
-9499 -9498 -371 0
9499 -9498 371 0
9499 9498 -371 0
-9500 327 357 0
-9500 -327 -357 0
9500 -327 357 0
9500 327 -357 0
-9501 9500 372 0
-9501 -9500 -372 0
9501 -9500 372 0
9501 9500 -372 0
-9502 328 358 0
-9502 -328 -358 0
9502 -328 358 0
9502 328 -358 0
-9503 9502 373 0
-9503 -9502 -373 0
9503 -9502 373 0
9503 9502 -373 0
-9504 329 359 0
-9504 -329 -359 0
9504 -329 359 0
9504 329 -359 0
-9505 9504 374 0
-9505 -9504 -374 0
9505 -9504 374 0
9505 9504 -374 0
-9506 330 360 0
-9506 -330 -360 0
9506 -330 360 0
9506 330 -360 0
-9507 9506 375 0
-9507 -9506 -375 0
9507 -9506 375 0
9507 9506 -375 0
9479 9481 9483 9485 9487 9489 9491 9493 9495 9497 9499 9501 9503 9505 9507 0
-9508 316 346 0
-9508 -316 -346 0
9508 -316 346 0
9508 316 -346 0
-9509 9508 361 0
-9509 -9508 -361 0
9509 -9508 361 0
9509 9508 -361 0
-9510 317 347 0
-9510 -317 -347 0
9510 -317 347 0
9510 317 -347 0
-9511 9510 362 0
-9511 -9510 -362 0
9511 -9510 362 0
9511 9510 -362 0
-9512 318 348 0
-9512 -318 -348 0
9512 -318 348 0
9512 318 -348 0
-9513 9512 363 0
-9513 -9512 -363 0
9513 -9512 363 0
9513 9512 -363 0
-9514 319 349 0
-9514 -319 -349 0
9514 -319 349 0
9514 319 -349 0
-9515 9514 364 0
-9515 -9514 -364 0
9515 -9514 364 0
9515 9514 -364 0
-9516 320 350 0
-9516 -320 -350 0
9516 -320 350 0
9516 320 -350 0
-9517 9516 365 0
-9517 -9516 -365 0
9517 -9516 365 0
9517 9516 -365 0
-9518 321 351 0
-9518 -321 -351 0
9518 -321 351 0
9518 321 -351 0
-9519 9518 366 0
-9519 -9518 -366 0
9519 -9518 366 0
9519 9518 -366 0
-9520 322 352 0
-9520 -322 -352 0
9520 -322 352 0
9520 322 -352 0
-9521 9520 367 0
-9521 -9520 -367 0
9521 -9520 367 0
9521 9520 -367 0
-9522 323 353 0
-9522 -323 -353 0
9522 -323 353 0
9522 323 -353 0
-9523 9522 368 0
-9523 -9522 -368 0
9523 -9522 368 0
9523 9522 -368 0
-9524 324 354 0
-9524 -324 -354 0
9524 -324 354 0
9524 324 -354 0
-9525 9524 369 0
-9525 -9524 -369 0
9525 -9524 369 0
9525 9524 -369 0
-9526 325 355 0
-9526 -325 -355 0
9526 -325 355 0
9526 325 -355 0
-9527 9526 370 0
-9527 -9526 -370 0
9527 -9526 370 0
9527 9526 -370 0
-9528 326 356 0
-9528 -326 -356 0
9528 -326 356 0
9528 326 -356 0
-9529 9528 371 0
-9529 -9528 -371 0
9529 -9528 371 0
9529 9528 -371 0
-9530 327 357 0
-9530 -327 -357 0
9530 -327 357 0
9530 327 -357 0
-9531 9530 372 0
-9531 -9530 -372 0
9531 -9530 372 0
9531 9530 -372 0
-9532 328 358 0
-9532 -328 -358 0
9532 -328 358 0
9532 328 -358 0
-9533 9532 373 0
-9533 -9532 -373 0
9533 -9532 373 0
9533 9532 -373 0
-9534 329 359 0
-9534 -329 -359 0
9534 -329 359 0
9534 329 -359 0
-9535 9534 374 0
-9535 -9534 -374 0
9535 -9534 374 0
9535 9534 -374 0
-9536 330 360 0
-9536 -330 -360 0
9536 -330 360 0
9536 330 -360 0
-9537 9536 375 0
-9537 -9536 -375 0
9537 -9536 375 0
9537 9536 -375 0
-9509 9511 9513 9515 9517 9519 9521 9523 9525 -9527 9529 9531 9533 9535 -9537 0
-9538 331 346 0
-9538 -331 -346 0
9538 -331 346 0
9538 331 -346 0
-9539 9538 361 0
-9539 -9538 -361 0
9539 -9538 361 0
9539 9538 -361 0
-9540 332 347 0
-9540 -332 -347 0
9540 -332 347 0
9540 332 -347 0
-9541 9540 362 0
-9541 -9540 -362 0
9541 -9540 362 0
9541 9540 -362 0
-9542 333 348 0
-9542 -333 -348 0
9542 -333 348 0
9542 333 -348 0
-9543 9542 363 0
-9543 -9542 -363 0
9543 -9542 363 0
9543 9542 -363 0
-9544 334 349 0
-9544 -334 -349 0
9544 -334 349 0
9544 334 -349 0
-9545 9544 364 0
-9545 -9544 -364 0
9545 -9544 364 0
9545 9544 -364 0
-9546 335 350 0
-9546 -335 -350 0
9546 -335 350 0
9546 335 -350 0
-9547 9546 365 0
-9547 -9546 -365 0
9547 -9546 365 0
9547 9546 -365 0
-9548 336 351 0
-9548 -336 -351 0
9548 -336 351 0
9548 336 -351 0
-9549 9548 366 0
-9549 -9548 -366 0
9549 -9548 366 0
9549 9548 -366 0
-9550 337 352 0
-9550 -337 -352 0
9550 -337 352 0
9550 337 -352 0
-9551 9550 367 0
-9551 -9550 -367 0
9551 -9550 367 0
9551 9550 -367 0
-9552 338 353 0
-9552 -338 -353 0
9552 -338 353 0
9552 338 -353 0
-9553 9552 368 0
-9553 -9552 -368 0
9553 -9552 368 0
9553 9552 -368 0
-9554 339 354 0
-9554 -339 -354 0
9554 -339 354 0
9554 339 -354 0
-9555 9554 369 0
-9555 -9554 -369 0
9555 -9554 369 0
9555 9554 -369 0
-9556 340 355 0
-9556 -340 -355 0
9556 -340 355 0
9556 340 -355 0
-9557 9556 370 0
-9557 -9556 -370 0
9557 -9556 370 0
9557 9556 -370 0
-9558 341 356 0
-9558 -341 -356 0
9558 -341 356 0
9558 341 -356 0
-9559 9558 371 0
-9559 -9558 -371 0
9559 -9558 371 0
9559 9558 -371 0
-9560 342 357 0
-9560 -342 -357 0
9560 -342 357 0
9560 342 -357 0
-9561 9560 372 0
-9561 -9560 -372 0
9561 -9560 372 0
9561 9560 -372 0
-9562 343 358 0
-9562 -343 -358 0
9562 -343 358 0
9562 343 -358 0
-9563 9562 373 0
-9563 -9562 -373 0
9563 -9562 373 0
9563 9562 -373 0
-9564 344 359 0
-9564 -344 -359 0
9564 -344 359 0
9564 344 -359 0
-9565 9564 374 0
-9565 -9564 -374 0
9565 -9564 374 0
9565 9564 -374 0
-9566 345 360 0
-9566 -345 -360 0
9566 -345 360 0
9566 345 -360 0
-9567 9566 375 0
-9567 -9566 -375 0
9567 -9566 375 0
9567 9566 -375 0
9539 9541 9543 9545 9547 9549 9551 9553 9555 9557 9559 9561 9563 9565 9567 0
-9568 331 346 0
-9568 -331 -346 0
9568 -331 346 0
9568 331 -346 0
-9569 9568 361 0
-9569 -9568 -361 0
9569 -9568 361 0
9569 9568 -361 0
-9570 332 347 0
-9570 -332 -347 0
9570 -332 347 0
9570 332 -347 0
-9571 9570 362 0
-9571 -9570 -362 0
9571 -9570 362 0
9571 9570 -362 0
-9572 333 348 0
-9572 -333 -348 0
9572 -333 348 0
9572 333 -348 0
-9573 9572 363 0
-9573 -9572 -363 0
9573 -9572 363 0
9573 9572 -363 0
-9574 334 349 0
-9574 -334 -349 0
9574 -334 349 0
9574 334 -349 0
-9575 9574 364 0
-9575 -9574 -364 0
9575 -9574 364 0
9575 9574 -364 0
-9576 335 350 0
-9576 -335 -350 0
9576 -335 350 0
9576 335 -350 0
-9577 9576 365 0
-9577 -9576 -365 0
9577 -9576 365 0
9577 9576 -365 0
-9578 336 351 0
-9578 -336 -351 0
9578 -336 351 0
9578 336 -351 0
-9579 9578 366 0
-9579 -9578 -366 0
9579 -9578 366 0
9579 9578 -366 0
-9580 337 352 0
-9580 -337 -352 0
9580 -337 352 0
9580 337 -352 0
-9581 9580 367 0
-9581 -9580 -367 0
9581 -9580 367 0
9581 9580 -367 0
-9582 338 353 0
-9582 -338 -353 0
9582 -338 353 0
9582 338 -353 0
-9583 9582 368 0
-9583 -9582 -368 0
9583 -9582 368 0
9583 9582 -368 0
-9584 339 354 0
-9584 -339 -354 0
9584 -339 354 0
9584 339 -354 0
-9585 9584 369 0
-9585 -9584 -369 0
9585 -9584 369 0
9585 9584 -369 0
-9586 340 355 0
-9586 -340 -355 0
9586 -340 355 0
9586 340 -355 0
-9587 9586 370 0
-9587 -9586 -370 0
9587 -9586 370 0
9587 9586 -370 0
-9588 341 356 0
-9588 -341 -356 0
9588 -341 356 0
9588 341 -356 0
-9589 9588 371 0
-9589 -9588 -371 0
9589 -9588 371 0
9589 9588 -371 0
-9590 342 357 0
-9590 -342 -357 0
9590 -342 357 0
9590 342 -357 0
-9591 9590 372 0
-9591 -9590 -372 0
9591 -9590 372 0
9591 9590 -372 0
-9592 343 358 0
-9592 -343 -358 0
9592 -343 358 0
9592 343 -358 0
-9593 9592 373 0
-9593 -9592 -373 0
9593 -9592 373 0
9593 9592 -373 0
-9594 344 359 0
-9594 -344 -359 0
9594 -344 359 0
9594 344 -359 0
-9595 9594 374 0
-9595 -9594 -374 0
9595 -9594 374 0
9595 9594 -374 0
-9596 345 360 0
-9596 -345 -360 0
9596 -345 360 0
9596 345 -360 0
-9597 9596 375 0
-9597 -9596 -375 0
9597 -9596 375 0
9597 9596 -375 0
-9569 9571 9573 9575 9577 9579 9581 9583 9585 -9587 9589 9591 9593 9595 -9597 0
-9598 316 331 0
-9598 -316 -331 0
9598 -316 331 0
9598 316 -331 0
-9599 9598 346 0
-9599 -9598 -346 0
9599 -9598 346 0
9599 9598 -346 0
-9600 9599 361 0
-9600 -9599 -361 0
9600 -9599 361 0
9600 9599 -361 0
-9601 317 332 0
-9601 -317 -332 0
9601 -317 332 0
9601 317 -332 0
-9602 9601 347 0
-9602 -9601 -347 0
9602 -9601 347 0
9602 9601 -347 0
-9603 9602 362 0
-9603 -9602 -362 0
9603 -9602 362 0
9603 9602 -362 0
-9604 318 333 0
-9604 -318 -333 0
9604 -318 333 0
9604 318 -333 0
-9605 9604 348 0
-9605 -9604 -348 0
9605 -9604 348 0
9605 9604 -348 0
-9606 9605 363 0
-9606 -9605 -363 0
9606 -9605 363 0
9606 9605 -363 0
-9607 319 334 0
-9607 -319 -334 0
9607 -319 334 0
9607 319 -334 0
-9608 9607 349 0
-9608 -9607 -349 0
9608 -9607 349 0
9608 9607 -349 0
-9609 9608 364 0
-9609 -9608 -364 0
9609 -9608 364 0
9609 9608 -364 0
-9610 320 335 0
-9610 -320 -335 0
9610 -320 335 0
9610 320 -335 0
-9611 9610 350 0
-9611 -9610 -350 0
9611 -9610 350 0
9611 9610 -350 0
-9612 9611 365 0
-9612 -9611 -365 0
9612 -9611 365 0
9612 9611 -365 0
-9613 321 336 0
-9613 -321 -336 0
9613 -321 336 0
9613 321 -336 0
-9614 9613 351 0
-9614 -9613 -351 0
9614 -9613 351 0
9614 9613 -351 0
-9615 9614 366 0
-9615 -9614 -366 0
9615 -9614 366 0
9615 9614 -366 0
-9616 322 337 0
-9616 -322 -337 0
9616 -322 337 0
9616 322 -337 0
-9617 9616 352 0
-9617 -9616 -352 0
9617 -9616 352 0
9617 9616 -352 0
-9618 9617 367 0
-9618 -9617 -367 0
9618 -9617 367 0
9618 9617 -367 0
-9619 323 338 0
-9619 -323 -338 0
9619 -323 338 0
9619 323 -338 0
-9620 9619 353 0
-9620 -9619 -353 0
9620 -9619 353 0
9620 9619 -353 0
-9621 9620 368 0
-9621 -9620 -368 0
9621 -9620 368 0
9621 9620 -368 0
-9622 324 339 0
-9622 -324 -339 0
9622 -324 339 0
9622 324 -339 0
-9623 9622 354 0
-9623 -9622 -354 0
9623 -9622 354 0
9623 9622 -354 0
-9624 9623 369 0
-9624 -9623 -369 0
9624 -9623 369 0
9624 9623 -369 0
-9625 325 340 0
-9625 -325 -340 0
9625 -325 340 0
9625 325 -340 0
-9626 9625 355 0
-9626 -9625 -355 0
9626 -9625 355 0
9626 9625 -355 0
-9627 9626 370 0
-9627 -9626 -370 0
9627 -9626 370 0
9627 9626 -370 0
-9628 326 341 0
-9628 -326 -341 0
9628 -326 341 0
9628 326 -341 0
-9629 9628 356 0
-9629 -9628 -356 0
9629 -9628 356 0
9629 9628 -356 0
-9630 9629 371 0
-9630 -9629 -371 0
9630 -9629 371 0
9630 9629 -371 0
-9631 327 342 0
-9631 -327 -342 0
9631 -327 342 0
9631 327 -342 0
-9632 9631 357 0
-9632 -9631 -357 0
9632 -9631 357 0
9632 9631 -357 0
-9633 9632 372 0
-9633 -9632 -372 0
9633 -9632 372 0
9633 9632 -372 0
-9634 328 343 0
-9634 -328 -343 0
9634 -328 343 0
9634 328 -343 0
-9635 9634 358 0
-9635 -9634 -358 0
9635 -9634 358 0
9635 9634 -358 0
-9636 9635 373 0
-9636 -9635 -373 0
9636 -9635 373 0
9636 9635 -373 0
-9637 329 344 0
-9637 -329 -344 0
9637 -329 344 0
9637 329 -344 0
-9638 9637 359 0
-9638 -9637 -359 0
9638 -9637 359 0
9638 9637 -359 0
-9639 9638 374 0
-9639 -9638 -374 0
9639 -9638 374 0
9639 9638 -374 0
-9640 330 345 0
-9640 -330 -345 0
9640 -330 345 0
9640 330 -345 0
-9641 9640 360 0
-9641 -9640 -360 0
9641 -9640 360 0
9641 9640 -360 0
-9642 9641 375 0
-9642 -9641 -375 0
9642 -9641 375 0
9642 9641 -375 0
9600 9603 9606 9609 9612 9615 9618 9621 9624 9627 9630 9633 9636 9639 9642 0
-9643 316 331 0
-9643 -316 -331 0
9643 -316 331 0
9643 316 -331 0
-9644 9643 346 0
-9644 -9643 -346 0
9644 -9643 346 0
9644 9643 -346 0
-9645 9644 361 0
-9645 -9644 -361 0
9645 -9644 361 0
9645 9644 -361 0
-9646 317 332 0
-9646 -317 -332 0
9646 -317 332 0
9646 317 -332 0
-9647 9646 347 0
-9647 -9646 -347 0
9647 -9646 347 0
9647 9646 -347 0
-9648 9647 362 0
-9648 -9647 -362 0
9648 -9647 362 0
9648 9647 -362 0
-9649 318 333 0
-9649 -318 -333 0
9649 -318 333 0
9649 318 -333 0
-9650 9649 348 0
-9650 -9649 -348 0
9650 -9649 348 0
9650 9649 -348 0
-9651 9650 363 0
-9651 -9650 -363 0
9651 -9650 363 0
9651 9650 -363 0
-9652 319 334 0
-9652 -319 -334 0
9652 -319 334 0
9652 319 -334 0
-9653 9652 349 0
-9653 -9652 -349 0
9653 -9652 349 0
9653 9652 -349 0
-9654 9653 364 0
-9654 -9653 -364 0
9654 -9653 364 0
9654 9653 -364 0
-9655 320 335 0
-9655 -320 -335 0
9655 -320 335 0
9655 320 -335 0
-9656 9655 350 0
-9656 -9655 -350 0
9656 -9655 350 0
9656 9655 -350 0
-9657 9656 365 0
-9657 -9656 -365 0
9657 -9656 365 0
9657 9656 -365 0
-9658 321 336 0
-9658 -321 -336 0
9658 -321 336 0
9658 321 -336 0
-9659 9658 351 0
-9659 -9658 -351 0
9659 -9658 351 0
9659 9658 -351 0
-9660 9659 366 0
-9660 -9659 -366 0
9660 -9659 366 0
9660 9659 -366 0
-9661 322 337 0
-9661 -322 -337 0
9661 -322 337 0
9661 322 -337 0
-9662 9661 352 0
-9662 -9661 -352 0
9662 -9661 352 0
9662 9661 -352 0
-9663 9662 367 0
-9663 -9662 -367 0
9663 -9662 367 0
9663 9662 -367 0
-9664 323 338 0
-9664 -323 -338 0
9664 -323 338 0
9664 323 -338 0
-9665 9664 353 0
-9665 -9664 -353 0
9665 -9664 353 0
9665 9664 -353 0
-9666 9665 368 0
-9666 -9665 -368 0
9666 -9665 368 0
9666 9665 -368 0
-9667 324 339 0
-9667 -324 -339 0
9667 -324 339 0
9667 324 -339 0
-9668 9667 354 0
-9668 -9667 -354 0
9668 -9667 354 0
9668 9667 -354 0
-9669 9668 369 0
-9669 -9668 -369 0
9669 -9668 369 0
9669 9668 -369 0
-9670 325 340 0
-9670 -325 -340 0
9670 -325 340 0
9670 325 -340 0
-9671 9670 355 0
-9671 -9670 -355 0
9671 -9670 355 0
9671 9670 -355 0
-9672 9671 370 0
-9672 -9671 -370 0
9672 -9671 370 0
9672 9671 -370 0
-9673 326 341 0
-9673 -326 -341 0
9673 -326 341 0
9673 326 -341 0
-9674 9673 356 0
-9674 -9673 -356 0
9674 -9673 356 0
9674 9673 -356 0
-9675 9674 371 0
-9675 -9674 -371 0
9675 -9674 371 0
9675 9674 -371 0
-9676 327 342 0
-9676 -327 -342 0
9676 -327 342 0
9676 327 -342 0
-9677 9676 357 0
-9677 -9676 -357 0
9677 -9676 357 0
9677 9676 -357 0
-9678 9677 372 0
-9678 -9677 -372 0
9678 -9677 372 0
9678 9677 -372 0
-9679 328 343 0
-9679 -328 -343 0
9679 -328 343 0
9679 328 -343 0
-9680 9679 358 0
-9680 -9679 -358 0
9680 -9679 358 0
9680 9679 -358 0
-9681 9680 373 0
-9681 -9680 -373 0
9681 -9680 373 0
9681 9680 -373 0
-9682 329 344 0
-9682 -329 -344 0
9682 -329 344 0
9682 329 -344 0
-9683 9682 359 0
-9683 -9682 -359 0
9683 -9682 359 0
9683 9682 -359 0
-9684 9683 374 0
-9684 -9683 -374 0
9684 -9683 374 0
9684 9683 -374 0
-9685 330 345 0
-9685 -330 -345 0
9685 -330 345 0
9685 330 -345 0
-9686 9685 360 0
-9686 -9685 -360 0
9686 -9685 360 0
9686 9685 -360 0
-9687 9686 375 0
-9687 -9686 -375 0
9687 -9686 375 0
9687 9686 -375 0
-9645 9648 9651 9654 9657 9660 9663 9666 9669 -9672 9675 9678 9681 9684 -9687 0
376 377 378 379 380 381 382 383 384 385 386 387 388 389 390 0
-376 377 378 379 380 381 382 383 384 -385 386 387 388 389 -390 0
-9688 316 376 0
-9688 -316 -376 0
9688 -316 376 0
9688 316 -376 0
-9689 317 377 0
-9689 -317 -377 0
9689 -317 377 0
9689 317 -377 0
-9690 318 378 0
-9690 -318 -378 0
9690 -318 378 0
9690 318 -378 0
-9691 319 379 0
-9691 -319 -379 0
9691 -319 379 0
9691 319 -379 0
-9692 320 380 0
-9692 -320 -380 0
9692 -320 380 0
9692 320 -380 0
-9693 321 381 0
-9693 -321 -381 0
9693 -321 381 0
9693 321 -381 0
-9694 322 382 0
-9694 -322 -382 0
9694 -322 382 0
9694 322 -382 0
-9695 323 383 0
-9695 -323 -383 0
9695 -323 383 0
9695 323 -383 0
-9696 324 384 0
-9696 -324 -384 0
9696 -324 384 0
9696 324 -384 0
-9697 325 385 0
-9697 -325 -385 0
9697 -325 385 0
9697 325 -385 0
-9698 326 386 0
-9698 -326 -386 0
9698 -326 386 0
9698 326 -386 0
-9699 327 387 0
-9699 -327 -387 0
9699 -327 387 0
9699 327 -387 0
-9700 328 388 0
-9700 -328 -388 0
9700 -328 388 0
9700 328 -388 0
-9701 329 389 0
-9701 -329 -389 0
9701 -329 389 0
9701 329 -389 0
-9702 330 390 0
-9702 -330 -390 0
9702 -330 390 0
9702 330 -390 0
9688 9689 9690 9691 9692 9693 9694 9695 9696 9697 9698 9699 9700 9701 9702 0
-9703 316 376 0
-9703 -316 -376 0
9703 -316 376 0
9703 316 -376 0
-9704 317 377 0
-9704 -317 -377 0
9704 -317 377 0
9704 317 -377 0
-9705 318 378 0
-9705 -318 -378 0
9705 -318 378 0
9705 318 -378 0
-9706 319 379 0
-9706 -319 -379 0
9706 -319 379 0
9706 319 -379 0
-9707 320 380 0
-9707 -320 -380 0
9707 -320 380 0
9707 320 -380 0
-9708 321 381 0
-9708 -321 -381 0
9708 -321 381 0
9708 321 -381 0
-9709 322 382 0
-9709 -322 -382 0
9709 -322 382 0
9709 322 -382 0
-9710 323 383 0
-9710 -323 -383 0
9710 -323 383 0
9710 323 -383 0
-9711 324 384 0
-9711 -324 -384 0
9711 -324 384 0
9711 324 -384 0
-9712 325 385 0
-9712 -325 -385 0
9712 -325 385 0
9712 325 -385 0
-9713 326 386 0
-9713 -326 -386 0
9713 -326 386 0
9713 326 -386 0
-9714 327 387 0
-9714 -327 -387 0
9714 -327 387 0
9714 327 -387 0
-9715 328 388 0
-9715 -328 -388 0
9715 -328 388 0
9715 328 -388 0
-9716 329 389 0
-9716 -329 -389 0
9716 -329 389 0
9716 329 -389 0
-9717 330 390 0
-9717 -330 -390 0
9717 -330 390 0
9717 330 -390 0
-9703 9704 9705 9706 9707 9708 9709 9710 9711 -9712 9713 9714 9715 9716 -9717 0
-9718 331 376 0
-9718 -331 -376 0
9718 -331 376 0
9718 331 -376 0
-9719 332 377 0
-9719 -332 -377 0
9719 -332 377 0
9719 332 -377 0
-9720 333 378 0
-9720 -333 -378 0
9720 -333 378 0
9720 333 -378 0
-9721 334 379 0
-9721 -334 -379 0
9721 -334 379 0
9721 334 -379 0
-9722 335 380 0
-9722 -335 -380 0
9722 -335 380 0
9722 335 -380 0
-9723 336 381 0
-9723 -336 -381 0
9723 -336 381 0
9723 336 -381 0
-9724 337 382 0
-9724 -337 -382 0
9724 -337 382 0
9724 337 -382 0
-9725 338 383 0
-9725 -338 -383 0
9725 -338 383 0
9725 338 -383 0
-9726 339 384 0
-9726 -339 -384 0
9726 -339 384 0
9726 339 -384 0
-9727 340 385 0
-9727 -340 -385 0
9727 -340 385 0
9727 340 -385 0
-9728 341 386 0
-9728 -341 -386 0
9728 -341 386 0
9728 341 -386 0
-9729 342 387 0
-9729 -342 -387 0
9729 -342 387 0
9729 342 -387 0
-9730 343 388 0
-9730 -343 -388 0
9730 -343 388 0
9730 343 -388 0
-9731 344 389 0
-9731 -344 -389 0
9731 -344 389 0
9731 344 -389 0
-9732 345 390 0
-9732 -345 -390 0
9732 -345 390 0
9732 345 -390 0
9718 9719 9720 9721 9722 9723 9724 9725 9726 9727 9728 9729 9730 9731 9732 0
-9733 331 376 0
-9733 -331 -376 0
9733 -331 376 0
9733 331 -376 0
-9734 332 377 0
-9734 -332 -377 0
9734 -332 377 0
9734 332 -377 0
-9735 333 378 0
-9735 -333 -378 0
9735 -333 378 0
9735 333 -378 0
-9736 334 379 0
-9736 -334 -379 0
9736 -334 379 0
9736 334 -379 0
-9737 335 380 0
-9737 -335 -380 0
9737 -335 380 0
9737 335 -380 0
-9738 336 381 0
-9738 -336 -381 0
9738 -336 381 0
9738 336 -381 0
-9739 337 382 0
-9739 -337 -382 0
9739 -337 382 0
9739 337 -382 0
-9740 338 383 0
-9740 -338 -383 0
9740 -338 383 0
9740 338 -383 0
-9741 339 384 0
-9741 -339 -384 0
9741 -339 384 0
9741 339 -384 0
-9742 340 385 0
-9742 -340 -385 0
9742 -340 385 0
9742 340 -385 0
-9743 341 386 0
-9743 -341 -386 0
9743 -341 386 0
9743 341 -386 0
-9744 342 387 0
-9744 -342 -387 0
9744 -342 387 0
9744 342 -387 0
-9745 343 388 0
-9745 -343 -388 0
9745 -343 388 0
9745 343 -388 0
-9746 344 389 0
-9746 -344 -389 0
9746 -344 389 0
9746 344 -389 0
-9747 345 390 0
-9747 -345 -390 0
9747 -345 390 0
9747 345 -390 0
-9733 9734 9735 9736 9737 9738 9739 9740 9741 -9742 9743 9744 9745 9746 -9747 0
-9748 316 331 0
-9748 -316 -331 0
9748 -316 331 0
9748 316 -331 0
-9749 9748 376 0
-9749 -9748 -376 0
9749 -9748 376 0
9749 9748 -376 0
-9750 317 332 0
-9750 -317 -332 0
9750 -317 332 0
9750 317 -332 0
-9751 9750 377 0
-9751 -9750 -377 0
9751 -9750 377 0
9751 9750 -377 0
-9752 318 333 0
-9752 -318 -333 0
9752 -318 333 0
9752 318 -333 0
-9753 9752 378 0
-9753 -9752 -378 0
9753 -9752 378 0
9753 9752 -378 0
-9754 319 334 0
-9754 -319 -334 0
9754 -319 334 0
9754 319 -334 0
-9755 9754 379 0
-9755 -9754 -379 0
9755 -9754 379 0
9755 9754 -379 0
-9756 320 335 0
-9756 -320 -335 0
9756 -320 335 0
9756 320 -335 0
-9757 9756 380 0
-9757 -9756 -380 0
9757 -9756 380 0
9757 9756 -380 0
-9758 321 336 0
-9758 -321 -336 0
9758 -321 336 0
9758 321 -336 0
-9759 9758 381 0
-9759 -9758 -381 0
9759 -9758 381 0
9759 9758 -381 0
-9760 322 337 0
-9760 -322 -337 0
9760 -322 337 0
9760 322 -337 0
-9761 9760 382 0
-9761 -9760 -382 0
9761 -9760 382 0
9761 9760 -382 0
-9762 323 338 0
-9762 -323 -338 0
9762 -323 338 0
9762 323 -338 0
-9763 9762 383 0
-9763 -9762 -383 0
9763 -9762 383 0
9763 9762 -383 0
-9764 324 339 0
-9764 -324 -339 0
9764 -324 339 0
9764 324 -339 0
-9765 9764 384 0
-9765 -9764 -384 0
9765 -9764 384 0
9765 9764 -384 0
-9766 325 340 0
-9766 -325 -340 0
9766 -325 340 0
9766 325 -340 0
-9767 9766 385 0
-9767 -9766 -385 0
9767 -9766 385 0
9767 9766 -385 0
-9768 326 341 0
-9768 -326 -341 0
9768 -326 341 0
9768 326 -341 0
-9769 9768 386 0
-9769 -9768 -386 0
9769 -9768 386 0
9769 9768 -386 0
-9770 327 342 0
-9770 -327 -342 0
9770 -327 342 0
9770 327 -342 0
-9771 9770 387 0
-9771 -9770 -387 0
9771 -9770 387 0
9771 9770 -387 0
-9772 328 343 0
-9772 -328 -343 0
9772 -328 343 0
9772 328 -343 0
-9773 9772 388 0
-9773 -9772 -388 0
9773 -9772 388 0
9773 9772 -388 0
-9774 329 344 0
-9774 -329 -344 0
9774 -329 344 0
9774 329 -344 0
-9775 9774 389 0
-9775 -9774 -389 0
9775 -9774 389 0
9775 9774 -389 0
-9776 330 345 0
-9776 -330 -345 0
9776 -330 345 0
9776 330 -345 0
-9777 9776 390 0
-9777 -9776 -390 0
9777 -9776 390 0
9777 9776 -390 0
9749 9751 9753 9755 9757 9759 9761 9763 9765 9767 9769 9771 9773 9775 9777 0
-9778 316 331 0
-9778 -316 -331 0
9778 -316 331 0
9778 316 -331 0
-9779 9778 376 0
-9779 -9778 -376 0
9779 -9778 376 0
9779 9778 -376 0
-9780 317 332 0
-9780 -317 -332 0
9780 -317 332 0
9780 317 -332 0
-9781 9780 377 0
-9781 -9780 -377 0
9781 -9780 377 0
9781 9780 -377 0
-9782 318 333 0
-9782 -318 -333 0
9782 -318 333 0
9782 318 -333 0
-9783 9782 378 0
-9783 -9782 -378 0
9783 -9782 378 0
9783 9782 -378 0
-9784 319 334 0
-9784 -319 -334 0
9784 -319 334 0
9784 319 -334 0
-9785 9784 379 0
-9785 -9784 -379 0
9785 -9784 379 0
9785 9784 -379 0
-9786 320 335 0
-9786 -320 -335 0
9786 -320 335 0
9786 320 -335 0
-9787 9786 380 0
-9787 -9786 -380 0
9787 -9786 380 0
9787 9786 -380 0
-9788 321 336 0
-9788 -321 -336 0
9788 -321 336 0
9788 321 -336 0
-9789 9788 381 0
-9789 -9788 -381 0
9789 -9788 381 0
9789 9788 -381 0
-9790 322 337 0
-9790 -322 -337 0
9790 -322 337 0
9790 322 -337 0
-9791 9790 382 0
-9791 -9790 -382 0
9791 -9790 382 0
9791 9790 -382 0
-9792 323 338 0
-9792 -323 -338 0
9792 -323 338 0
9792 323 -338 0
-9793 9792 383 0
-9793 -9792 -383 0
9793 -9792 383 0
9793 9792 -383 0
-9794 324 339 0
-9794 -324 -339 0
9794 -324 339 0
9794 324 -339 0
-9795 9794 384 0
-9795 -9794 -384 0
9795 -9794 384 0
9795 9794 -384 0
-9796 325 340 0
-9796 -325 -340 0
9796 -325 340 0
9796 325 -340 0
-9797 9796 385 0
-9797 -9796 -385 0
9797 -9796 385 0
9797 9796 -385 0
-9798 326 341 0
-9798 -326 -341 0
9798 -326 341 0
9798 326 -341 0
-9799 9798 386 0
-9799 -9798 -386 0
9799 -9798 386 0
9799 9798 -386 0
-9800 327 342 0
-9800 -327 -342 0
9800 -327 342 0
9800 327 -342 0
-9801 9800 387 0
-9801 -9800 -387 0
9801 -9800 387 0
9801 9800 -387 0
-9802 328 343 0
-9802 -328 -343 0
9802 -328 343 0
9802 328 -343 0
-9803 9802 388 0
-9803 -9802 -388 0
9803 -9802 388 0
9803 9802 -388 0
-9804 329 344 0
-9804 -329 -344 0
9804 -329 344 0
9804 329 -344 0
-9805 9804 389 0
-9805 -9804 -389 0
9805 -9804 389 0
9805 9804 -389 0
-9806 330 345 0
-9806 -330 -345 0
9806 -330 345 0
9806 330 -345 0
-9807 9806 390 0
-9807 -9806 -390 0
9807 -9806 390 0
9807 9806 -390 0
-9779 9781 9783 9785 9787 9789 9791 9793 9795 -9797 9799 9801 9803 9805 -9807 0
-9808 346 376 0
-9808 -346 -376 0
9808 -346 376 0
9808 346 -376 0
-9809 347 377 0
-9809 -347 -377 0
9809 -347 377 0
9809 347 -377 0
-9810 348 378 0
-9810 -348 -378 0
9810 -348 378 0
9810 348 -378 0
-9811 349 379 0
-9811 -349 -379 0
9811 -349 379 0
9811 349 -379 0
-9812 350 380 0
-9812 -350 -380 0
9812 -350 380 0
9812 350 -380 0
-9813 351 381 0
-9813 -351 -381 0
9813 -351 381 0
9813 351 -381 0
-9814 352 382 0
-9814 -352 -382 0
9814 -352 382 0
9814 352 -382 0
-9815 353 383 0
-9815 -353 -383 0
9815 -353 383 0
9815 353 -383 0
-9816 354 384 0
-9816 -354 -384 0
9816 -354 384 0
9816 354 -384 0
-9817 355 385 0
-9817 -355 -385 0
9817 -355 385 0
9817 355 -385 0
-9818 356 386 0
-9818 -356 -386 0
9818 -356 386 0
9818 356 -386 0
-9819 357 387 0
-9819 -357 -387 0
9819 -357 387 0
9819 357 -387 0
-9820 358 388 0
-9820 -358 -388 0
9820 -358 388 0
9820 358 -388 0
-9821 359 389 0
-9821 -359 -389 0
9821 -359 389 0
9821 359 -389 0
-9822 360 390 0
-9822 -360 -390 0
9822 -360 390 0
9822 360 -390 0
9808 9809 9810 9811 9812 9813 9814 9815 9816 9817 9818 9819 9820 9821 9822 0
-9823 346 376 0
-9823 -346 -376 0
9823 -346 376 0
9823 346 -376 0
-9824 347 377 0
-9824 -347 -377 0
9824 -347 377 0
9824 347 -377 0
-9825 348 378 0
-9825 -348 -378 0
9825 -348 378 0
9825 348 -378 0
-9826 349 379 0
-9826 -349 -379 0
9826 -349 379 0
9826 349 -379 0
-9827 350 380 0
-9827 -350 -380 0
9827 -350 380 0
9827 350 -380 0
-9828 351 381 0
-9828 -351 -381 0
9828 -351 381 0
9828 351 -381 0
-9829 352 382 0
-9829 -352 -382 0
9829 -352 382 0
9829 352 -382 0
-9830 353 383 0
-9830 -353 -383 0
9830 -353 383 0
9830 353 -383 0
-9831 354 384 0
-9831 -354 -384 0
9831 -354 384 0
9831 354 -384 0
-9832 355 385 0
-9832 -355 -385 0
9832 -355 385 0
9832 355 -385 0
-9833 356 386 0
-9833 -356 -386 0
9833 -356 386 0
9833 356 -386 0
-9834 357 387 0
-9834 -357 -387 0
9834 -357 387 0
9834 357 -387 0
-9835 358 388 0
-9835 -358 -388 0
9835 -358 388 0
9835 358 -388 0
-9836 359 389 0
-9836 -359 -389 0
9836 -359 389 0
9836 359 -389 0
-9837 360 390 0
-9837 -360 -390 0
9837 -360 390 0
9837 360 -390 0
-9823 9824 9825 9826 9827 9828 9829 9830 9831 -9832 9833 9834 9835 9836 -9837 0
-9838 316 346 0
-9838 -316 -346 0
9838 -316 346 0
9838 316 -346 0
-9839 9838 376 0
-9839 -9838 -376 0
9839 -9838 376 0
9839 9838 -376 0
-9840 317 347 0
-9840 -317 -347 0
9840 -317 347 0
9840 317 -347 0
-9841 9840 377 0
-9841 -9840 -377 0
9841 -9840 377 0
9841 9840 -377 0
-9842 318 348 0
-9842 -318 -348 0
9842 -318 348 0
9842 318 -348 0
-9843 9842 378 0
-9843 -9842 -378 0
9843 -9842 378 0
9843 9842 -378 0
-9844 319 349 0
-9844 -319 -349 0
9844 -319 349 0
9844 319 -349 0
-9845 9844 379 0
-9845 -9844 -379 0
9845 -9844 379 0
9845 9844 -379 0
-9846 320 350 0
-9846 -320 -350 0
9846 -320 350 0
9846 320 -350 0
-9847 9846 380 0
-9847 -9846 -380 0
9847 -9846 380 0
9847 9846 -380 0
-9848 321 351 0
-9848 -321 -351 0
9848 -321 351 0
9848 321 -351 0
-9849 9848 381 0
-9849 -9848 -381 0
9849 -9848 381 0
9849 9848 -381 0
-9850 322 352 0
-9850 -322 -352 0
9850 -322 352 0
9850 322 -352 0
-9851 9850 382 0
-9851 -9850 -382 0
9851 -9850 382 0
9851 9850 -382 0
-9852 323 353 0
-9852 -323 -353 0
9852 -323 353 0
9852 323 -353 0
-9853 9852 383 0
-9853 -9852 -383 0
9853 -9852 383 0
9853 9852 -383 0
-9854 324 354 0
-9854 -324 -354 0
9854 -324 354 0
9854 324 -354 0
-9855 9854 384 0
-9855 -9854 -384 0
9855 -9854 384 0
9855 9854 -384 0
-9856 325 355 0
-9856 -325 -355 0
9856 -325 355 0
9856 325 -355 0
-9857 9856 385 0
-9857 -9856 -385 0
9857 -9856 385 0
9857 9856 -385 0
-9858 326 356 0
-9858 -326 -356 0
9858 -326 356 0
9858 326 -356 0
-9859 9858 386 0
-9859 -9858 -386 0
9859 -9858 386 0
9859 9858 -386 0
-9860 327 357 0
-9860 -327 -357 0
9860 -327 357 0
9860 327 -357 0
-9861 9860 387 0
-9861 -9860 -387 0
9861 -9860 387 0
9861 9860 -387 0
-9862 328 358 0
-9862 -328 -358 0
9862 -328 358 0
9862 328 -358 0
-9863 9862 388 0
-9863 -9862 -388 0
9863 -9862 388 0
9863 9862 -388 0
-9864 329 359 0
-9864 -329 -359 0
9864 -329 359 0
9864 329 -359 0
-9865 9864 389 0
-9865 -9864 -389 0
9865 -9864 389 0
9865 9864 -389 0
-9866 330 360 0
-9866 -330 -360 0
9866 -330 360 0
9866 330 -360 0
-9867 9866 390 0
-9867 -9866 -390 0
9867 -9866 390 0
9867 9866 -390 0
9839 9841 9843 9845 9847 9849 9851 9853 9855 9857 9859 9861 9863 9865 9867 0
-9868 316 346 0
-9868 -316 -346 0
9868 -316 346 0
9868 316 -346 0
-9869 9868 376 0
-9869 -9868 -376 0
9869 -9868 376 0
9869 9868 -376 0
-9870 317 347 0
-9870 -317 -347 0
9870 -317 347 0
9870 317 -347 0
-9871 9870 377 0
-9871 -9870 -377 0
9871 -9870 377 0
9871 9870 -377 0
-9872 318 348 0
-9872 -318 -348 0
9872 -318 348 0
9872 318 -348 0
-9873 9872 378 0
-9873 -9872 -378 0
9873 -9872 378 0
9873 9872 -378 0
-9874 319 349 0
-9874 -319 -349 0
9874 -319 349 0
9874 319 -349 0
-9875 9874 379 0
-9875 -9874 -379 0
9875 -9874 379 0
9875 9874 -379 0
-9876 320 350 0
-9876 -320 -350 0
9876 -320 350 0
9876 320 -350 0
-9877 9876 380 0
-9877 -9876 -380 0
9877 -9876 380 0
9877 9876 -380 0
-9878 321 351 0
-9878 -321 -351 0
9878 -321 351 0
9878 321 -351 0
-9879 9878 381 0
-9879 -9878 -381 0
9879 -9878 381 0
9879 9878 -381 0
-9880 322 352 0
-9880 -322 -352 0
9880 -322 352 0
9880 322 -352 0
-9881 9880 382 0
-9881 -9880 -382 0
9881 -9880 382 0
9881 9880 -382 0
-9882 323 353 0
-9882 -323 -353 0
9882 -323 353 0
9882 323 -353 0
-9883 9882 383 0
-9883 -9882 -383 0
9883 -9882 383 0
9883 9882 -383 0
-9884 324 354 0
-9884 -324 -354 0
9884 -324 354 0
9884 324 -354 0
-9885 9884 384 0
-9885 -9884 -384 0
9885 -9884 384 0
9885 9884 -384 0
-9886 325 355 0
-9886 -325 -355 0
9886 -325 355 0
9886 325 -355 0
-9887 9886 385 0
-9887 -9886 -385 0
9887 -9886 385 0
9887 9886 -385 0
-9888 326 356 0
-9888 -326 -356 0
9888 -326 356 0
9888 326 -356 0
-9889 9888 386 0
-9889 -9888 -386 0
9889 -9888 386 0
9889 9888 -386 0
-9890 327 357 0
-9890 -327 -357 0
9890 -327 357 0
9890 327 -357 0
-9891 9890 387 0
-9891 -9890 -387 0
9891 -9890 387 0
9891 9890 -387 0
-9892 328 358 0
-9892 -328 -358 0
9892 -328 358 0
9892 328 -358 0
-9893 9892 388 0
-9893 -9892 -388 0
9893 -9892 388 0
9893 9892 -388 0
-9894 329 359 0
-9894 -329 -359 0
9894 -329 359 0
9894 329 -359 0
-9895 9894 389 0
-9895 -9894 -389 0
9895 -9894 389 0
9895 9894 -389 0
-9896 330 360 0
-9896 -330 -360 0
9896 -330 360 0
9896 330 -360 0
-9897 9896 390 0
-9897 -9896 -390 0
9897 -9896 390 0
9897 9896 -390 0
-9869 9871 9873 9875 9877 9879 9881 9883 9885 -9887 9889 9891 9893 9895 -9897 0
-9898 331 346 0
-9898 -331 -346 0
9898 -331 346 0
9898 331 -346 0
-9899 9898 376 0
-9899 -9898 -376 0
9899 -9898 376 0
9899 9898 -376 0
-9900 332 347 0
-9900 -332 -347 0
9900 -332 347 0
9900 332 -347 0
-9901 9900 377 0
-9901 -9900 -377 0
9901 -9900 377 0
9901 9900 -377 0
-9902 333 348 0
-9902 -333 -348 0
9902 -333 348 0
9902 333 -348 0
-9903 9902 378 0
-9903 -9902 -378 0
9903 -9902 378 0
9903 9902 -378 0
-9904 334 349 0
-9904 -334 -349 0
9904 -334 349 0
9904 334 -349 0
-9905 9904 379 0
-9905 -9904 -379 0
9905 -9904 379 0
9905 9904 -379 0
-9906 335 350 0
-9906 -335 -350 0
9906 -335 350 0
9906 335 -350 0
-9907 9906 380 0
-9907 -9906 -380 0
9907 -9906 380 0
9907 9906 -380 0
-9908 336 351 0
-9908 -336 -351 0
9908 -336 351 0
9908 336 -351 0
-9909 9908 381 0
-9909 -9908 -381 0
9909 -9908 381 0
9909 9908 -381 0
-9910 337 352 0
-9910 -337 -352 0
9910 -337 352 0
9910 337 -352 0
-9911 9910 382 0
-9911 -9910 -382 0
9911 -9910 382 0
9911 9910 -382 0
-9912 338 353 0
-9912 -338 -353 0
9912 -338 353 0
9912 338 -353 0
-9913 9912 383 0
-9913 -9912 -383 0
9913 -9912 383 0
9913 9912 -383 0
-9914 339 354 0
-9914 -339 -354 0
9914 -339 354 0
9914 339 -354 0
-9915 9914 384 0
-9915 -9914 -384 0
9915 -9914 384 0
9915 9914 -384 0
-9916 340 355 0
-9916 -340 -355 0
9916 -340 355 0
9916 340 -355 0
-9917 9916 385 0
-9917 -9916 -385 0
9917 -9916 385 0
9917 9916 -385 0
-9918 341 356 0
-9918 -341 -356 0
9918 -341 356 0
9918 341 -356 0
-9919 9918 386 0
-9919 -9918 -386 0
9919 -9918 386 0
9919 9918 -386 0
-9920 342 357 0
-9920 -342 -357 0
9920 -342 357 0
9920 342 -357 0
-9921 9920 387 0
-9921 -9920 -387 0
9921 -9920 387 0
9921 9920 -387 0
-9922 343 358 0
-9922 -343 -358 0
9922 -343 358 0
9922 343 -358 0
-9923 9922 388 0
-9923 -9922 -388 0
9923 -9922 388 0
9923 9922 -388 0
-9924 344 359 0
-9924 -344 -359 0
9924 -344 359 0
9924 344 -359 0
-9925 9924 389 0
-9925 -9924 -389 0
9925 -9924 389 0
9925 9924 -389 0
-9926 345 360 0
-9926 -345 -360 0
9926 -345 360 0
9926 345 -360 0
-9927 9926 390 0
-9927 -9926 -390 0
9927 -9926 390 0
9927 9926 -390 0
9899 9901 9903 9905 9907 9909 9911 9913 9915 9917 9919 9921 9923 9925 9927 0
-9928 331 346 0
-9928 -331 -346 0
9928 -331 346 0
9928 331 -346 0
-9929 9928 376 0
-9929 -9928 -376 0
9929 -9928 376 0
9929 9928 -376 0
-9930 332 347 0
-9930 -332 -347 0
9930 -332 347 0
9930 332 -347 0
-9931 9930 377 0
-9931 -9930 -377 0
9931 -9930 377 0
9931 9930 -377 0
-9932 333 348 0
-9932 -333 -348 0
9932 -333 348 0
9932 333 -348 0
-9933 9932 378 0
-9933 -9932 -378 0
9933 -9932 378 0
9933 9932 -378 0
-9934 334 349 0
-9934 -334 -349 0
9934 -334 349 0
9934 334 -349 0
-9935 9934 379 0
-9935 -9934 -379 0
9935 -9934 379 0
9935 9934 -379 0
-9936 335 350 0
-9936 -335 -350 0
9936 -335 350 0
9936 335 -350 0
-9937 9936 380 0
-9937 -9936 -380 0
9937 -9936 380 0
9937 9936 -380 0
-9938 336 351 0
-9938 -336 -351 0
9938 -336 351 0
9938 336 -351 0
-9939 9938 381 0
-9939 -9938 -381 0
9939 -9938 381 0
9939 9938 -381 0
-9940 337 352 0
-9940 -337 -352 0
9940 -337 352 0
9940 337 -352 0
-9941 9940 382 0
-9941 -9940 -382 0
9941 -9940 382 0
9941 9940 -382 0
-9942 338 353 0
-9942 -338 -353 0
9942 -338 353 0
9942 338 -353 0
-9943 9942 383 0
-9943 -9942 -383 0
9943 -9942 383 0
9943 9942 -383 0
-9944 339 354 0
-9944 -339 -354 0
9944 -339 354 0
9944 339 -354 0
-9945 9944 384 0
-9945 -9944 -384 0
9945 -9944 384 0
9945 9944 -384 0
-9946 340 355 0
-9946 -340 -355 0
9946 -340 355 0
9946 340 -355 0
-9947 9946 385 0
-9947 -9946 -385 0
9947 -9946 385 0
9947 9946 -385 0
-9948 341 356 0
-9948 -341 -356 0
9948 -341 356 0
9948 341 -356 0
-9949 9948 386 0
-9949 -9948 -386 0
9949 -9948 386 0
9949 9948 -386 0
-9950 342 357 0
-9950 -342 -357 0
9950 -342 357 0
9950 342 -357 0
-9951 9950 387 0
-9951 -9950 -387 0
9951 -9950 387 0
9951 9950 -387 0
-9952 343 358 0
-9952 -343 -358 0
9952 -343 358 0
9952 343 -358 0
-9953 9952 388 0
-9953 -9952 -388 0
9953 -9952 388 0
9953 9952 -388 0
-9954 344 359 0
-9954 -344 -359 0
9954 -344 359 0
9954 344 -359 0
-9955 9954 389 0
-9955 -9954 -389 0
9955 -9954 389 0
9955 9954 -389 0
-9956 345 360 0
-9956 -345 -360 0
9956 -345 360 0
9956 345 -360 0
-9957 9956 390 0
-9957 -9956 -390 0
9957 -9956 390 0
9957 9956 -390 0
-9929 9931 9933 9935 9937 9939 9941 9943 9945 -9947 9949 9951 9953 9955 -9957 0
-9958 316 331 0
-9958 -316 -331 0
9958 -316 331 0
9958 316 -331 0
-9959 9958 346 0
-9959 -9958 -346 0
9959 -9958 346 0
9959 9958 -346 0
-9960 9959 376 0
-9960 -9959 -376 0
9960 -9959 376 0
9960 9959 -376 0
-9961 317 332 0
-9961 -317 -332 0
9961 -317 332 0
9961 317 -332 0
-9962 9961 347 0
-9962 -9961 -347 0
9962 -9961 347 0
9962 9961 -347 0
-9963 9962 377 0
-9963 -9962 -377 0
9963 -9962 377 0
9963 9962 -377 0
-9964 318 333 0
-9964 -318 -333 0
9964 -318 333 0
9964 318 -333 0
-9965 9964 348 0
-9965 -9964 -348 0
9965 -9964 348 0
9965 9964 -348 0
-9966 9965 378 0
-9966 -9965 -378 0
9966 -9965 378 0
9966 9965 -378 0
-9967 319 334 0
-9967 -319 -334 0
9967 -319 334 0
9967 319 -334 0
-9968 9967 349 0
-9968 -9967 -349 0
9968 -9967 349 0
9968 9967 -349 0
-9969 9968 379 0
-9969 -9968 -379 0
9969 -9968 379 0
9969 9968 -379 0
-9970 320 335 0
-9970 -320 -335 0
9970 -320 335 0
9970 320 -335 0
-9971 9970 350 0
-9971 -9970 -350 0
9971 -9970 350 0
9971 9970 -350 0
-9972 9971 380 0
-9972 -9971 -380 0
9972 -9971 380 0
9972 9971 -380 0
-9973 321 336 0
-9973 -321 -336 0
9973 -321 336 0
9973 321 -336 0
-9974 9973 351 0
-9974 -9973 -351 0
9974 -9973 351 0
9974 9973 -351 0
-9975 9974 381 0
-9975 -9974 -381 0
9975 -9974 381 0
9975 9974 -381 0
-9976 322 337 0
-9976 -322 -337 0
9976 -322 337 0
9976 322 -337 0
-9977 9976 352 0
-9977 -9976 -352 0
9977 -9976 352 0
9977 9976 -352 0
-9978 9977 382 0
-9978 -9977 -382 0
9978 -9977 382 0
9978 9977 -382 0
-9979 323 338 0
-9979 -323 -338 0
9979 -323 338 0
9979 323 -338 0
-9980 9979 353 0
-9980 -9979 -353 0
9980 -9979 353 0
9980 9979 -353 0
-9981 9980 383 0
-9981 -9980 -383 0
9981 -9980 383 0
9981 9980 -383 0
-9982 324 339 0
-9982 -324 -339 0
9982 -324 339 0
9982 324 -339 0
-9983 9982 354 0
-9983 -9982 -354 0
9983 -9982 354 0
9983 9982 -354 0
-9984 9983 384 0
-9984 -9983 -384 0
9984 -9983 384 0
9984 9983 -384 0
-9985 325 340 0
-9985 -325 -340 0
9985 -325 340 0
9985 325 -340 0
-9986 9985 355 0
-9986 -9985 -355 0
9986 -9985 355 0
9986 9985 -355 0
-9987 9986 385 0
-9987 -9986 -385 0
9987 -9986 385 0
9987 9986 -385 0
-9988 326 341 0
-9988 -326 -341 0
9988 -326 341 0
9988 326 -341 0
-9989 9988 356 0
-9989 -9988 -356 0
9989 -9988 356 0
9989 9988 -356 0
-9990 9989 386 0
-9990 -9989 -386 0
9990 -9989 386 0
9990 9989 -386 0
-9991 327 342 0
-9991 -327 -342 0
9991 -327 342 0
9991 327 -342 0
-9992 9991 357 0
-9992 -9991 -357 0
9992 -9991 357 0
9992 9991 -357 0
-9993 9992 387 0
-9993 -9992 -387 0
9993 -9992 387 0
9993 9992 -387 0
-9994 328 343 0
-9994 -328 -343 0
9994 -328 343 0
9994 328 -343 0
-9995 9994 358 0
-9995 -9994 -358 0
9995 -9994 358 0
9995 9994 -358 0
-9996 9995 388 0
-9996 -9995 -388 0
9996 -9995 388 0
9996 9995 -388 0
-9997 329 344 0
-9997 -329 -344 0
9997 -329 344 0
9997 329 -344 0
-9998 9997 359 0
-9998 -9997 -359 0
9998 -9997 359 0
9998 9997 -359 0
-9999 9998 389 0
-9999 -9998 -389 0
9999 -9998 389 0
9999 9998 -389 0
-10000 330 345 0
-10000 -330 -345 0
10000 -330 345 0
10000 330 -345 0
-10001 10000 360 0
-10001 -10000 -360 0
10001 -10000 360 0
10001 10000 -360 0
-10002 10001 390 0
-10002 -10001 -390 0
10002 -10001 390 0
10002 10001 -390 0
9960 9963 9966 9969 9972 9975 9978 9981 9984 9987 9990 9993 9996 9999 10002 0
-10003 316 331 0
-10003 -316 -331 0
10003 -316 331 0
10003 316 -331 0
-10004 10003 346 0
-10004 -10003 -346 0
10004 -10003 346 0
10004 10003 -346 0
-10005 10004 376 0
-10005 -10004 -376 0
10005 -10004 376 0
10005 10004 -376 0
-10006 317 332 0
-10006 -317 -332 0
10006 -317 332 0
10006 317 -332 0
-10007 10006 347 0
-10007 -10006 -347 0
10007 -10006 347 0
10007 10006 -347 0
-10008 10007 377 0
-10008 -10007 -377 0
10008 -10007 377 0
10008 10007 -377 0
-10009 318 333 0
-10009 -318 -333 0
10009 -318 333 0
10009 318 -333 0
-10010 10009 348 0
-10010 -10009 -348 0
10010 -10009 348 0
10010 10009 -348 0
-10011 10010 378 0
-10011 -10010 -378 0
10011 -10010 378 0
10011 10010 -378 0
-10012 319 334 0
-10012 -319 -334 0
10012 -319 334 0
10012 319 -334 0
-10013 10012 349 0
-10013 -10012 -349 0
10013 -10012 349 0
10013 10012 -349 0
-10014 10013 379 0
-10014 -10013 -379 0
10014 -10013 379 0
10014 10013 -379 0
-10015 320 335 0
-10015 -320 -335 0
10015 -320 335 0
10015 320 -335 0
-10016 10015 350 0
-10016 -10015 -350 0
10016 -10015 350 0
10016 10015 -350 0
-10017 10016 380 0
-10017 -10016 -380 0
10017 -10016 380 0
10017 10016 -380 0
-10018 321 336 0
-10018 -321 -336 0
10018 -321 336 0
10018 321 -336 0
-10019 10018 351 0
-10019 -10018 -351 0
10019 -10018 351 0
10019 10018 -351 0
-10020 10019 381 0
-10020 -10019 -381 0
10020 -10019 381 0
10020 10019 -381 0
-10021 322 337 0
-10021 -322 -337 0
10021 -322 337 0
10021 322 -337 0
-10022 10021 352 0
-10022 -10021 -352 0
10022 -10021 352 0
10022 10021 -352 0
-10023 10022 382 0
-10023 -10022 -382 0
10023 -10022 382 0
10023 10022 -382 0
-10024 323 338 0
-10024 -323 -338 0
10024 -323 338 0
10024 323 -338 0
-10025 10024 353 0
-10025 -10024 -353 0
10025 -10024 353 0
10025 10024 -353 0
-10026 10025 383 0
-10026 -10025 -383 0
10026 -10025 383 0
10026 10025 -383 0
-10027 324 339 0
-10027 -324 -339 0
10027 -324 339 0
10027 324 -339 0
-10028 10027 354 0
-10028 -10027 -354 0
10028 -10027 354 0
10028 10027 -354 0
-10029 10028 384 0
-10029 -10028 -384 0
10029 -10028 384 0
10029 10028 -384 0
-10030 325 340 0
-10030 -325 -340 0
10030 -325 340 0
10030 325 -340 0
-10031 10030 355 0
-10031 -10030 -355 0
10031 -10030 355 0
10031 10030 -355 0
-10032 10031 385 0
-10032 -10031 -385 0
10032 -10031 385 0
10032 10031 -385 0
-10033 326 341 0
-10033 -326 -341 0
10033 -326 341 0
10033 326 -341 0
-10034 10033 356 0
-10034 -10033 -356 0
10034 -10033 356 0
10034 10033 -356 0
-10035 10034 386 0
-10035 -10034 -386 0
10035 -10034 386 0
10035 10034 -386 0
-10036 327 342 0
-10036 -327 -342 0
10036 -327 342 0
10036 327 -342 0
-10037 10036 357 0
-10037 -10036 -357 0
10037 -10036 357 0
10037 10036 -357 0
-10038 10037 387 0
-10038 -10037 -387 0
10038 -10037 387 0
10038 10037 -387 0
-10039 328 343 0
-10039 -328 -343 0
10039 -328 343 0
10039 328 -343 0
-10040 10039 358 0
-10040 -10039 -358 0
10040 -10039 358 0
10040 10039 -358 0
-10041 10040 388 0
-10041 -10040 -388 0
10041 -10040 388 0
10041 10040 -388 0
-10042 329 344 0
-10042 -329 -344 0
10042 -329 344 0
10042 329 -344 0
-10043 10042 359 0
-10043 -10042 -359 0
10043 -10042 359 0
10043 10042 -359 0
-10044 10043 389 0
-10044 -10043 -389 0
10044 -10043 389 0
10044 10043 -389 0
-10045 330 345 0
-10045 -330 -345 0
10045 -330 345 0
10045 330 -345 0
-10046 10045 360 0
-10046 -10045 -360 0
10046 -10045 360 0
10046 10045 -360 0
-10047 10046 390 0
-10047 -10046 -390 0
10047 -10046 390 0
10047 10046 -390 0
-10005 10008 10011 10014 10017 10020 10023 10026 10029 -10032 10035 10038 10041 10044 -10047 0
-10048 361 376 0
-10048 -361 -376 0
10048 -361 376 0
10048 361 -376 0
-10049 362 377 0
-10049 -362 -377 0
10049 -362 377 0
10049 362 -377 0
-10050 363 378 0
-10050 -363 -378 0
10050 -363 378 0
10050 363 -378 0
-10051 364 379 0
-10051 -364 -379 0
10051 -364 379 0
10051 364 -379 0
-10052 365 380 0
-10052 -365 -380 0
10052 -365 380 0
10052 365 -380 0
-10053 366 381 0
-10053 -366 -381 0
10053 -366 381 0
10053 366 -381 0
-10054 367 382 0
-10054 -367 -382 0
10054 -367 382 0
10054 367 -382 0
-10055 368 383 0
-10055 -368 -383 0
10055 -368 383 0
10055 368 -383 0
-10056 369 384 0
-10056 -369 -384 0
10056 -369 384 0
10056 369 -384 0
-10057 370 385 0
-10057 -370 -385 0
10057 -370 385 0
10057 370 -385 0
-10058 371 386 0
-10058 -371 -386 0
10058 -371 386 0
10058 371 -386 0
-10059 372 387 0
-10059 -372 -387 0
10059 -372 387 0
10059 372 -387 0
-10060 373 388 0
-10060 -373 -388 0
10060 -373 388 0
10060 373 -388 0
-10061 374 389 0
-10061 -374 -389 0
10061 -374 389 0
10061 374 -389 0
-10062 375 390 0
-10062 -375 -390 0
10062 -375 390 0
10062 375 -390 0
10048 10049 10050 10051 10052 10053 10054 10055 10056 10057 10058 10059 10060 10061 10062 0
-10063 361 376 0
-10063 -361 -376 0
10063 -361 376 0
10063 361 -376 0
-10064 362 377 0
-10064 -362 -377 0
10064 -362 377 0
10064 362 -377 0
-10065 363 378 0
-10065 -363 -378 0
10065 -363 378 0
10065 363 -378 0
-10066 364 379 0
-10066 -364 -379 0
10066 -364 379 0
10066 364 -379 0
-10067 365 380 0
-10067 -365 -380 0
10067 -365 380 0
10067 365 -380 0
-10068 366 381 0
-10068 -366 -381 0
10068 -366 381 0
10068 366 -381 0
-10069 367 382 0
-10069 -367 -382 0
10069 -367 382 0
10069 367 -382 0
-10070 368 383 0
-10070 -368 -383 0
10070 -368 383 0
10070 368 -383 0
-10071 369 384 0
-10071 -369 -384 0
10071 -369 384 0
10071 369 -384 0
-10072 370 385 0
-10072 -370 -385 0
10072 -370 385 0
10072 370 -385 0
-10073 371 386 0
-10073 -371 -386 0
10073 -371 386 0
10073 371 -386 0
-10074 372 387 0
-10074 -372 -387 0
10074 -372 387 0
10074 372 -387 0
-10075 373 388 0
-10075 -373 -388 0
10075 -373 388 0
10075 373 -388 0
-10076 374 389 0
-10076 -374 -389 0
10076 -374 389 0
10076 374 -389 0
-10077 375 390 0
-10077 -375 -390 0
10077 -375 390 0
10077 375 -390 0
-10063 10064 10065 10066 10067 10068 10069 10070 10071 -10072 10073 10074 10075 10076 -10077 0
-10078 316 361 0
-10078 -316 -361 0
10078 -316 361 0
10078 316 -361 0
-10079 10078 376 0
-10079 -10078 -376 0
10079 -10078 376 0
10079 10078 -376 0
-10080 317 362 0
-10080 -317 -362 0
10080 -317 362 0
10080 317 -362 0
-10081 10080 377 0
-10081 -10080 -377 0
10081 -10080 377 0
10081 10080 -377 0
-10082 318 363 0
-10082 -318 -363 0
10082 -318 363 0
10082 318 -363 0
-10083 10082 378 0
-10083 -10082 -378 0
10083 -10082 378 0
10083 10082 -378 0
-10084 319 364 0
-10084 -319 -364 0
10084 -319 364 0
10084 319 -364 0
-10085 10084 379 0
-10085 -10084 -379 0
10085 -10084 379 0
10085 10084 -379 0
-10086 320 365 0
-10086 -320 -365 0
10086 -320 365 0
10086 320 -365 0
-10087 10086 380 0
-10087 -10086 -380 0
10087 -10086 380 0
10087 10086 -380 0
-10088 321 366 0
-10088 -321 -366 0
10088 -321 366 0
10088 321 -366 0
-10089 10088 381 0
-10089 -10088 -381 0
10089 -10088 381 0
10089 10088 -381 0
-10090 322 367 0
-10090 -322 -367 0
10090 -322 367 0
10090 322 -367 0
-10091 10090 382 0
-10091 -10090 -382 0
10091 -10090 382 0
10091 10090 -382 0
-10092 323 368 0
-10092 -323 -368 0
10092 -323 368 0
10092 323 -368 0
-10093 10092 383 0
-10093 -10092 -383 0
10093 -10092 383 0
10093 10092 -383 0
-10094 324 369 0
-10094 -324 -369 0
10094 -324 369 0
10094 324 -369 0
-10095 10094 384 0
-10095 -10094 -384 0
10095 -10094 384 0
10095 10094 -384 0
-10096 325 370 0
-10096 -325 -370 0
10096 -325 370 0
10096 325 -370 0
-10097 10096 385 0
-10097 -10096 -385 0
10097 -10096 385 0
10097 10096 -385 0
-10098 326 371 0
-10098 -326 -371 0
10098 -326 371 0
10098 326 -371 0
-10099 10098 386 0
-10099 -10098 -386 0
10099 -10098 386 0
10099 10098 -386 0
-10100 327 372 0
-10100 -327 -372 0
10100 -327 372 0
10100 327 -372 0
-10101 10100 387 0
-10101 -10100 -387 0
10101 -10100 387 0
10101 10100 -387 0
-10102 328 373 0
-10102 -328 -373 0
10102 -328 373 0
10102 328 -373 0
-10103 10102 388 0
-10103 -10102 -388 0
10103 -10102 388 0
10103 10102 -388 0
-10104 329 374 0
-10104 -329 -374 0
10104 -329 374 0
10104 329 -374 0
-10105 10104 389 0
-10105 -10104 -389 0
10105 -10104 389 0
10105 10104 -389 0
-10106 330 375 0
-10106 -330 -375 0
10106 -330 375 0
10106 330 -375 0
-10107 10106 390 0
-10107 -10106 -390 0
10107 -10106 390 0
10107 10106 -390 0
10079 10081 10083 10085 10087 10089 10091 10093 10095 10097 10099 10101 10103 10105 10107 0
-10108 316 361 0
-10108 -316 -361 0
10108 -316 361 0
10108 316 -361 0
-10109 10108 376 0
-10109 -10108 -376 0
10109 -10108 376 0
10109 10108 -376 0
-10110 317 362 0
-10110 -317 -362 0
10110 -317 362 0
10110 317 -362 0
-10111 10110 377 0
-10111 -10110 -377 0
10111 -10110 377 0
10111 10110 -377 0
-10112 318 363 0
-10112 -318 -363 0
10112 -318 363 0
10112 318 -363 0
-10113 10112 378 0
-10113 -10112 -378 0
10113 -10112 378 0
10113 10112 -378 0
-10114 319 364 0
-10114 -319 -364 0
10114 -319 364 0
10114 319 -364 0
-10115 10114 379 0
-10115 -10114 -379 0
10115 -10114 379 0
10115 10114 -379 0
-10116 320 365 0
-10116 -320 -365 0
10116 -320 365 0
10116 320 -365 0
-10117 10116 380 0
-10117 -10116 -380 0
10117 -10116 380 0
10117 10116 -380 0
-10118 321 366 0
-10118 -321 -366 0
10118 -321 366 0
10118 321 -366 0
-10119 10118 381 0
-10119 -10118 -381 0
10119 -10118 381 0
10119 10118 -381 0
-10120 322 367 0
-10120 -322 -367 0
10120 -322 367 0
10120 322 -367 0
-10121 10120 382 0
-10121 -10120 -382 0
10121 -10120 382 0
10121 10120 -382 0
-10122 323 368 0
-10122 -323 -368 0
10122 -323 368 0
10122 323 -368 0
-10123 10122 383 0
-10123 -10122 -383 0
10123 -10122 383 0
10123 10122 -383 0
-10124 324 369 0
-10124 -324 -369 0
10124 -324 369 0
10124 324 -369 0
-10125 10124 384 0
-10125 -10124 -384 0
10125 -10124 384 0
10125 10124 -384 0
-10126 325 370 0
-10126 -325 -370 0
10126 -325 370 0
10126 325 -370 0
-10127 10126 385 0
-10127 -10126 -385 0
10127 -10126 385 0
10127 10126 -385 0
-10128 326 371 0
-10128 -326 -371 0
10128 -326 371 0
10128 326 -371 0
-10129 10128 386 0
-10129 -10128 -386 0
10129 -10128 386 0
10129 10128 -386 0
-10130 327 372 0
-10130 -327 -372 0
10130 -327 372 0
10130 327 -372 0
-10131 10130 387 0
-10131 -10130 -387 0
10131 -10130 387 0
10131 10130 -387 0
-10132 328 373 0
-10132 -328 -373 0
10132 -328 373 0
10132 328 -373 0
-10133 10132 388 0
-10133 -10132 -388 0
10133 -10132 388 0
10133 10132 -388 0
-10134 329 374 0
-10134 -329 -374 0
10134 -329 374 0
10134 329 -374 0
-10135 10134 389 0
-10135 -10134 -389 0
10135 -10134 389 0
10135 10134 -389 0
-10136 330 375 0
-10136 -330 -375 0
10136 -330 375 0
10136 330 -375 0
-10137 10136 390 0
-10137 -10136 -390 0
10137 -10136 390 0
10137 10136 -390 0
-10109 10111 10113 10115 10117 10119 10121 10123 10125 -10127 10129 10131 10133 10135 -10137 0
-10138 331 361 0
-10138 -331 -361 0
10138 -331 361 0
10138 331 -361 0
-10139 10138 376 0
-10139 -10138 -376 0
10139 -10138 376 0
10139 10138 -376 0
-10140 332 362 0
-10140 -332 -362 0
10140 -332 362 0
10140 332 -362 0
-10141 10140 377 0
-10141 -10140 -377 0
10141 -10140 377 0
10141 10140 -377 0
-10142 333 363 0
-10142 -333 -363 0
10142 -333 363 0
10142 333 -363 0
-10143 10142 378 0
-10143 -10142 -378 0
10143 -10142 378 0
10143 10142 -378 0
-10144 334 364 0
-10144 -334 -364 0
10144 -334 364 0
10144 334 -364 0
-10145 10144 379 0
-10145 -10144 -379 0
10145 -10144 379 0
10145 10144 -379 0
-10146 335 365 0
-10146 -335 -365 0
10146 -335 365 0
10146 335 -365 0
-10147 10146 380 0
-10147 -10146 -380 0
10147 -10146 380 0
10147 10146 -380 0
-10148 336 366 0
-10148 -336 -366 0
10148 -336 366 0
10148 336 -366 0
-10149 10148 381 0
-10149 -10148 -381 0
10149 -10148 381 0
10149 10148 -381 0
-10150 337 367 0
-10150 -337 -367 0
10150 -337 367 0
10150 337 -367 0
-10151 10150 382 0
-10151 -10150 -382 0
10151 -10150 382 0
10151 10150 -382 0
-10152 338 368 0
-10152 -338 -368 0
10152 -338 368 0
10152 338 -368 0
-10153 10152 383 0
-10153 -10152 -383 0
10153 -10152 383 0
10153 10152 -383 0
-10154 339 369 0
-10154 -339 -369 0
10154 -339 369 0
10154 339 -369 0
-10155 10154 384 0
-10155 -10154 -384 0
10155 -10154 384 0
10155 10154 -384 0
-10156 340 370 0
-10156 -340 -370 0
10156 -340 370 0
10156 340 -370 0
-10157 10156 385 0
-10157 -10156 -385 0
10157 -10156 385 0
10157 10156 -385 0
-10158 341 371 0
-10158 -341 -371 0
10158 -341 371 0
10158 341 -371 0
-10159 10158 386 0
-10159 -10158 -386 0
10159 -10158 386 0
10159 10158 -386 0
-10160 342 372 0
-10160 -342 -372 0
10160 -342 372 0
10160 342 -372 0
-10161 10160 387 0
-10161 -10160 -387 0
10161 -10160 387 0
10161 10160 -387 0
-10162 343 373 0
-10162 -343 -373 0
10162 -343 373 0
10162 343 -373 0
-10163 10162 388 0
-10163 -10162 -388 0
10163 -10162 388 0
10163 10162 -388 0
-10164 344 374 0
-10164 -344 -374 0
10164 -344 374 0
10164 344 -374 0
-10165 10164 389 0
-10165 -10164 -389 0
10165 -10164 389 0
10165 10164 -389 0
-10166 345 375 0
-10166 -345 -375 0
10166 -345 375 0
10166 345 -375 0
-10167 10166 390 0
-10167 -10166 -390 0
10167 -10166 390 0
10167 10166 -390 0
10139 10141 10143 10145 10147 10149 10151 10153 10155 10157 10159 10161 10163 10165 10167 0
-10168 331 361 0
-10168 -331 -361 0
10168 -331 361 0
10168 331 -361 0
-10169 10168 376 0
-10169 -10168 -376 0
10169 -10168 376 0
10169 10168 -376 0
-10170 332 362 0
-10170 -332 -362 0
10170 -332 362 0
10170 332 -362 0
-10171 10170 377 0
-10171 -10170 -377 0
10171 -10170 377 0
10171 10170 -377 0
-10172 333 363 0
-10172 -333 -363 0
10172 -333 363 0
10172 333 -363 0
-10173 10172 378 0
-10173 -10172 -378 0
10173 -10172 378 0
10173 10172 -378 0
-10174 334 364 0
-10174 -334 -364 0
10174 -334 364 0
10174 334 -364 0
-10175 10174 379 0
-10175 -10174 -379 0
10175 -10174 379 0
10175 10174 -379 0
-10176 335 365 0
-10176 -335 -365 0
10176 -335 365 0
10176 335 -365 0
-10177 10176 380 0
-10177 -10176 -380 0
10177 -10176 380 0
10177 10176 -380 0
-10178 336 366 0
-10178 -336 -366 0
10178 -336 366 0
10178 336 -366 0
-10179 10178 381 0
-10179 -10178 -381 0
10179 -10178 381 0
10179 10178 -381 0
-10180 337 367 0
-10180 -337 -367 0
10180 -337 367 0
10180 337 -367 0
-10181 10180 382 0
-10181 -10180 -382 0
10181 -10180 382 0
10181 10180 -382 0
-10182 338 368 0
-10182 -338 -368 0
10182 -338 368 0
10182 338 -368 0
-10183 10182 383 0
-10183 -10182 -383 0
10183 -10182 383 0
10183 10182 -383 0
-10184 339 369 0
-10184 -339 -369 0
10184 -339 369 0
10184 339 -369 0
-10185 10184 384 0
-10185 -10184 -384 0
10185 -10184 384 0
10185 10184 -384 0
-10186 340 370 0
-10186 -340 -370 0
10186 -340 370 0
10186 340 -370 0
-10187 10186 385 0
-10187 -10186 -385 0
10187 -10186 385 0
10187 10186 -385 0
-10188 341 371 0
-10188 -341 -371 0
10188 -341 371 0
10188 341 -371 0
-10189 10188 386 0
-10189 -10188 -386 0
10189 -10188 386 0
10189 10188 -386 0
-10190 342 372 0
-10190 -342 -372 0
10190 -342 372 0
10190 342 -372 0
-10191 10190 387 0
-10191 -10190 -387 0
10191 -10190 387 0
10191 10190 -387 0
-10192 343 373 0
-10192 -343 -373 0
10192 -343 373 0
10192 343 -373 0
-10193 10192 388 0
-10193 -10192 -388 0
10193 -10192 388 0
10193 10192 -388 0
-10194 344 374 0
-10194 -344 -374 0
10194 -344 374 0
10194 344 -374 0
-10195 10194 389 0
-10195 -10194 -389 0
10195 -10194 389 0
10195 10194 -389 0
-10196 345 375 0
-10196 -345 -375 0
10196 -345 375 0
10196 345 -375 0
-10197 10196 390 0
-10197 -10196 -390 0
10197 -10196 390 0
10197 10196 -390 0
-10169 10171 10173 10175 10177 10179 10181 10183 10185 -10187 10189 10191 10193 10195 -10197 0
-10198 316 331 0
-10198 -316 -331 0
10198 -316 331 0
10198 316 -331 0
-10199 10198 361 0
-10199 -10198 -361 0
10199 -10198 361 0
10199 10198 -361 0
-10200 10199 376 0
-10200 -10199 -376 0
10200 -10199 376 0
10200 10199 -376 0
-10201 317 332 0
-10201 -317 -332 0
10201 -317 332 0
10201 317 -332 0
-10202 10201 362 0
-10202 -10201 -362 0
10202 -10201 362 0
10202 10201 -362 0
-10203 10202 377 0
-10203 -10202 -377 0
10203 -10202 377 0
10203 10202 -377 0
-10204 318 333 0
-10204 -318 -333 0
10204 -318 333 0
10204 318 -333 0
-10205 10204 363 0
-10205 -10204 -363 0
10205 -10204 363 0
10205 10204 -363 0
-10206 10205 378 0
-10206 -10205 -378 0
10206 -10205 378 0
10206 10205 -378 0
-10207 319 334 0
-10207 -319 -334 0
10207 -319 334 0
10207 319 -334 0
-10208 10207 364 0
-10208 -10207 -364 0
10208 -10207 364 0
10208 10207 -364 0
-10209 10208 379 0
-10209 -10208 -379 0
10209 -10208 379 0
10209 10208 -379 0
-10210 320 335 0
-10210 -320 -335 0
10210 -320 335 0
10210 320 -335 0
-10211 10210 365 0
-10211 -10210 -365 0
10211 -10210 365 0
10211 10210 -365 0
-10212 10211 380 0
-10212 -10211 -380 0
10212 -10211 380 0
10212 10211 -380 0
-10213 321 336 0
-10213 -321 -336 0
10213 -321 336 0
10213 321 -336 0
-10214 10213 366 0
-10214 -10213 -366 0
10214 -10213 366 0
10214 10213 -366 0
-10215 10214 381 0
-10215 -10214 -381 0
10215 -10214 381 0
10215 10214 -381 0
-10216 322 337 0
-10216 -322 -337 0
10216 -322 337 0
10216 322 -337 0
-10217 10216 367 0
-10217 -10216 -367 0
10217 -10216 367 0
10217 10216 -367 0
-10218 10217 382 0
-10218 -10217 -382 0
10218 -10217 382 0
10218 10217 -382 0
-10219 323 338 0
-10219 -323 -338 0
10219 -323 338 0
10219 323 -338 0
-10220 10219 368 0
-10220 -10219 -368 0
10220 -10219 368 0
10220 10219 -368 0
-10221 10220 383 0
-10221 -10220 -383 0
10221 -10220 383 0
10221 10220 -383 0
-10222 324 339 0
-10222 -324 -339 0
10222 -324 339 0
10222 324 -339 0
-10223 10222 369 0
-10223 -10222 -369 0
10223 -10222 369 0
10223 10222 -369 0
-10224 10223 384 0
-10224 -10223 -384 0
10224 -10223 384 0
10224 10223 -384 0
-10225 325 340 0
-10225 -325 -340 0
10225 -325 340 0
10225 325 -340 0
-10226 10225 370 0
-10226 -10225 -370 0
10226 -10225 370 0
10226 10225 -370 0
-10227 10226 385 0
-10227 -10226 -385 0
10227 -10226 385 0
10227 10226 -385 0
-10228 326 341 0
-10228 -326 -341 0
10228 -326 341 0
10228 326 -341 0
-10229 10228 371 0
-10229 -10228 -371 0
10229 -10228 371 0
10229 10228 -371 0
-10230 10229 386 0
-10230 -10229 -386 0
10230 -10229 386 0
10230 10229 -386 0
-10231 327 342 0
-10231 -327 -342 0
10231 -327 342 0
10231 327 -342 0
-10232 10231 372 0
-10232 -10231 -372 0
10232 -10231 372 0
10232 10231 -372 0
-10233 10232 387 0
-10233 -10232 -387 0
10233 -10232 387 0
10233 10232 -387 0
-10234 328 343 0
-10234 -328 -343 0
10234 -328 343 0
10234 328 -343 0
-10235 10234 373 0
-10235 -10234 -373 0
10235 -10234 373 0
10235 10234 -373 0
-10236 10235 388 0
-10236 -10235 -388 0
10236 -10235 388 0
10236 10235 -388 0
-10237 329 344 0
-10237 -329 -344 0
10237 -329 344 0
10237 329 -344 0
-10238 10237 374 0
-10238 -10237 -374 0
10238 -10237 374 0
10238 10237 -374 0
-10239 10238 389 0
-10239 -10238 -389 0
10239 -10238 389 0
10239 10238 -389 0
-10240 330 345 0
-10240 -330 -345 0
10240 -330 345 0
10240 330 -345 0
-10241 10240 375 0
-10241 -10240 -375 0
10241 -10240 375 0
10241 10240 -375 0
-10242 10241 390 0
-10242 -10241 -390 0
10242 -10241 390 0
10242 10241 -390 0
10200 10203 10206 10209 10212 10215 10218 10221 10224 10227 10230 10233 10236 10239 10242 0
-10243 316 331 0
-10243 -316 -331 0
10243 -316 331 0
10243 316 -331 0
-10244 10243 361 0
-10244 -10243 -361 0
10244 -10243 361 0
10244 10243 -361 0
-10245 10244 376 0
-10245 -10244 -376 0
10245 -10244 376 0
10245 10244 -376 0
-10246 317 332 0
-10246 -317 -332 0
10246 -317 332 0
10246 317 -332 0
-10247 10246 362 0
-10247 -10246 -362 0
10247 -10246 362 0
10247 10246 -362 0
-10248 10247 377 0
-10248 -10247 -377 0
10248 -10247 377 0
10248 10247 -377 0
-10249 318 333 0
-10249 -318 -333 0
10249 -318 333 0
10249 318 -333 0
-10250 10249 363 0
-10250 -10249 -363 0
10250 -10249 363 0
10250 10249 -363 0
-10251 10250 378 0
-10251 -10250 -378 0
10251 -10250 378 0
10251 10250 -378 0
-10252 319 334 0
-10252 -319 -334 0
10252 -319 334 0
10252 319 -334 0
-10253 10252 364 0
-10253 -10252 -364 0
10253 -10252 364 0
10253 10252 -364 0
-10254 10253 379 0
-10254 -10253 -379 0
10254 -10253 379 0
10254 10253 -379 0
-10255 320 335 0
-10255 -320 -335 0
10255 -320 335 0
10255 320 -335 0
-10256 10255 365 0
-10256 -10255 -365 0
10256 -10255 365 0
10256 10255 -365 0
-10257 10256 380 0
-10257 -10256 -380 0
10257 -10256 380 0
10257 10256 -380 0
-10258 321 336 0
-10258 -321 -336 0
10258 -321 336 0
10258 321 -336 0
-10259 10258 366 0
-10259 -10258 -366 0
10259 -10258 366 0
10259 10258 -366 0
-10260 10259 381 0
-10260 -10259 -381 0
10260 -10259 381 0
10260 10259 -381 0
-10261 322 337 0
-10261 -322 -337 0
10261 -322 337 0
10261 322 -337 0
-10262 10261 367 0
-10262 -10261 -367 0
10262 -10261 367 0
10262 10261 -367 0
-10263 10262 382 0
-10263 -10262 -382 0
10263 -10262 382 0
10263 10262 -382 0
-10264 323 338 0
-10264 -323 -338 0
10264 -323 338 0
10264 323 -338 0
-10265 10264 368 0
-10265 -10264 -368 0
10265 -10264 368 0
10265 10264 -368 0
-10266 10265 383 0
-10266 -10265 -383 0
10266 -10265 383 0
10266 10265 -383 0
-10267 324 339 0
-10267 -324 -339 0
10267 -324 339 0
10267 324 -339 0
-10268 10267 369 0
-10268 -10267 -369 0
10268 -10267 369 0
10268 10267 -369 0
-10269 10268 384 0
-10269 -10268 -384 0
10269 -10268 384 0
10269 10268 -384 0
-10270 325 340 0
-10270 -325 -340 0
10270 -325 340 0
10270 325 -340 0
-10271 10270 370 0
-10271 -10270 -370 0
10271 -10270 370 0
10271 10270 -370 0
-10272 10271 385 0
-10272 -10271 -385 0
10272 -10271 385 0
10272 10271 -385 0
-10273 326 341 0
-10273 -326 -341 0
10273 -326 341 0
10273 326 -341 0
-10274 10273 371 0
-10274 -10273 -371 0
10274 -10273 371 0
10274 10273 -371 0
-10275 10274 386 0
-10275 -10274 -386 0
10275 -10274 386 0
10275 10274 -386 0
-10276 327 342 0
-10276 -327 -342 0
10276 -327 342 0
10276 327 -342 0
-10277 10276 372 0
-10277 -10276 -372 0
10277 -10276 372 0
10277 10276 -372 0
-10278 10277 387 0
-10278 -10277 -387 0
10278 -10277 387 0
10278 10277 -387 0
-10279 328 343 0
-10279 -328 -343 0
10279 -328 343 0
10279 328 -343 0
-10280 10279 373 0
-10280 -10279 -373 0
10280 -10279 373 0
10280 10279 -373 0
-10281 10280 388 0
-10281 -10280 -388 0
10281 -10280 388 0
10281 10280 -388 0
-10282 329 344 0
-10282 -329 -344 0
10282 -329 344 0
10282 329 -344 0
-10283 10282 374 0
-10283 -10282 -374 0
10283 -10282 374 0
10283 10282 -374 0
-10284 10283 389 0
-10284 -10283 -389 0
10284 -10283 389 0
10284 10283 -389 0
-10285 330 345 0
-10285 -330 -345 0
10285 -330 345 0
10285 330 -345 0
-10286 10285 375 0
-10286 -10285 -375 0
10286 -10285 375 0
10286 10285 -375 0
-10287 10286 390 0
-10287 -10286 -390 0
10287 -10286 390 0
10287 10286 -390 0
-10245 10248 10251 10254 10257 10260 10263 10266 10269 -10272 10275 10278 10281 10284 -10287 0
-10288 346 361 0
-10288 -346 -361 0
10288 -346 361 0
10288 346 -361 0
-10289 10288 376 0
-10289 -10288 -376 0
10289 -10288 376 0
10289 10288 -376 0
-10290 347 362 0
-10290 -347 -362 0
10290 -347 362 0
10290 347 -362 0
-10291 10290 377 0
-10291 -10290 -377 0
10291 -10290 377 0
10291 10290 -377 0
-10292 348 363 0
-10292 -348 -363 0
10292 -348 363 0
10292 348 -363 0
-10293 10292 378 0
-10293 -10292 -378 0
10293 -10292 378 0
10293 10292 -378 0
-10294 349 364 0
-10294 -349 -364 0
10294 -349 364 0
10294 349 -364 0
-10295 10294 379 0
-10295 -10294 -379 0
10295 -10294 379 0
10295 10294 -379 0
-10296 350 365 0
-10296 -350 -365 0
10296 -350 365 0
10296 350 -365 0
-10297 10296 380 0
-10297 -10296 -380 0
10297 -10296 380 0
10297 10296 -380 0
-10298 351 366 0
-10298 -351 -366 0
10298 -351 366 0
10298 351 -366 0
-10299 10298 381 0
-10299 -10298 -381 0
10299 -10298 381 0
10299 10298 -381 0
-10300 352 367 0
-10300 -352 -367 0
10300 -352 367 0
10300 352 -367 0
-10301 10300 382 0
-10301 -10300 -382 0
10301 -10300 382 0
10301 10300 -382 0
-10302 353 368 0
-10302 -353 -368 0
10302 -353 368 0
10302 353 -368 0
-10303 10302 383 0
-10303 -10302 -383 0
10303 -10302 383 0
10303 10302 -383 0
-10304 354 369 0
-10304 -354 -369 0
10304 -354 369 0
10304 354 -369 0
-10305 10304 384 0
-10305 -10304 -384 0
10305 -10304 384 0
10305 10304 -384 0
-10306 355 370 0
-10306 -355 -370 0
10306 -355 370 0
10306 355 -370 0
-10307 10306 385 0
-10307 -10306 -385 0
10307 -10306 385 0
10307 10306 -385 0
-10308 356 371 0
-10308 -356 -371 0
10308 -356 371 0
10308 356 -371 0
-10309 10308 386 0
-10309 -10308 -386 0
10309 -10308 386 0
10309 10308 -386 0
-10310 357 372 0
-10310 -357 -372 0
10310 -357 372 0
10310 357 -372 0
-10311 10310 387 0
-10311 -10310 -387 0
10311 -10310 387 0
10311 10310 -387 0
-10312 358 373 0
-10312 -358 -373 0
10312 -358 373 0
10312 358 -373 0
-10313 10312 388 0
-10313 -10312 -388 0
10313 -10312 388 0
10313 10312 -388 0
-10314 359 374 0
-10314 -359 -374 0
10314 -359 374 0
10314 359 -374 0
-10315 10314 389 0
-10315 -10314 -389 0
10315 -10314 389 0
10315 10314 -389 0
-10316 360 375 0
-10316 -360 -375 0
10316 -360 375 0
10316 360 -375 0
-10317 10316 390 0
-10317 -10316 -390 0
10317 -10316 390 0
10317 10316 -390 0
10289 10291 10293 10295 10297 10299 10301 10303 10305 10307 10309 10311 10313 10315 10317 0
-10318 346 361 0
-10318 -346 -361 0
10318 -346 361 0
10318 346 -361 0
-10319 10318 376 0
-10319 -10318 -376 0
10319 -10318 376 0
10319 10318 -376 0
-10320 347 362 0
-10320 -347 -362 0
10320 -347 362 0
10320 347 -362 0
-10321 10320 377 0
-10321 -10320 -377 0
10321 -10320 377 0
10321 10320 -377 0
-10322 348 363 0
-10322 -348 -363 0
10322 -348 363 0
10322 348 -363 0
-10323 10322 378 0
-10323 -10322 -378 0
10323 -10322 378 0
10323 10322 -378 0
-10324 349 364 0
-10324 -349 -364 0
10324 -349 364 0
10324 349 -364 0
-10325 10324 379 0
-10325 -10324 -379 0
10325 -10324 379 0
10325 10324 -379 0
-10326 350 365 0
-10326 -350 -365 0
10326 -350 365 0
10326 350 -365 0
-10327 10326 380 0
-10327 -10326 -380 0
10327 -10326 380 0
10327 10326 -380 0
-10328 351 366 0
-10328 -351 -366 0
10328 -351 366 0
10328 351 -366 0
-10329 10328 381 0
-10329 -10328 -381 0
10329 -10328 381 0
10329 10328 -381 0
-10330 352 367 0
-10330 -352 -367 0
10330 -352 367 0
10330 352 -367 0
-10331 10330 382 0
-10331 -10330 -382 0
10331 -10330 382 0
10331 10330 -382 0
-10332 353 368 0
-10332 -353 -368 0
10332 -353 368 0
10332 353 -368 0
-10333 10332 383 0
-10333 -10332 -383 0
10333 -10332 383 0
10333 10332 -383 0
-10334 354 369 0
-10334 -354 -369 0
10334 -354 369 0
10334 354 -369 0
-10335 10334 384 0
-10335 -10334 -384 0
10335 -10334 384 0
10335 10334 -384 0
-10336 355 370 0
-10336 -355 -370 0
10336 -355 370 0
10336 355 -370 0
-10337 10336 385 0
-10337 -10336 -385 0
10337 -10336 385 0
10337 10336 -385 0
-10338 356 371 0
-10338 -356 -371 0
10338 -356 371 0
10338 356 -371 0
-10339 10338 386 0
-10339 -10338 -386 0
10339 -10338 386 0
10339 10338 -386 0
-10340 357 372 0
-10340 -357 -372 0
10340 -357 372 0
10340 357 -372 0
-10341 10340 387 0
-10341 -10340 -387 0
10341 -10340 387 0
10341 10340 -387 0
-10342 358 373 0
-10342 -358 -373 0
10342 -358 373 0
10342 358 -373 0
-10343 10342 388 0
-10343 -10342 -388 0
10343 -10342 388 0
10343 10342 -388 0
-10344 359 374 0
-10344 -359 -374 0
10344 -359 374 0
10344 359 -374 0
-10345 10344 389 0
-10345 -10344 -389 0
10345 -10344 389 0
10345 10344 -389 0
-10346 360 375 0
-10346 -360 -375 0
10346 -360 375 0
10346 360 -375 0
-10347 10346 390 0
-10347 -10346 -390 0
10347 -10346 390 0
10347 10346 -390 0
-10319 10321 10323 10325 10327 10329 10331 10333 10335 -10337 10339 10341 10343 10345 -10347 0
-10348 316 346 0
-10348 -316 -346 0
10348 -316 346 0
10348 316 -346 0
-10349 10348 361 0
-10349 -10348 -361 0
10349 -10348 361 0
10349 10348 -361 0
-10350 10349 376 0
-10350 -10349 -376 0
10350 -10349 376 0
10350 10349 -376 0
-10351 317 347 0
-10351 -317 -347 0
10351 -317 347 0
10351 317 -347 0
-10352 10351 362 0
-10352 -10351 -362 0
10352 -10351 362 0
10352 10351 -362 0
-10353 10352 377 0
-10353 -10352 -377 0
10353 -10352 377 0
10353 10352 -377 0
-10354 318 348 0
-10354 -318 -348 0
10354 -318 348 0
10354 318 -348 0
-10355 10354 363 0
-10355 -10354 -363 0
10355 -10354 363 0
10355 10354 -363 0
-10356 10355 378 0
-10356 -10355 -378 0
10356 -10355 378 0
10356 10355 -378 0
-10357 319 349 0
-10357 -319 -349 0
10357 -319 349 0
10357 319 -349 0
-10358 10357 364 0
-10358 -10357 -364 0
10358 -10357 364 0
10358 10357 -364 0
-10359 10358 379 0
-10359 -10358 -379 0
10359 -10358 379 0
10359 10358 -379 0
-10360 320 350 0
-10360 -320 -350 0
10360 -320 350 0
10360 320 -350 0
-10361 10360 365 0
-10361 -10360 -365 0
10361 -10360 365 0
10361 10360 -365 0
-10362 10361 380 0
-10362 -10361 -380 0
10362 -10361 380 0
10362 10361 -380 0
-10363 321 351 0
-10363 -321 -351 0
10363 -321 351 0
10363 321 -351 0
-10364 10363 366 0
-10364 -10363 -366 0
10364 -10363 366 0
10364 10363 -366 0
-10365 10364 381 0
-10365 -10364 -381 0
10365 -10364 381 0
10365 10364 -381 0
-10366 322 352 0
-10366 -322 -352 0
10366 -322 352 0
10366 322 -352 0
-10367 10366 367 0
-10367 -10366 -367 0
10367 -10366 367 0
10367 10366 -367 0
-10368 10367 382 0
-10368 -10367 -382 0
10368 -10367 382 0
10368 10367 -382 0
-10369 323 353 0
-10369 -323 -353 0
10369 -323 353 0
10369 323 -353 0
-10370 10369 368 0
-10370 -10369 -368 0
10370 -10369 368 0
10370 10369 -368 0
-10371 10370 383 0
-10371 -10370 -383 0
10371 -10370 383 0
10371 10370 -383 0
-10372 324 354 0
-10372 -324 -354 0
10372 -324 354 0
10372 324 -354 0
-10373 10372 369 0
-10373 -10372 -369 0
10373 -10372 369 0
10373 10372 -369 0
-10374 10373 384 0
-10374 -10373 -384 0
10374 -10373 384 0
10374 10373 -384 0
-10375 325 355 0
-10375 -325 -355 0
10375 -325 355 0
10375 325 -355 0
-10376 10375 370 0
-10376 -10375 -370 0
10376 -10375 370 0
10376 10375 -370 0
-10377 10376 385 0
-10377 -10376 -385 0
10377 -10376 385 0
10377 10376 -385 0
-10378 326 356 0
-10378 -326 -356 0
10378 -326 356 0
10378 326 -356 0
-10379 10378 371 0
-10379 -10378 -371 0
10379 -10378 371 0
10379 10378 -371 0
-10380 10379 386 0
-10380 -10379 -386 0
10380 -10379 386 0
10380 10379 -386 0
-10381 327 357 0
-10381 -327 -357 0
10381 -327 357 0
10381 327 -357 0
-10382 10381 372 0
-10382 -10381 -372 0
10382 -10381 372 0
10382 10381 -372 0
-10383 10382 387 0
-10383 -10382 -387 0
10383 -10382 387 0
10383 10382 -387 0
-10384 328 358 0
-10384 -328 -358 0
10384 -328 358 0
10384 328 -358 0
-10385 10384 373 0
-10385 -10384 -373 0
10385 -10384 373 0
10385 10384 -373 0
-10386 10385 388 0
-10386 -10385 -388 0
10386 -10385 388 0
10386 10385 -388 0
-10387 329 359 0
-10387 -329 -359 0
10387 -329 359 0
10387 329 -359 0
-10388 10387 374 0
-10388 -10387 -374 0
10388 -10387 374 0
10388 10387 -374 0
-10389 10388 389 0
-10389 -10388 -389 0
10389 -10388 389 0
10389 10388 -389 0
-10390 330 360 0
-10390 -330 -360 0
10390 -330 360 0
10390 330 -360 0
-10391 10390 375 0
-10391 -10390 -375 0
10391 -10390 375 0
10391 10390 -375 0
-10392 10391 390 0
-10392 -10391 -390 0
10392 -10391 390 0
10392 10391 -390 0
10350 10353 10356 10359 10362 10365 10368 10371 10374 10377 10380 10383 10386 10389 10392 0
-10393 316 346 0
-10393 -316 -346 0
10393 -316 346 0
10393 316 -346 0
-10394 10393 361 0
-10394 -10393 -361 0
10394 -10393 361 0
10394 10393 -361 0
-10395 10394 376 0
-10395 -10394 -376 0
10395 -10394 376 0
10395 10394 -376 0
-10396 317 347 0
-10396 -317 -347 0
10396 -317 347 0
10396 317 -347 0
-10397 10396 362 0
-10397 -10396 -362 0
10397 -10396 362 0
10397 10396 -362 0
-10398 10397 377 0
-10398 -10397 -377 0
10398 -10397 377 0
10398 10397 -377 0
-10399 318 348 0
-10399 -318 -348 0
10399 -318 348 0
10399 318 -348 0
-10400 10399 363 0
-10400 -10399 -363 0
10400 -10399 363 0
10400 10399 -363 0
-10401 10400 378 0
-10401 -10400 -378 0
10401 -10400 378 0
10401 10400 -378 0
-10402 319 349 0
-10402 -319 -349 0
10402 -319 349 0
10402 319 -349 0
-10403 10402 364 0
-10403 -10402 -364 0
10403 -10402 364 0
10403 10402 -364 0
-10404 10403 379 0
-10404 -10403 -379 0
10404 -10403 379 0
10404 10403 -379 0
-10405 320 350 0
-10405 -320 -350 0
10405 -320 350 0
10405 320 -350 0
-10406 10405 365 0
-10406 -10405 -365 0
10406 -10405 365 0
10406 10405 -365 0
-10407 10406 380 0
-10407 -10406 -380 0
10407 -10406 380 0
10407 10406 -380 0
-10408 321 351 0
-10408 -321 -351 0
10408 -321 351 0
10408 321 -351 0
-10409 10408 366 0
-10409 -10408 -366 0
10409 -10408 366 0
10409 10408 -366 0
-10410 10409 381 0
-10410 -10409 -381 0
10410 -10409 381 0
10410 10409 -381 0
-10411 322 352 0
-10411 -322 -352 0
10411 -322 352 0
10411 322 -352 0
-10412 10411 367 0
-10412 -10411 -367 0
10412 -10411 367 0
10412 10411 -367 0
-10413 10412 382 0
-10413 -10412 -382 0
10413 -10412 382 0
10413 10412 -382 0
-10414 323 353 0
-10414 -323 -353 0
10414 -323 353 0
10414 323 -353 0
-10415 10414 368 0
-10415 -10414 -368 0
10415 -10414 368 0
10415 10414 -368 0
-10416 10415 383 0
-10416 -10415 -383 0
10416 -10415 383 0
10416 10415 -383 0
-10417 324 354 0
-10417 -324 -354 0
10417 -324 354 0
10417 324 -354 0
-10418 10417 369 0
-10418 -10417 -369 0
10418 -10417 369 0
10418 10417 -369 0
-10419 10418 384 0
-10419 -10418 -384 0
10419 -10418 384 0
10419 10418 -384 0
-10420 325 355 0
-10420 -325 -355 0
10420 -325 355 0
10420 325 -355 0
-10421 10420 370 0
-10421 -10420 -370 0
10421 -10420 370 0
10421 10420 -370 0
-10422 10421 385 0
-10422 -10421 -385 0
10422 -10421 385 0
10422 10421 -385 0
-10423 326 356 0
-10423 -326 -356 0
10423 -326 356 0
10423 326 -356 0
-10424 10423 371 0
-10424 -10423 -371 0
10424 -10423 371 0
10424 10423 -371 0
-10425 10424 386 0
-10425 -10424 -386 0
10425 -10424 386 0
10425 10424 -386 0
-10426 327 357 0
-10426 -327 -357 0
10426 -327 357 0
10426 327 -357 0
-10427 10426 372 0
-10427 -10426 -372 0
10427 -10426 372 0
10427 10426 -372 0
-10428 10427 387 0
-10428 -10427 -387 0
10428 -10427 387 0
10428 10427 -387 0
-10429 328 358 0
-10429 -328 -358 0
10429 -328 358 0
10429 328 -358 0
-10430 10429 373 0
-10430 -10429 -373 0
10430 -10429 373 0
10430 10429 -373 0
-10431 10430 388 0
-10431 -10430 -388 0
10431 -10430 388 0
10431 10430 -388 0
-10432 329 359 0
-10432 -329 -359 0
10432 -329 359 0
10432 329 -359 0
-10433 10432 374 0
-10433 -10432 -374 0
10433 -10432 374 0
10433 10432 -374 0
-10434 10433 389 0
-10434 -10433 -389 0
10434 -10433 389 0
10434 10433 -389 0
-10435 330 360 0
-10435 -330 -360 0
10435 -330 360 0
10435 330 -360 0
-10436 10435 375 0
-10436 -10435 -375 0
10436 -10435 375 0
10436 10435 -375 0
-10437 10436 390 0
-10437 -10436 -390 0
10437 -10436 390 0
10437 10436 -390 0
-10395 10398 10401 10404 10407 10410 10413 10416 10419 -10422 10425 10428 10431 10434 -10437 0
-10438 331 346 0
-10438 -331 -346 0
10438 -331 346 0
10438 331 -346 0
-10439 10438 361 0
-10439 -10438 -361 0
10439 -10438 361 0
10439 10438 -361 0
-10440 10439 376 0
-10440 -10439 -376 0
10440 -10439 376 0
10440 10439 -376 0
-10441 332 347 0
-10441 -332 -347 0
10441 -332 347 0
10441 332 -347 0
-10442 10441 362 0
-10442 -10441 -362 0
10442 -10441 362 0
10442 10441 -362 0
-10443 10442 377 0
-10443 -10442 -377 0
10443 -10442 377 0
10443 10442 -377 0
-10444 333 348 0
-10444 -333 -348 0
10444 -333 348 0
10444 333 -348 0
-10445 10444 363 0
-10445 -10444 -363 0
10445 -10444 363 0
10445 10444 -363 0
-10446 10445 378 0
-10446 -10445 -378 0
10446 -10445 378 0
10446 10445 -378 0
-10447 334 349 0
-10447 -334 -349 0
10447 -334 349 0
10447 334 -349 0
-10448 10447 364 0
-10448 -10447 -364 0
10448 -10447 364 0
10448 10447 -364 0
-10449 10448 379 0
-10449 -10448 -379 0
10449 -10448 379 0
10449 10448 -379 0
-10450 335 350 0
-10450 -335 -350 0
10450 -335 350 0
10450 335 -350 0
-10451 10450 365 0
-10451 -10450 -365 0
10451 -10450 365 0
10451 10450 -365 0
-10452 10451 380 0
-10452 -10451 -380 0
10452 -10451 380 0
10452 10451 -380 0
-10453 336 351 0
-10453 -336 -351 0
10453 -336 351 0
10453 336 -351 0
-10454 10453 366 0
-10454 -10453 -366 0
10454 -10453 366 0
10454 10453 -366 0
-10455 10454 381 0
-10455 -10454 -381 0
10455 -10454 381 0
10455 10454 -381 0
-10456 337 352 0
-10456 -337 -352 0
10456 -337 352 0
10456 337 -352 0
-10457 10456 367 0
-10457 -10456 -367 0
10457 -10456 367 0
10457 10456 -367 0
-10458 10457 382 0
-10458 -10457 -382 0
10458 -10457 382 0
10458 10457 -382 0
-10459 338 353 0
-10459 -338 -353 0
10459 -338 353 0
10459 338 -353 0
-10460 10459 368 0
-10460 -10459 -368 0
10460 -10459 368 0
10460 10459 -368 0
-10461 10460 383 0
-10461 -10460 -383 0
10461 -10460 383 0
10461 10460 -383 0
-10462 339 354 0
-10462 -339 -354 0
10462 -339 354 0
10462 339 -354 0
-10463 10462 369 0
-10463 -10462 -369 0
10463 -10462 369 0
10463 10462 -369 0
-10464 10463 384 0
-10464 -10463 -384 0
10464 -10463 384 0
10464 10463 -384 0
-10465 340 355 0
-10465 -340 -355 0
10465 -340 355 0
10465 340 -355 0
-10466 10465 370 0
-10466 -10465 -370 0
10466 -10465 370 0
10466 10465 -370 0
-10467 10466 385 0
-10467 -10466 -385 0
10467 -10466 385 0
10467 10466 -385 0
-10468 341 356 0
-10468 -341 -356 0
10468 -341 356 0
10468 341 -356 0
-10469 10468 371 0
-10469 -10468 -371 0
10469 -10468 371 0
10469 10468 -371 0
-10470 10469 386 0
-10470 -10469 -386 0
10470 -10469 386 0
10470 10469 -386 0
-10471 342 357 0
-10471 -342 -357 0
10471 -342 357 0
10471 342 -357 0
-10472 10471 372 0
-10472 -10471 -372 0
10472 -10471 372 0
10472 10471 -372 0
-10473 10472 387 0
-10473 -10472 -387 0
10473 -10472 387 0
10473 10472 -387 0
-10474 343 358 0
-10474 -343 -358 0
10474 -343 358 0
10474 343 -358 0
-10475 10474 373 0
-10475 -10474 -373 0
10475 -10474 373 0
10475 10474 -373 0
-10476 10475 388 0
-10476 -10475 -388 0
10476 -10475 388 0
10476 10475 -388 0
-10477 344 359 0
-10477 -344 -359 0
10477 -344 359 0
10477 344 -359 0
-10478 10477 374 0
-10478 -10477 -374 0
10478 -10477 374 0
10478 10477 -374 0
-10479 10478 389 0
-10479 -10478 -389 0
10479 -10478 389 0
10479 10478 -389 0
-10480 345 360 0
-10480 -345 -360 0
10480 -345 360 0
10480 345 -360 0
-10481 10480 375 0
-10481 -10480 -375 0
10481 -10480 375 0
10481 10480 -375 0
-10482 10481 390 0
-10482 -10481 -390 0
10482 -10481 390 0
10482 10481 -390 0
10440 10443 10446 10449 10452 10455 10458 10461 10464 10467 10470 10473 10476 10479 10482 0
-10483 331 346 0
-10483 -331 -346 0
10483 -331 346 0
10483 331 -346 0
-10484 10483 361 0
-10484 -10483 -361 0
10484 -10483 361 0
10484 10483 -361 0
-10485 10484 376 0
-10485 -10484 -376 0
10485 -10484 376 0
10485 10484 -376 0
-10486 332 347 0
-10486 -332 -347 0
10486 -332 347 0
10486 332 -347 0
-10487 10486 362 0
-10487 -10486 -362 0
10487 -10486 362 0
10487 10486 -362 0
-10488 10487 377 0
-10488 -10487 -377 0
10488 -10487 377 0
10488 10487 -377 0
-10489 333 348 0
-10489 -333 -348 0
10489 -333 348 0
10489 333 -348 0
-10490 10489 363 0
-10490 -10489 -363 0
10490 -10489 363 0
10490 10489 -363 0
-10491 10490 378 0
-10491 -10490 -378 0
10491 -10490 378 0
10491 10490 -378 0
-10492 334 349 0
-10492 -334 -349 0
10492 -334 349 0
10492 334 -349 0
-10493 10492 364 0
-10493 -10492 -364 0
10493 -10492 364 0
10493 10492 -364 0
-10494 10493 379 0
-10494 -10493 -379 0
10494 -10493 379 0
10494 10493 -379 0
-10495 335 350 0
-10495 -335 -350 0
10495 -335 350 0
10495 335 -350 0
-10496 10495 365 0
-10496 -10495 -365 0
10496 -10495 365 0
10496 10495 -365 0
-10497 10496 380 0
-10497 -10496 -380 0
10497 -10496 380 0
10497 10496 -380 0
-10498 336 351 0
-10498 -336 -351 0
10498 -336 351 0
10498 336 -351 0
-10499 10498 366 0
-10499 -10498 -366 0
10499 -10498 366 0
10499 10498 -366 0
-10500 10499 381 0
-10500 -10499 -381 0
10500 -10499 381 0
10500 10499 -381 0
-10501 337 352 0
-10501 -337 -352 0
10501 -337 352 0
10501 337 -352 0
-10502 10501 367 0
-10502 -10501 -367 0
10502 -10501 367 0
10502 10501 -367 0
-10503 10502 382 0
-10503 -10502 -382 0
10503 -10502 382 0
10503 10502 -382 0
-10504 338 353 0
-10504 -338 -353 0
10504 -338 353 0
10504 338 -353 0
-10505 10504 368 0
-10505 -10504 -368 0
10505 -10504 368 0
10505 10504 -368 0
-10506 10505 383 0
-10506 -10505 -383 0
10506 -10505 383 0
10506 10505 -383 0
-10507 339 354 0
-10507 -339 -354 0
10507 -339 354 0
10507 339 -354 0
-10508 10507 369 0
-10508 -10507 -369 0
10508 -10507 369 0
10508 10507 -369 0
-10509 10508 384 0
-10509 -10508 -384 0
10509 -10508 384 0
10509 10508 -384 0
-10510 340 355 0
-10510 -340 -355 0
10510 -340 355 0
10510 340 -355 0
-10511 10510 370 0
-10511 -10510 -370 0
10511 -10510 370 0
10511 10510 -370 0
-10512 10511 385 0
-10512 -10511 -385 0
10512 -10511 385 0
10512 10511 -385 0
-10513 341 356 0
-10513 -341 -356 0
10513 -341 356 0
10513 341 -356 0
-10514 10513 371 0
-10514 -10513 -371 0
10514 -10513 371 0
10514 10513 -371 0
-10515 10514 386 0
-10515 -10514 -386 0
10515 -10514 386 0
10515 10514 -386 0
-10516 342 357 0
-10516 -342 -357 0
10516 -342 357 0
10516 342 -357 0
-10517 10516 372 0
-10517 -10516 -372 0
10517 -10516 372 0
10517 10516 -372 0
-10518 10517 387 0
-10518 -10517 -387 0
10518 -10517 387 0
10518 10517 -387 0
-10519 343 358 0
-10519 -343 -358 0
10519 -343 358 0
10519 343 -358 0
-10520 10519 373 0
-10520 -10519 -373 0
10520 -10519 373 0
10520 10519 -373 0
-10521 10520 388 0
-10521 -10520 -388 0
10521 -10520 388 0
10521 10520 -388 0
-10522 344 359 0
-10522 -344 -359 0
10522 -344 359 0
10522 344 -359 0
-10523 10522 374 0
-10523 -10522 -374 0
10523 -10522 374 0
10523 10522 -374 0
-10524 10523 389 0
-10524 -10523 -389 0
10524 -10523 389 0
10524 10523 -389 0
-10525 345 360 0
-10525 -345 -360 0
10525 -345 360 0
10525 345 -360 0
-10526 10525 375 0
-10526 -10525 -375 0
10526 -10525 375 0
10526 10525 -375 0
-10527 10526 390 0
-10527 -10526 -390 0
10527 -10526 390 0
10527 10526 -390 0
-10485 10488 10491 10494 10497 10500 10503 10506 10509 -10512 10515 10518 10521 10524 -10527 0
-10528 316 331 0
-10528 -316 -331 0
10528 -316 331 0
10528 316 -331 0
-10529 10528 346 0
-10529 -10528 -346 0
10529 -10528 346 0
10529 10528 -346 0
-10530 10529 361 0
-10530 -10529 -361 0
10530 -10529 361 0
10530 10529 -361 0
-10531 10530 376 0
-10531 -10530 -376 0
10531 -10530 376 0
10531 10530 -376 0
-10532 317 332 0
-10532 -317 -332 0
10532 -317 332 0
10532 317 -332 0
-10533 10532 347 0
-10533 -10532 -347 0
10533 -10532 347 0
10533 10532 -347 0
-10534 10533 362 0
-10534 -10533 -362 0
10534 -10533 362 0
10534 10533 -362 0
-10535 10534 377 0
-10535 -10534 -377 0
10535 -10534 377 0
10535 10534 -377 0
-10536 318 333 0
-10536 -318 -333 0
10536 -318 333 0
10536 318 -333 0
-10537 10536 348 0
-10537 -10536 -348 0
10537 -10536 348 0
10537 10536 -348 0
-10538 10537 363 0
-10538 -10537 -363 0
10538 -10537 363 0
10538 10537 -363 0
-10539 10538 378 0
-10539 -10538 -378 0
10539 -10538 378 0
10539 10538 -378 0
-10540 319 334 0
-10540 -319 -334 0
10540 -319 334 0
10540 319 -334 0
-10541 10540 349 0
-10541 -10540 -349 0
10541 -10540 349 0
10541 10540 -349 0
-10542 10541 364 0
-10542 -10541 -364 0
10542 -10541 364 0
10542 10541 -364 0
-10543 10542 379 0
-10543 -10542 -379 0
10543 -10542 379 0
10543 10542 -379 0
-10544 320 335 0
-10544 -320 -335 0
10544 -320 335 0
10544 320 -335 0
-10545 10544 350 0
-10545 -10544 -350 0
10545 -10544 350 0
10545 10544 -350 0
-10546 10545 365 0
-10546 -10545 -365 0
10546 -10545 365 0
10546 10545 -365 0
-10547 10546 380 0
-10547 -10546 -380 0
10547 -10546 380 0
10547 10546 -380 0
-10548 321 336 0
-10548 -321 -336 0
10548 -321 336 0
10548 321 -336 0
-10549 10548 351 0
-10549 -10548 -351 0
10549 -10548 351 0
10549 10548 -351 0
-10550 10549 366 0
-10550 -10549 -366 0
10550 -10549 366 0
10550 10549 -366 0
-10551 10550 381 0
-10551 -10550 -381 0
10551 -10550 381 0
10551 10550 -381 0
-10552 322 337 0
-10552 -322 -337 0
10552 -322 337 0
10552 322 -337 0
-10553 10552 352 0
-10553 -10552 -352 0
10553 -10552 352 0
10553 10552 -352 0
-10554 10553 367 0
-10554 -10553 -367 0
10554 -10553 367 0
10554 10553 -367 0
-10555 10554 382 0
-10555 -10554 -382 0
10555 -10554 382 0
10555 10554 -382 0
-10556 323 338 0
-10556 -323 -338 0
10556 -323 338 0
10556 323 -338 0
-10557 10556 353 0
-10557 -10556 -353 0
10557 -10556 353 0
10557 10556 -353 0
-10558 10557 368 0
-10558 -10557 -368 0
10558 -10557 368 0
10558 10557 -368 0
-10559 10558 383 0
-10559 -10558 -383 0
10559 -10558 383 0
10559 10558 -383 0
-10560 324 339 0
-10560 -324 -339 0
10560 -324 339 0
10560 324 -339 0
-10561 10560 354 0
-10561 -10560 -354 0
10561 -10560 354 0
10561 10560 -354 0
-10562 10561 369 0
-10562 -10561 -369 0
10562 -10561 369 0
10562 10561 -369 0
-10563 10562 384 0
-10563 -10562 -384 0
10563 -10562 384 0
10563 10562 -384 0
-10564 325 340 0
-10564 -325 -340 0
10564 -325 340 0
10564 325 -340 0
-10565 10564 355 0
-10565 -10564 -355 0
10565 -10564 355 0
10565 10564 -355 0
-10566 10565 370 0
-10566 -10565 -370 0
10566 -10565 370 0
10566 10565 -370 0
-10567 10566 385 0
-10567 -10566 -385 0
10567 -10566 385 0
10567 10566 -385 0
-10568 326 341 0
-10568 -326 -341 0
10568 -326 341 0
10568 326 -341 0
-10569 10568 356 0
-10569 -10568 -356 0
10569 -10568 356 0
10569 10568 -356 0
-10570 10569 371 0
-10570 -10569 -371 0
10570 -10569 371 0
10570 10569 -371 0
-10571 10570 386 0
-10571 -10570 -386 0
10571 -10570 386 0
10571 10570 -386 0
-10572 327 342 0
-10572 -327 -342 0
10572 -327 342 0
10572 327 -342 0
-10573 10572 357 0
-10573 -10572 -357 0
10573 -10572 357 0
10573 10572 -357 0
-10574 10573 372 0
-10574 -10573 -372 0
10574 -10573 372 0
10574 10573 -372 0
-10575 10574 387 0
-10575 -10574 -387 0
10575 -10574 387 0
10575 10574 -387 0
-10576 328 343 0
-10576 -328 -343 0
10576 -328 343 0
10576 328 -343 0
-10577 10576 358 0
-10577 -10576 -358 0
10577 -10576 358 0
10577 10576 -358 0
-10578 10577 373 0
-10578 -10577 -373 0
10578 -10577 373 0
10578 10577 -373 0
-10579 10578 388 0
-10579 -10578 -388 0
10579 -10578 388 0
10579 10578 -388 0
-10580 329 344 0
-10580 -329 -344 0
10580 -329 344 0
10580 329 -344 0
-10581 10580 359 0
-10581 -10580 -359 0
10581 -10580 359 0
10581 10580 -359 0
-10582 10581 374 0
-10582 -10581 -374 0
10582 -10581 374 0
10582 10581 -374 0
-10583 10582 389 0
-10583 -10582 -389 0
10583 -10582 389 0
10583 10582 -389 0
-10584 330 345 0
-10584 -330 -345 0
10584 -330 345 0
10584 330 -345 0
-10585 10584 360 0
-10585 -10584 -360 0
10585 -10584 360 0
10585 10584 -360 0
-10586 10585 375 0
-10586 -10585 -375 0
10586 -10585 375 0
10586 10585 -375 0
-10587 10586 390 0
-10587 -10586 -390 0
10587 -10586 390 0
10587 10586 -390 0
10531 10535 10539 10543 10547 10551 10555 10559 10563 10567 10571 10575 10579 10583 10587 0
-10588 316 331 0
-10588 -316 -331 0
10588 -316 331 0
10588 316 -331 0
-10589 10588 346 0
-10589 -10588 -346 0
10589 -10588 346 0
10589 10588 -346 0
-10590 10589 361 0
-10590 -10589 -361 0
10590 -10589 361 0
10590 10589 -361 0
-10591 10590 376 0
-10591 -10590 -376 0
10591 -10590 376 0
10591 10590 -376 0
-10592 317 332 0
-10592 -317 -332 0
10592 -317 332 0
10592 317 -332 0
-10593 10592 347 0
-10593 -10592 -347 0
10593 -10592 347 0
10593 10592 -347 0
-10594 10593 362 0
-10594 -10593 -362 0
10594 -10593 362 0
10594 10593 -362 0
-10595 10594 377 0
-10595 -10594 -377 0
10595 -10594 377 0
10595 10594 -377 0
-10596 318 333 0
-10596 -318 -333 0
10596 -318 333 0
10596 318 -333 0
-10597 10596 348 0
-10597 -10596 -348 0
10597 -10596 348 0
10597 10596 -348 0
-10598 10597 363 0
-10598 -10597 -363 0
10598 -10597 363 0
10598 10597 -363 0
-10599 10598 378 0
-10599 -10598 -378 0
10599 -10598 378 0
10599 10598 -378 0
-10600 319 334 0
-10600 -319 -334 0
10600 -319 334 0
10600 319 -334 0
-10601 10600 349 0
-10601 -10600 -349 0
10601 -10600 349 0
10601 10600 -349 0
-10602 10601 364 0
-10602 -10601 -364 0
10602 -10601 364 0
10602 10601 -364 0
-10603 10602 379 0
-10603 -10602 -379 0
10603 -10602 379 0
10603 10602 -379 0
-10604 320 335 0
-10604 -320 -335 0
10604 -320 335 0
10604 320 -335 0
-10605 10604 350 0
-10605 -10604 -350 0
10605 -10604 350 0
10605 10604 -350 0
-10606 10605 365 0
-10606 -10605 -365 0
10606 -10605 365 0
10606 10605 -365 0
-10607 10606 380 0
-10607 -10606 -380 0
10607 -10606 380 0
10607 10606 -380 0
-10608 321 336 0
-10608 -321 -336 0
10608 -321 336 0
10608 321 -336 0
-10609 10608 351 0
-10609 -10608 -351 0
10609 -10608 351 0
10609 10608 -351 0
-10610 10609 366 0
-10610 -10609 -366 0
10610 -10609 366 0
10610 10609 -366 0
-10611 10610 381 0
-10611 -10610 -381 0
10611 -10610 381 0
10611 10610 -381 0
-10612 322 337 0
-10612 -322 -337 0
10612 -322 337 0
10612 322 -337 0
-10613 10612 352 0
-10613 -10612 -352 0
10613 -10612 352 0
10613 10612 -352 0
-10614 10613 367 0
-10614 -10613 -367 0
10614 -10613 367 0
10614 10613 -367 0
-10615 10614 382 0
-10615 -10614 -382 0
10615 -10614 382 0
10615 10614 -382 0
-10616 323 338 0
-10616 -323 -338 0
10616 -323 338 0
10616 323 -338 0
-10617 10616 353 0
-10617 -10616 -353 0
10617 -10616 353 0
10617 10616 -353 0
-10618 10617 368 0
-10618 -10617 -368 0
10618 -10617 368 0
10618 10617 -368 0
-10619 10618 383 0
-10619 -10618 -383 0
10619 -10618 383 0
10619 10618 -383 0
-10620 324 339 0
-10620 -324 -339 0
10620 -324 339 0
10620 324 -339 0
-10621 10620 354 0
-10621 -10620 -354 0
10621 -10620 354 0
10621 10620 -354 0
-10622 10621 369 0
-10622 -10621 -369 0
10622 -10621 369 0
10622 10621 -369 0
-10623 10622 384 0
-10623 -10622 -384 0
10623 -10622 384 0
10623 10622 -384 0
-10624 325 340 0
-10624 -325 -340 0
10624 -325 340 0
10624 325 -340 0
-10625 10624 355 0
-10625 -10624 -355 0
10625 -10624 355 0
10625 10624 -355 0
-10626 10625 370 0
-10626 -10625 -370 0
10626 -10625 370 0
10626 10625 -370 0
-10627 10626 385 0
-10627 -10626 -385 0
10627 -10626 385 0
10627 10626 -385 0
-10628 326 341 0
-10628 -326 -341 0
10628 -326 341 0
10628 326 -341 0
-10629 10628 356 0
-10629 -10628 -356 0
10629 -10628 356 0
10629 10628 -356 0
-10630 10629 371 0
-10630 -10629 -371 0
10630 -10629 371 0
10630 10629 -371 0
-10631 10630 386 0
-10631 -10630 -386 0
10631 -10630 386 0
10631 10630 -386 0
-10632 327 342 0
-10632 -327 -342 0
10632 -327 342 0
10632 327 -342 0
-10633 10632 357 0
-10633 -10632 -357 0
10633 -10632 357 0
10633 10632 -357 0
-10634 10633 372 0
-10634 -10633 -372 0
10634 -10633 372 0
10634 10633 -372 0
-10635 10634 387 0
-10635 -10634 -387 0
10635 -10634 387 0
10635 10634 -387 0
-10636 328 343 0
-10636 -328 -343 0
10636 -328 343 0
10636 328 -343 0
-10637 10636 358 0
-10637 -10636 -358 0
10637 -10636 358 0
10637 10636 -358 0
-10638 10637 373 0
-10638 -10637 -373 0
10638 -10637 373 0
10638 10637 -373 0
-10639 10638 388 0
-10639 -10638 -388 0
10639 -10638 388 0
10639 10638 -388 0
-10640 329 344 0
-10640 -329 -344 0
10640 -329 344 0
10640 329 -344 0
-10641 10640 359 0
-10641 -10640 -359 0
10641 -10640 359 0
10641 10640 -359 0
-10642 10641 374 0
-10642 -10641 -374 0
10642 -10641 374 0
10642 10641 -374 0
-10643 10642 389 0
-10643 -10642 -389 0
10643 -10642 389 0
10643 10642 -389 0
-10644 330 345 0
-10644 -330 -345 0
10644 -330 345 0
10644 330 -345 0
-10645 10644 360 0
-10645 -10644 -360 0
10645 -10644 360 0
10645 10644 -360 0
-10646 10645 375 0
-10646 -10645 -375 0
10646 -10645 375 0
10646 10645 -375 0
-10647 10646 390 0
-10647 -10646 -390 0
10647 -10646 390 0
10647 10646 -390 0
-10591 10595 10599 10603 10607 10611 10615 10619 10623 -10627 10631 10635 10639 10643 -10647 0
