p cnf 61 126
1 2 3 0
-1 20 0
-2 21 0
-20 21 0
-2 -20 0
-3 -21 0
4 5 6 0
-4 22 0
-5 23 0
-22 23 0
-5 -22 0
-6 -23 0
7 8 9 0
-7 24 0
-8 25 0
-24 25 0
-8 -24 0
-9 -25 0
1 4 7 10 11 12 13 0
-1 26 0
-4 27 0
-26 27 0
-4 -26 0
-7 28 0
-27 28 0
-7 -27 0
-10 29 0
-28 29 0
-10 -28 0
-11 30 0
-29 30 0
-11 -29 0
-12 31 0
-30 31 0
-12 -30 0
-13 -31 0
1 14 15 0
-1 32 0
-14 33 0
-32 33 0
-14 -32 0
-15 -33 0
4 16 17 0
-4 34 0
-16 35 0
-34 35 0
-16 -34 0
-17 -35 0
7 18 19 0
-7 36 0
-18 37 0
-36 37 0
-18 -36 0
-19 -37 0
2 5 8 10 14 16 18 0
-2 38 0
-5 39 0
-38 39 0
-5 -38 0
-8 40 0
-39 40 0
-8 -39 0
-10 41 0
-40 41 0
-10 -40 0
-14 42 0
-41 42 0
-14 -41 0
-16 43 0
-42 43 0
-16 -42 0
-18 -43 0
2 11 15 0
-2 44 0
-11 45 0
-44 45 0
-11 -44 0
-15 -45 0
5 12 17 0
-5 46 0
-12 47 0
-46 47 0
-12 -46 0
-17 -47 0
8 13 19 0
-8 48 0
-13 49 0
-48 49 0
-13 -48 0
-19 -49 0
3 6 9 10 15 17 19 0
-3 50 0
-6 51 0
-50 51 0
-6 -50 0
-9 52 0
-51 52 0
-9 -51 0
-10 53 0
-52 53 0
-10 -52 0
-15 54 0
-53 54 0
-15 -53 0
-17 55 0
-54 55 0
-17 -54 0
-19 -55 0
3 11 14 0
-3 56 0
-11 57 0
-56 57 0
-11 -56 0
-14 -57 0
6 12 16 0
-6 58 0
-12 59 0
-58 59 0
-12 -58 0
-16 -59 0
9 13 18 0
-9 60 0
-13 61 0
-60 61 0
-13 -60 0
-18 -61 0
