p cnf 21421 48006
1 2 3 4 5 6 7 8 9 10 11 12 13 14 15 16 17 18 19 20 21 22 23 24 25 26 27 28 29 30 31 32 33 34 35 36 37 38 39 40 41 42 43 44 45 46 47 48 49 50 51 52 53 54 55 56 57 58 59 60 61 62 63 0
-1 5420 0
-2 5421 0
-5420 5421 0
-2 -5420 0
-3 5422 0
-5421 5422 0
-3 -5421 0
-4 5423 0
-5422 5423 0
-4 -5422 0
-5 5424 0
-5423 5424 0
-5 -5423 0
-6 5425 0
-5424 5425 0
-6 -5424 0
-7 5426 0
-5425 5426 0
-7 -5425 0
-8 5427 0
-5426 5427 0
-8 -5426 0
-9 5428 0
-5427 5428 0
-9 -5427 0
-10 5429 0
-5428 5429 0
-10 -5428 0
-11 5430 0
-5429 5430 0
-11 -5429 0
-12 5431 0
-5430 5431 0
-12 -5430 0
-13 5432 0
-5431 5432 0
-13 -5431 0
-14 5433 0
-5432 5433 0
-14 -5432 0
-15 5434 0
-5433 5434 0
-15 -5433 0
-16 5435 0
-5434 5435 0
-16 -5434 0
-17 5436 0
-5435 5436 0
-17 -5435 0
-18 5437 0
-5436 5437 0
-18 -5436 0
-19 5438 0
-5437 5438 0
-19 -5437 0
-20 5439 0
-5438 5439 0
-20 -5438 0
-21 5440 0
-5439 5440 0
-21 -5439 0
-22 5441 0
-5440 5441 0
-22 -5440 0
-23 5442 0
-5441 5442 0
-23 -5441 0
-24 5443 0
-5442 5443 0
-24 -5442 0
-25 5444 0
-5443 5444 0
-25 -5443 0
-26 5445 0
-5444 5445 0
-26 -5444 0
-27 5446 0
-5445 5446 0
-27 -5445 0
-28 5447 0
-5446 5447 0
-28 -5446 0
-29 5448 0
-5447 5448 0
-29 -5447 0
-30 5449 0
-5448 5449 0
-30 -5448 0
-31 5450 0
-5449 5450 0
-31 -5449 0
-32 5451 0
-5450 5451 0
-32 -5450 0
-33 5452 0
-5451 5452 0
-33 -5451 0
-34 5453 0
-5452 5453 0
-34 -5452 0
-35 5454 0
-5453 5454 0
-35 -5453 0
-36 5455 0
-5454 5455 0
-36 -5454 0
-37 5456 0
-5455 5456 0
-37 -5455 0
-38 5457 0
-5456 5457 0
-38 -5456 0
-39 5458 0
-5457 5458 0
-39 -5457 0
-40 5459 0
-5458 5459 0
-40 -5458 0
-41 5460 0
-5459 5460 0
-41 -5459 0
-42 5461 0
-5460 5461 0
-42 -5460 0
-43 5462 0
-5461 5462 0
-43 -5461 0
-44 5463 0
-5462 5463 0
-44 -5462 0
-45 5464 0
-5463 5464 0
-45 -5463 0
-46 5465 0
-5464 5465 0
-46 -5464 0
-47 5466 0
-5465 5466 0
-47 -5465 0
-48 5467 0
-5466 5467 0
-48 -5466 0
-49 5468 0
-5467 5468 0
-49 -5467 0
-50 5469 0
-5468 5469 0
-50 -5468 0
-51 5470 0
-5469 5470 0
-51 -5469 0
-52 5471 0
-5470 5471 0
-52 -5470 0
-53 5472 0
-5471 5472 0
-53 -5471 0
-54 5473 0
-5472 5473 0
-54 -5472 0
-55 5474 0
-5473 5474 0
-55 -5473 0
-56 5475 0
-5474 5475 0
-56 -5474 0
-57 5476 0
-5475 5476 0
-57 -5475 0
-58 5477 0
-5476 5477 0
-58 -5476 0
-59 5478 0
-5477 5478 0
-59 -5477 0
-60 5479 0
-5478 5479 0
-60 -5478 0
-61 5480 0
-5479 5480 0
-61 -5479 0
-62 5481 0
-5480 5481 0
-62 -5480 0
-63 -5481 0
64 65 66 67 68 69 70 71 72 73 74 75 76 77 78 79 80 81 82 83 84 85 86 87 88 89 90 91 92 93 94 95 96 97 98 99 100 101 102 103 104 105 106 107 108 109 110 111 112 113 114 115 116 117 118 119 120 121 122 123 124 125 126 0
-64 5482 0
-65 5483 0
-5482 5483 0
-65 -5482 0
-66 5484 0
-5483 5484 0
-66 -5483 0
-67 5485 0
-5484 5485 0
-67 -5484 0
-68 5486 0
-5485 5486 0
-68 -5485 0
-69 5487 0
-5486 5487 0
-69 -5486 0
-70 5488 0
-5487 5488 0
-70 -5487 0
-71 5489 0
-5488 5489 0
-71 -5488 0
-72 5490 0
-5489 5490 0
-72 -5489 0
-73 5491 0
-5490 5491 0
-73 -5490 0
-74 5492 0
-5491 5492 0
-74 -5491 0
-75 5493 0
-5492 5493 0
-75 -5492 0
-76 5494 0
-5493 5494 0
-76 -5493 0
-77 5495 0
-5494 5495 0
-77 -5494 0
-78 5496 0
-5495 5496 0
-78 -5495 0
-79 5497 0
-5496 5497 0
-79 -5496 0
-80 5498 0
-5497 5498 0
-80 -5497 0
-81 5499 0
-5498 5499 0
-81 -5498 0
-82 5500 0
-5499 5500 0
-82 -5499 0
-83 5501 0
-5500 5501 0
-83 -5500 0
-84 5502 0
-5501 5502 0
-84 -5501 0
-85 5503 0
-5502 5503 0
-85 -5502 0
-86 5504 0
-5503 5504 0
-86 -5503 0
-87 5505 0
-5504 5505 0
-87 -5504 0
-88 5506 0
-5505 5506 0
-88 -5505 0
-89 5507 0
-5506 5507 0
-89 -5506 0
-90 5508 0
-5507 5508 0
-90 -5507 0
-91 5509 0
-5508 5509 0
-91 -5508 0
-92 5510 0
-5509 5510 0
-92 -5509 0
-93 5511 0
-5510 5511 0
-93 -5510 0
-94 5512 0
-5511 5512 0
-94 -5511 0
-95 5513 0
-5512 5513 0
-95 -5512 0
-96 5514 0
-5513 5514 0
-96 -5513 0
-97 5515 0
-5514 5515 0
-97 -5514 0
-98 5516 0
-5515 5516 0
-98 -5515 0
-99 5517 0
-5516 5517 0
-99 -5516 0
-100 5518 0
-5517 5518 0
-100 -5517 0
-101 5519 0
-5518 5519 0
-101 -5518 0
-102 5520 0
-5519 5520 0
-102 -5519 0
-103 5521 0
-5520 5521 0
-103 -5520 0
-104 5522 0
-5521 5522 0
-104 -5521 0
-105 5523 0
-5522 5523 0
-105 -5522 0
-106 5524 0
-5523 5524 0
-106 -5523 0
-107 5525 0
-5524 5525 0
-107 -5524 0
-108 5526 0
-5525 5526 0
-108 -5525 0
-109 5527 0
-5526 5527 0
-109 -5526 0
-110 5528 0
-5527 5528 0
-110 -5527 0
-111 5529 0
-5528 5529 0
-111 -5528 0
-112 5530 0
-5529 5530 0
-112 -5529 0
-113 5531 0
-5530 5531 0
-113 -5530 0
-114 5532 0
-5531 5532 0
-114 -5531 0
-115 5533 0
-5532 5533 0
-115 -5532 0
-116 5534 0
-5533 5534 0
-116 -5533 0
-117 5535 0
-5534 5535 0
-117 -5534 0
-118 5536 0
-5535 5536 0
-118 -5535 0
-119 5537 0
-5536 5537 0
-119 -5536 0
-120 5538 0
-5537 5538 0
-120 -5537 0
-121 5539 0
-5538 5539 0
-121 -5538 0
-122 5540 0
-5539 5540 0
-122 -5539 0
-123 5541 0
-5540 5541 0
-123 -5540 0
-124 5542 0
-5541 5542 0
-124 -5541 0
-125 5543 0
-5542 5543 0
-125 -5542 0
-126 -5543 0
127 128 129 130 131 132 133 134 135 136 137 138 139 140 141 142 143 144 145 146 147 148 149 150 151 152 153 154 155 156 157 158 159 160 161 162 163 164 165 166 167 168 169 170 171 172 173 174 175 176 177 178 179 180 181 182 183 184 185 186 187 188 189 0
-127 5544 0
-128 5545 0
-5544 5545 0
-128 -5544 0
-129 5546 0
-5545 5546 0
-129 -5545 0
-130 5547 0
-5546 5547 0
-130 -5546 0
-131 5548 0
-5547 5548 0
-131 -5547 0
-132 5549 0
-5548 5549 0
-132 -5548 0
-133 5550 0
-5549 5550 0
-133 -5549 0
-134 5551 0
-5550 5551 0
-134 -5550 0
-135 5552 0
-5551 5552 0
-135 -5551 0
-136 5553 0
-5552 5553 0
-136 -5552 0
-137 5554 0
-5553 5554 0
-137 -5553 0
-138 5555 0
-5554 5555 0
-138 -5554 0
-139 5556 0
-5555 5556 0
-139 -5555 0
-140 5557 0
-5556 5557 0
-140 -5556 0
-141 5558 0
-5557 5558 0
-141 -5557 0
-142 5559 0
-5558 5559 0
-142 -5558 0
-143 5560 0
-5559 5560 0
-143 -5559 0
-144 5561 0
-5560 5561 0
-144 -5560 0
-145 5562 0
-5561 5562 0
-145 -5561 0
-146 5563 0
-5562 5563 0
-146 -5562 0
-147 5564 0
-5563 5564 0
-147 -5563 0
-148 5565 0
-5564 5565 0
-148 -5564 0
-149 5566 0
-5565 5566 0
-149 -5565 0
-150 5567 0
-5566 5567 0
-150 -5566 0
-151 5568 0
-5567 5568 0
-151 -5567 0
-152 5569 0
-5568 5569 0
-152 -5568 0
-153 5570 0
-5569 5570 0
-153 -5569 0
-154 5571 0
-5570 5571 0
-154 -5570 0
-155 5572 0
-5571 5572 0
-155 -5571 0
-156 5573 0
-5572 5573 0
-156 -5572 0
-157 5574 0
-5573 5574 0
-157 -5573 0
-158 5575 0
-5574 5575 0
-158 -5574 0
-159 5576 0
-5575 5576 0
-159 -5575 0
-160 5577 0
-5576 5577 0
-160 -5576 0
-161 5578 0
-5577 5578 0
-161 -5577 0
-162 5579 0
-5578 5579 0
-162 -5578 0
-163 5580 0
-5579 5580 0
-163 -5579 0
-164 5581 0
-5580 5581 0
-164 -5580 0
-165 5582 0
-5581 5582 0
-165 -5581 0
-166 5583 0
-5582 5583 0
-166 -5582 0
-167 5584 0
-5583 5584 0
-167 -5583 0
-168 5585 0
-5584 5585 0
-168 -5584 0
-169 5586 0
-5585 5586 0
-169 -5585 0
-170 5587 0
-5586 5587 0
-170 -5586 0
-171 5588 0
-5587 5588 0
-171 -5587 0
-172 5589 0
-5588 5589 0
-172 -5588 0
-173 5590 0
-5589 5590 0
-173 -5589 0
-174 5591 0
-5590 5591 0
-174 -5590 0
-175 5592 0
-5591 5592 0
-175 -5591 0
-176 5593 0
-5592 5593 0
-176 -5592 0
-177 5594 0
-5593 5594 0
-177 -5593 0
-178 5595 0
-5594 5595 0
-178 -5594 0
-179 5596 0
-5595 5596 0
-179 -5595 0
-180 5597 0
-5596 5597 0
-180 -5596 0
-181 5598 0
-5597 5598 0
-181 -5597 0
-182 5599 0
-5598 5599 0
-182 -5598 0
-183 5600 0
-5599 5600 0
-183 -5599 0
-184 5601 0
-5600 5601 0
-184 -5600 0
-185 5602 0
-5601 5602 0
-185 -5601 0
-186 5603 0
-5602 5603 0
-186 -5602 0
-187 5604 0
-5603 5604 0
-187 -5603 0
-188 5605 0
-5604 5605 0
-188 -5604 0
-189 -5605 0
1 64 127 190 191 192 193 194 195 196 197 198 199 200 201 202 203 204 205 206 207 208 209 210 211 212 213 214 215 216 217 218 219 220 221 222 223 224 225 226 227 228 229 230 231 232 233 234 235 236 237 238 239 240 241 242 243 244 245 246 247 248 249 0
-1 5606 0
-64 5607 0
-5606 5607 0
-64 -5606 0
-127 5608 0
-5607 5608 0
-127 -5607 0
-190 5609 0
-5608 5609 0
-190 -5608 0
-191 5610 0
-5609 5610 0
-191 -5609 0
-192 5611 0
-5610 5611 0
-192 -5610 0
-193 5612 0
-5611 5612 0
-193 -5611 0
-194 5613 0
-5612 5613 0
-194 -5612 0
-195 5614 0
-5613 5614 0
-195 -5613 0
-196 5615 0
-5614 5615 0
-196 -5614 0
-197 5616 0
-5615 5616 0
-197 -5615 0
-198 5617 0
-5616 5617 0
-198 -5616 0
-199 5618 0
-5617 5618 0
-199 -5617 0
-200 5619 0
-5618 5619 0
-200 -5618 0
-201 5620 0
-5619 5620 0
-201 -5619 0
-202 5621 0
-5620 5621 0
-202 -5620 0
-203 5622 0
-5621 5622 0
-203 -5621 0
-204 5623 0
-5622 5623 0
-204 -5622 0
-205 5624 0
-5623 5624 0
-205 -5623 0
-206 5625 0
-5624 5625 0
-206 -5624 0
-207 5626 0
-5625 5626 0
-207 -5625 0
-208 5627 0
-5626 5627 0
-208 -5626 0
-209 5628 0
-5627 5628 0
-209 -5627 0
-210 5629 0
-5628 5629 0
-210 -5628 0
-211 5630 0
-5629 5630 0
-211 -5629 0
-212 5631 0
-5630 5631 0
-212 -5630 0
-213 5632 0
-5631 5632 0
-213 -5631 0
-214 5633 0
-5632 5633 0
-214 -5632 0
-215 5634 0
-5633 5634 0
-215 -5633 0
-216 5635 0
-5634 5635 0
-216 -5634 0
-217 5636 0
-5635 5636 0
-217 -5635 0
-218 5637 0
-5636 5637 0
-218 -5636 0
-219 5638 0
-5637 5638 0
-219 -5637 0
-220 5639 0
-5638 5639 0
-220 -5638 0
-221 5640 0
-5639 5640 0
-221 -5639 0
-222 5641 0
-5640 5641 0
-222 -5640 0
-223 5642 0
-5641 5642 0
-223 -5641 0
-224 5643 0
-5642 5643 0
-224 -5642 0
-225 5644 0
-5643 5644 0
-225 -5643 0
-226 5645 0
-5644 5645 0
-226 -5644 0
-227 5646 0
-5645 5646 0
-227 -5645 0
-228 5647 0
-5646 5647 0
-228 -5646 0
-229 5648 0
-5647 5648 0
-229 -5647 0
-230 5649 0
-5648 5649 0
-230 -5648 0
-231 5650 0
-5649 5650 0
-231 -5649 0
-232 5651 0
-5650 5651 0
-232 -5650 0
-233 5652 0
-5651 5652 0
-233 -5651 0
-234 5653 0
-5652 5653 0
-234 -5652 0
-235 5654 0
-5653 5654 0
-235 -5653 0
-236 5655 0
-5654 5655 0
-236 -5654 0
-237 5656 0
-5655 5656 0
-237 -5655 0
-238 5657 0
-5656 5657 0
-238 -5656 0
-239 5658 0
-5657 5658 0
-239 -5657 0
-240 5659 0
-5658 5659 0
-240 -5658 0
-241 5660 0
-5659 5660 0
-241 -5659 0
-242 5661 0
-5660 5661 0
-242 -5660 0
-243 5662 0
-5661 5662 0
-243 -5661 0
-244 5663 0
-5662 5663 0
-244 -5662 0
-245 5664 0
-5663 5664 0
-245 -5663 0
-246 5665 0
-5664 5665 0
-246 -5664 0
-247 5666 0
-5665 5666 0
-247 -5665 0
-248 5667 0
-5666 5667 0
-248 -5666 0
-249 -5667 0
1 250 251 252 253 254 255 256 257 258 259 260 261 262 263 264 265 266 267 268 269 270 271 272 273 274 275 276 277 278 279 280 281 282 283 284 285 286 287 288 289 290 291 292 293 294 295 296 297 298 299 300 301 302 303 304 305 306 307 308 309 310 311 0
-1 5668 0
-250 5669 0
-5668 5669 0
-250 -5668 0
-251 5670 0
-5669 5670 0
-251 -5669 0
-252 5671 0
-5670 5671 0
-252 -5670 0
-253 5672 0
-5671 5672 0
-253 -5671 0
-254 5673 0
-5672 5673 0
-254 -5672 0
-255 5674 0
-5673 5674 0
-255 -5673 0
-256 5675 0
-5674 5675 0
-256 -5674 0
-257 5676 0
-5675 5676 0
-257 -5675 0
-258 5677 0
-5676 5677 0
-258 -5676 0
-259 5678 0
-5677 5678 0
-259 -5677 0
-260 5679 0
-5678 5679 0
-260 -5678 0
-261 5680 0
-5679 5680 0
-261 -5679 0
-262 5681 0
-5680 5681 0
-262 -5680 0
-263 5682 0
-5681 5682 0
-263 -5681 0
-264 5683 0
-5682 5683 0
-264 -5682 0
-265 5684 0
-5683 5684 0
-265 -5683 0
-266 5685 0
-5684 5685 0
-266 -5684 0
-267 5686 0
-5685 5686 0
-267 -5685 0
-268 5687 0
-5686 5687 0
-268 -5686 0
-269 5688 0
-5687 5688 0
-269 -5687 0
-270 5689 0
-5688 5689 0
-270 -5688 0
-271 5690 0
-5689 5690 0
-271 -5689 0
-272 5691 0
-5690 5691 0
-272 -5690 0
-273 5692 0
-5691 5692 0
-273 -5691 0
-274 5693 0
-5692 5693 0
-274 -5692 0
-275 5694 0
-5693 5694 0
-275 -5693 0
-276 5695 0
-5694 5695 0
-276 -5694 0
-277 5696 0
-5695 5696 0
-277 -5695 0
-278 5697 0
-5696 5697 0
-278 -5696 0
-279 5698 0
-5697 5698 0
-279 -5697 0
-280 5699 0
-5698 5699 0
-280 -5698 0
-281 5700 0
-5699 5700 0
-281 -5699 0
-282 5701 0
-5700 5701 0
-282 -5700 0
-283 5702 0
-5701 5702 0
-283 -5701 0
-284 5703 0
-5702 5703 0
-284 -5702 0
-285 5704 0
-5703 5704 0
-285 -5703 0
-286 5705 0
-5704 5705 0
-286 -5704 0
-287 5706 0
-5705 5706 0
-287 -5705 0
-288 5707 0
-5706 5707 0
-288 -5706 0
-289 5708 0
-5707 5708 0
-289 -5707 0
-290 5709 0
-5708 5709 0
-290 -5708 0
-291 5710 0
-5709 5710 0
-291 -5709 0
-292 5711 0
-5710 5711 0
-292 -5710 0
-293 5712 0
-5711 5712 0
-293 -5711 0
-294 5713 0
-5712 5713 0
-294 -5712 0
-295 5714 0
-5713 5714 0
-295 -5713 0
-296 5715 0
-5714 5715 0
-296 -5714 0
-297 5716 0
-5715 5716 0
-297 -5715 0
-298 5717 0
-5716 5717 0
-298 -5716 0
-299 5718 0
-5717 5718 0
-299 -5717 0
-300 5719 0
-5718 5719 0
-300 -5718 0
-301 5720 0
-5719 5720 0
-301 -5719 0
-302 5721 0
-5720 5721 0
-302 -5720 0
-303 5722 0
-5721 5722 0
-303 -5721 0
-304 5723 0
-5722 5723 0
-304 -5722 0
-305 5724 0
-5723 5724 0
-305 -5723 0
-306 5725 0
-5724 5725 0
-306 -5724 0
-307 5726 0
-5725 5726 0
-307 -5725 0
-308 5727 0
-5726 5727 0
-308 -5726 0
-309 5728 0
-5727 5728 0
-309 -5727 0
-310 5729 0
-5728 5729 0
-310 -5728 0
-311 -5729 0
64 312 313 314 315 316 317 318 319 320 321 322 323 324 325 326 327 328 329 330 331 332 333 334 335 336 337 338 339 340 341 342 343 344 345 346 347 348 349 350 351 352 353 354 355 356 357 358 359 360 361 362 363 364 365 366 367 368 369 370 371 372 373 0
-64 5730 0
-312 5731 0
-5730 5731 0
-312 -5730 0
-313 5732 0
-5731 5732 0
-313 -5731 0
-314 5733 0
-5732 5733 0
-314 -5732 0
-315 5734 0
-5733 5734 0
-315 -5733 0
-316 5735 0
-5734 5735 0
-316 -5734 0
-317 5736 0
-5735 5736 0
-317 -5735 0
-318 5737 0
-5736 5737 0
-318 -5736 0
-319 5738 0
-5737 5738 0
-319 -5737 0
-320 5739 0
-5738 5739 0
-320 -5738 0
-321 5740 0
-5739 5740 0
-321 -5739 0
-322 5741 0
-5740 5741 0
-322 -5740 0
-323 5742 0
-5741 5742 0
-323 -5741 0
-324 5743 0
-5742 5743 0
-324 -5742 0
-325 5744 0
-5743 5744 0
-325 -5743 0
-326 5745 0
-5744 5745 0
-326 -5744 0
-327 5746 0
-5745 5746 0
-327 -5745 0
-328 5747 0
-5746 5747 0
-328 -5746 0
-329 5748 0
-5747 5748 0
-329 -5747 0
-330 5749 0
-5748 5749 0
-330 -5748 0
-331 5750 0
-5749 5750 0
-331 -5749 0
-332 5751 0
-5750 5751 0
-332 -5750 0
-333 5752 0
-5751 5752 0
-333 -5751 0
-334 5753 0
-5752 5753 0
-334 -5752 0
-335 5754 0
-5753 5754 0
-335 -5753 0
-336 5755 0
-5754 5755 0
-336 -5754 0
-337 5756 0
-5755 5756 0
-337 -5755 0
-338 5757 0
-5756 5757 0
-338 -5756 0
-339 5758 0
-5757 5758 0
-339 -5757 0
-340 5759 0
-5758 5759 0
-340 -5758 0
-341 5760 0
-5759 5760 0
-341 -5759 0
-342 5761 0
-5760 5761 0
-342 -5760 0
-343 5762 0
-5761 5762 0
-343 -5761 0
-344 5763 0
-5762 5763 0
-344 -5762 0
-345 5764 0
-5763 5764 0
-345 -5763 0
-346 5765 0
-5764 5765 0
-346 -5764 0
-347 5766 0
-5765 5766 0
-347 -5765 0
-348 5767 0
-5766 5767 0
-348 -5766 0
-349 5768 0
-5767 5768 0
-349 -5767 0
-350 5769 0
-5768 5769 0
-350 -5768 0
-351 5770 0
-5769 5770 0
-351 -5769 0
-352 5771 0
-5770 5771 0
-352 -5770 0
-353 5772 0
-5771 5772 0
-353 -5771 0
-354 5773 0
-5772 5773 0
-354 -5772 0
-355 5774 0
-5773 5774 0
-355 -5773 0
-356 5775 0
-5774 5775 0
-356 -5774 0
-357 5776 0
-5775 5776 0
-357 -5775 0
-358 5777 0
-5776 5777 0
-358 -5776 0
-359 5778 0
-5777 5778 0
-359 -5777 0
-360 5779 0
-5778 5779 0
-360 -5778 0
-361 5780 0
-5779 5780 0
-361 -5779 0
-362 5781 0
-5780 5781 0
-362 -5780 0
-363 5782 0
-5781 5782 0
-363 -5781 0
-364 5783 0
-5782 5783 0
-364 -5782 0
-365 5784 0
-5783 5784 0
-365 -5783 0
-366 5785 0
-5784 5785 0
-366 -5784 0
-367 5786 0
-5785 5786 0
-367 -5785 0
-368 5787 0
-5786 5787 0
-368 -5786 0
-369 5788 0
-5787 5788 0
-369 -5787 0
-370 5789 0
-5788 5789 0
-370 -5788 0
-371 5790 0
-5789 5790 0
-371 -5789 0
-372 5791 0
-5790 5791 0
-372 -5790 0
-373 -5791 0
127 374 375 376 377 378 379 380 381 382 383 384 385 386 387 388 389 390 391 392 393 394 395 396 397 398 399 400 401 402 403 404 405 406 407 408 409 410 411 412 413 414 415 416 417 418 419 420 421 422 423 424 425 426 427 428 429 430 431 432 433 434 435 0
-127 5792 0
-374 5793 0
-5792 5793 0
-374 -5792 0
-375 5794 0
-5793 5794 0
-375 -5793 0
-376 5795 0
-5794 5795 0
-376 -5794 0
-377 5796 0
-5795 5796 0
-377 -5795 0
-378 5797 0
-5796 5797 0
-378 -5796 0
-379 5798 0
-5797 5798 0
-379 -5797 0
-380 5799 0
-5798 5799 0
-380 -5798 0
-381 5800 0
-5799 5800 0
-381 -5799 0
-382 5801 0
-5800 5801 0
-382 -5800 0
-383 5802 0
-5801 5802 0
-383 -5801 0
-384 5803 0
-5802 5803 0
-384 -5802 0
-385 5804 0
-5803 5804 0
-385 -5803 0
-386 5805 0
-5804 5805 0
-386 -5804 0
-387 5806 0
-5805 5806 0
-387 -5805 0
-388 5807 0
-5806 5807 0
-388 -5806 0
-389 5808 0
-5807 5808 0
-389 -5807 0
-390 5809 0
-5808 5809 0
-390 -5808 0
-391 5810 0
-5809 5810 0
-391 -5809 0
-392 5811 0
-5810 5811 0
-392 -5810 0
-393 5812 0
-5811 5812 0
-393 -5811 0
-394 5813 0
-5812 5813 0
-394 -5812 0
-395 5814 0
-5813 5814 0
-395 -5813 0
-396 5815 0
-5814 5815 0
-396 -5814 0
-397 5816 0
-5815 5816 0
-397 -5815 0
-398 5817 0
-5816 5817 0
-398 -5816 0
-399 5818 0
-5817 5818 0
-399 -5817 0
-400 5819 0
-5818 5819 0
-400 -5818 0
-401 5820 0
-5819 5820 0
-401 -5819 0
-402 5821 0
-5820 5821 0
-402 -5820 0
-403 5822 0
-5821 5822 0
-403 -5821 0
-404 5823 0
-5822 5823 0
-404 -5822 0
-405 5824 0
-5823 5824 0
-405 -5823 0
-406 5825 0
-5824 5825 0
-406 -5824 0
-407 5826 0
-5825 5826 0
-407 -5825 0
-408 5827 0
-5826 5827 0
-408 -5826 0
-409 5828 0
-5827 5828 0
-409 -5827 0
-410 5829 0
-5828 5829 0
-410 -5828 0
-411 5830 0
-5829 5830 0
-411 -5829 0
-412 5831 0
-5830 5831 0
-412 -5830 0
-413 5832 0
-5831 5832 0
-413 -5831 0
-414 5833 0
-5832 5833 0
-414 -5832 0
-415 5834 0
-5833 5834 0
-415 -5833 0
-416 5835 0
-5834 5835 0
-416 -5834 0
-417 5836 0
-5835 5836 0
-417 -5835 0
-418 5837 0
-5836 5837 0
-418 -5836 0
-419 5838 0
-5837 5838 0
-419 -5837 0
-420 5839 0
-5838 5839 0
-420 -5838 0
-421 5840 0
-5839 5840 0
-421 -5839 0
-422 5841 0
-5840 5841 0
-422 -5840 0
-423 5842 0
-5841 5842 0
-423 -5841 0
-424 5843 0
-5842 5843 0
-424 -5842 0
-425 5844 0
-5843 5844 0
-425 -5843 0
-426 5845 0
-5844 5845 0
-426 -5844 0
-427 5846 0
-5845 5846 0
-427 -5845 0
-428 5847 0
-5846 5847 0
-428 -5846 0
-429 5848 0
-5847 5848 0
-429 -5847 0
-430 5849 0
-5848 5849 0
-430 -5848 0
-431 5850 0
-5849 5850 0
-431 -5849 0
-432 5851 0
-5850 5851 0
-432 -5850 0
-433 5852 0
-5851 5852 0
-433 -5851 0
-434 5853 0
-5852 5853 0
-434 -5852 0
-435 -5853 0
2 65 128 436 437 438 439 440 441 442 443 444 445 446 447 448 449 450 451 452 453 454 455 456 457 458 459 460 461 462 463 464 465 466 467 468 469 470 471 472 473 474 475 476 477 478 479 480 481 482 483 484 485 486 487 488 489 490 491 492 493 494 495 0
-2 5854 0
-65 5855 0
-5854 5855 0
-65 -5854 0
-128 5856 0
-5855 5856 0
-128 -5855 0
-436 5857 0
-5856 5857 0
-436 -5856 0
-437 5858 0
-5857 5858 0
-437 -5857 0
-438 5859 0
-5858 5859 0
-438 -5858 0
-439 5860 0
-5859 5860 0
-439 -5859 0
-440 5861 0
-5860 5861 0
-440 -5860 0
-441 5862 0
-5861 5862 0
-441 -5861 0
-442 5863 0
-5862 5863 0
-442 -5862 0
-443 5864 0
-5863 5864 0
-443 -5863 0
-444 5865 0
-5864 5865 0
-444 -5864 0
-445 5866 0
-5865 5866 0
-445 -5865 0
-446 5867 0
-5866 5867 0
-446 -5866 0
-447 5868 0
-5867 5868 0
-447 -5867 0
-448 5869 0
-5868 5869 0
-448 -5868 0
-449 5870 0
-5869 5870 0
-449 -5869 0
-450 5871 0
-5870 5871 0
-450 -5870 0
-451 5872 0
-5871 5872 0
-451 -5871 0
-452 5873 0
-5872 5873 0
-452 -5872 0
-453 5874 0
-5873 5874 0
-453 -5873 0
-454 5875 0
-5874 5875 0
-454 -5874 0
-455 5876 0
-5875 5876 0
-455 -5875 0
-456 5877 0
-5876 5877 0
-456 -5876 0
-457 5878 0
-5877 5878 0
-457 -5877 0
-458 5879 0
-5878 5879 0
-458 -5878 0
-459 5880 0
-5879 5880 0
-459 -5879 0
-460 5881 0
-5880 5881 0
-460 -5880 0
-461 5882 0
-5881 5882 0
-461 -5881 0
-462 5883 0
-5882 5883 0
-462 -5882 0
-463 5884 0
-5883 5884 0
-463 -5883 0
-464 5885 0
-5884 5885 0
-464 -5884 0
-465 5886 0
-5885 5886 0
-465 -5885 0
-466 5887 0
-5886 5887 0
-466 -5886 0
-467 5888 0
-5887 5888 0
-467 -5887 0
-468 5889 0
-5888 5889 0
-468 -5888 0
-469 5890 0
-5889 5890 0
-469 -5889 0
-470 5891 0
-5890 5891 0
-470 -5890 0
-471 5892 0
-5891 5892 0
-471 -5891 0
-472 5893 0
-5892 5893 0
-472 -5892 0
-473 5894 0
-5893 5894 0
-473 -5893 0
-474 5895 0
-5894 5895 0
-474 -5894 0
-475 5896 0
-5895 5896 0
-475 -5895 0
-476 5897 0
-5896 5897 0
-476 -5896 0
-477 5898 0
-5897 5898 0
-477 -5897 0
-478 5899 0
-5898 5899 0
-478 -5898 0
-479 5900 0
-5899 5900 0
-479 -5899 0
-480 5901 0
-5900 5901 0
-480 -5900 0
-481 5902 0
-5901 5902 0
-481 -5901 0
-482 5903 0
-5902 5903 0
-482 -5902 0
-483 5904 0
-5903 5904 0
-483 -5903 0
-484 5905 0
-5904 5905 0
-484 -5904 0
-485 5906 0
-5905 5906 0
-485 -5905 0
-486 5907 0
-5906 5907 0
-486 -5906 0
-487 5908 0
-5907 5908 0
-487 -5907 0
-488 5909 0
-5908 5909 0
-488 -5908 0
-489 5910 0
-5909 5910 0
-489 -5909 0
-490 5911 0
-5910 5911 0
-490 -5910 0
-491 5912 0
-5911 5912 0
-491 -5911 0
-492 5913 0
-5912 5913 0
-492 -5912 0
-493 5914 0
-5913 5914 0
-493 -5913 0
-494 5915 0
-5914 5915 0
-494 -5914 0
-495 -5915 0
2 312 374 496 497 498 499 500 501 502 503 504 505 506 507 508 509 510 511 512 513 514 515 516 517 518 519 520 521 522 523 524 525 526 527 528 529 530 531 532 533 534 535 536 537 538 539 540 541 542 543 544 545 546 547 548 549 550 551 552 553 554 555 0
-2 5916 0
-312 5917 0
-5916 5917 0
-312 -5916 0
-374 5918 0
-5917 5918 0
-374 -5917 0
-496 5919 0
-5918 5919 0
-496 -5918 0
-497 5920 0
-5919 5920 0
-497 -5919 0
-498 5921 0
-5920 5921 0
-498 -5920 0
-499 5922 0
-5921 5922 0
-499 -5921 0
-500 5923 0
-5922 5923 0
-500 -5922 0
-501 5924 0
-5923 5924 0
-501 -5923 0
-502 5925 0
-5924 5925 0
-502 -5924 0
-503 5926 0
-5925 5926 0
-503 -5925 0
-504 5927 0
-5926 5927 0
-504 -5926 0
-505 5928 0
-5927 5928 0
-505 -5927 0
-506 5929 0
-5928 5929 0
-506 -5928 0
-507 5930 0
-5929 5930 0
-507 -5929 0
-508 5931 0
-5930 5931 0
-508 -5930 0
-509 5932 0
-5931 5932 0
-509 -5931 0
-510 5933 0
-5932 5933 0
-510 -5932 0
-511 5934 0
-5933 5934 0
-511 -5933 0
-512 5935 0
-5934 5935 0
-512 -5934 0
-513 5936 0
-5935 5936 0
-513 -5935 0
-514 5937 0
-5936 5937 0
-514 -5936 0
-515 5938 0
-5937 5938 0
-515 -5937 0
-516 5939 0
-5938 5939 0
-516 -5938 0
-517 5940 0
-5939 5940 0
-517 -5939 0
-518 5941 0
-5940 5941 0
-518 -5940 0
-519 5942 0
-5941 5942 0
-519 -5941 0
-520 5943 0
-5942 5943 0
-520 -5942 0
-521 5944 0
-5943 5944 0
-521 -5943 0
-522 5945 0
-5944 5945 0
-522 -5944 0
-523 5946 0
-5945 5946 0
-523 -5945 0
-524 5947 0
-5946 5947 0
-524 -5946 0
-525 5948 0
-5947 5948 0
-525 -5947 0
-526 5949 0
-5948 5949 0
-526 -5948 0
-527 5950 0
-5949 5950 0
-527 -5949 0
-528 5951 0
-5950 5951 0
-528 -5950 0
-529 5952 0
-5951 5952 0
-529 -5951 0
-530 5953 0
-5952 5953 0
-530 -5952 0
-531 5954 0
-5953 5954 0
-531 -5953 0
-532 5955 0
-5954 5955 0
-532 -5954 0
-533 5956 0
-5955 5956 0
-533 -5955 0
-534 5957 0
-5956 5957 0
-534 -5956 0
-535 5958 0
-5957 5958 0
-535 -5957 0
-536 5959 0
-5958 5959 0
-536 -5958 0
-537 5960 0
-5959 5960 0
-537 -5959 0
-538 5961 0
-5960 5961 0
-538 -5960 0
-539 5962 0
-5961 5962 0
-539 -5961 0
-540 5963 0
-5962 5963 0
-540 -5962 0
-541 5964 0
-5963 5964 0
-541 -5963 0
-542 5965 0
-5964 5965 0
-542 -5964 0
-543 5966 0
-5965 5966 0
-543 -5965 0
-544 5967 0
-5966 5967 0
-544 -5966 0
-545 5968 0
-5967 5968 0
-545 -5967 0
-546 5969 0
-5968 5969 0
-546 -5968 0
-547 5970 0
-5969 5970 0
-547 -5969 0
-548 5971 0
-5970 5971 0
-548 -5970 0
-549 5972 0
-5971 5972 0
-549 -5971 0
-550 5973 0
-5972 5973 0
-550 -5972 0
-551 5974 0
-5973 5974 0
-551 -5973 0
-552 5975 0
-5974 5975 0
-552 -5974 0
-553 5976 0
-5975 5976 0
-553 -5975 0
-554 5977 0
-5976 5977 0
-554 -5976 0
-555 -5977 0
65 250 375 556 557 558 559 560 561 562 563 564 565 566 567 568 569 570 571 572 573 574 575 576 577 578 579 580 581 582 583 584 585 586 587 588 589 590 591 592 593 594 595 596 597 598 599 600 601 602 603 604 605 606 607 608 609 610 611 612 613 614 615 0
-65 5978 0
-250 5979 0
-5978 5979 0
-250 -5978 0
-375 5980 0
-5979 5980 0
-375 -5979 0
-556 5981 0
-5980 5981 0
-556 -5980 0
-557 5982 0
-5981 5982 0
-557 -5981 0
-558 5983 0
-5982 5983 0
-558 -5982 0
-559 5984 0
-5983 5984 0
-559 -5983 0
-560 5985 0
-5984 5985 0
-560 -5984 0
-561 5986 0
-5985 5986 0
-561 -5985 0
-562 5987 0
-5986 5987 0
-562 -5986 0
-563 5988 0
-5987 5988 0
-563 -5987 0
-564 5989 0
-5988 5989 0
-564 -5988 0
-565 5990 0
-5989 5990 0
-565 -5989 0
-566 5991 0
-5990 5991 0
-566 -5990 0
-567 5992 0
-5991 5992 0
-567 -5991 0
-568 5993 0
-5992 5993 0
-568 -5992 0
-569 5994 0
-5993 5994 0
-569 -5993 0
-570 5995 0
-5994 5995 0
-570 -5994 0
-571 5996 0
-5995 5996 0
-571 -5995 0
-572 5997 0
-5996 5997 0
-572 -5996 0
-573 5998 0
-5997 5998 0
-573 -5997 0
-574 5999 0
-5998 5999 0
-574 -5998 0
-575 6000 0
-5999 6000 0
-575 -5999 0
-576 6001 0
-6000 6001 0
-576 -6000 0
-577 6002 0
-6001 6002 0
-577 -6001 0
-578 6003 0
-6002 6003 0
-578 -6002 0
-579 6004 0
-6003 6004 0
-579 -6003 0
-580 6005 0
-6004 6005 0
-580 -6004 0
-581 6006 0
-6005 6006 0
-581 -6005 0
-582 6007 0
-6006 6007 0
-582 -6006 0
-583 6008 0
-6007 6008 0
-583 -6007 0
-584 6009 0
-6008 6009 0
-584 -6008 0
-585 6010 0
-6009 6010 0
-585 -6009 0
-586 6011 0
-6010 6011 0
-586 -6010 0
-587 6012 0
-6011 6012 0
-587 -6011 0
-588 6013 0
-6012 6013 0
-588 -6012 0
-589 6014 0
-6013 6014 0
-589 -6013 0
-590 6015 0
-6014 6015 0
-590 -6014 0
-591 6016 0
-6015 6016 0
-591 -6015 0
-592 6017 0
-6016 6017 0
-592 -6016 0
-593 6018 0
-6017 6018 0
-593 -6017 0
-594 6019 0
-6018 6019 0
-594 -6018 0
-595 6020 0
-6019 6020 0
-595 -6019 0
-596 6021 0
-6020 6021 0
-596 -6020 0
-597 6022 0
-6021 6022 0
-597 -6021 0
-598 6023 0
-6022 6023 0
-598 -6022 0
-599 6024 0
-6023 6024 0
-599 -6023 0
-600 6025 0
-6024 6025 0
-600 -6024 0
-601 6026 0
-6025 6026 0
-601 -6025 0
-602 6027 0
-6026 6027 0
-602 -6026 0
-603 6028 0
-6027 6028 0
-603 -6027 0
-604 6029 0
-6028 6029 0
-604 -6028 0
-605 6030 0
-6029 6030 0
-605 -6029 0
-606 6031 0
-6030 6031 0
-606 -6030 0
-607 6032 0
-6031 6032 0
-607 -6031 0
-608 6033 0
-6032 6033 0
-608 -6032 0
-609 6034 0
-6033 6034 0
-609 -6033 0
-610 6035 0
-6034 6035 0
-610 -6034 0
-611 6036 0
-6035 6036 0
-611 -6035 0
-612 6037 0
-6036 6037 0
-612 -6036 0
-613 6038 0
-6037 6038 0
-613 -6037 0
-614 6039 0
-6038 6039 0
-614 -6038 0
-615 -6039 0
128 251 313 616 617 618 619 620 621 622 623 624 625 626 627 628 629 630 631 632 633 634 635 636 637 638 639 640 641 642 643 644 645 646 647 648 649 650 651 652 653 654 655 656 657 658 659 660 661 662 663 664 665 666 667 668 669 670 671 672 673 674 675 0
-128 6040 0
-251 6041 0
-6040 6041 0
-251 -6040 0
-313 6042 0
-6041 6042 0
-313 -6041 0
-616 6043 0
-6042 6043 0
-616 -6042 0
-617 6044 0
-6043 6044 0
-617 -6043 0
-618 6045 0
-6044 6045 0
-618 -6044 0
-619 6046 0
-6045 6046 0
-619 -6045 0
-620 6047 0
-6046 6047 0
-620 -6046 0
-621 6048 0
-6047 6048 0
-621 -6047 0
-622 6049 0
-6048 6049 0
-622 -6048 0
-623 6050 0
-6049 6050 0
-623 -6049 0
-624 6051 0
-6050 6051 0
-624 -6050 0
-625 6052 0
-6051 6052 0
-625 -6051 0
-626 6053 0
-6052 6053 0
-626 -6052 0
-627 6054 0
-6053 6054 0
-627 -6053 0
-628 6055 0
-6054 6055 0
-628 -6054 0
-629 6056 0
-6055 6056 0
-629 -6055 0
-630 6057 0
-6056 6057 0
-630 -6056 0
-631 6058 0
-6057 6058 0
-631 -6057 0
-632 6059 0
-6058 6059 0
-632 -6058 0
-633 6060 0
-6059 6060 0
-633 -6059 0
-634 6061 0
-6060 6061 0
-634 -6060 0
-635 6062 0
-6061 6062 0
-635 -6061 0
-636 6063 0
-6062 6063 0
-636 -6062 0
-637 6064 0
-6063 6064 0
-637 -6063 0
-638 6065 0
-6064 6065 0
-638 -6064 0
-639 6066 0
-6065 6066 0
-639 -6065 0
-640 6067 0
-6066 6067 0
-640 -6066 0
-641 6068 0
-6067 6068 0
-641 -6067 0
-642 6069 0
-6068 6069 0
-642 -6068 0
-643 6070 0
-6069 6070 0
-643 -6069 0
-644 6071 0
-6070 6071 0
-644 -6070 0
-645 6072 0
-6071 6072 0
-645 -6071 0
-646 6073 0
-6072 6073 0
-646 -6072 0
-647 6074 0
-6073 6074 0
-647 -6073 0
-648 6075 0
-6074 6075 0
-648 -6074 0
-649 6076 0
-6075 6076 0
-649 -6075 0
-650 6077 0
-6076 6077 0
-650 -6076 0
-651 6078 0
-6077 6078 0
-651 -6077 0
-652 6079 0
-6078 6079 0
-652 -6078 0
-653 6080 0
-6079 6080 0
-653 -6079 0
-654 6081 0
-6080 6081 0
-654 -6080 0
-655 6082 0
-6081 6082 0
-655 -6081 0
-656 6083 0
-6082 6083 0
-656 -6082 0
-657 6084 0
-6083 6084 0
-657 -6083 0
-658 6085 0
-6084 6085 0
-658 -6084 0
-659 6086 0
-6085 6086 0
-659 -6085 0
-660 6087 0
-6086 6087 0
-660 -6086 0
-661 6088 0
-6087 6088 0
-661 -6087 0
-662 6089 0
-6088 6089 0
-662 -6088 0
-663 6090 0
-6089 6090 0
-663 -6089 0
-664 6091 0
-6090 6091 0
-664 -6090 0
-665 6092 0
-6091 6092 0
-665 -6091 0
-666 6093 0
-6092 6093 0
-666 -6092 0
-667 6094 0
-6093 6094 0
-667 -6093 0
-668 6095 0
-6094 6095 0
-668 -6094 0
-669 6096 0
-6095 6096 0
-669 -6095 0
-670 6097 0
-6096 6097 0
-670 -6096 0
-671 6098 0
-6097 6098 0
-671 -6097 0
-672 6099 0
-6098 6099 0
-672 -6098 0
-673 6100 0
-6099 6100 0
-673 -6099 0
-674 6101 0
-6100 6101 0
-674 -6100 0
-675 -6101 0
3 66 129 676 677 678 679 680 681 682 683 684 685 686 687 688 689 690 691 692 693 694 695 696 697 698 699 700 701 702 703 704 705 706 707 708 709 710 711 712 713 714 715 716 717 718 719 720 721 722 723 724 725 726 727 728 729 730 731 732 733 734 735 0
-3 6102 0
-66 6103 0
-6102 6103 0
-66 -6102 0
-129 6104 0
-6103 6104 0
-129 -6103 0
-676 6105 0
-6104 6105 0
-676 -6104 0
-677 6106 0
-6105 6106 0
-677 -6105 0
-678 6107 0
-6106 6107 0
-678 -6106 0
-679 6108 0
-6107 6108 0
-679 -6107 0
-680 6109 0
-6108 6109 0
-680 -6108 0
-681 6110 0
-6109 6110 0
-681 -6109 0
-682 6111 0
-6110 6111 0
-682 -6110 0
-683 6112 0
-6111 6112 0
-683 -6111 0
-684 6113 0
-6112 6113 0
-684 -6112 0
-685 6114 0
-6113 6114 0
-685 -6113 0
-686 6115 0
-6114 6115 0
-686 -6114 0
-687 6116 0
-6115 6116 0
-687 -6115 0
-688 6117 0
-6116 6117 0
-688 -6116 0
-689 6118 0
-6117 6118 0
-689 -6117 0
-690 6119 0
-6118 6119 0
-690 -6118 0
-691 6120 0
-6119 6120 0
-691 -6119 0
-692 6121 0
-6120 6121 0
-692 -6120 0
-693 6122 0
-6121 6122 0
-693 -6121 0
-694 6123 0
-6122 6123 0
-694 -6122 0
-695 6124 0
-6123 6124 0
-695 -6123 0
-696 6125 0
-6124 6125 0
-696 -6124 0
-697 6126 0
-6125 6126 0
-697 -6125 0
-698 6127 0
-6126 6127 0
-698 -6126 0
-699 6128 0
-6127 6128 0
-699 -6127 0
-700 6129 0
-6128 6129 0
-700 -6128 0
-701 6130 0
-6129 6130 0
-701 -6129 0
-702 6131 0
-6130 6131 0
-702 -6130 0
-703 6132 0
-6131 6132 0
-703 -6131 0
-704 6133 0
-6132 6133 0
-704 -6132 0
-705 6134 0
-6133 6134 0
-705 -6133 0
-706 6135 0
-6134 6135 0
-706 -6134 0
-707 6136 0
-6135 6136 0
-707 -6135 0
-708 6137 0
-6136 6137 0
-708 -6136 0
-709 6138 0
-6137 6138 0
-709 -6137 0
-710 6139 0
-6138 6139 0
-710 -6138 0
-711 6140 0
-6139 6140 0
-711 -6139 0
-712 6141 0
-6140 6141 0
-712 -6140 0
-713 6142 0
-6141 6142 0
-713 -6141 0
-714 6143 0
-6142 6143 0
-714 -6142 0
-715 6144 0
-6143 6144 0
-715 -6143 0
-716 6145 0
-6144 6145 0
-716 -6144 0
-717 6146 0
-6145 6146 0
-717 -6145 0
-718 6147 0
-6146 6147 0
-718 -6146 0
-719 6148 0
-6147 6148 0
-719 -6147 0
-720 6149 0
-6148 6149 0
-720 -6148 0
-721 6150 0
-6149 6150 0
-721 -6149 0
-722 6151 0
-6150 6151 0
-722 -6150 0
-723 6152 0
-6151 6152 0
-723 -6151 0
-724 6153 0
-6152 6153 0
-724 -6152 0
-725 6154 0
-6153 6154 0
-725 -6153 0
-726 6155 0
-6154 6155 0
-726 -6154 0
-727 6156 0
-6155 6156 0
-727 -6155 0
-728 6157 0
-6156 6157 0
-728 -6156 0
-729 6158 0
-6157 6158 0
-729 -6157 0
-730 6159 0
-6158 6159 0
-730 -6158 0
-731 6160 0
-6159 6160 0
-731 -6159 0
-732 6161 0
-6160 6161 0
-732 -6160 0
-733 6162 0
-6161 6162 0
-733 -6161 0
-734 6163 0
-6162 6163 0
-734 -6162 0
-735 -6163 0
3 313 375 736 737 738 739 740 741 742 743 744 745 746 747 748 749 750 751 752 753 754 755 756 757 758 759 760 761 762 763 764 765 766 767 768 769 770 771 772 773 774 775 776 777 778 779 780 781 782 783 784 785 786 787 788 789 790 791 792 793 794 795 0
-3 6164 0
-313 6165 0
-6164 6165 0
-313 -6164 0
-375 6166 0
-6165 6166 0
-375 -6165 0
-736 6167 0
-6166 6167 0
-736 -6166 0
-737 6168 0
-6167 6168 0
-737 -6167 0
-738 6169 0
-6168 6169 0
-738 -6168 0
-739 6170 0
-6169 6170 0
-739 -6169 0
-740 6171 0
-6170 6171 0
-740 -6170 0
-741 6172 0
-6171 6172 0
-741 -6171 0
-742 6173 0
-6172 6173 0
-742 -6172 0
-743 6174 0
-6173 6174 0
-743 -6173 0
-744 6175 0
-6174 6175 0
-744 -6174 0
-745 6176 0
-6175 6176 0
-745 -6175 0
-746 6177 0
-6176 6177 0
-746 -6176 0
-747 6178 0
-6177 6178 0
-747 -6177 0
-748 6179 0
-6178 6179 0
-748 -6178 0
-749 6180 0
-6179 6180 0
-749 -6179 0
-750 6181 0
-6180 6181 0
-750 -6180 0
-751 6182 0
-6181 6182 0
-751 -6181 0
-752 6183 0
-6182 6183 0
-752 -6182 0
-753 6184 0
-6183 6184 0
-753 -6183 0
-754 6185 0
-6184 6185 0
-754 -6184 0
-755 6186 0
-6185 6186 0
-755 -6185 0
-756 6187 0
-6186 6187 0
-756 -6186 0
-757 6188 0
-6187 6188 0
-757 -6187 0
-758 6189 0
-6188 6189 0
-758 -6188 0
-759 6190 0
-6189 6190 0
-759 -6189 0
-760 6191 0
-6190 6191 0
-760 -6190 0
-761 6192 0
-6191 6192 0
-761 -6191 0
-762 6193 0
-6192 6193 0
-762 -6192 0
-763 6194 0
-6193 6194 0
-763 -6193 0
-764 6195 0
-6194 6195 0
-764 -6194 0
-765 6196 0
-6195 6196 0
-765 -6195 0
-766 6197 0
-6196 6197 0
-766 -6196 0
-767 6198 0
-6197 6198 0
-767 -6197 0
-768 6199 0
-6198 6199 0
-768 -6198 0
-769 6200 0
-6199 6200 0
-769 -6199 0
-770 6201 0
-6200 6201 0
-770 -6200 0
-771 6202 0
-6201 6202 0
-771 -6201 0
-772 6203 0
-6202 6203 0
-772 -6202 0
-773 6204 0
-6203 6204 0
-773 -6203 0
-774 6205 0
-6204 6205 0
-774 -6204 0
-775 6206 0
-6205 6206 0
-775 -6205 0
-776 6207 0
-6206 6207 0
-776 -6206 0
-777 6208 0
-6207 6208 0
-777 -6207 0
-778 6209 0
-6208 6209 0
-778 -6208 0
-779 6210 0
-6209 6210 0
-779 -6209 0
-780 6211 0
-6210 6211 0
-780 -6210 0
-781 6212 0
-6211 6212 0
-781 -6211 0
-782 6213 0
-6212 6213 0
-782 -6212 0
-783 6214 0
-6213 6214 0
-783 -6213 0
-784 6215 0
-6214 6215 0
-784 -6214 0
-785 6216 0
-6215 6216 0
-785 -6215 0
-786 6217 0
-6216 6217 0
-786 -6216 0
-787 6218 0
-6217 6218 0
-787 -6217 0
-788 6219 0
-6218 6219 0
-788 -6218 0
-789 6220 0
-6219 6220 0
-789 -6219 0
-790 6221 0
-6220 6221 0
-790 -6220 0
-791 6222 0
-6221 6222 0
-791 -6221 0
-792 6223 0
-6222 6223 0
-792 -6222 0
-793 6224 0
-6223 6224 0
-793 -6223 0
-794 6225 0
-6224 6225 0
-794 -6224 0
-795 -6225 0
66 251 374 796 797 798 799 800 801 802 803 804 805 806 807 808 809 810 811 812 813 814 815 816 817 818 819 820 821 822 823 824 825 826 827 828 829 830 831 832 833 834 835 836 837 838 839 840 841 842 843 844 845 846 847 848 849 850 851 852 853 854 855 0
-66 6226 0
-251 6227 0
-6226 6227 0
-251 -6226 0
-374 6228 0
-6227 6228 0
-374 -6227 0
-796 6229 0
-6228 6229 0
-796 -6228 0
-797 6230 0
-6229 6230 0
-797 -6229 0
-798 6231 0
-6230 6231 0
-798 -6230 0
-799 6232 0
-6231 6232 0
-799 -6231 0
-800 6233 0
-6232 6233 0
-800 -6232 0
-801 6234 0
-6233 6234 0
-801 -6233 0
-802 6235 0
-6234 6235 0
-802 -6234 0
-803 6236 0
-6235 6236 0
-803 -6235 0
-804 6237 0
-6236 6237 0
-804 -6236 0
-805 6238 0
-6237 6238 0
-805 -6237 0
-806 6239 0
-6238 6239 0
-806 -6238 0
-807 6240 0
-6239 6240 0
-807 -6239 0
-808 6241 0
-6240 6241 0
-808 -6240 0
-809 6242 0
-6241 6242 0
-809 -6241 0
-810 6243 0
-6242 6243 0
-810 -6242 0
-811 6244 0
-6243 6244 0
-811 -6243 0
-812 6245 0
-6244 6245 0
-812 -6244 0
-813 6246 0
-6245 6246 0
-813 -6245 0
-814 6247 0
-6246 6247 0
-814 -6246 0
-815 6248 0
-6247 6248 0
-815 -6247 0
-816 6249 0
-6248 6249 0
-816 -6248 0
-817 6250 0
-6249 6250 0
-817 -6249 0
-818 6251 0
-6250 6251 0
-818 -6250 0
-819 6252 0
-6251 6252 0
-819 -6251 0
-820 6253 0
-6252 6253 0
-820 -6252 0
-821 6254 0
-6253 6254 0
-821 -6253 0
-822 6255 0
-6254 6255 0
-822 -6254 0
-823 6256 0
-6255 6256 0
-823 -6255 0
-824 6257 0
-6256 6257 0
-824 -6256 0
-825 6258 0
-6257 6258 0
-825 -6257 0
-826 6259 0
-6258 6259 0
-826 -6258 0
-827 6260 0
-6259 6260 0
-827 -6259 0
-828 6261 0
-6260 6261 0
-828 -6260 0
-829 6262 0
-6261 6262 0
-829 -6261 0
-830 6263 0
-6262 6263 0
-830 -6262 0
-831 6264 0
-6263 6264 0
-831 -6263 0
-832 6265 0
-6264 6265 0
-832 -6264 0
-833 6266 0
-6265 6266 0
-833 -6265 0
-834 6267 0
-6266 6267 0
-834 -6266 0
-835 6268 0
-6267 6268 0
-835 -6267 0
-836 6269 0
-6268 6269 0
-836 -6268 0
-837 6270 0
-6269 6270 0
-837 -6269 0
-838 6271 0
-6270 6271 0
-838 -6270 0
-839 6272 0
-6271 6272 0
-839 -6271 0
-840 6273 0
-6272 6273 0
-840 -6272 0
-841 6274 0
-6273 6274 0
-841 -6273 0
-842 6275 0
-6274 6275 0
-842 -6274 0
-843 6276 0
-6275 6276 0
-843 -6275 0
-844 6277 0
-6276 6277 0
-844 -6276 0
-845 6278 0
-6277 6278 0
-845 -6277 0
-846 6279 0
-6278 6279 0
-846 -6278 0
-847 6280 0
-6279 6280 0
-847 -6279 0
-848 6281 0
-6280 6281 0
-848 -6280 0
-849 6282 0
-6281 6282 0
-849 -6281 0
-850 6283 0
-6282 6283 0
-850 -6282 0
-851 6284 0
-6283 6284 0
-851 -6283 0
-852 6285 0
-6284 6285 0
-852 -6284 0
-853 6286 0
-6285 6286 0
-853 -6285 0
-854 6287 0
-6286 6287 0
-854 -6286 0
-855 -6287 0
129 250 312 856 857 858 859 860 861 862 863 864 865 866 867 868 869 870 871 872 873 874 875 876 877 878 879 880 881 882 883 884 885 886 887 888 889 890 891 892 893 894 895 896 897 898 899 900 901 902 903 904 905 906 907 908 909 910 911 912 913 914 915 0
-129 6288 0
-250 6289 0
-6288 6289 0
-250 -6288 0
-312 6290 0
-6289 6290 0
-312 -6289 0
-856 6291 0
-6290 6291 0
-856 -6290 0
-857 6292 0
-6291 6292 0
-857 -6291 0
-858 6293 0
-6292 6293 0
-858 -6292 0
-859 6294 0
-6293 6294 0
-859 -6293 0
-860 6295 0
-6294 6295 0
-860 -6294 0
-861 6296 0
-6295 6296 0
-861 -6295 0
-862 6297 0
-6296 6297 0
-862 -6296 0
-863 6298 0
-6297 6298 0
-863 -6297 0
-864 6299 0
-6298 6299 0
-864 -6298 0
-865 6300 0
-6299 6300 0
-865 -6299 0
-866 6301 0
-6300 6301 0
-866 -6300 0
-867 6302 0
-6301 6302 0
-867 -6301 0
-868 6303 0
-6302 6303 0
-868 -6302 0
-869 6304 0
-6303 6304 0
-869 -6303 0
-870 6305 0
-6304 6305 0
-870 -6304 0
-871 6306 0
-6305 6306 0
-871 -6305 0
-872 6307 0
-6306 6307 0
-872 -6306 0
-873 6308 0
-6307 6308 0
-873 -6307 0
-874 6309 0
-6308 6309 0
-874 -6308 0
-875 6310 0
-6309 6310 0
-875 -6309 0
-876 6311 0
-6310 6311 0
-876 -6310 0
-877 6312 0
-6311 6312 0
-877 -6311 0
-878 6313 0
-6312 6313 0
-878 -6312 0
-879 6314 0
-6313 6314 0
-879 -6313 0
-880 6315 0
-6314 6315 0
-880 -6314 0
-881 6316 0
-6315 6316 0
-881 -6315 0
-882 6317 0
-6316 6317 0
-882 -6316 0
-883 6318 0
-6317 6318 0
-883 -6317 0
-884 6319 0
-6318 6319 0
-884 -6318 0
-885 6320 0
-6319 6320 0
-885 -6319 0
-886 6321 0
-6320 6321 0
-886 -6320 0
-887 6322 0
-6321 6322 0
-887 -6321 0
-888 6323 0
-6322 6323 0
-888 -6322 0
-889 6324 0
-6323 6324 0
-889 -6323 0
-890 6325 0
-6324 6325 0
-890 -6324 0
-891 6326 0
-6325 6326 0
-891 -6325 0
-892 6327 0
-6326 6327 0
-892 -6326 0
-893 6328 0
-6327 6328 0
-893 -6327 0
-894 6329 0
-6328 6329 0
-894 -6328 0
-895 6330 0
-6329 6330 0
-895 -6329 0
-896 6331 0
-6330 6331 0
-896 -6330 0
-897 6332 0
-6331 6332 0
-897 -6331 0
-898 6333 0
-6332 6333 0
-898 -6332 0
-899 6334 0
-6333 6334 0
-899 -6333 0
-900 6335 0
-6334 6335 0
-900 -6334 0
-901 6336 0
-6335 6336 0
-901 -6335 0
-902 6337 0
-6336 6337 0
-902 -6336 0
-903 6338 0
-6337 6338 0
-903 -6337 0
-904 6339 0
-6338 6339 0
-904 -6338 0
-905 6340 0
-6339 6340 0
-905 -6339 0
-906 6341 0
-6340 6341 0
-906 -6340 0
-907 6342 0
-6341 6342 0
-907 -6341 0
-908 6343 0
-6342 6343 0
-908 -6342 0
-909 6344 0
-6343 6344 0
-909 -6343 0
-910 6345 0
-6344 6345 0
-910 -6344 0
-911 6346 0
-6345 6346 0
-911 -6345 0
-912 6347 0
-6346 6347 0
-912 -6346 0
-913 6348 0
-6347 6348 0
-913 -6347 0
-914 6349 0
-6348 6349 0
-914 -6348 0
-915 -6349 0
4 67 130 190 252 314 376 436 496 556 616 676 736 796 856 916 917 918 919 920 921 922 923 924 925 926 927 928 929 930 931 932 933 934 935 936 937 938 939 940 941 942 943 944 945 946 947 948 949 950 951 952 953 954 955 956 957 958 959 960 961 962 963 0
-4 6350 0
-67 6351 0
-6350 6351 0
-67 -6350 0
-130 6352 0
-6351 6352 0
-130 -6351 0
-190 6353 0
-6352 6353 0
-190 -6352 0
-252 6354 0
-6353 6354 0
-252 -6353 0
-314 6355 0
-6354 6355 0
-314 -6354 0
-376 6356 0
-6355 6356 0
-376 -6355 0
-436 6357 0
-6356 6357 0
-436 -6356 0
-496 6358 0
-6357 6358 0
-496 -6357 0
-556 6359 0
-6358 6359 0
-556 -6358 0
-616 6360 0
-6359 6360 0
-616 -6359 0
-676 6361 0
-6360 6361 0
-676 -6360 0
-736 6362 0
-6361 6362 0
-736 -6361 0
-796 6363 0
-6362 6363 0
-796 -6362 0
-856 6364 0
-6363 6364 0
-856 -6363 0
-916 6365 0
-6364 6365 0
-916 -6364 0
-917 6366 0
-6365 6366 0
-917 -6365 0
-918 6367 0
-6366 6367 0
-918 -6366 0
-919 6368 0
-6367 6368 0
-919 -6367 0
-920 6369 0
-6368 6369 0
-920 -6368 0
-921 6370 0
-6369 6370 0
-921 -6369 0
-922 6371 0
-6370 6371 0
-922 -6370 0
-923 6372 0
-6371 6372 0
-923 -6371 0
-924 6373 0
-6372 6373 0
-924 -6372 0
-925 6374 0
-6373 6374 0
-925 -6373 0
-926 6375 0
-6374 6375 0
-926 -6374 0
-927 6376 0
-6375 6376 0
-927 -6375 0
-928 6377 0
-6376 6377 0
-928 -6376 0
-929 6378 0
-6377 6378 0
-929 -6377 0
-930 6379 0
-6378 6379 0
-930 -6378 0
-931 6380 0
-6379 6380 0
-931 -6379 0
-932 6381 0
-6380 6381 0
-932 -6380 0
-933 6382 0
-6381 6382 0
-933 -6381 0
-934 6383 0
-6382 6383 0
-934 -6382 0
-935 6384 0
-6383 6384 0
-935 -6383 0
-936 6385 0
-6384 6385 0
-936 -6384 0
-937 6386 0
-6385 6386 0
-937 -6385 0
-938 6387 0
-6386 6387 0
-938 -6386 0
-939 6388 0
-6387 6388 0
-939 -6387 0
-940 6389 0
-6388 6389 0
-940 -6388 0
-941 6390 0
-6389 6390 0
-941 -6389 0
-942 6391 0
-6390 6391 0
-942 -6390 0
-943 6392 0
-6391 6392 0
-943 -6391 0
-944 6393 0
-6392 6393 0
-944 -6392 0
-945 6394 0
-6393 6394 0
-945 -6393 0
-946 6395 0
-6394 6395 0
-946 -6394 0
-947 6396 0
-6395 6396 0
-947 -6395 0
-948 6397 0
-6396 6397 0
-948 -6396 0
-949 6398 0
-6397 6398 0
-949 -6397 0
-950 6399 0
-6398 6399 0
-950 -6398 0
-951 6400 0
-6399 6400 0
-951 -6399 0
-952 6401 0
-6400 6401 0
-952 -6400 0
-953 6402 0
-6401 6402 0
-953 -6401 0
-954 6403 0
-6402 6403 0
-954 -6402 0
-955 6404 0
-6403 6404 0
-955 -6403 0
-956 6405 0
-6404 6405 0
-956 -6404 0
-957 6406 0
-6405 6406 0
-957 -6405 0
-958 6407 0
-6406 6407 0
-958 -6406 0
-959 6408 0
-6407 6408 0
-959 -6407 0
-960 6409 0
-6408 6409 0
-960 -6408 0
-961 6410 0
-6409 6410 0
-961 -6409 0
-962 6411 0
-6410 6411 0
-962 -6410 0
-963 -6411 0
4 191 253 437 497 677 737 964 965 966 967 968 969 970 971 972 973 974 975 976 977 978 979 980 981 982 983 984 985 986 987 988 989 990 991 992 993 994 995 996 997 998 999 1000 1001 1002 1003 1004 1005 1006 1007 1008 1009 1010 1011 1012 1013 1014 1015 1016 1017 1018 1019 0
-4 6412 0
-191 6413 0
-6412 6413 0
-191 -6412 0
-253 6414 0
-6413 6414 0
-253 -6413 0
-437 6415 0
-6414 6415 0
-437 -6414 0
-497 6416 0
-6415 6416 0
-497 -6415 0
-677 6417 0
-6416 6417 0
-677 -6416 0
-737 6418 0
-6417 6418 0
-737 -6417 0
-964 6419 0
-6418 6419 0
-964 -6418 0
-965 6420 0
-6419 6420 0
-965 -6419 0
-966 6421 0
-6420 6421 0
-966 -6420 0
-967 6422 0
-6421 6422 0
-967 -6421 0
-968 6423 0
-6422 6423 0
-968 -6422 0
-969 6424 0
-6423 6424 0
-969 -6423 0
-970 6425 0
-6424 6425 0
-970 -6424 0
-971 6426 0
-6425 6426 0
-971 -6425 0
-972 6427 0
-6426 6427 0
-972 -6426 0
-973 6428 0
-6427 6428 0
-973 -6427 0
-974 6429 0
-6428 6429 0
-974 -6428 0
-975 6430 0
-6429 6430 0
-975 -6429 0
-976 6431 0
-6430 6431 0
-976 -6430 0
-977 6432 0
-6431 6432 0
-977 -6431 0
-978 6433 0
-6432 6433 0
-978 -6432 0
-979 6434 0
-6433 6434 0
-979 -6433 0
-980 6435 0
-6434 6435 0
-980 -6434 0
-981 6436 0
-6435 6436 0
-981 -6435 0
-982 6437 0
-6436 6437 0
-982 -6436 0
-983 6438 0
-6437 6438 0
-983 -6437 0
-984 6439 0
-6438 6439 0
-984 -6438 0
-985 6440 0
-6439 6440 0
-985 -6439 0
-986 6441 0
-6440 6441 0
-986 -6440 0
-987 6442 0
-6441 6442 0
-987 -6441 0
-988 6443 0
-6442 6443 0
-988 -6442 0
-989 6444 0
-6443 6444 0
-989 -6443 0
-990 6445 0
-6444 6445 0
-990 -6444 0
-991 6446 0
-6445 6446 0
-991 -6445 0
-992 6447 0
-6446 6447 0
-992 -6446 0
-993 6448 0
-6447 6448 0
-993 -6447 0
-994 6449 0
-6448 6449 0
-994 -6448 0
-995 6450 0
-6449 6450 0
-995 -6449 0
-996 6451 0
-6450 6451 0
-996 -6450 0
-997 6452 0
-6451 6452 0
-997 -6451 0
-998 6453 0
-6452 6453 0
-998 -6452 0
-999 6454 0
-6453 6454 0
-999 -6453 0
-1000 6455 0
-6454 6455 0
-1000 -6454 0
-1001 6456 0
-6455 6456 0
-1001 -6455 0
-1002 6457 0
-6456 6457 0
-1002 -6456 0
-1003 6458 0
-6457 6458 0
-1003 -6457 0
-1004 6459 0
-6458 6459 0
-1004 -6458 0
-1005 6460 0
-6459 6460 0
-1005 -6459 0
-1006 6461 0
-6460 6461 0
-1006 -6460 0
-1007 6462 0
-6461 6462 0
-1007 -6461 0
-1008 6463 0
-6462 6463 0
-1008 -6462 0
-1009 6464 0
-6463 6464 0
-1009 -6463 0
-1010 6465 0
-6464 6465 0
-1010 -6464 0
-1011 6466 0
-6465 6466 0
-1011 -6465 0
-1012 6467 0
-6466 6467 0
-1012 -6466 0
-1013 6468 0
-6467 6468 0
-1013 -6467 0
-1014 6469 0
-6468 6469 0
-1014 -6468 0
-1015 6470 0
-6469 6470 0
-1015 -6469 0
-1016 6471 0
-6470 6471 0
-1016 -6470 0
-1017 6472 0
-6471 6472 0
-1017 -6471 0
-1018 6473 0
-6472 6473 0
-1018 -6472 0
-1019 -6473 0
67 192 315 438 557 678 797 1020 1021 1022 1023 1024 1025 1026 1027 1028 1029 1030 1031 1032 1033 1034 1035 1036 1037 1038 1039 1040 1041 1042 1043 1044 1045 1046 1047 1048 1049 1050 1051 1052 1053 1054 1055 1056 1057 1058 1059 1060 1061 1062 1063 1064 1065 1066 1067 1068 1069 1070 1071 1072 1073 1074 1075 0
-67 6474 0
-192 6475 0
-6474 6475 0
-192 -6474 0
-315 6476 0
-6475 6476 0
-315 -6475 0
-438 6477 0
-6476 6477 0
-438 -6476 0
-557 6478 0
-6477 6478 0
-557 -6477 0
-678 6479 0
-6478 6479 0
-678 -6478 0
-797 6480 0
-6479 6480 0
-797 -6479 0
-1020 6481 0
-6480 6481 0
-1020 -6480 0
-1021 6482 0
-6481 6482 0
-1021 -6481 0
-1022 6483 0
-6482 6483 0
-1022 -6482 0
-1023 6484 0
-6483 6484 0
-1023 -6483 0
-1024 6485 0
-6484 6485 0
-1024 -6484 0
-1025 6486 0
-6485 6486 0
-1025 -6485 0
-1026 6487 0
-6486 6487 0
-1026 -6486 0
-1027 6488 0
-6487 6488 0
-1027 -6487 0
-1028 6489 0
-6488 6489 0
-1028 -6488 0
-1029 6490 0
-6489 6490 0
-1029 -6489 0
-1030 6491 0
-6490 6491 0
-1030 -6490 0
-1031 6492 0
-6491 6492 0
-1031 -6491 0
-1032 6493 0
-6492 6493 0
-1032 -6492 0
-1033 6494 0
-6493 6494 0
-1033 -6493 0
-1034 6495 0
-6494 6495 0
-1034 -6494 0
-1035 6496 0
-6495 6496 0
-1035 -6495 0
-1036 6497 0
-6496 6497 0
-1036 -6496 0
-1037 6498 0
-6497 6498 0
-1037 -6497 0
-1038 6499 0
-6498 6499 0
-1038 -6498 0
-1039 6500 0
-6499 6500 0
-1039 -6499 0
-1040 6501 0
-6500 6501 0
-1040 -6500 0
-1041 6502 0
-6501 6502 0
-1041 -6501 0
-1042 6503 0
-6502 6503 0
-1042 -6502 0
-1043 6504 0
-6503 6504 0
-1043 -6503 0
-1044 6505 0
-6504 6505 0
-1044 -6504 0
-1045 6506 0
-6505 6506 0
-1045 -6505 0
-1046 6507 0
-6506 6507 0
-1046 -6506 0
-1047 6508 0
-6507 6508 0
-1047 -6507 0
-1048 6509 0
-6508 6509 0
-1048 -6508 0
-1049 6510 0
-6509 6510 0
-1049 -6509 0
-1050 6511 0
-6510 6511 0
-1050 -6510 0
-1051 6512 0
-6511 6512 0
-1051 -6511 0
-1052 6513 0
-6512 6513 0
-1052 -6512 0
-1053 6514 0
-6513 6514 0
-1053 -6513 0
-1054 6515 0
-6514 6515 0
-1054 -6514 0
-1055 6516 0
-6515 6516 0
-1055 -6515 0
-1056 6517 0
-6516 6517 0
-1056 -6516 0
-1057 6518 0
-6517 6518 0
-1057 -6517 0
-1058 6519 0
-6518 6519 0
-1058 -6518 0
-1059 6520 0
-6519 6520 0
-1059 -6519 0
-1060 6521 0
-6520 6521 0
-1060 -6520 0
-1061 6522 0
-6521 6522 0
-1061 -6521 0
-1062 6523 0
-6522 6523 0
-1062 -6522 0
-1063 6524 0
-6523 6524 0
-1063 -6523 0
-1064 6525 0
-6524 6525 0
-1064 -6524 0
-1065 6526 0
-6525 6526 0
-1065 -6525 0
-1066 6527 0
-6526 6527 0
-1066 -6526 0
-1067 6528 0
-6527 6528 0
-1067 -6527 0
-1068 6529 0
-6528 6529 0
-1068 -6528 0
-1069 6530 0
-6529 6530 0
-1069 -6529 0
-1070 6531 0
-6530 6531 0
-1070 -6530 0
-1071 6532 0
-6531 6532 0
-1071 -6531 0
-1072 6533 0
-6532 6533 0
-1072 -6532 0
-1073 6534 0
-6533 6534 0
-1073 -6533 0
-1074 6535 0
-6534 6535 0
-1074 -6534 0
-1075 -6535 0
130 193 377 439 617 679 857 1076 1077 1078 1079 1080 1081 1082 1083 1084 1085 1086 1087 1088 1089 1090 1091 1092 1093 1094 1095 1096 1097 1098 1099 1100 1101 1102 1103 1104 1105 1106 1107 1108 1109 1110 1111 1112 1113 1114 1115 1116 1117 1118 1119 1120 1121 1122 1123 1124 1125 1126 1127 1128 1129 1130 1131 0
-130 6536 0
-193 6537 0
-6536 6537 0
-193 -6536 0
-377 6538 0
-6537 6538 0
-377 -6537 0
-439 6539 0
-6538 6539 0
-439 -6538 0
-617 6540 0
-6539 6540 0
-617 -6539 0
-679 6541 0
-6540 6541 0
-679 -6540 0
-857 6542 0
-6541 6542 0
-857 -6541 0
-1076 6543 0
-6542 6543 0
-1076 -6542 0
-1077 6544 0
-6543 6544 0
-1077 -6543 0
-1078 6545 0
-6544 6545 0
-1078 -6544 0
-1079 6546 0
-6545 6546 0
-1079 -6545 0
-1080 6547 0
-6546 6547 0
-1080 -6546 0
-1081 6548 0
-6547 6548 0
-1081 -6547 0
-1082 6549 0
-6548 6549 0
-1082 -6548 0
-1083 6550 0
-6549 6550 0
-1083 -6549 0
-1084 6551 0
-6550 6551 0
-1084 -6550 0
-1085 6552 0
-6551 6552 0
-1085 -6551 0
-1086 6553 0
-6552 6553 0
-1086 -6552 0
-1087 6554 0
-6553 6554 0
-1087 -6553 0
-1088 6555 0
-6554 6555 0
-1088 -6554 0
-1089 6556 0
-6555 6556 0
-1089 -6555 0
-1090 6557 0
-6556 6557 0
-1090 -6556 0
-1091 6558 0
-6557 6558 0
-1091 -6557 0
-1092 6559 0
-6558 6559 0
-1092 -6558 0
-1093 6560 0
-6559 6560 0
-1093 -6559 0
-1094 6561 0
-6560 6561 0
-1094 -6560 0
-1095 6562 0
-6561 6562 0
-1095 -6561 0
-1096 6563 0
-6562 6563 0
-1096 -6562 0
-1097 6564 0
-6563 6564 0
-1097 -6563 0
-1098 6565 0
-6564 6565 0
-1098 -6564 0
-1099 6566 0
-6565 6566 0
-1099 -6565 0
-1100 6567 0
-6566 6567 0
-1100 -6566 0
-1101 6568 0
-6567 6568 0
-1101 -6567 0
-1102 6569 0
-6568 6569 0
-1102 -6568 0
-1103 6570 0
-6569 6570 0
-1103 -6569 0
-1104 6571 0
-6570 6571 0
-1104 -6570 0
-1105 6572 0
-6571 6572 0
-1105 -6571 0
-1106 6573 0
-6572 6573 0
-1106 -6572 0
-1107 6574 0
-6573 6574 0
-1107 -6573 0
-1108 6575 0
-6574 6575 0
-1108 -6574 0
-1109 6576 0
-6575 6576 0
-1109 -6575 0
-1110 6577 0
-6576 6577 0
-1110 -6576 0
-1111 6578 0
-6577 6578 0
-1111 -6577 0
-1112 6579 0
-6578 6579 0
-1112 -6578 0
-1113 6580 0
-6579 6580 0
-1113 -6579 0
-1114 6581 0
-6580 6581 0
-1114 -6580 0
-1115 6582 0
-6581 6582 0
-1115 -6581 0
-1116 6583 0
-6582 6583 0
-1116 -6582 0
-1117 6584 0
-6583 6584 0
-1117 -6583 0
-1118 6585 0
-6584 6585 0
-1118 -6584 0
-1119 6586 0
-6585 6586 0
-1119 -6585 0
-1120 6587 0
-6586 6587 0
-1120 -6586 0
-1121 6588 0
-6587 6588 0
-1121 -6587 0
-1122 6589 0
-6588 6589 0
-1122 -6588 0
-1123 6590 0
-6589 6590 0
-1123 -6589 0
-1124 6591 0
-6590 6591 0
-1124 -6590 0
-1125 6592 0
-6591 6592 0
-1125 -6591 0
-1126 6593 0
-6592 6593 0
-1126 -6592 0
-1127 6594 0
-6593 6594 0
-1127 -6593 0
-1128 6595 0
-6594 6595 0
-1128 -6594 0
-1129 6596 0
-6595 6596 0
-1129 -6595 0
-1130 6597 0
-6596 6597 0
-1130 -6596 0
-1131 -6597 0
5 68 131 190 253 315 377 1132 1133 1134 1135 1136 1137 1138 1139 1140 1141 1142 1143 1144 1145 1146 1147 1148 1149 1150 1151 1152 1153 1154 1155 1156 1157 1158 1159 1160 1161 1162 1163 1164 1165 1166 1167 1168 1169 1170 1171 1172 1173 1174 1175 1176 1177 1178 1179 1180 1181 1182 1183 1184 1185 1186 1187 0
-5 6598 0
-68 6599 0
-6598 6599 0
-68 -6598 0
-131 6600 0
-6599 6600 0
-131 -6599 0
-190 6601 0
-6600 6601 0
-190 -6600 0
-253 6602 0
-6601 6602 0
-253 -6601 0
-315 6603 0
-6602 6603 0
-315 -6602 0
-377 6604 0
-6603 6604 0
-377 -6603 0
-1132 6605 0
-6604 6605 0
-1132 -6604 0
-1133 6606 0
-6605 6606 0
-1133 -6605 0
-1134 6607 0
-6606 6607 0
-1134 -6606 0
-1135 6608 0
-6607 6608 0
-1135 -6607 0
-1136 6609 0
-6608 6609 0
-1136 -6608 0
-1137 6610 0
-6609 6610 0
-1137 -6609 0
-1138 6611 0
-6610 6611 0
-1138 -6610 0
-1139 6612 0
-6611 6612 0
-1139 -6611 0
-1140 6613 0
-6612 6613 0
-1140 -6612 0
-1141 6614 0
-6613 6614 0
-1141 -6613 0
-1142 6615 0
-6614 6615 0
-1142 -6614 0
-1143 6616 0
-6615 6616 0
-1143 -6615 0
-1144 6617 0
-6616 6617 0
-1144 -6616 0
-1145 6618 0
-6617 6618 0
-1145 -6617 0
-1146 6619 0
-6618 6619 0
-1146 -6618 0
-1147 6620 0
-6619 6620 0
-1147 -6619 0
-1148 6621 0
-6620 6621 0
-1148 -6620 0
-1149 6622 0
-6621 6622 0
-1149 -6621 0
-1150 6623 0
-6622 6623 0
-1150 -6622 0
-1151 6624 0
-6623 6624 0
-1151 -6623 0
-1152 6625 0
-6624 6625 0
-1152 -6624 0
-1153 6626 0
-6625 6626 0
-1153 -6625 0
-1154 6627 0
-6626 6627 0
-1154 -6626 0
-1155 6628 0
-6627 6628 0
-1155 -6627 0
-1156 6629 0
-6628 6629 0
-1156 -6628 0
-1157 6630 0
-6629 6630 0
-1157 -6629 0
-1158 6631 0
-6630 6631 0
-1158 -6630 0
-1159 6632 0
-6631 6632 0
-1159 -6631 0
-1160 6633 0
-6632 6633 0
-1160 -6632 0
-1161 6634 0
-6633 6634 0
-1161 -6633 0
-1162 6635 0
-6634 6635 0
-1162 -6634 0
-1163 6636 0
-6635 6636 0
-1163 -6635 0
-1164 6637 0
-6636 6637 0
-1164 -6636 0
-1165 6638 0
-6637 6638 0
-1165 -6637 0
-1166 6639 0
-6638 6639 0
-1166 -6638 0
-1167 6640 0
-6639 6640 0
-1167 -6639 0
-1168 6641 0
-6640 6641 0
-1168 -6640 0
-1169 6642 0
-6641 6642 0
-1169 -6641 0
-1170 6643 0
-6642 6643 0
-1170 -6642 0
-1171 6644 0
-6643 6644 0
-1171 -6643 0
-1172 6645 0
-6644 6645 0
-1172 -6644 0
-1173 6646 0
-6645 6646 0
-1173 -6645 0
-1174 6647 0
-6646 6647 0
-1174 -6646 0
-1175 6648 0
-6647 6648 0
-1175 -6647 0
-1176 6649 0
-6648 6649 0
-1176 -6648 0
-1177 6650 0
-6649 6650 0
-1177 -6649 0
-1178 6651 0
-6650 6651 0
-1178 -6650 0
-1179 6652 0
-6651 6652 0
-1179 -6651 0
-1180 6653 0
-6652 6653 0
-1180 -6652 0
-1181 6654 0
-6653 6654 0
-1181 -6653 0
-1182 6655 0
-6654 6655 0
-1182 -6654 0
-1183 6656 0
-6655 6656 0
-1183 -6655 0
-1184 6657 0
-6656 6657 0
-1184 -6656 0
-1185 6658 0
-6657 6658 0
-1185 -6657 0
-1186 6659 0
-6658 6659 0
-1186 -6658 0
-1187 -6659 0
5 191 252 558 618 798 858 1188 1189 1190 1191 1192 1193 1194 1195 1196 1197 1198 1199 1200 1201 1202 1203 1204 1205 1206 1207 1208 1209 1210 1211 1212 1213 1214 1215 1216 1217 1218 1219 1220 1221 1222 1223 1224 1225 1226 1227 1228 1229 1230 1231 1232 1233 1234 1235 1236 1237 1238 1239 1240 1241 1242 1243 0
-5 6660 0
-191 6661 0
-6660 6661 0
-191 -6660 0
-252 6662 0
-6661 6662 0
-252 -6661 0
-558 6663 0
-6662 6663 0
-558 -6662 0
-618 6664 0
-6663 6664 0
-618 -6663 0
-798 6665 0
-6664 6665 0
-798 -6664 0
-858 6666 0
-6665 6666 0
-858 -6665 0
-1188 6667 0
-6666 6667 0
-1188 -6666 0
-1189 6668 0
-6667 6668 0
-1189 -6667 0
-1190 6669 0
-6668 6669 0
-1190 -6668 0
-1191 6670 0
-6669 6670 0
-1191 -6669 0
-1192 6671 0
-6670 6671 0
-1192 -6670 0
-1193 6672 0
-6671 6672 0
-1193 -6671 0
-1194 6673 0
-6672 6673 0
-1194 -6672 0
-1195 6674 0
-6673 6674 0
-1195 -6673 0
-1196 6675 0
-6674 6675 0
-1196 -6674 0
-1197 6676 0
-6675 6676 0
-1197 -6675 0
-1198 6677 0
-6676 6677 0
-1198 -6676 0
-1199 6678 0
-6677 6678 0
-1199 -6677 0
-1200 6679 0
-6678 6679 0
-1200 -6678 0
-1201 6680 0
-6679 6680 0
-1201 -6679 0
-1202 6681 0
-6680 6681 0
-1202 -6680 0
-1203 6682 0
-6681 6682 0
-1203 -6681 0
-1204 6683 0
-6682 6683 0
-1204 -6682 0
-1205 6684 0
-6683 6684 0
-1205 -6683 0
-1206 6685 0
-6684 6685 0
-1206 -6684 0
-1207 6686 0
-6685 6686 0
-1207 -6685 0
-1208 6687 0
-6686 6687 0
-1208 -6686 0
-1209 6688 0
-6687 6688 0
-1209 -6687 0
-1210 6689 0
-6688 6689 0
-1210 -6688 0
-1211 6690 0
-6689 6690 0
-1211 -6689 0
-1212 6691 0
-6690 6691 0
-1212 -6690 0
-1213 6692 0
-6691 6692 0
-1213 -6691 0
-1214 6693 0
-6692 6693 0
-1214 -6692 0
-1215 6694 0
-6693 6694 0
-1215 -6693 0
-1216 6695 0
-6694 6695 0
-1216 -6694 0
-1217 6696 0
-6695 6696 0
-1217 -6695 0
-1218 6697 0
-6696 6697 0
-1218 -6696 0
-1219 6698 0
-6697 6698 0
-1219 -6697 0
-1220 6699 0
-6698 6699 0
-1220 -6698 0
-1221 6700 0
-6699 6700 0
-1221 -6699 0
-1222 6701 0
-6700 6701 0
-1222 -6700 0
-1223 6702 0
-6701 6702 0
-1223 -6701 0
-1224 6703 0
-6702 6703 0
-1224 -6702 0
-1225 6704 0
-6703 6704 0
-1225 -6703 0
-1226 6705 0
-6704 6705 0
-1226 -6704 0
-1227 6706 0
-6705 6706 0
-1227 -6705 0
-1228 6707 0
-6706 6707 0
-1228 -6706 0
-1229 6708 0
-6707 6708 0
-1229 -6707 0
-1230 6709 0
-6708 6709 0
-1230 -6708 0
-1231 6710 0
-6709 6710 0
-1231 -6709 0
-1232 6711 0
-6710 6711 0
-1232 -6710 0
-1233 6712 0
-6711 6712 0
-1233 -6711 0
-1234 6713 0
-6712 6713 0
-1234 -6712 0
-1235 6714 0
-6713 6714 0
-1235 -6713 0
-1236 6715 0
-6714 6715 0
-1236 -6714 0
-1237 6716 0
-6715 6716 0
-1237 -6715 0
-1238 6717 0
-6716 6717 0
-1238 -6716 0
-1239 6718 0
-6717 6718 0
-1239 -6717 0
-1240 6719 0
-6718 6719 0
-1240 -6718 0
-1241 6720 0
-6719 6720 0
-1241 -6719 0
-1242 6721 0
-6720 6721 0
-1242 -6720 0
-1243 -6721 0
68 192 314 498 619 738 859 1244 1245 1246 1247 1248 1249 1250 1251 1252 1253 1254 1255 1256 1257 1258 1259 1260 1261 1262 1263 1264 1265 1266 1267 1268 1269 1270 1271 1272 1273 1274 1275 1276 1277 1278 1279 1280 1281 1282 1283 1284 1285 1286 1287 1288 1289 1290 1291 1292 1293 1294 1295 1296 1297 1298 1299 0
-68 6722 0
-192 6723 0
-6722 6723 0
-192 -6722 0
-314 6724 0
-6723 6724 0
-314 -6723 0
-498 6725 0
-6724 6725 0
-498 -6724 0
-619 6726 0
-6725 6726 0
-619 -6725 0
-738 6727 0
-6726 6727 0
-738 -6726 0
-859 6728 0
-6727 6728 0
-859 -6727 0
-1244 6729 0
-6728 6729 0
-1244 -6728 0
-1245 6730 0
-6729 6730 0
-1245 -6729 0
-1246 6731 0
-6730 6731 0
-1246 -6730 0
-1247 6732 0
-6731 6732 0
-1247 -6731 0
-1248 6733 0
-6732 6733 0
-1248 -6732 0
-1249 6734 0
-6733 6734 0
-1249 -6733 0
-1250 6735 0
-6734 6735 0
-1250 -6734 0
-1251 6736 0
-6735 6736 0
-1251 -6735 0
-1252 6737 0
-6736 6737 0
-1252 -6736 0
-1253 6738 0
-6737 6738 0
-1253 -6737 0
-1254 6739 0
-6738 6739 0
-1254 -6738 0
-1255 6740 0
-6739 6740 0
-1255 -6739 0
-1256 6741 0
-6740 6741 0
-1256 -6740 0
-1257 6742 0
-6741 6742 0
-1257 -6741 0
-1258 6743 0
-6742 6743 0
-1258 -6742 0
-1259 6744 0
-6743 6744 0
-1259 -6743 0
-1260 6745 0
-6744 6745 0
-1260 -6744 0
-1261 6746 0
-6745 6746 0
-1261 -6745 0
-1262 6747 0
-6746 6747 0
-1262 -6746 0
-1263 6748 0
-6747 6748 0
-1263 -6747 0
-1264 6749 0
-6748 6749 0
-1264 -6748 0
-1265 6750 0
-6749 6750 0
-1265 -6749 0
-1266 6751 0
-6750 6751 0
-1266 -6750 0
-1267 6752 0
-6751 6752 0
-1267 -6751 0
-1268 6753 0
-6752 6753 0
-1268 -6752 0
-1269 6754 0
-6753 6754 0
-1269 -6753 0
-1270 6755 0
-6754 6755 0
-1270 -6754 0
-1271 6756 0
-6755 6756 0
-1271 -6755 0
-1272 6757 0
-6756 6757 0
-1272 -6756 0
-1273 6758 0
-6757 6758 0
-1273 -6757 0
-1274 6759 0
-6758 6759 0
-1274 -6758 0
-1275 6760 0
-6759 6760 0
-1275 -6759 0
-1276 6761 0
-6760 6761 0
-1276 -6760 0
-1277 6762 0
-6761 6762 0
-1277 -6761 0
-1278 6763 0
-6762 6763 0
-1278 -6762 0
-1279 6764 0
-6763 6764 0
-1279 -6763 0
-1280 6765 0
-6764 6765 0
-1280 -6764 0
-1281 6766 0
-6765 6766 0
-1281 -6765 0
-1282 6767 0
-6766 6767 0
-1282 -6766 0
-1283 6768 0
-6767 6768 0
-1283 -6767 0
-1284 6769 0
-6768 6769 0
-1284 -6768 0
-1285 6770 0
-6769 6770 0
-1285 -6769 0
-1286 6771 0
-6770 6771 0
-1286 -6770 0
-1287 6772 0
-6771 6772 0
-1287 -6771 0
-1288 6773 0
-6772 6773 0
-1288 -6772 0
-1289 6774 0
-6773 6774 0
-1289 -6773 0
-1290 6775 0
-6774 6775 0
-1290 -6774 0
-1291 6776 0
-6775 6776 0
-1291 -6775 0
-1292 6777 0
-6776 6777 0
-1292 -6776 0
-1293 6778 0
-6777 6778 0
-1293 -6777 0
-1294 6779 0
-6778 6779 0
-1294 -6778 0
-1295 6780 0
-6779 6780 0
-1295 -6779 0
-1296 6781 0
-6780 6781 0
-1296 -6780 0
-1297 6782 0
-6781 6782 0
-1297 -6781 0
-1298 6783 0
-6782 6783 0
-1298 -6782 0
-1299 -6783 0
131 193 376 499 559 739 799 1300 1301 1302 1303 1304 1305 1306 1307 1308 1309 1310 1311 1312 1313 1314 1315 1316 1317 1318 1319 1320 1321 1322 1323 1324 1325 1326 1327 1328 1329 1330 1331 1332 1333 1334 1335 1336 1337 1338 1339 1340 1341 1342 1343 1344 1345 1346 1347 1348 1349 1350 1351 1352 1353 1354 1355 0
-131 6784 0
-193 6785 0
-6784 6785 0
-193 -6784 0
-376 6786 0
-6785 6786 0
-376 -6785 0
-499 6787 0
-6786 6787 0
-499 -6786 0
-559 6788 0
-6787 6788 0
-559 -6787 0
-739 6789 0
-6788 6789 0
-739 -6788 0
-799 6790 0
-6789 6790 0
-799 -6789 0
-1300 6791 0
-6790 6791 0
-1300 -6790 0
-1301 6792 0
-6791 6792 0
-1301 -6791 0
-1302 6793 0
-6792 6793 0
-1302 -6792 0
-1303 6794 0
-6793 6794 0
-1303 -6793 0
-1304 6795 0
-6794 6795 0
-1304 -6794 0
-1305 6796 0
-6795 6796 0
-1305 -6795 0
-1306 6797 0
-6796 6797 0
-1306 -6796 0
-1307 6798 0
-6797 6798 0
-1307 -6797 0
-1308 6799 0
-6798 6799 0
-1308 -6798 0
-1309 6800 0
-6799 6800 0
-1309 -6799 0
-1310 6801 0
-6800 6801 0
-1310 -6800 0
-1311 6802 0
-6801 6802 0
-1311 -6801 0
-1312 6803 0
-6802 6803 0
-1312 -6802 0
-1313 6804 0
-6803 6804 0
-1313 -6803 0
-1314 6805 0
-6804 6805 0
-1314 -6804 0
-1315 6806 0
-6805 6806 0
-1315 -6805 0
-1316 6807 0
-6806 6807 0
-1316 -6806 0
-1317 6808 0
-6807 6808 0
-1317 -6807 0
-1318 6809 0
-6808 6809 0
-1318 -6808 0
-1319 6810 0
-6809 6810 0
-1319 -6809 0
-1320 6811 0
-6810 6811 0
-1320 -6810 0
-1321 6812 0
-6811 6812 0
-1321 -6811 0
-1322 6813 0
-6812 6813 0
-1322 -6812 0
-1323 6814 0
-6813 6814 0
-1323 -6813 0
-1324 6815 0
-6814 6815 0
-1324 -6814 0
-1325 6816 0
-6815 6816 0
-1325 -6815 0
-1326 6817 0
-6816 6817 0
-1326 -6816 0
-1327 6818 0
-6817 6818 0
-1327 -6817 0
-1328 6819 0
-6818 6819 0
-1328 -6818 0
-1329 6820 0
-6819 6820 0
-1329 -6819 0
-1330 6821 0
-6820 6821 0
-1330 -6820 0
-1331 6822 0
-6821 6822 0
-1331 -6821 0
-1332 6823 0
-6822 6823 0
-1332 -6822 0
-1333 6824 0
-6823 6824 0
-1333 -6823 0
-1334 6825 0
-6824 6825 0
-1334 -6824 0
-1335 6826 0
-6825 6826 0
-1335 -6825 0
-1336 6827 0
-6826 6827 0
-1336 -6826 0
-1337 6828 0
-6827 6828 0
-1337 -6827 0
-1338 6829 0
-6828 6829 0
-1338 -6828 0
-1339 6830 0
-6829 6830 0
-1339 -6829 0
-1340 6831 0
-6830 6831 0
-1340 -6830 0
-1341 6832 0
-6831 6832 0
-1341 -6831 0
-1342 6833 0
-6832 6833 0
-1342 -6832 0
-1343 6834 0
-6833 6834 0
-1343 -6833 0
-1344 6835 0
-6834 6835 0
-1344 -6834 0
-1345 6836 0
-6835 6836 0
-1345 -6835 0
-1346 6837 0
-6836 6837 0
-1346 -6836 0
-1347 6838 0
-6837 6838 0
-1347 -6837 0
-1348 6839 0
-6838 6839 0
-1348 -6838 0
-1349 6840 0
-6839 6840 0
-1349 -6839 0
-1350 6841 0
-6840 6841 0
-1350 -6840 0
-1351 6842 0
-6841 6842 0
-1351 -6841 0
-1352 6843 0
-6842 6843 0
-1352 -6842 0
-1353 6844 0
-6843 6844 0
-1353 -6843 0
-1354 6845 0
-6844 6845 0
-1354 -6844 0
-1355 -6845 0
6 69 132 436 497 557 617 1356 1357 1358 1359 1360 1361 1362 1363 1364 1365 1366 1367 1368 1369 1370 1371 1372 1373 1374 1375 1376 1377 1378 1379 1380 1381 1382 1383 1384 1385 1386 1387 1388 1389 1390 1391 1392 1393 1394 1395 1396 1397 1398 1399 1400 1401 1402 1403 1404 1405 1406 1407 1408 1409 1410 1411 0
-6 6846 0
-69 6847 0
-6846 6847 0
-69 -6846 0
-132 6848 0
-6847 6848 0
-132 -6847 0
-436 6849 0
-6848 6849 0
-436 -6848 0
-497 6850 0
-6849 6850 0
-497 -6849 0
-557 6851 0
-6850 6851 0
-557 -6850 0
-617 6852 0
-6851 6852 0
-617 -6851 0
-1356 6853 0
-6852 6853 0
-1356 -6852 0
-1357 6854 0
-6853 6854 0
-1357 -6853 0
-1358 6855 0
-6854 6855 0
-1358 -6854 0
-1359 6856 0
-6855 6856 0
-1359 -6855 0
-1360 6857 0
-6856 6857 0
-1360 -6856 0
-1361 6858 0
-6857 6858 0
-1361 -6857 0
-1362 6859 0
-6858 6859 0
-1362 -6858 0
-1363 6860 0
-6859 6860 0
-1363 -6859 0
-1364 6861 0
-6860 6861 0
-1364 -6860 0
-1365 6862 0
-6861 6862 0
-1365 -6861 0
-1366 6863 0
-6862 6863 0
-1366 -6862 0
-1367 6864 0
-6863 6864 0
-1367 -6863 0
-1368 6865 0
-6864 6865 0
-1368 -6864 0
-1369 6866 0
-6865 6866 0
-1369 -6865 0
-1370 6867 0
-6866 6867 0
-1370 -6866 0
-1371 6868 0
-6867 6868 0
-1371 -6867 0
-1372 6869 0
-6868 6869 0
-1372 -6868 0
-1373 6870 0
-6869 6870 0
-1373 -6869 0
-1374 6871 0
-6870 6871 0
-1374 -6870 0
-1375 6872 0
-6871 6872 0
-1375 -6871 0
-1376 6873 0
-6872 6873 0
-1376 -6872 0
-1377 6874 0
-6873 6874 0
-1377 -6873 0
-1378 6875 0
-6874 6875 0
-1378 -6874 0
-1379 6876 0
-6875 6876 0
-1379 -6875 0
-1380 6877 0
-6876 6877 0
-1380 -6876 0
-1381 6878 0
-6877 6878 0
-1381 -6877 0
-1382 6879 0
-6878 6879 0
-1382 -6878 0
-1383 6880 0
-6879 6880 0
-1383 -6879 0
-1384 6881 0
-6880 6881 0
-1384 -6880 0
-1385 6882 0
-6881 6882 0
-1385 -6881 0
-1386 6883 0
-6882 6883 0
-1386 -6882 0
-1387 6884 0
-6883 6884 0
-1387 -6883 0
-1388 6885 0
-6884 6885 0
-1388 -6884 0
-1389 6886 0
-6885 6886 0
-1389 -6885 0
-1390 6887 0
-6886 6887 0
-1390 -6886 0
-1391 6888 0
-6887 6888 0
-1391 -6887 0
-1392 6889 0
-6888 6889 0
-1392 -6888 0
-1393 6890 0
-6889 6890 0
-1393 -6889 0
-1394 6891 0
-6890 6891 0
-1394 -6890 0
-1395 6892 0
-6891 6892 0
-1395 -6891 0
-1396 6893 0
-6892 6893 0
-1396 -6892 0
-1397 6894 0
-6893 6894 0
-1397 -6893 0
-1398 6895 0
-6894 6895 0
-1398 -6894 0
-1399 6896 0
-6895 6896 0
-1399 -6895 0
-1400 6897 0
-6896 6897 0
-1400 -6896 0
-1401 6898 0
-6897 6898 0
-1401 -6897 0
-1402 6899 0
-6898 6899 0
-1402 -6898 0
-1403 6900 0
-6899 6900 0
-1403 -6899 0
-1404 6901 0
-6900 6901 0
-1404 -6900 0
-1405 6902 0
-6901 6902 0
-1405 -6901 0
-1406 6903 0
-6902 6903 0
-1406 -6902 0
-1407 6904 0
-6903 6904 0
-1407 -6903 0
-1408 6905 0
-6904 6905 0
-1408 -6904 0
-1409 6906 0
-6905 6906 0
-1409 -6905 0
-1410 6907 0
-6906 6907 0
-1410 -6906 0
-1411 -6907 0
6 316 378 437 496 799 859 1412 1413 1414 1415 1416 1417 1418 1419 1420 1421 1422 1423 1424 1425 1426 1427 1428 1429 1430 1431 1432 1433 1434 1435 1436 1437 1438 1439 1440 1441 1442 1443 1444 1445 1446 1447 1448 1449 1450 1451 1452 1453 1454 1455 1456 1457 1458 1459 1460 1461 1462 1463 1464 1465 1466 1467 0
-6 6908 0
-316 6909 0
-6908 6909 0
-316 -6908 0
-378 6910 0
-6909 6910 0
-378 -6909 0
-437 6911 0
-6910 6911 0
-437 -6910 0
-496 6912 0
-6911 6912 0
-496 -6911 0
-799 6913 0
-6912 6913 0
-799 -6912 0
-859 6914 0
-6913 6914 0
-859 -6913 0
-1412 6915 0
-6914 6915 0
-1412 -6914 0
-1413 6916 0
-6915 6916 0
-1413 -6915 0
-1414 6917 0
-6916 6917 0
-1414 -6916 0
-1415 6918 0
-6917 6918 0
-1415 -6917 0
-1416 6919 0
-6918 6919 0
-1416 -6918 0
-1417 6920 0
-6919 6920 0
-1417 -6919 0
-1418 6921 0
-6920 6921 0
-1418 -6920 0
-1419 6922 0
-6921 6922 0
-1419 -6921 0
-1420 6923 0
-6922 6923 0
-1420 -6922 0
-1421 6924 0
-6923 6924 0
-1421 -6923 0
-1422 6925 0
-6924 6925 0
-1422 -6924 0
-1423 6926 0
-6925 6926 0
-1423 -6925 0
-1424 6927 0
-6926 6927 0
-1424 -6926 0
-1425 6928 0
-6927 6928 0
-1425 -6927 0
-1426 6929 0
-6928 6929 0
-1426 -6928 0
-1427 6930 0
-6929 6930 0
-1427 -6929 0
-1428 6931 0
-6930 6931 0
-1428 -6930 0
-1429 6932 0
-6931 6932 0
-1429 -6931 0
-1430 6933 0
-6932 6933 0
-1430 -6932 0
-1431 6934 0
-6933 6934 0
-1431 -6933 0
-1432 6935 0
-6934 6935 0
-1432 -6934 0
-1433 6936 0
-6935 6936 0
-1433 -6935 0
-1434 6937 0
-6936 6937 0
-1434 -6936 0
-1435 6938 0
-6937 6938 0
-1435 -6937 0
-1436 6939 0
-6938 6939 0
-1436 -6938 0
-1437 6940 0
-6939 6940 0
-1437 -6939 0
-1438 6941 0
-6940 6941 0
-1438 -6940 0
-1439 6942 0
-6941 6942 0
-1439 -6941 0
-1440 6943 0
-6942 6943 0
-1440 -6942 0
-1441 6944 0
-6943 6944 0
-1441 -6943 0
-1442 6945 0
-6944 6945 0
-1442 -6944 0
-1443 6946 0
-6945 6946 0
-1443 -6945 0
-1444 6947 0
-6946 6947 0
-1444 -6946 0
-1445 6948 0
-6947 6948 0
-1445 -6947 0
-1446 6949 0
-6948 6949 0
-1446 -6948 0
-1447 6950 0
-6949 6950 0
-1447 -6949 0
-1448 6951 0
-6950 6951 0
-1448 -6950 0
-1449 6952 0
-6951 6952 0
-1449 -6951 0
-1450 6953 0
-6952 6953 0
-1450 -6952 0
-1451 6954 0
-6953 6954 0
-1451 -6953 0
-1452 6955 0
-6954 6955 0
-1452 -6954 0
-1453 6956 0
-6955 6956 0
-1453 -6955 0
-1454 6957 0
-6956 6957 0
-1454 -6956 0
-1455 6958 0
-6957 6958 0
-1455 -6957 0
-1456 6959 0
-6958 6959 0
-1456 -6958 0
-1457 6960 0
-6959 6960 0
-1457 -6959 0
-1458 6961 0
-6960 6961 0
-1458 -6960 0
-1459 6962 0
-6961 6962 0
-1459 -6961 0
-1460 6963 0
-6962 6963 0
-1460 -6962 0
-1461 6964 0
-6963 6964 0
-1461 -6963 0
-1462 6965 0
-6964 6965 0
-1462 -6964 0
-1463 6966 0
-6965 6966 0
-1463 -6965 0
-1464 6967 0
-6966 6967 0
-1464 -6966 0
-1465 6968 0
-6967 6968 0
-1465 -6967 0
-1466 6969 0
-6968 6969 0
-1466 -6968 0
-1467 -6969 0
69 254 379 438 556 739 858 1468 1469 1470 1471 1472 1473 1474 1475 1476 1477 1478 1479 1480 1481 1482 1483 1484 1485 1486 1487 1488 1489 1490 1491 1492 1493 1494 1495 1496 1497 1498 1499 1500 1501 1502 1503 1504 1505 1506 1507 1508 1509 1510 1511 1512 1513 1514 1515 1516 1517 1518 1519 1520 1521 1522 1523 0
-69 6970 0
-254 6971 0
-6970 6971 0
-254 -6970 0
-379 6972 0
-6971 6972 0
-379 -6971 0
-438 6973 0
-6972 6973 0
-438 -6972 0
-556 6974 0
-6973 6974 0
-556 -6973 0
-739 6975 0
-6974 6975 0
-739 -6974 0
-858 6976 0
-6975 6976 0
-858 -6975 0
-1468 6977 0
-6976 6977 0
-1468 -6976 0
-1469 6978 0
-6977 6978 0
-1469 -6977 0
-1470 6979 0
-6978 6979 0
-1470 -6978 0
-1471 6980 0
-6979 6980 0
-1471 -6979 0
-1472 6981 0
-6980 6981 0
-1472 -6980 0
-1473 6982 0
-6981 6982 0
-1473 -6981 0
-1474 6983 0
-6982 6983 0
-1474 -6982 0
-1475 6984 0
-6983 6984 0
-1475 -6983 0
-1476 6985 0
-6984 6985 0
-1476 -6984 0
-1477 6986 0
-6985 6986 0
-1477 -6985 0
-1478 6987 0
-6986 6987 0
-1478 -6986 0
-1479 6988 0
-6987 6988 0
-1479 -6987 0
-1480 6989 0
-6988 6989 0
-1480 -6988 0
-1481 6990 0
-6989 6990 0
-1481 -6989 0
-1482 6991 0
-6990 6991 0
-1482 -6990 0
-1483 6992 0
-6991 6992 0
-1483 -6991 0
-1484 6993 0
-6992 6993 0
-1484 -6992 0
-1485 6994 0
-6993 6994 0
-1485 -6993 0
-1486 6995 0
-6994 6995 0
-1486 -6994 0
-1487 6996 0
-6995 6996 0
-1487 -6995 0
-1488 6997 0
-6996 6997 0
-1488 -6996 0
-1489 6998 0
-6997 6998 0
-1489 -6997 0
-1490 6999 0
-6998 6999 0
-1490 -6998 0
-1491 7000 0
-6999 7000 0
-1491 -6999 0
-1492 7001 0
-7000 7001 0
-1492 -7000 0
-1493 7002 0
-7001 7002 0
-1493 -7001 0
-1494 7003 0
-7002 7003 0
-1494 -7002 0
-1495 7004 0
-7003 7004 0
-1495 -7003 0
-1496 7005 0
-7004 7005 0
-1496 -7004 0
-1497 7006 0
-7005 7006 0
-1497 -7005 0
-1498 7007 0
-7006 7007 0
-1498 -7006 0
-1499 7008 0
-7007 7008 0
-1499 -7007 0
-1500 7009 0
-7008 7009 0
-1500 -7008 0
-1501 7010 0
-7009 7010 0
-1501 -7009 0
-1502 7011 0
-7010 7011 0
-1502 -7010 0
-1503 7012 0
-7011 7012 0
-1503 -7011 0
-1504 7013 0
-7012 7013 0
-1504 -7012 0
-1505 7014 0
-7013 7014 0
-1505 -7013 0
-1506 7015 0
-7014 7015 0
-1506 -7014 0
-1507 7016 0
-7015 7016 0
-1507 -7015 0
-1508 7017 0
-7016 7017 0
-1508 -7016 0
-1509 7018 0
-7017 7018 0
-1509 -7017 0
-1510 7019 0
-7018 7019 0
-1510 -7018 0
-1511 7020 0
-7019 7020 0
-1511 -7019 0
-1512 7021 0
-7020 7021 0
-1512 -7020 0
-1513 7022 0
-7021 7022 0
-1513 -7021 0
-1514 7023 0
-7022 7023 0
-1514 -7022 0
-1515 7024 0
-7023 7024 0
-1515 -7023 0
-1516 7025 0
-7024 7025 0
-1516 -7024 0
-1517 7026 0
-7025 7026 0
-1517 -7025 0
-1518 7027 0
-7026 7027 0
-1518 -7026 0
-1519 7028 0
-7027 7028 0
-1519 -7027 0
-1520 7029 0
-7028 7029 0
-1520 -7028 0
-1521 7030 0
-7029 7030 0
-1521 -7029 0
-1522 7031 0
-7030 7031 0
-1522 -7030 0
-1523 -7031 0
132 255 317 439 616 738 798 1524 1525 1526 1527 1528 1529 1530 1531 1532 1533 1534 1535 1536 1537 1538 1539 1540 1541 1542 1543 1544 1545 1546 1547 1548 1549 1550 1551 1552 1553 1554 1555 1556 1557 1558 1559 1560 1561 1562 1563 1564 1565 1566 1567 1568 1569 1570 1571 1572 1573 1574 1575 1576 1577 1578 1579 0
-132 7032 0
-255 7033 0
-7032 7033 0
-255 -7032 0
-317 7034 0
-7033 7034 0
-317 -7033 0
-439 7035 0
-7034 7035 0
-439 -7034 0
-616 7036 0
-7035 7036 0
-616 -7035 0
-738 7037 0
-7036 7037 0
-738 -7036 0
-798 7038 0
-7037 7038 0
-798 -7037 0
-1524 7039 0
-7038 7039 0
-1524 -7038 0
-1525 7040 0
-7039 7040 0
-1525 -7039 0
-1526 7041 0
-7040 7041 0
-1526 -7040 0
-1527 7042 0
-7041 7042 0
-1527 -7041 0
-1528 7043 0
-7042 7043 0
-1528 -7042 0
-1529 7044 0
-7043 7044 0
-1529 -7043 0
-1530 7045 0
-7044 7045 0
-1530 -7044 0
-1531 7046 0
-7045 7046 0
-1531 -7045 0
-1532 7047 0
-7046 7047 0
-1532 -7046 0
-1533 7048 0
-7047 7048 0
-1533 -7047 0
-1534 7049 0
-7048 7049 0
-1534 -7048 0
-1535 7050 0
-7049 7050 0
-1535 -7049 0
-1536 7051 0
-7050 7051 0
-1536 -7050 0
-1537 7052 0
-7051 7052 0
-1537 -7051 0
-1538 7053 0
-7052 7053 0
-1538 -7052 0
-1539 7054 0
-7053 7054 0
-1539 -7053 0
-1540 7055 0
-7054 7055 0
-1540 -7054 0
-1541 7056 0
-7055 7056 0
-1541 -7055 0
-1542 7057 0
-7056 7057 0
-1542 -7056 0
-1543 7058 0
-7057 7058 0
-1543 -7057 0
-1544 7059 0
-7058 7059 0
-1544 -7058 0
-1545 7060 0
-7059 7060 0
-1545 -7059 0
-1546 7061 0
-7060 7061 0
-1546 -7060 0
-1547 7062 0
-7061 7062 0
-1547 -7061 0
-1548 7063 0
-7062 7063 0
-1548 -7062 0
-1549 7064 0
-7063 7064 0
-1549 -7063 0
-1550 7065 0
-7064 7065 0
-1550 -7064 0
-1551 7066 0
-7065 7066 0
-1551 -7065 0
-1552 7067 0
-7066 7067 0
-1552 -7066 0
-1553 7068 0
-7067 7068 0
-1553 -7067 0
-1554 7069 0
-7068 7069 0
-1554 -7068 0
-1555 7070 0
-7069 7070 0
-1555 -7069 0
-1556 7071 0
-7070 7071 0
-1556 -7070 0
-1557 7072 0
-7071 7072 0
-1557 -7071 0
-1558 7073 0
-7072 7073 0
-1558 -7072 0
-1559 7074 0
-7073 7074 0
-1559 -7073 0
-1560 7075 0
-7074 7075 0
-1560 -7074 0
-1561 7076 0
-7075 7076 0
-1561 -7075 0
-1562 7077 0
-7076 7077 0
-1562 -7076 0
-1563 7078 0
-7077 7078 0
-1563 -7077 0
-1564 7079 0
-7078 7079 0
-1564 -7078 0
-1565 7080 0
-7079 7080 0
-1565 -7079 0
-1566 7081 0
-7080 7081 0
-1566 -7080 0
-1567 7082 0
-7081 7082 0
-1567 -7081 0
-1568 7083 0
-7082 7083 0
-1568 -7082 0
-1569 7084 0
-7083 7084 0
-1569 -7083 0
-1570 7085 0
-7084 7085 0
-1570 -7084 0
-1571 7086 0
-7085 7086 0
-1571 -7085 0
-1572 7087 0
-7086 7087 0
-1572 -7086 0
-1573 7088 0
-7087 7088 0
-1573 -7087 0
-1574 7089 0
-7088 7089 0
-1574 -7088 0
-1575 7090 0
-7089 7090 0
-1575 -7089 0
-1576 7091 0
-7090 7091 0
-1576 -7090 0
-1577 7092 0
-7091 7092 0
-1577 -7091 0
-1578 7093 0
-7092 7093 0
-1578 -7092 0
-1579 -7093 0
7 70 133 676 737 797 857 1580 1581 1582 1583 1584 1585 1586 1587 1588 1589 1590 1591 1592 1593 1594 1595 1596 1597 1598 1599 1600 1601 1602 1603 1604 1605 1606 1607 1608 1609 1610 1611 1612 1613 1614 1615 1616 1617 1618 1619 1620 1621 1622 1623 1624 1625 1626 1627 1628 1629 1630 1631 1632 1633 1634 1635 0
-7 7094 0
-70 7095 0
-7094 7095 0
-70 -7094 0
-133 7096 0
-7095 7096 0
-133 -7095 0
-676 7097 0
-7096 7097 0
-676 -7096 0
-737 7098 0
-7097 7098 0
-737 -7097 0
-797 7099 0
-7098 7099 0
-797 -7098 0
-857 7100 0
-7099 7100 0
-857 -7099 0
-1580 7101 0
-7100 7101 0
-1580 -7100 0
-1581 7102 0
-7101 7102 0
-1581 -7101 0
-1582 7103 0
-7102 7103 0
-1582 -7102 0
-1583 7104 0
-7103 7104 0
-1583 -7103 0
-1584 7105 0
-7104 7105 0
-1584 -7104 0
-1585 7106 0
-7105 7106 0
-1585 -7105 0
-1586 7107 0
-7106 7107 0
-1586 -7106 0
-1587 7108 0
-7107 7108 0
-1587 -7107 0
-1588 7109 0
-7108 7109 0
-1588 -7108 0
-1589 7110 0
-7109 7110 0
-1589 -7109 0
-1590 7111 0
-7110 7111 0
-1590 -7110 0
-1591 7112 0
-7111 7112 0
-1591 -7111 0
-1592 7113 0
-7112 7113 0
-1592 -7112 0
-1593 7114 0
-7113 7114 0
-1593 -7113 0
-1594 7115 0
-7114 7115 0
-1594 -7114 0
-1595 7116 0
-7115 7116 0
-1595 -7115 0
-1596 7117 0
-7116 7117 0
-1596 -7116 0
-1597 7118 0
-7117 7118 0
-1597 -7117 0
-1598 7119 0
-7118 7119 0
-1598 -7118 0
-1599 7120 0
-7119 7120 0
-1599 -7119 0
-1600 7121 0
-7120 7121 0
-1600 -7120 0
-1601 7122 0
-7121 7122 0
-1601 -7121 0
-1602 7123 0
-7122 7123 0
-1602 -7122 0
-1603 7124 0
-7123 7124 0
-1603 -7123 0
-1604 7125 0
-7124 7125 0
-1604 -7124 0
-1605 7126 0
-7125 7126 0
-1605 -7125 0
-1606 7127 0
-7126 7127 0
-1606 -7126 0
-1607 7128 0
-7127 7128 0
-1607 -7127 0
-1608 7129 0
-7128 7129 0
-1608 -7128 0
-1609 7130 0
-7129 7130 0
-1609 -7129 0
-1610 7131 0
-7130 7131 0
-1610 -7130 0
-1611 7132 0
-7131 7132 0
-1611 -7131 0
-1612 7133 0
-7132 7133 0
-1612 -7132 0
-1613 7134 0
-7133 7134 0
-1613 -7133 0
-1614 7135 0
-7134 7135 0
-1614 -7134 0
-1615 7136 0
-7135 7136 0
-1615 -7135 0
-1616 7137 0
-7136 7137 0
-1616 -7136 0
-1617 7138 0
-7137 7138 0
-1617 -7137 0
-1618 7139 0
-7138 7139 0
-1618 -7138 0
-1619 7140 0
-7139 7140 0
-1619 -7139 0
-1620 7141 0
-7140 7141 0
-1620 -7140 0
-1621 7142 0
-7141 7142 0
-1621 -7141 0
-1622 7143 0
-7142 7143 0
-1622 -7142 0
-1623 7144 0
-7143 7144 0
-1623 -7143 0
-1624 7145 0
-7144 7145 0
-1624 -7144 0
-1625 7146 0
-7145 7146 0
-1625 -7145 0
-1626 7147 0
-7146 7147 0
-1626 -7146 0
-1627 7148 0
-7147 7148 0
-1627 -7147 0
-1628 7149 0
-7148 7149 0
-1628 -7148 0
-1629 7150 0
-7149 7150 0
-1629 -7149 0
-1630 7151 0
-7150 7151 0
-1630 -7150 0
-1631 7152 0
-7151 7152 0
-1631 -7151 0
-1632 7153 0
-7152 7153 0
-1632 -7152 0
-1633 7154 0
-7153 7154 0
-1633 -7153 0
-1634 7155 0
-7154 7155 0
-1634 -7154 0
-1635 -7155 0
7 317 379 559 619 677 736 1636 1637 1638 1639 1640 1641 1642 1643 1644 1645 1646 1647 1648 1649 1650 1651 1652 1653 1654 1655 1656 1657 1658 1659 1660 1661 1662 1663 1664 1665 1666 1667 1668 1669 1670 1671 1672 1673 1674 1675 1676 1677 1678 1679 1680 1681 1682 1683 1684 1685 1686 1687 1688 1689 1690 1691 0
-7 7156 0
-317 7157 0
-7156 7157 0
-317 -7156 0
-379 7158 0
-7157 7158 0
-379 -7157 0
-559 7159 0
-7158 7159 0
-559 -7158 0
-619 7160 0
-7159 7160 0
-619 -7159 0
-677 7161 0
-7160 7161 0
-677 -7160 0
-736 7162 0
-7161 7162 0
-736 -7161 0
-1636 7163 0
-7162 7163 0
-1636 -7162 0
-1637 7164 0
-7163 7164 0
-1637 -7163 0
-1638 7165 0
-7164 7165 0
-1638 -7164 0
-1639 7166 0
-7165 7166 0
-1639 -7165 0
-1640 7167 0
-7166 7167 0
-1640 -7166 0
-1641 7168 0
-7167 7168 0
-1641 -7167 0
-1642 7169 0
-7168 7169 0
-1642 -7168 0
-1643 7170 0
-7169 7170 0
-1643 -7169 0
-1644 7171 0
-7170 7171 0
-1644 -7170 0
-1645 7172 0
-7171 7172 0
-1645 -7171 0
-1646 7173 0
-7172 7173 0
-1646 -7172 0
-1647 7174 0
-7173 7174 0
-1647 -7173 0
-1648 7175 0
-7174 7175 0
-1648 -7174 0
-1649 7176 0
-7175 7176 0
-1649 -7175 0
-1650 7177 0
-7176 7177 0
-1650 -7176 0
-1651 7178 0
-7177 7178 0
-1651 -7177 0
-1652 7179 0
-7178 7179 0
-1652 -7178 0
-1653 7180 0
-7179 7180 0
-1653 -7179 0
-1654 7181 0
-7180 7181 0
-1654 -7180 0
-1655 7182 0
-7181 7182 0
-1655 -7181 0
-1656 7183 0
-7182 7183 0
-1656 -7182 0
-1657 7184 0
-7183 7184 0
-1657 -7183 0
-1658 7185 0
-7184 7185 0
-1658 -7184 0
-1659 7186 0
-7185 7186 0
-1659 -7185 0
-1660 7187 0
-7186 7187 0
-1660 -7186 0
-1661 7188 0
-7187 7188 0
-1661 -7187 0
-1662 7189 0
-7188 7189 0
-1662 -7188 0
-1663 7190 0
-7189 7190 0
-1663 -7189 0
-1664 7191 0
-7190 7191 0
-1664 -7190 0
-1665 7192 0
-7191 7192 0
-1665 -7191 0
-1666 7193 0
-7192 7193 0
-1666 -7192 0
-1667 7194 0
-7193 7194 0
-1667 -7193 0
-1668 7195 0
-7194 7195 0
-1668 -7194 0
-1669 7196 0
-7195 7196 0
-1669 -7195 0
-1670 7197 0
-7196 7197 0
-1670 -7196 0
-1671 7198 0
-7197 7198 0
-1671 -7197 0
-1672 7199 0
-7198 7199 0
-1672 -7198 0
-1673 7200 0
-7199 7200 0
-1673 -7199 0
-1674 7201 0
-7200 7201 0
-1674 -7200 0
-1675 7202 0
-7201 7202 0
-1675 -7201 0
-1676 7203 0
-7202 7203 0
-1676 -7202 0
-1677 7204 0
-7203 7204 0
-1677 -7203 0
-1678 7205 0
-7204 7205 0
-1678 -7204 0
-1679 7206 0
-7205 7206 0
-1679 -7205 0
-1680 7207 0
-7206 7207 0
-1680 -7206 0
-1681 7208 0
-7207 7208 0
-1681 -7207 0
-1682 7209 0
-7208 7209 0
-1682 -7208 0
-1683 7210 0
-7209 7210 0
-1683 -7209 0
-1684 7211 0
-7210 7211 0
-1684 -7210 0
-1685 7212 0
-7211 7212 0
-1685 -7211 0
-1686 7213 0
-7212 7213 0
-1686 -7212 0
-1687 7214 0
-7213 7214 0
-1687 -7213 0
-1688 7215 0
-7214 7215 0
-1688 -7214 0
-1689 7216 0
-7215 7216 0
-1689 -7215 0
-1690 7217 0
-7216 7217 0
-1690 -7216 0
-1691 -7217 0
70 255 378 499 618 678 796 1692 1693 1694 1695 1696 1697 1698 1699 1700 1701 1702 1703 1704 1705 1706 1707 1708 1709 1710 1711 1712 1713 1714 1715 1716 1717 1718 1719 1720 1721 1722 1723 1724 1725 1726 1727 1728 1729 1730 1731 1732 1733 1734 1735 1736 1737 1738 1739 1740 1741 1742 1743 1744 1745 1746 1747 0
-70 7218 0
-255 7219 0
-7218 7219 0
-255 -7218 0
-378 7220 0
-7219 7220 0
-378 -7219 0
-499 7221 0
-7220 7221 0
-499 -7220 0
-618 7222 0
-7221 7222 0
-618 -7221 0
-678 7223 0
-7222 7223 0
-678 -7222 0
-796 7224 0
-7223 7224 0
-796 -7223 0
-1692 7225 0
-7224 7225 0
-1692 -7224 0
-1693 7226 0
-7225 7226 0
-1693 -7225 0
-1694 7227 0
-7226 7227 0
-1694 -7226 0
-1695 7228 0
-7227 7228 0
-1695 -7227 0
-1696 7229 0
-7228 7229 0
-1696 -7228 0
-1697 7230 0
-7229 7230 0
-1697 -7229 0
-1698 7231 0
-7230 7231 0
-1698 -7230 0
-1699 7232 0
-7231 7232 0
-1699 -7231 0
-1700 7233 0
-7232 7233 0
-1700 -7232 0
-1701 7234 0
-7233 7234 0
-1701 -7233 0
-1702 7235 0
-7234 7235 0
-1702 -7234 0
-1703 7236 0
-7235 7236 0
-1703 -7235 0
-1704 7237 0
-7236 7237 0
-1704 -7236 0
-1705 7238 0
-7237 7238 0
-1705 -7237 0
-1706 7239 0
-7238 7239 0
-1706 -7238 0
-1707 7240 0
-7239 7240 0
-1707 -7239 0
-1708 7241 0
-7240 7241 0
-1708 -7240 0
-1709 7242 0
-7241 7242 0
-1709 -7241 0
-1710 7243 0
-7242 7243 0
-1710 -7242 0
-1711 7244 0
-7243 7244 0
-1711 -7243 0
-1712 7245 0
-7244 7245 0
-1712 -7244 0
-1713 7246 0
-7245 7246 0
-1713 -7245 0
-1714 7247 0
-7246 7247 0
-1714 -7246 0
-1715 7248 0
-7247 7248 0
-1715 -7247 0
-1716 7249 0
-7248 7249 0
-1716 -7248 0
-1717 7250 0
-7249 7250 0
-1717 -7249 0
-1718 7251 0
-7250 7251 0
-1718 -7250 0
-1719 7252 0
-7251 7252 0
-1719 -7251 0
-1720 7253 0
-7252 7253 0
-1720 -7252 0
-1721 7254 0
-7253 7254 0
-1721 -7253 0
-1722 7255 0
-7254 7255 0
-1722 -7254 0
-1723 7256 0
-7255 7256 0
-1723 -7255 0
-1724 7257 0
-7256 7257 0
-1724 -7256 0
-1725 7258 0
-7257 7258 0
-1725 -7257 0
-1726 7259 0
-7258 7259 0
-1726 -7258 0
-1727 7260 0
-7259 7260 0
-1727 -7259 0
-1728 7261 0
-7260 7261 0
-1728 -7260 0
-1729 7262 0
-7261 7262 0
-1729 -7261 0
-1730 7263 0
-7262 7263 0
-1730 -7262 0
-1731 7264 0
-7263 7264 0
-1731 -7263 0
-1732 7265 0
-7264 7265 0
-1732 -7264 0
-1733 7266 0
-7265 7266 0
-1733 -7265 0
-1734 7267 0
-7266 7267 0
-1734 -7266 0
-1735 7268 0
-7267 7268 0
-1735 -7267 0
-1736 7269 0
-7268 7269 0
-1736 -7268 0
-1737 7270 0
-7269 7270 0
-1737 -7269 0
-1738 7271 0
-7270 7271 0
-1738 -7270 0
-1739 7272 0
-7271 7272 0
-1739 -7271 0
-1740 7273 0
-7272 7273 0
-1740 -7272 0
-1741 7274 0
-7273 7274 0
-1741 -7273 0
-1742 7275 0
-7274 7275 0
-1742 -7274 0
-1743 7276 0
-7275 7276 0
-1743 -7275 0
-1744 7277 0
-7276 7277 0
-1744 -7276 0
-1745 7278 0
-7277 7278 0
-1745 -7277 0
-1746 7279 0
-7278 7279 0
-1746 -7278 0
-1747 -7279 0
133 254 316 498 558 679 856 1748 1749 1750 1751 1752 1753 1754 1755 1756 1757 1758 1759 1760 1761 1762 1763 1764 1765 1766 1767 1768 1769 1770 1771 1772 1773 1774 1775 1776 1777 1778 1779 1780 1781 1782 1783 1784 1785 1786 1787 1788 1789 1790 1791 1792 1793 1794 1795 1796 1797 1798 1799 1800 1801 1802 1803 0
-133 7280 0
-254 7281 0
-7280 7281 0
-254 -7280 0
-316 7282 0
-7281 7282 0
-316 -7281 0
-498 7283 0
-7282 7283 0
-498 -7282 0
-558 7284 0
-7283 7284 0
-558 -7283 0
-679 7285 0
-7284 7285 0
-679 -7284 0
-856 7286 0
-7285 7286 0
-856 -7285 0
-1748 7287 0
-7286 7287 0
-1748 -7286 0
-1749 7288 0
-7287 7288 0
-1749 -7287 0
-1750 7289 0
-7288 7289 0
-1750 -7288 0
-1751 7290 0
-7289 7290 0
-1751 -7289 0
-1752 7291 0
-7290 7291 0
-1752 -7290 0
-1753 7292 0
-7291 7292 0
-1753 -7291 0
-1754 7293 0
-7292 7293 0
-1754 -7292 0
-1755 7294 0
-7293 7294 0
-1755 -7293 0
-1756 7295 0
-7294 7295 0
-1756 -7294 0
-1757 7296 0
-7295 7296 0
-1757 -7295 0
-1758 7297 0
-7296 7297 0
-1758 -7296 0
-1759 7298 0
-7297 7298 0
-1759 -7297 0
-1760 7299 0
-7298 7299 0
-1760 -7298 0
-1761 7300 0
-7299 7300 0
-1761 -7299 0
-1762 7301 0
-7300 7301 0
-1762 -7300 0
-1763 7302 0
-7301 7302 0
-1763 -7301 0
-1764 7303 0
-7302 7303 0
-1764 -7302 0
-1765 7304 0
-7303 7304 0
-1765 -7303 0
-1766 7305 0
-7304 7305 0
-1766 -7304 0
-1767 7306 0
-7305 7306 0
-1767 -7305 0
-1768 7307 0
-7306 7307 0
-1768 -7306 0
-1769 7308 0
-7307 7308 0
-1769 -7307 0
-1770 7309 0
-7308 7309 0
-1770 -7308 0
-1771 7310 0
-7309 7310 0
-1771 -7309 0
-1772 7311 0
-7310 7311 0
-1772 -7310 0
-1773 7312 0
-7311 7312 0
-1773 -7311 0
-1774 7313 0
-7312 7313 0
-1774 -7312 0
-1775 7314 0
-7313 7314 0
-1775 -7313 0
-1776 7315 0
-7314 7315 0
-1776 -7314 0
-1777 7316 0
-7315 7316 0
-1777 -7315 0
-1778 7317 0
-7316 7317 0
-1778 -7316 0
-1779 7318 0
-7317 7318 0
-1779 -7317 0
-1780 7319 0
-7318 7319 0
-1780 -7318 0
-1781 7320 0
-7319 7320 0
-1781 -7319 0
-1782 7321 0
-7320 7321 0
-1782 -7320 0
-1783 7322 0
-7321 7322 0
-1783 -7321 0
-1784 7323 0
-7322 7323 0
-1784 -7322 0
-1785 7324 0
-7323 7324 0
-1785 -7323 0
-1786 7325 0
-7324 7325 0
-1786 -7324 0
-1787 7326 0
-7325 7326 0
-1787 -7325 0
-1788 7327 0
-7326 7327 0
-1788 -7326 0
-1789 7328 0
-7327 7328 0
-1789 -7327 0
-1790 7329 0
-7328 7329 0
-1790 -7328 0
-1791 7330 0
-7329 7330 0
-1791 -7329 0
-1792 7331 0
-7330 7331 0
-1792 -7330 0
-1793 7332 0
-7331 7332 0
-1793 -7331 0
-1794 7333 0
-7332 7333 0
-1794 -7332 0
-1795 7334 0
-7333 7334 0
-1795 -7333 0
-1796 7335 0
-7334 7335 0
-1796 -7334 0
-1797 7336 0
-7335 7336 0
-1797 -7335 0
-1798 7337 0
-7336 7337 0
-1798 -7336 0
-1799 7338 0
-7337 7338 0
-1799 -7337 0
-1800 7339 0
-7338 7339 0
-1800 -7338 0
-1801 7340 0
-7339 7340 0
-1801 -7339 0
-1802 7341 0
-7340 7341 0
-1802 -7340 0
-1803 -7341 0
8 71 134 194 256 318 380 440 500 560 620 680 740 800 860 1804 1805 1806 1807 1808 1809 1810 1811 1812 1813 1814 1815 1816 1817 1818 1819 1820 1821 1822 1823 1824 1825 1826 1827 1828 1829 1830 1831 1832 1833 1834 1835 1836 1837 1838 1839 1840 1841 1842 1843 1844 1845 1846 1847 1848 1849 1850 1851 0
-8 7342 0
-71 7343 0
-7342 7343 0
-71 -7342 0
-134 7344 0
-7343 7344 0
-134 -7343 0
-194 7345 0
-7344 7345 0
-194 -7344 0
-256 7346 0
-7345 7346 0
-256 -7345 0
-318 7347 0
-7346 7347 0
-318 -7346 0
-380 7348 0
-7347 7348 0
-380 -7347 0
-440 7349 0
-7348 7349 0
-440 -7348 0
-500 7350 0
-7349 7350 0
-500 -7349 0
-560 7351 0
-7350 7351 0
-560 -7350 0
-620 7352 0
-7351 7352 0
-620 -7351 0
-680 7353 0
-7352 7353 0
-680 -7352 0
-740 7354 0
-7353 7354 0
-740 -7353 0
-800 7355 0
-7354 7355 0
-800 -7354 0
-860 7356 0
-7355 7356 0
-860 -7355 0
-1804 7357 0
-7356 7357 0
-1804 -7356 0
-1805 7358 0
-7357 7358 0
-1805 -7357 0
-1806 7359 0
-7358 7359 0
-1806 -7358 0
-1807 7360 0
-7359 7360 0
-1807 -7359 0
-1808 7361 0
-7360 7361 0
-1808 -7360 0
-1809 7362 0
-7361 7362 0
-1809 -7361 0
-1810 7363 0
-7362 7363 0
-1810 -7362 0
-1811 7364 0
-7363 7364 0
-1811 -7363 0
-1812 7365 0
-7364 7365 0
-1812 -7364 0
-1813 7366 0
-7365 7366 0
-1813 -7365 0
-1814 7367 0
-7366 7367 0
-1814 -7366 0
-1815 7368 0
-7367 7368 0
-1815 -7367 0
-1816 7369 0
-7368 7369 0
-1816 -7368 0
-1817 7370 0
-7369 7370 0
-1817 -7369 0
-1818 7371 0
-7370 7371 0
-1818 -7370 0
-1819 7372 0
-7371 7372 0
-1819 -7371 0
-1820 7373 0
-7372 7373 0
-1820 -7372 0
-1821 7374 0
-7373 7374 0
-1821 -7373 0
-1822 7375 0
-7374 7375 0
-1822 -7374 0
-1823 7376 0
-7375 7376 0
-1823 -7375 0
-1824 7377 0
-7376 7377 0
-1824 -7376 0
-1825 7378 0
-7377 7378 0
-1825 -7377 0
-1826 7379 0
-7378 7379 0
-1826 -7378 0
-1827 7380 0
-7379 7380 0
-1827 -7379 0
-1828 7381 0
-7380 7381 0
-1828 -7380 0
-1829 7382 0
-7381 7382 0
-1829 -7381 0
-1830 7383 0
-7382 7383 0
-1830 -7382 0
-1831 7384 0
-7383 7384 0
-1831 -7383 0
-1832 7385 0
-7384 7385 0
-1832 -7384 0
-1833 7386 0
-7385 7386 0
-1833 -7385 0
-1834 7387 0
-7386 7387 0
-1834 -7386 0
-1835 7388 0
-7387 7388 0
-1835 -7387 0
-1836 7389 0
-7388 7389 0
-1836 -7388 0
-1837 7390 0
-7389 7390 0
-1837 -7389 0
-1838 7391 0
-7390 7391 0
-1838 -7390 0
-1839 7392 0
-7391 7392 0
-1839 -7391 0
-1840 7393 0
-7392 7393 0
-1840 -7392 0
-1841 7394 0
-7393 7394 0
-1841 -7393 0
-1842 7395 0
-7394 7395 0
-1842 -7394 0
-1843 7396 0
-7395 7396 0
-1843 -7395 0
-1844 7397 0
-7396 7397 0
-1844 -7396 0
-1845 7398 0
-7397 7398 0
-1845 -7397 0
-1846 7399 0
-7398 7399 0
-1846 -7398 0
-1847 7400 0
-7399 7400 0
-1847 -7399 0
-1848 7401 0
-7400 7401 0
-1848 -7400 0
-1849 7402 0
-7401 7402 0
-1849 -7401 0
-1850 7403 0
-7402 7403 0
-1850 -7402 0
-1851 -7403 0
8 195 257 441 501 681 741 1020 1076 1244 1300 1468 1524 1692 1748 1852 1853 1854 1855 1856 1857 1858 1859 1860 1861 1862 1863 1864 1865 1866 1867 1868 1869 1870 1871 1872 1873 1874 1875 1876 1877 1878 1879 1880 1881 1882 1883 1884 1885 1886 1887 1888 1889 1890 1891 1892 1893 1894 1895 1896 1897 1898 1899 0
-8 7404 0
-195 7405 0
-7404 7405 0
-195 -7404 0
-257 7406 0
-7405 7406 0
-257 -7405 0
-441 7407 0
-7406 7407 0
-441 -7406 0
-501 7408 0
-7407 7408 0
-501 -7407 0
-681 7409 0
-7408 7409 0
-681 -7408 0
-741 7410 0
-7409 7410 0
-741 -7409 0
-1020 7411 0
-7410 7411 0
-1020 -7410 0
-1076 7412 0
-7411 7412 0
-1076 -7411 0
-1244 7413 0
-7412 7413 0
-1244 -7412 0
-1300 7414 0
-7413 7414 0
-1300 -7413 0
-1468 7415 0
-7414 7415 0
-1468 -7414 0
-1524 7416 0
-7415 7416 0
-1524 -7415 0
-1692 7417 0
-7416 7417 0
-1692 -7416 0
-1748 7418 0
-7417 7418 0
-1748 -7417 0
-1852 7419 0
-7418 7419 0
-1852 -7418 0
-1853 7420 0
-7419 7420 0
-1853 -7419 0
-1854 7421 0
-7420 7421 0
-1854 -7420 0
-1855 7422 0
-7421 7422 0
-1855 -7421 0
-1856 7423 0
-7422 7423 0
-1856 -7422 0
-1857 7424 0
-7423 7424 0
-1857 -7423 0
-1858 7425 0
-7424 7425 0
-1858 -7424 0
-1859 7426 0
-7425 7426 0
-1859 -7425 0
-1860 7427 0
-7426 7427 0
-1860 -7426 0
-1861 7428 0
-7427 7428 0
-1861 -7427 0
-1862 7429 0
-7428 7429 0
-1862 -7428 0
-1863 7430 0
-7429 7430 0
-1863 -7429 0
-1864 7431 0
-7430 7431 0
-1864 -7430 0
-1865 7432 0
-7431 7432 0
-1865 -7431 0
-1866 7433 0
-7432 7433 0
-1866 -7432 0
-1867 7434 0
-7433 7434 0
-1867 -7433 0
-1868 7435 0
-7434 7435 0
-1868 -7434 0
-1869 7436 0
-7435 7436 0
-1869 -7435 0
-1870 7437 0
-7436 7437 0
-1870 -7436 0
-1871 7438 0
-7437 7438 0
-1871 -7437 0
-1872 7439 0
-7438 7439 0
-1872 -7438 0
-1873 7440 0
-7439 7440 0
-1873 -7439 0
-1874 7441 0
-7440 7441 0
-1874 -7440 0
-1875 7442 0
-7441 7442 0
-1875 -7441 0
-1876 7443 0
-7442 7443 0
-1876 -7442 0
-1877 7444 0
-7443 7444 0
-1877 -7443 0
-1878 7445 0
-7444 7445 0
-1878 -7444 0
-1879 7446 0
-7445 7446 0
-1879 -7445 0
-1880 7447 0
-7446 7447 0
-1880 -7446 0
-1881 7448 0
-7447 7448 0
-1881 -7447 0
-1882 7449 0
-7448 7449 0
-1882 -7448 0
-1883 7450 0
-7449 7450 0
-1883 -7449 0
-1884 7451 0
-7450 7451 0
-1884 -7450 0
-1885 7452 0
-7451 7452 0
-1885 -7451 0
-1886 7453 0
-7452 7453 0
-1886 -7452 0
-1887 7454 0
-7453 7454 0
-1887 -7453 0
-1888 7455 0
-7454 7455 0
-1888 -7454 0
-1889 7456 0
-7455 7456 0
-1889 -7455 0
-1890 7457 0
-7456 7457 0
-1890 -7456 0
-1891 7458 0
-7457 7458 0
-1891 -7457 0
-1892 7459 0
-7458 7459 0
-1892 -7458 0
-1893 7460 0
-7459 7460 0
-1893 -7459 0
-1894 7461 0
-7460 7461 0
-1894 -7460 0
-1895 7462 0
-7461 7462 0
-1895 -7461 0
-1896 7463 0
-7462 7463 0
-1896 -7462 0
-1897 7464 0
-7463 7464 0
-1897 -7463 0
-1898 7465 0
-7464 7465 0
-1898 -7464 0
-1899 -7465 0
71 196 319 442 561 682 801 964 1077 1188 1301 1412 1525 1636 1749 1900 1901 1902 1903 1904 1905 1906 1907 1908 1909 1910 1911 1912 1913 1914 1915 1916 1917 1918 1919 1920 1921 1922 1923 1924 1925 1926 1927 1928 1929 1930 1931 1932 1933 1934 1935 1936 1937 1938 1939 1940 1941 1942 1943 1944 1945 1946 1947 0
-71 7466 0
-196 7467 0
-7466 7467 0
-196 -7466 0
-319 7468 0
-7467 7468 0
-319 -7467 0
-442 7469 0
-7468 7469 0
-442 -7468 0
-561 7470 0
-7469 7470 0
-561 -7469 0
-682 7471 0
-7470 7471 0
-682 -7470 0
-801 7472 0
-7471 7472 0
-801 -7471 0
-964 7473 0
-7472 7473 0
-964 -7472 0
-1077 7474 0
-7473 7474 0
-1077 -7473 0
-1188 7475 0
-7474 7475 0
-1188 -7474 0
-1301 7476 0
-7475 7476 0
-1301 -7475 0
-1412 7477 0
-7476 7477 0
-1412 -7476 0
-1525 7478 0
-7477 7478 0
-1525 -7477 0
-1636 7479 0
-7478 7479 0
-1636 -7478 0
-1749 7480 0
-7479 7480 0
-1749 -7479 0
-1900 7481 0
-7480 7481 0
-1900 -7480 0
-1901 7482 0
-7481 7482 0
-1901 -7481 0
-1902 7483 0
-7482 7483 0
-1902 -7482 0
-1903 7484 0
-7483 7484 0
-1903 -7483 0
-1904 7485 0
-7484 7485 0
-1904 -7484 0
-1905 7486 0
-7485 7486 0
-1905 -7485 0
-1906 7487 0
-7486 7487 0
-1906 -7486 0
-1907 7488 0
-7487 7488 0
-1907 -7487 0
-1908 7489 0
-7488 7489 0
-1908 -7488 0
-1909 7490 0
-7489 7490 0
-1909 -7489 0
-1910 7491 0
-7490 7491 0
-1910 -7490 0
-1911 7492 0
-7491 7492 0
-1911 -7491 0
-1912 7493 0
-7492 7493 0
-1912 -7492 0
-1913 7494 0
-7493 7494 0
-1913 -7493 0
-1914 7495 0
-7494 7495 0
-1914 -7494 0
-1915 7496 0
-7495 7496 0
-1915 -7495 0
-1916 7497 0
-7496 7497 0
-1916 -7496 0
-1917 7498 0
-7497 7498 0
-1917 -7497 0
-1918 7499 0
-7498 7499 0
-1918 -7498 0
-1919 7500 0
-7499 7500 0
-1919 -7499 0
-1920 7501 0
-7500 7501 0
-1920 -7500 0
-1921 7502 0
-7501 7502 0
-1921 -7501 0
-1922 7503 0
-7502 7503 0
-1922 -7502 0
-1923 7504 0
-7503 7504 0
-1923 -7503 0
-1924 7505 0
-7504 7505 0
-1924 -7504 0
-1925 7506 0
-7505 7506 0
-1925 -7505 0
-1926 7507 0
-7506 7507 0
-1926 -7506 0
-1927 7508 0
-7507 7508 0
-1927 -7507 0
-1928 7509 0
-7508 7509 0
-1928 -7508 0
-1929 7510 0
-7509 7510 0
-1929 -7509 0
-1930 7511 0
-7510 7511 0
-1930 -7510 0
-1931 7512 0
-7511 7512 0
-1931 -7511 0
-1932 7513 0
-7512 7513 0
-1932 -7512 0
-1933 7514 0
-7513 7514 0
-1933 -7513 0
-1934 7515 0
-7514 7515 0
-1934 -7514 0
-1935 7516 0
-7515 7516 0
-1935 -7515 0
-1936 7517 0
-7516 7517 0
-1936 -7516 0
-1937 7518 0
-7517 7518 0
-1937 -7517 0
-1938 7519 0
-7518 7519 0
-1938 -7518 0
-1939 7520 0
-7519 7520 0
-1939 -7519 0
-1940 7521 0
-7520 7521 0
-1940 -7520 0
-1941 7522 0
-7521 7522 0
-1941 -7521 0
-1942 7523 0
-7522 7523 0
-1942 -7522 0
-1943 7524 0
-7523 7524 0
-1943 -7523 0
-1944 7525 0
-7524 7525 0
-1944 -7524 0
-1945 7526 0
-7525 7526 0
-1945 -7525 0
-1946 7527 0
-7526 7527 0
-1946 -7526 0
-1947 -7527 0
134 197 381 443 621 683 861 965 1021 1189 1245 1413 1469 1637 1693 1948 1949 1950 1951 1952 1953 1954 1955 1956 1957 1958 1959 1960 1961 1962 1963 1964 1965 1966 1967 1968 1969 1970 1971 1972 1973 1974 1975 1976 1977 1978 1979 1980 1981 1982 1983 1984 1985 1986 1987 1988 1989 1990 1991 1992 1993 1994 1995 0
-134 7528 0
-197 7529 0
-7528 7529 0
-197 -7528 0
-381 7530 0
-7529 7530 0
-381 -7529 0
-443 7531 0
-7530 7531 0
-443 -7530 0
-621 7532 0
-7531 7532 0
-621 -7531 0
-683 7533 0
-7532 7533 0
-683 -7532 0
-861 7534 0
-7533 7534 0
-861 -7533 0
-965 7535 0
-7534 7535 0
-965 -7534 0
-1021 7536 0
-7535 7536 0
-1021 -7535 0
-1189 7537 0
-7536 7537 0
-1189 -7536 0
-1245 7538 0
-7537 7538 0
-1245 -7537 0
-1413 7539 0
-7538 7539 0
-1413 -7538 0
-1469 7540 0
-7539 7540 0
-1469 -7539 0
-1637 7541 0
-7540 7541 0
-1637 -7540 0
-1693 7542 0
-7541 7542 0
-1693 -7541 0
-1948 7543 0
-7542 7543 0
-1948 -7542 0
-1949 7544 0
-7543 7544 0
-1949 -7543 0
-1950 7545 0
-7544 7545 0
-1950 -7544 0
-1951 7546 0
-7545 7546 0
-1951 -7545 0
-1952 7547 0
-7546 7547 0
-1952 -7546 0
-1953 7548 0
-7547 7548 0
-1953 -7547 0
-1954 7549 0
-7548 7549 0
-1954 -7548 0
-1955 7550 0
-7549 7550 0
-1955 -7549 0
-1956 7551 0
-7550 7551 0
-1956 -7550 0
-1957 7552 0
-7551 7552 0
-1957 -7551 0
-1958 7553 0
-7552 7553 0
-1958 -7552 0
-1959 7554 0
-7553 7554 0
-1959 -7553 0
-1960 7555 0
-7554 7555 0
-1960 -7554 0
-1961 7556 0
-7555 7556 0
-1961 -7555 0
-1962 7557 0
-7556 7557 0
-1962 -7556 0
-1963 7558 0
-7557 7558 0
-1963 -7557 0
-1964 7559 0
-7558 7559 0
-1964 -7558 0
-1965 7560 0
-7559 7560 0
-1965 -7559 0
-1966 7561 0
-7560 7561 0
-1966 -7560 0
-1967 7562 0
-7561 7562 0
-1967 -7561 0
-1968 7563 0
-7562 7563 0
-1968 -7562 0
-1969 7564 0
-7563 7564 0
-1969 -7563 0
-1970 7565 0
-7564 7565 0
-1970 -7564 0
-1971 7566 0
-7565 7566 0
-1971 -7565 0
-1972 7567 0
-7566 7567 0
-1972 -7566 0
-1973 7568 0
-7567 7568 0
-1973 -7567 0
-1974 7569 0
-7568 7569 0
-1974 -7568 0
-1975 7570 0
-7569 7570 0
-1975 -7569 0
-1976 7571 0
-7570 7571 0
-1976 -7570 0
-1977 7572 0
-7571 7572 0
-1977 -7571 0
-1978 7573 0
-7572 7573 0
-1978 -7572 0
-1979 7574 0
-7573 7574 0
-1979 -7573 0
-1980 7575 0
-7574 7575 0
-1980 -7574 0
-1981 7576 0
-7575 7576 0
-1981 -7575 0
-1982 7577 0
-7576 7577 0
-1982 -7576 0
-1983 7578 0
-7577 7578 0
-1983 -7577 0
-1984 7579 0
-7578 7579 0
-1984 -7578 0
-1985 7580 0
-7579 7580 0
-1985 -7579 0
-1986 7581 0
-7580 7581 0
-1986 -7580 0
-1987 7582 0
-7581 7582 0
-1987 -7581 0
-1988 7583 0
-7582 7583 0
-1988 -7582 0
-1989 7584 0
-7583 7584 0
-1989 -7583 0
-1990 7585 0
-7584 7585 0
-1990 -7584 0
-1991 7586 0
-7585 7586 0
-1991 -7585 0
-1992 7587 0
-7586 7587 0
-1992 -7586 0
-1993 7588 0
-7587 7588 0
-1993 -7587 0
-1994 7589 0
-7588 7589 0
-1994 -7588 0
-1995 -7589 0
9 72 135 194 257 319 381 1356 1414 1470 1526 1580 1638 1694 1750 1996 1997 1998 1999 2000 2001 2002 2003 2004 2005 2006 2007 2008 2009 2010 2011 2012 2013 2014 2015 2016 2017 2018 2019 2020 2021 2022 2023 2024 2025 2026 2027 2028 2029 2030 2031 2032 2033 2034 2035 2036 2037 2038 2039 2040 2041 2042 2043 0
-9 7590 0
-72 7591 0
-7590 7591 0
-72 -7590 0
-135 7592 0
-7591 7592 0
-135 -7591 0
-194 7593 0
-7592 7593 0
-194 -7592 0
-257 7594 0
-7593 7594 0
-257 -7593 0
-319 7595 0
-7594 7595 0
-319 -7594 0
-381 7596 0
-7595 7596 0
-381 -7595 0
-1356 7597 0
-7596 7597 0
-1356 -7596 0
-1414 7598 0
-7597 7598 0
-1414 -7597 0
-1470 7599 0
-7598 7599 0
-1470 -7598 0
-1526 7600 0
-7599 7600 0
-1526 -7599 0
-1580 7601 0
-7600 7601 0
-1580 -7600 0
-1638 7602 0
-7601 7602 0
-1638 -7601 0
-1694 7603 0
-7602 7603 0
-1694 -7602 0
-1750 7604 0
-7603 7604 0
-1750 -7603 0
-1996 7605 0
-7604 7605 0
-1996 -7604 0
-1997 7606 0
-7605 7606 0
-1997 -7605 0
-1998 7607 0
-7606 7607 0
-1998 -7606 0
-1999 7608 0
-7607 7608 0
-1999 -7607 0
-2000 7609 0
-7608 7609 0
-2000 -7608 0
-2001 7610 0
-7609 7610 0
-2001 -7609 0
-2002 7611 0
-7610 7611 0
-2002 -7610 0
-2003 7612 0
-7611 7612 0
-2003 -7611 0
-2004 7613 0
-7612 7613 0
-2004 -7612 0
-2005 7614 0
-7613 7614 0
-2005 -7613 0
-2006 7615 0
-7614 7615 0
-2006 -7614 0
-2007 7616 0
-7615 7616 0
-2007 -7615 0
-2008 7617 0
-7616 7617 0
-2008 -7616 0
-2009 7618 0
-7617 7618 0
-2009 -7617 0
-2010 7619 0
-7618 7619 0
-2010 -7618 0
-2011 7620 0
-7619 7620 0
-2011 -7619 0
-2012 7621 0
-7620 7621 0
-2012 -7620 0
-2013 7622 0
-7621 7622 0
-2013 -7621 0
-2014 7623 0
-7622 7623 0
-2014 -7622 0
-2015 7624 0
-7623 7624 0
-2015 -7623 0
-2016 7625 0
-7624 7625 0
-2016 -7624 0
-2017 7626 0
-7625 7626 0
-2017 -7625 0
-2018 7627 0
-7626 7627 0
-2018 -7626 0
-2019 7628 0
-7627 7628 0
-2019 -7627 0
-2020 7629 0
-7628 7629 0
-2020 -7628 0
-2021 7630 0
-7629 7630 0
-2021 -7629 0
-2022 7631 0
-7630 7631 0
-2022 -7630 0
-2023 7632 0
-7631 7632 0
-2023 -7631 0
-2024 7633 0
-7632 7633 0
-2024 -7632 0
-2025 7634 0
-7633 7634 0
-2025 -7633 0
-2026 7635 0
-7634 7635 0
-2026 -7634 0
-2027 7636 0
-7635 7636 0
-2027 -7635 0
-2028 7637 0
-7636 7637 0
-2028 -7636 0
-2029 7638 0
-7637 7638 0
-2029 -7637 0
-2030 7639 0
-7638 7639 0
-2030 -7638 0
-2031 7640 0
-7639 7640 0
-2031 -7639 0
-2032 7641 0
-7640 7641 0
-2032 -7640 0
-2033 7642 0
-7641 7642 0
-2033 -7641 0
-2034 7643 0
-7642 7643 0
-2034 -7642 0
-2035 7644 0
-7643 7644 0
-2035 -7643 0
-2036 7645 0
-7644 7645 0
-2036 -7644 0
-2037 7646 0
-7645 7646 0
-2037 -7645 0
-2038 7647 0
-7646 7647 0
-2038 -7646 0
-2039 7648 0
-7647 7648 0
-2039 -7647 0
-2040 7649 0
-7648 7649 0
-2040 -7648 0
-2041 7650 0
-7649 7650 0
-2041 -7649 0
-2042 7651 0
-7650 7651 0
-2042 -7650 0
-2043 -7651 0
9 195 256 562 622 802 862 1022 1078 1246 1302 1357 1415 1581 1639 2044 2045 2046 2047 2048 2049 2050 2051 2052 2053 2054 2055 2056 2057 2058 2059 2060 2061 2062 2063 2064 2065 2066 2067 2068 2069 2070 2071 2072 2073 2074 2075 2076 2077 2078 2079 2080 2081 2082 2083 2084 2085 2086 2087 2088 2089 2090 2091 0
-9 7652 0
-195 7653 0
-7652 7653 0
-195 -7652 0
-256 7654 0
-7653 7654 0
-256 -7653 0
-562 7655 0
-7654 7655 0
-562 -7654 0
-622 7656 0
-7655 7656 0
-622 -7655 0
-802 7657 0
-7656 7657 0
-802 -7656 0
-862 7658 0
-7657 7658 0
-862 -7657 0
-1022 7659 0
-7658 7659 0
-1022 -7658 0
-1078 7660 0
-7659 7660 0
-1078 -7659 0
-1246 7661 0
-7660 7661 0
-1246 -7660 0
-1302 7662 0
-7661 7662 0
-1302 -7661 0
-1357 7663 0
-7662 7663 0
-1357 -7662 0
-1415 7664 0
-7663 7664 0
-1415 -7663 0
-1581 7665 0
-7664 7665 0
-1581 -7664 0
-1639 7666 0
-7665 7666 0
-1639 -7665 0
-2044 7667 0
-7666 7667 0
-2044 -7666 0
-2045 7668 0
-7667 7668 0
-2045 -7667 0
-2046 7669 0
-7668 7669 0
-2046 -7668 0
-2047 7670 0
-7669 7670 0
-2047 -7669 0
-2048 7671 0
-7670 7671 0
-2048 -7670 0
-2049 7672 0
-7671 7672 0
-2049 -7671 0
-2050 7673 0
-7672 7673 0
-2050 -7672 0
-2051 7674 0
-7673 7674 0
-2051 -7673 0
-2052 7675 0
-7674 7675 0
-2052 -7674 0
-2053 7676 0
-7675 7676 0
-2053 -7675 0
-2054 7677 0
-7676 7677 0
-2054 -7676 0
-2055 7678 0
-7677 7678 0
-2055 -7677 0
-2056 7679 0
-7678 7679 0
-2056 -7678 0
-2057 7680 0
-7679 7680 0
-2057 -7679 0
-2058 7681 0
-7680 7681 0
-2058 -7680 0
-2059 7682 0
-7681 7682 0
-2059 -7681 0
-2060 7683 0
-7682 7683 0
-2060 -7682 0
-2061 7684 0
-7683 7684 0
-2061 -7683 0
-2062 7685 0
-7684 7685 0
-2062 -7684 0
-2063 7686 0
-7685 7686 0
-2063 -7685 0
-2064 7687 0
-7686 7687 0
-2064 -7686 0
-2065 7688 0
-7687 7688 0
-2065 -7687 0
-2066 7689 0
-7688 7689 0
-2066 -7688 0
-2067 7690 0
-7689 7690 0
-2067 -7689 0
-2068 7691 0
-7690 7691 0
-2068 -7690 0
-2069 7692 0
-7691 7692 0
-2069 -7691 0
-2070 7693 0
-7692 7693 0
-2070 -7692 0
-2071 7694 0
-7693 7694 0
-2071 -7693 0
-2072 7695 0
-7694 7695 0
-2072 -7694 0
-2073 7696 0
-7695 7696 0
-2073 -7695 0
-2074 7697 0
-7696 7697 0
-2074 -7696 0
-2075 7698 0
-7697 7698 0
-2075 -7697 0
-2076 7699 0
-7698 7699 0
-2076 -7698 0
-2077 7700 0
-7699 7700 0
-2077 -7699 0
-2078 7701 0
-7700 7701 0
-2078 -7700 0
-2079 7702 0
-7701 7702 0
-2079 -7701 0
-2080 7703 0
-7702 7703 0
-2080 -7702 0
-2081 7704 0
-7703 7704 0
-2081 -7703 0
-2082 7705 0
-7704 7705 0
-2082 -7704 0
-2083 7706 0
-7705 7706 0
-2083 -7705 0
-2084 7707 0
-7706 7707 0
-2084 -7706 0
-2085 7708 0
-7707 7708 0
-2085 -7707 0
-2086 7709 0
-7708 7709 0
-2086 -7708 0
-2087 7710 0
-7709 7710 0
-2087 -7709 0
-2088 7711 0
-7710 7711 0
-2088 -7710 0
-2089 7712 0
-7711 7712 0
-2089 -7711 0
-2090 7713 0
-7712 7713 0
-2090 -7712 0
-2091 -7713 0
72 196 318 502 623 742 863 966 1079 1190 1303 1358 1471 1582 1695 2092 2093 2094 2095 2096 2097 2098 2099 2100 2101 2102 2103 2104 2105 2106 2107 2108 2109 2110 2111 2112 2113 2114 2115 2116 2117 2118 2119 2120 2121 2122 2123 2124 2125 2126 2127 2128 2129 2130 2131 2132 2133 2134 2135 2136 2137 2138 2139 0
-72 7714 0
-196 7715 0
-7714 7715 0
-196 -7714 0
-318 7716 0
-7715 7716 0
-318 -7715 0
-502 7717 0
-7716 7717 0
-502 -7716 0
-623 7718 0
-7717 7718 0
-623 -7717 0
-742 7719 0
-7718 7719 0
-742 -7718 0
-863 7720 0
-7719 7720 0
-863 -7719 0
-966 7721 0
-7720 7721 0
-966 -7720 0
-1079 7722 0
-7721 7722 0
-1079 -7721 0
-1190 7723 0
-7722 7723 0
-1190 -7722 0
-1303 7724 0
-7723 7724 0
-1303 -7723 0
-1358 7725 0
-7724 7725 0
-1358 -7724 0
-1471 7726 0
-7725 7726 0
-1471 -7725 0
-1582 7727 0
-7726 7727 0
-1582 -7726 0
-1695 7728 0
-7727 7728 0
-1695 -7727 0
-2092 7729 0
-7728 7729 0
-2092 -7728 0
-2093 7730 0
-7729 7730 0
-2093 -7729 0
-2094 7731 0
-7730 7731 0
-2094 -7730 0
-2095 7732 0
-7731 7732 0
-2095 -7731 0
-2096 7733 0
-7732 7733 0
-2096 -7732 0
-2097 7734 0
-7733 7734 0
-2097 -7733 0
-2098 7735 0
-7734 7735 0
-2098 -7734 0
-2099 7736 0
-7735 7736 0
-2099 -7735 0
-2100 7737 0
-7736 7737 0
-2100 -7736 0
-2101 7738 0
-7737 7738 0
-2101 -7737 0
-2102 7739 0
-7738 7739 0
-2102 -7738 0
-2103 7740 0
-7739 7740 0
-2103 -7739 0
-2104 7741 0
-7740 7741 0
-2104 -7740 0
-2105 7742 0
-7741 7742 0
-2105 -7741 0
-2106 7743 0
-7742 7743 0
-2106 -7742 0
-2107 7744 0
-7743 7744 0
-2107 -7743 0
-2108 7745 0
-7744 7745 0
-2108 -7744 0
-2109 7746 0
-7745 7746 0
-2109 -7745 0
-2110 7747 0
-7746 7747 0
-2110 -7746 0
-2111 7748 0
-7747 7748 0
-2111 -7747 0
-2112 7749 0
-7748 7749 0
-2112 -7748 0
-2113 7750 0
-7749 7750 0
-2113 -7749 0
-2114 7751 0
-7750 7751 0
-2114 -7750 0
-2115 7752 0
-7751 7752 0
-2115 -7751 0
-2116 7753 0
-7752 7753 0
-2116 -7752 0
-2117 7754 0
-7753 7754 0
-2117 -7753 0
-2118 7755 0
-7754 7755 0
-2118 -7754 0
-2119 7756 0
-7755 7756 0
-2119 -7755 0
-2120 7757 0
-7756 7757 0
-2120 -7756 0
-2121 7758 0
-7757 7758 0
-2121 -7757 0
-2122 7759 0
-7758 7759 0
-2122 -7758 0
-2123 7760 0
-7759 7760 0
-2123 -7759 0
-2124 7761 0
-7760 7761 0
-2124 -7760 0
-2125 7762 0
-7761 7762 0
-2125 -7761 0
-2126 7763 0
-7762 7763 0
-2126 -7762 0
-2127 7764 0
-7763 7764 0
-2127 -7763 0
-2128 7765 0
-7764 7765 0
-2128 -7764 0
-2129 7766 0
-7765 7766 0
-2129 -7765 0
-2130 7767 0
-7766 7767 0
-2130 -7766 0
-2131 7768 0
-7767 7768 0
-2131 -7767 0
-2132 7769 0
-7768 7769 0
-2132 -7768 0
-2133 7770 0
-7769 7770 0
-2133 -7769 0
-2134 7771 0
-7770 7771 0
-2134 -7770 0
-2135 7772 0
-7771 7772 0
-2135 -7771 0
-2136 7773 0
-7772 7773 0
-2136 -7772 0
-2137 7774 0
-7773 7774 0
-2137 -7773 0
-2138 7775 0
-7774 7775 0
-2138 -7774 0
-2139 -7775 0
135 197 380 503 563 743 803 967 1023 1191 1247 1359 1527 1583 1751 2140 2141 2142 2143 2144 2145 2146 2147 2148 2149 2150 2151 2152 2153 2154 2155 2156 2157 2158 2159 2160 2161 2162 2163 2164 2165 2166 2167 2168 2169 2170 2171 2172 2173 2174 2175 2176 2177 2178 2179 2180 2181 2182 2183 2184 2185 2186 2187 0
-135 7776 0
-197 7777 0
-7776 7777 0
-197 -7776 0
-380 7778 0
-7777 7778 0
-380 -7777 0
-503 7779 0
-7778 7779 0
-503 -7778 0
-563 7780 0
-7779 7780 0
-563 -7779 0
-743 7781 0
-7780 7781 0
-743 -7780 0
-803 7782 0
-7781 7782 0
-803 -7781 0
-967 7783 0
-7782 7783 0
-967 -7782 0
-1023 7784 0
-7783 7784 0
-1023 -7783 0
-1191 7785 0
-7784 7785 0
-1191 -7784 0
-1247 7786 0
-7785 7786 0
-1247 -7785 0
-1359 7787 0
-7786 7787 0
-1359 -7786 0
-1527 7788 0
-7787 7788 0
-1527 -7787 0
-1583 7789 0
-7788 7789 0
-1583 -7788 0
-1751 7790 0
-7789 7790 0
-1751 -7789 0
-2140 7791 0
-7790 7791 0
-2140 -7790 0
-2141 7792 0
-7791 7792 0
-2141 -7791 0
-2142 7793 0
-7792 7793 0
-2142 -7792 0
-2143 7794 0
-7793 7794 0
-2143 -7793 0
-2144 7795 0
-7794 7795 0
-2144 -7794 0
-2145 7796 0
-7795 7796 0
-2145 -7795 0
-2146 7797 0
-7796 7797 0
-2146 -7796 0
-2147 7798 0
-7797 7798 0
-2147 -7797 0
-2148 7799 0
-7798 7799 0
-2148 -7798 0
-2149 7800 0
-7799 7800 0
-2149 -7799 0
-2150 7801 0
-7800 7801 0
-2150 -7800 0
-2151 7802 0
-7801 7802 0
-2151 -7801 0
-2152 7803 0
-7802 7803 0
-2152 -7802 0
-2153 7804 0
-7803 7804 0
-2153 -7803 0
-2154 7805 0
-7804 7805 0
-2154 -7804 0
-2155 7806 0
-7805 7806 0
-2155 -7805 0
-2156 7807 0
-7806 7807 0
-2156 -7806 0
-2157 7808 0
-7807 7808 0
-2157 -7807 0
-2158 7809 0
-7808 7809 0
-2158 -7808 0
-2159 7810 0
-7809 7810 0
-2159 -7809 0
-2160 7811 0
-7810 7811 0
-2160 -7810 0
-2161 7812 0
-7811 7812 0
-2161 -7811 0
-2162 7813 0
-7812 7813 0
-2162 -7812 0
-2163 7814 0
-7813 7814 0
-2163 -7813 0
-2164 7815 0
-7814 7815 0
-2164 -7814 0
-2165 7816 0
-7815 7816 0
-2165 -7815 0
-2166 7817 0
-7816 7817 0
-2166 -7816 0
-2167 7818 0
-7817 7818 0
-2167 -7817 0
-2168 7819 0
-7818 7819 0
-2168 -7818 0
-2169 7820 0
-7819 7820 0
-2169 -7819 0
-2170 7821 0
-7820 7821 0
-2170 -7820 0
-2171 7822 0
-7821 7822 0
-2171 -7821 0
-2172 7823 0
-7822 7823 0
-2172 -7822 0
-2173 7824 0
-7823 7824 0
-2173 -7823 0
-2174 7825 0
-7824 7825 0
-2174 -7824 0
-2175 7826 0
-7825 7826 0
-2175 -7825 0
-2176 7827 0
-7826 7827 0
-2176 -7826 0
-2177 7828 0
-7827 7828 0
-2177 -7827 0
-2178 7829 0
-7828 7829 0
-2178 -7828 0
-2179 7830 0
-7829 7830 0
-2179 -7829 0
-2180 7831 0
-7830 7831 0
-2180 -7830 0
-2181 7832 0
-7831 7832 0
-2181 -7831 0
-2182 7833 0
-7832 7833 0
-2182 -7832 0
-2183 7834 0
-7833 7834 0
-2183 -7833 0
-2184 7835 0
-7834 7835 0
-2184 -7834 0
-2185 7836 0
-7835 7836 0
-2185 -7835 0
-2186 7837 0
-7836 7837 0
-2186 -7836 0
-2187 -7837 0
10 73 136 440 501 561 621 1132 1192 1248 1304 1584 1640 1696 1752 2188 2189 2190 2191 2192 2193 2194 2195 2196 2197 2198 2199 2200 2201 2202 2203 2204 2205 2206 2207 2208 2209 2210 2211 2212 2213 2214 2215 2216 2217 2218 2219 2220 2221 2222 2223 2224 2225 2226 2227 2228 2229 2230 2231 2232 2233 2234 2235 0
-10 7838 0
-73 7839 0
-7838 7839 0
-73 -7838 0
-136 7840 0
-7839 7840 0
-136 -7839 0
-440 7841 0
-7840 7841 0
-440 -7840 0
-501 7842 0
-7841 7842 0
-501 -7841 0
-561 7843 0
-7842 7843 0
-561 -7842 0
-621 7844 0
-7843 7844 0
-621 -7843 0
-1132 7845 0
-7844 7845 0
-1132 -7844 0
-1192 7846 0
-7845 7846 0
-1192 -7845 0
-1248 7847 0
-7846 7847 0
-1248 -7846 0
-1304 7848 0
-7847 7848 0
-1304 -7847 0
-1584 7849 0
-7848 7849 0
-1584 -7848 0
-1640 7850 0
-7849 7850 0
-1640 -7849 0
-1696 7851 0
-7850 7851 0
-1696 -7850 0
-1752 7852 0
-7851 7852 0
-1752 -7851 0
-2188 7853 0
-7852 7853 0
-2188 -7852 0
-2189 7854 0
-7853 7854 0
-2189 -7853 0
-2190 7855 0
-7854 7855 0
-2190 -7854 0
-2191 7856 0
-7855 7856 0
-2191 -7855 0
-2192 7857 0
-7856 7857 0
-2192 -7856 0
-2193 7858 0
-7857 7858 0
-2193 -7857 0
-2194 7859 0
-7858 7859 0
-2194 -7858 0
-2195 7860 0
-7859 7860 0
-2195 -7859 0
-2196 7861 0
-7860 7861 0
-2196 -7860 0
-2197 7862 0
-7861 7862 0
-2197 -7861 0
-2198 7863 0
-7862 7863 0
-2198 -7862 0
-2199 7864 0
-7863 7864 0
-2199 -7863 0
-2200 7865 0
-7864 7865 0
-2200 -7864 0
-2201 7866 0
-7865 7866 0
-2201 -7865 0
-2202 7867 0
-7866 7867 0
-2202 -7866 0
-2203 7868 0
-7867 7868 0
-2203 -7867 0
-2204 7869 0
-7868 7869 0
-2204 -7868 0
-2205 7870 0
-7869 7870 0
-2205 -7869 0
-2206 7871 0
-7870 7871 0
-2206 -7870 0
-2207 7872 0
-7871 7872 0
-2207 -7871 0
-2208 7873 0
-7872 7873 0
-2208 -7872 0
-2209 7874 0
-7873 7874 0
-2209 -7873 0
-2210 7875 0
-7874 7875 0
-2210 -7874 0
-2211 7876 0
-7875 7876 0
-2211 -7875 0
-2212 7877 0
-7876 7877 0
-2212 -7876 0
-2213 7878 0
-7877 7878 0
-2213 -7877 0
-2214 7879 0
-7878 7879 0
-2214 -7878 0
-2215 7880 0
-7879 7880 0
-2215 -7879 0
-2216 7881 0
-7880 7881 0
-2216 -7880 0
-2217 7882 0
-7881 7882 0
-2217 -7881 0
-2218 7883 0
-7882 7883 0
-2218 -7882 0
-2219 7884 0
-7883 7884 0
-2219 -7883 0
-2220 7885 0
-7884 7885 0
-2220 -7884 0
-2221 7886 0
-7885 7886 0
-2221 -7885 0
-2222 7887 0
-7886 7887 0
-2222 -7886 0
-2223 7888 0
-7887 7888 0
-2223 -7887 0
-2224 7889 0
-7888 7889 0
-2224 -7888 0
-2225 7890 0
-7889 7890 0
-2225 -7889 0
-2226 7891 0
-7890 7891 0
-2226 -7890 0
-2227 7892 0
-7891 7892 0
-2227 -7891 0
-2228 7893 0
-7892 7893 0
-2228 -7892 0
-2229 7894 0
-7893 7894 0
-2229 -7893 0
-2230 7895 0
-7894 7895 0
-2230 -7894 0
-2231 7896 0
-7895 7896 0
-2231 -7895 0
-2232 7897 0
-7896 7897 0
-2232 -7896 0
-2233 7898 0
-7897 7898 0
-2233 -7897 0
-2234 7899 0
-7898 7899 0
-2234 -7898 0
-2235 -7899 0
10 320 382 441 500 803 863 1024 1080 1133 1193 1472 1528 1585 1641 2236 2237 2238 2239 2240 2241 2242 2243 2244 2245 2246 2247 2248 2249 2250 2251 2252 2253 2254 2255 2256 2257 2258 2259 2260 2261 2262 2263 2264 2265 2266 2267 2268 2269 2270 2271 2272 2273 2274 2275 2276 2277 2278 2279 2280 2281 2282 2283 0
-10 7900 0
-320 7901 0
-7900 7901 0
-320 -7900 0
-382 7902 0
-7901 7902 0
-382 -7901 0
-441 7903 0
-7902 7903 0
-441 -7902 0
-500 7904 0
-7903 7904 0
-500 -7903 0
-803 7905 0
-7904 7905 0
-803 -7904 0
-863 7906 0
-7905 7906 0
-863 -7905 0
-1024 7907 0
-7906 7907 0
-1024 -7906 0
-1080 7908 0
-7907 7908 0
-1080 -7907 0
-1133 7909 0
-7908 7909 0
-1133 -7908 0
-1193 7910 0
-7909 7910 0
-1193 -7909 0
-1472 7911 0
-7910 7911 0
-1472 -7910 0
-1528 7912 0
-7911 7912 0
-1528 -7911 0
-1585 7913 0
-7912 7913 0
-1585 -7912 0
-1641 7914 0
-7913 7914 0
-1641 -7913 0
-2236 7915 0
-7914 7915 0
-2236 -7914 0
-2237 7916 0
-7915 7916 0
-2237 -7915 0
-2238 7917 0
-7916 7917 0
-2238 -7916 0
-2239 7918 0
-7917 7918 0
-2239 -7917 0
-2240 7919 0
-7918 7919 0
-2240 -7918 0
-2241 7920 0
-7919 7920 0
-2241 -7919 0
-2242 7921 0
-7920 7921 0
-2242 -7920 0
-2243 7922 0
-7921 7922 0
-2243 -7921 0
-2244 7923 0
-7922 7923 0
-2244 -7922 0
-2245 7924 0
-7923 7924 0
-2245 -7923 0
-2246 7925 0
-7924 7925 0
-2246 -7924 0
-2247 7926 0
-7925 7926 0
-2247 -7925 0
-2248 7927 0
-7926 7927 0
-2248 -7926 0
-2249 7928 0
-7927 7928 0
-2249 -7927 0
-2250 7929 0
-7928 7929 0
-2250 -7928 0
-2251 7930 0
-7929 7930 0
-2251 -7929 0
-2252 7931 0
-7930 7931 0
-2252 -7930 0
-2253 7932 0
-7931 7932 0
-2253 -7931 0
-2254 7933 0
-7932 7933 0
-2254 -7932 0
-2255 7934 0
-7933 7934 0
-2255 -7933 0
-2256 7935 0
-7934 7935 0
-2256 -7934 0
-2257 7936 0
-7935 7936 0
-2257 -7935 0
-2258 7937 0
-7936 7937 0
-2258 -7936 0
-2259 7938 0
-7937 7938 0
-2259 -7937 0
-2260 7939 0
-7938 7939 0
-2260 -7938 0
-2261 7940 0
-7939 7940 0
-2261 -7939 0
-2262 7941 0
-7940 7941 0
-2262 -7940 0
-2263 7942 0
-7941 7942 0
-2263 -7941 0
-2264 7943 0
-7942 7943 0
-2264 -7942 0
-2265 7944 0
-7943 7944 0
-2265 -7943 0
-2266 7945 0
-7944 7945 0
-2266 -7944 0
-2267 7946 0
-7945 7946 0
-2267 -7945 0
-2268 7947 0
-7946 7947 0
-2268 -7946 0
-2269 7948 0
-7947 7948 0
-2269 -7947 0
-2270 7949 0
-7948 7949 0
-2270 -7948 0
-2271 7950 0
-7949 7950 0
-2271 -7949 0
-2272 7951 0
-7950 7951 0
-2272 -7950 0
-2273 7952 0
-7951 7952 0
-2273 -7951 0
-2274 7953 0
-7952 7953 0
-2274 -7952 0
-2275 7954 0
-7953 7954 0
-2275 -7953 0
-2276 7955 0
-7954 7955 0
-2276 -7954 0
-2277 7956 0
-7955 7956 0
-2277 -7955 0
-2278 7957 0
-7956 7957 0
-2278 -7956 0
-2279 7958 0
-7957 7958 0
-2279 -7957 0
-2280 7959 0
-7958 7959 0
-2280 -7958 0
-2281 7960 0
-7959 7960 0
-2281 -7959 0
-2282 7961 0
-7960 7961 0
-2282 -7960 0
-2283 -7961 0
73 258 383 442 560 743 862 968 1081 1134 1249 1416 1529 1586 1697 2284 2285 2286 2287 2288 2289 2290 2291 2292 2293 2294 2295 2296 2297 2298 2299 2300 2301 2302 2303 2304 2305 2306 2307 2308 2309 2310 2311 2312 2313 2314 2315 2316 2317 2318 2319 2320 2321 2322 2323 2324 2325 2326 2327 2328 2329 2330 2331 0
-73 7962 0
-258 7963 0
-7962 7963 0
-258 -7962 0
-383 7964 0
-7963 7964 0
-383 -7963 0
-442 7965 0
-7964 7965 0
-442 -7964 0
-560 7966 0
-7965 7966 0
-560 -7965 0
-743 7967 0
-7966 7967 0
-743 -7966 0
-862 7968 0
-7967 7968 0
-862 -7967 0
-968 7969 0
-7968 7969 0
-968 -7968 0
-1081 7970 0
-7969 7970 0
-1081 -7969 0
-1134 7971 0
-7970 7971 0
-1134 -7970 0
-1249 7972 0
-7971 7972 0
-1249 -7971 0
-1416 7973 0
-7972 7973 0
-1416 -7972 0
-1529 7974 0
-7973 7974 0
-1529 -7973 0
-1586 7975 0
-7974 7975 0
-1586 -7974 0
-1697 7976 0
-7975 7976 0
-1697 -7975 0
-2284 7977 0
-7976 7977 0
-2284 -7976 0
-2285 7978 0
-7977 7978 0
-2285 -7977 0
-2286 7979 0
-7978 7979 0
-2286 -7978 0
-2287 7980 0
-7979 7980 0
-2287 -7979 0
-2288 7981 0
-7980 7981 0
-2288 -7980 0
-2289 7982 0
-7981 7982 0
-2289 -7981 0
-2290 7983 0
-7982 7983 0
-2290 -7982 0
-2291 7984 0
-7983 7984 0
-2291 -7983 0
-2292 7985 0
-7984 7985 0
-2292 -7984 0
-2293 7986 0
-7985 7986 0
-2293 -7985 0
-2294 7987 0
-7986 7987 0
-2294 -7986 0
-2295 7988 0
-7987 7988 0
-2295 -7987 0
-2296 7989 0
-7988 7989 0
-2296 -7988 0
-2297 7990 0
-7989 7990 0
-2297 -7989 0
-2298 7991 0
-7990 7991 0
-2298 -7990 0
-2299 7992 0
-7991 7992 0
-2299 -7991 0
-2300 7993 0
-7992 7993 0
-2300 -7992 0
-2301 7994 0
-7993 7994 0
-2301 -7993 0
-2302 7995 0
-7994 7995 0
-2302 -7994 0
-2303 7996 0
-7995 7996 0
-2303 -7995 0
-2304 7997 0
-7996 7997 0
-2304 -7996 0
-2305 7998 0
-7997 7998 0
-2305 -7997 0
-2306 7999 0
-7998 7999 0
-2306 -7998 0
-2307 8000 0
-7999 8000 0
-2307 -7999 0
-2308 8001 0
-8000 8001 0
-2308 -8000 0
-2309 8002 0
-8001 8002 0
-2309 -8001 0
-2310 8003 0
-8002 8003 0
-2310 -8002 0
-2311 8004 0
-8003 8004 0
-2311 -8003 0
-2312 8005 0
-8004 8005 0
-2312 -8004 0
-2313 8006 0
-8005 8006 0
-2313 -8005 0
-2314 8007 0
-8006 8007 0
-2314 -8006 0
-2315 8008 0
-8007 8008 0
-2315 -8007 0
-2316 8009 0
-8008 8009 0
-2316 -8008 0
-2317 8010 0
-8009 8010 0
-2317 -8009 0
-2318 8011 0
-8010 8011 0
-2318 -8010 0
-2319 8012 0
-8011 8012 0
-2319 -8011 0
-2320 8013 0
-8012 8013 0
-2320 -8012 0
-2321 8014 0
-8013 8014 0
-2321 -8013 0
-2322 8015 0
-8014 8015 0
-2322 -8014 0
-2323 8016 0
-8015 8016 0
-2323 -8015 0
-2324 8017 0
-8016 8017 0
-2324 -8016 0
-2325 8018 0
-8017 8018 0
-2325 -8017 0
-2326 8019 0
-8018 8019 0
-2326 -8018 0
-2327 8020 0
-8019 8020 0
-2327 -8019 0
-2328 8021 0
-8020 8021 0
-2328 -8020 0
-2329 8022 0
-8021 8022 0
-2329 -8021 0
-2330 8023 0
-8022 8023 0
-2330 -8022 0
-2331 -8023 0
136 259 321 443 620 742 802 969 1025 1135 1305 1417 1473 1587 1753 2332 2333 2334 2335 2336 2337 2338 2339 2340 2341 2342 2343 2344 2345 2346 2347 2348 2349 2350 2351 2352 2353 2354 2355 2356 2357 2358 2359 2360 2361 2362 2363 2364 2365 2366 2367 2368 2369 2370 2371 2372 2373 2374 2375 2376 2377 2378 2379 0
-136 8024 0
-259 8025 0
-8024 8025 0
-259 -8024 0
-321 8026 0
-8025 8026 0
-321 -8025 0
-443 8027 0
-8026 8027 0
-443 -8026 0
-620 8028 0
-8027 8028 0
-620 -8027 0
-742 8029 0
-8028 8029 0
-742 -8028 0
-802 8030 0
-8029 8030 0
-802 -8029 0
-969 8031 0
-8030 8031 0
-969 -8030 0
-1025 8032 0
-8031 8032 0
-1025 -8031 0
-1135 8033 0
-8032 8033 0
-1135 -8032 0
-1305 8034 0
-8033 8034 0
-1305 -8033 0
-1417 8035 0
-8034 8035 0
-1417 -8034 0
-1473 8036 0
-8035 8036 0
-1473 -8035 0
-1587 8037 0
-8036 8037 0
-1587 -8036 0
-1753 8038 0
-8037 8038 0
-1753 -8037 0
-2332 8039 0
-8038 8039 0
-2332 -8038 0
-2333 8040 0
-8039 8040 0
-2333 -8039 0
-2334 8041 0
-8040 8041 0
-2334 -8040 0
-2335 8042 0
-8041 8042 0
-2335 -8041 0
-2336 8043 0
-8042 8043 0
-2336 -8042 0
-2337 8044 0
-8043 8044 0
-2337 -8043 0
-2338 8045 0
-8044 8045 0
-2338 -8044 0
-2339 8046 0
-8045 8046 0
-2339 -8045 0
-2340 8047 0
-8046 8047 0
-2340 -8046 0
-2341 8048 0
-8047 8048 0
-2341 -8047 0
-2342 8049 0
-8048 8049 0
-2342 -8048 0
-2343 8050 0
-8049 8050 0
-2343 -8049 0
-2344 8051 0
-8050 8051 0
-2344 -8050 0
-2345 8052 0
-8051 8052 0
-2345 -8051 0
-2346 8053 0
-8052 8053 0
-2346 -8052 0
-2347 8054 0
-8053 8054 0
-2347 -8053 0
-2348 8055 0
-8054 8055 0
-2348 -8054 0
-2349 8056 0
-8055 8056 0
-2349 -8055 0
-2350 8057 0
-8056 8057 0
-2350 -8056 0
-2351 8058 0
-8057 8058 0
-2351 -8057 0
-2352 8059 0
-8058 8059 0
-2352 -8058 0
-2353 8060 0
-8059 8060 0
-2353 -8059 0
-2354 8061 0
-8060 8061 0
-2354 -8060 0
-2355 8062 0
-8061 8062 0
-2355 -8061 0
-2356 8063 0
-8062 8063 0
-2356 -8062 0
-2357 8064 0
-8063 8064 0
-2357 -8063 0
-2358 8065 0
-8064 8065 0
-2358 -8064 0
-2359 8066 0
-8065 8066 0
-2359 -8065 0
-2360 8067 0
-8066 8067 0
-2360 -8066 0
-2361 8068 0
-8067 8068 0
-2361 -8067 0
-2362 8069 0
-8068 8069 0
-2362 -8068 0
-2363 8070 0
-8069 8070 0
-2363 -8069 0
-2364 8071 0
-8070 8071 0
-2364 -8070 0
-2365 8072 0
-8071 8072 0
-2365 -8071 0
-2366 8073 0
-8072 8073 0
-2366 -8072 0
-2367 8074 0
-8073 8074 0
-2367 -8073 0
-2368 8075 0
-8074 8075 0
-2368 -8074 0
-2369 8076 0
-8075 8076 0
-2369 -8075 0
-2370 8077 0
-8076 8077 0
-2370 -8076 0
-2371 8078 0
-8077 8078 0
-2371 -8077 0
-2372 8079 0
-8078 8079 0
-2372 -8078 0
-2373 8080 0
-8079 8080 0
-2373 -8079 0
-2374 8081 0
-8080 8081 0
-2374 -8080 0
-2375 8082 0
-8081 8082 0
-2375 -8081 0
-2376 8083 0
-8082 8083 0
-2376 -8082 0
-2377 8084 0
-8083 8084 0
-2377 -8083 0
-2378 8085 0
-8084 8085 0
-2378 -8084 0
-2379 -8085 0
11 74 137 680 741 801 861 1136 1194 1250 1306 1360 1418 1474 1530 2380 2381 2382 2383 2384 2385 2386 2387 2388 2389 2390 2391 2392 2393 2394 2395 2396 2397 2398 2399 2400 2401 2402 2403 2404 2405 2406 2407 2408 2409 2410 2411 2412 2413 2414 2415 2416 2417 2418 2419 2420 2421 2422 2423 2424 2425 2426 2427 0
-11 8086 0
-74 8087 0
-8086 8087 0
-74 -8086 0
-137 8088 0
-8087 8088 0
-137 -8087 0
-680 8089 0
-8088 8089 0
-680 -8088 0
-741 8090 0
-8089 8090 0
-741 -8089 0
-801 8091 0
-8090 8091 0
-801 -8090 0
-861 8092 0
-8091 8092 0
-861 -8091 0
-1136 8093 0
-8092 8093 0
-1136 -8092 0
-1194 8094 0
-8093 8094 0
-1194 -8093 0
-1250 8095 0
-8094 8095 0
-1250 -8094 0
-1306 8096 0
-8095 8096 0
-1306 -8095 0
-1360 8097 0
-8096 8097 0
-1360 -8096 0
-1418 8098 0
-8097 8098 0
-1418 -8097 0
-1474 8099 0
-8098 8099 0
-1474 -8098 0
-1530 8100 0
-8099 8100 0
-1530 -8099 0
-2380 8101 0
-8100 8101 0
-2380 -8100 0
-2381 8102 0
-8101 8102 0
-2381 -8101 0
-2382 8103 0
-8102 8103 0
-2382 -8102 0
-2383 8104 0
-8103 8104 0
-2383 -8103 0
-2384 8105 0
-8104 8105 0
-2384 -8104 0
-2385 8106 0
-8105 8106 0
-2385 -8105 0
-2386 8107 0
-8106 8107 0
-2386 -8106 0
-2387 8108 0
-8107 8108 0
-2387 -8107 0
-2388 8109 0
-8108 8109 0
-2388 -8108 0
-2389 8110 0
-8109 8110 0
-2389 -8109 0
-2390 8111 0
-8110 8111 0
-2390 -8110 0
-2391 8112 0
-8111 8112 0
-2391 -8111 0
-2392 8113 0
-8112 8113 0
-2392 -8112 0
-2393 8114 0
-8113 8114 0
-2393 -8113 0
-2394 8115 0
-8114 8115 0
-2394 -8114 0
-2395 8116 0
-8115 8116 0
-2395 -8115 0
-2396 8117 0
-8116 8117 0
-2396 -8116 0
-2397 8118 0
-8117 8118 0
-2397 -8117 0
-2398 8119 0
-8118 8119 0
-2398 -8118 0
-2399 8120 0
-8119 8120 0
-2399 -8119 0
-2400 8121 0
-8120 8121 0
-2400 -8120 0
-2401 8122 0
-8121 8122 0
-2401 -8121 0
-2402 8123 0
-8122 8123 0
-2402 -8122 0
-2403 8124 0
-8123 8124 0
-2403 -8123 0
-2404 8125 0
-8124 8125 0
-2404 -8124 0
-2405 8126 0
-8125 8126 0
-2405 -8125 0
-2406 8127 0
-8126 8127 0
-2406 -8126 0
-2407 8128 0
-8127 8128 0
-2407 -8127 0
-2408 8129 0
-8128 8129 0
-2408 -8128 0
-2409 8130 0
-8129 8130 0
-2409 -8129 0
-2410 8131 0
-8130 8131 0
-2410 -8130 0
-2411 8132 0
-8131 8132 0
-2411 -8131 0
-2412 8133 0
-8132 8133 0
-2412 -8132 0
-2413 8134 0
-8133 8134 0
-2413 -8133 0
-2414 8135 0
-8134 8135 0
-2414 -8134 0
-2415 8136 0
-8135 8136 0
-2415 -8135 0
-2416 8137 0
-8136 8137 0
-2416 -8136 0
-2417 8138 0
-8137 8138 0
-2417 -8137 0
-2418 8139 0
-8138 8139 0
-2418 -8138 0
-2419 8140 0
-8139 8140 0
-2419 -8139 0
-2420 8141 0
-8140 8141 0
-2420 -8140 0
-2421 8142 0
-8141 8142 0
-2421 -8141 0
-2422 8143 0
-8142 8143 0
-2422 -8142 0
-2423 8144 0
-8143 8144 0
-2423 -8143 0
-2424 8145 0
-8144 8145 0
-2424 -8144 0
-2425 8146 0
-8145 8146 0
-2425 -8145 0
-2426 8147 0
-8146 8147 0
-2426 -8146 0
-2427 -8147 0
11 321 383 563 623 681 740 1026 1082 1137 1195 1361 1419 1698 1754 2428 2429 2430 2431 2432 2433 2434 2435 2436 2437 2438 2439 2440 2441 2442 2443 2444 2445 2446 2447 2448 2449 2450 2451 2452 2453 2454 2455 2456 2457 2458 2459 2460 2461 2462 2463 2464 2465 2466 2467 2468 2469 2470 2471 2472 2473 2474 2475 0
-11 8148 0
-321 8149 0
-8148 8149 0
-321 -8148 0
-383 8150 0
-8149 8150 0
-383 -8149 0
-563 8151 0
-8150 8151 0
-563 -8150 0
-623 8152 0
-8151 8152 0
-623 -8151 0
-681 8153 0
-8152 8153 0
-681 -8152 0
-740 8154 0
-8153 8154 0
-740 -8153 0
-1026 8155 0
-8154 8155 0
-1026 -8154 0
-1082 8156 0
-8155 8156 0
-1082 -8155 0
-1137 8157 0
-8156 8157 0
-1137 -8156 0
-1195 8158 0
-8157 8158 0
-1195 -8157 0
-1361 8159 0
-8158 8159 0
-1361 -8158 0
-1419 8160 0
-8159 8160 0
-1419 -8159 0
-1698 8161 0
-8160 8161 0
-1698 -8160 0
-1754 8162 0
-8161 8162 0
-1754 -8161 0
-2428 8163 0
-8162 8163 0
-2428 -8162 0
-2429 8164 0
-8163 8164 0
-2429 -8163 0
-2430 8165 0
-8164 8165 0
-2430 -8164 0
-2431 8166 0
-8165 8166 0
-2431 -8165 0
-2432 8167 0
-8166 8167 0
-2432 -8166 0
-2433 8168 0
-8167 8168 0
-2433 -8167 0
-2434 8169 0
-8168 8169 0
-2434 -8168 0
-2435 8170 0
-8169 8170 0
-2435 -8169 0
-2436 8171 0
-8170 8171 0
-2436 -8170 0
-2437 8172 0
-8171 8172 0
-2437 -8171 0
-2438 8173 0
-8172 8173 0
-2438 -8172 0
-2439 8174 0
-8173 8174 0
-2439 -8173 0
-2440 8175 0
-8174 8175 0
-2440 -8174 0
-2441 8176 0
-8175 8176 0
-2441 -8175 0
-2442 8177 0
-8176 8177 0
-2442 -8176 0
-2443 8178 0
-8177 8178 0
-2443 -8177 0
-2444 8179 0
-8178 8179 0
-2444 -8178 0
-2445 8180 0
-8179 8180 0
-2445 -8179 0
-2446 8181 0
-8180 8181 0
-2446 -8180 0
-2447 8182 0
-8181 8182 0
-2447 -8181 0
-2448 8183 0
-8182 8183 0
-2448 -8182 0
-2449 8184 0
-8183 8184 0
-2449 -8183 0
-2450 8185 0
-8184 8185 0
-2450 -8184 0
-2451 8186 0
-8185 8186 0
-2451 -8185 0
-2452 8187 0
-8186 8187 0
-2452 -8186 0
-2453 8188 0
-8187 8188 0
-2453 -8187 0
-2454 8189 0
-8188 8189 0
-2454 -8188 0
-2455 8190 0
-8189 8190 0
-2455 -8189 0
-2456 8191 0
-8190 8191 0
-2456 -8190 0
-2457 8192 0
-8191 8192 0
-2457 -8191 0
-2458 8193 0
-8192 8193 0
-2458 -8192 0
-2459 8194 0
-8193 8194 0
-2459 -8193 0
-2460 8195 0
-8194 8195 0
-2460 -8194 0
-2461 8196 0
-8195 8196 0
-2461 -8195 0
-2462 8197 0
-8196 8197 0
-2462 -8196 0
-2463 8198 0
-8197 8198 0
-2463 -8197 0
-2464 8199 0
-8198 8199 0
-2464 -8198 0
-2465 8200 0
-8199 8200 0
-2465 -8199 0
-2466 8201 0
-8200 8201 0
-2466 -8200 0
-2467 8202 0
-8201 8202 0
-2467 -8201 0
-2468 8203 0
-8202 8203 0
-2468 -8202 0
-2469 8204 0
-8203 8204 0
-2469 -8203 0
-2470 8205 0
-8204 8205 0
-2470 -8204 0
-2471 8206 0
-8205 8206 0
-2471 -8205 0
-2472 8207 0
-8206 8207 0
-2472 -8206 0
-2473 8208 0
-8207 8208 0
-2473 -8207 0
-2474 8209 0
-8208 8209 0
-2474 -8208 0
-2475 -8209 0
74 259 382 503 622 682 800 970 1083 1138 1251 1362 1475 1642 1755 2476 2477 2478 2479 2480 2481 2482 2483 2484 2485 2486 2487 2488 2489 2490 2491 2492 2493 2494 2495 2496 2497 2498 2499 2500 2501 2502 2503 2504 2505 2506 2507 2508 2509 2510 2511 2512 2513 2514 2515 2516 2517 2518 2519 2520 2521 2522 2523 0
-74 8210 0
-259 8211 0
-8210 8211 0
-259 -8210 0
-382 8212 0
-8211 8212 0
-382 -8211 0
-503 8213 0
-8212 8213 0
-503 -8212 0
-622 8214 0
-8213 8214 0
-622 -8213 0
-682 8215 0
-8214 8215 0
-682 -8214 0
-800 8216 0
-8215 8216 0
-800 -8215 0
-970 8217 0
-8216 8217 0
-970 -8216 0
-1083 8218 0
-8217 8218 0
-1083 -8217 0
-1138 8219 0
-8218 8219 0
-1138 -8218 0
-1251 8220 0
-8219 8220 0
-1251 -8219 0
-1362 8221 0
-8220 8221 0
-1362 -8220 0
-1475 8222 0
-8221 8222 0
-1475 -8221 0
-1642 8223 0
-8222 8223 0
-1642 -8222 0
-1755 8224 0
-8223 8224 0
-1755 -8223 0
-2476 8225 0
-8224 8225 0
-2476 -8224 0
-2477 8226 0
-8225 8226 0
-2477 -8225 0
-2478 8227 0
-8226 8227 0
-2478 -8226 0
-2479 8228 0
-8227 8228 0
-2479 -8227 0
-2480 8229 0
-8228 8229 0
-2480 -8228 0
-2481 8230 0
-8229 8230 0
-2481 -8229 0
-2482 8231 0
-8230 8231 0
-2482 -8230 0
-2483 8232 0
-8231 8232 0
-2483 -8231 0
-2484 8233 0
-8232 8233 0
-2484 -8232 0
-2485 8234 0
-8233 8234 0
-2485 -8233 0
-2486 8235 0
-8234 8235 0
-2486 -8234 0
-2487 8236 0
-8235 8236 0
-2487 -8235 0
-2488 8237 0
-8236 8237 0
-2488 -8236 0
-2489 8238 0
-8237 8238 0
-2489 -8237 0
-2490 8239 0
-8238 8239 0
-2490 -8238 0
-2491 8240 0
-8239 8240 0
-2491 -8239 0
-2492 8241 0
-8240 8241 0
-2492 -8240 0
-2493 8242 0
-8241 8242 0
-2493 -8241 0
-2494 8243 0
-8242 8243 0
-2494 -8242 0
-2495 8244 0
-8243 8244 0
-2495 -8243 0
-2496 8245 0
-8244 8245 0
-2496 -8244 0
-2497 8246 0
-8245 8246 0
-2497 -8245 0
-2498 8247 0
-8246 8247 0
-2498 -8246 0
-2499 8248 0
-8247 8248 0
-2499 -8247 0
-2500 8249 0
-8248 8249 0
-2500 -8248 0
-2501 8250 0
-8249 8250 0
-2501 -8249 0
-2502 8251 0
-8250 8251 0
-2502 -8250 0
-2503 8252 0
-8251 8252 0
-2503 -8251 0
-2504 8253 0
-8252 8253 0
-2504 -8252 0
-2505 8254 0
-8253 8254 0
-2505 -8253 0
-2506 8255 0
-8254 8255 0
-2506 -8254 0
-2507 8256 0
-8255 8256 0
-2507 -8255 0
-2508 8257 0
-8256 8257 0
-2508 -8256 0
-2509 8258 0
-8257 8258 0
-2509 -8257 0
-2510 8259 0
-8258 8259 0
-2510 -8258 0
-2511 8260 0
-8259 8260 0
-2511 -8259 0
-2512 8261 0
-8260 8261 0
-2512 -8260 0
-2513 8262 0
-8261 8262 0
-2513 -8261 0
-2514 8263 0
-8262 8263 0
-2514 -8262 0
-2515 8264 0
-8263 8264 0
-2515 -8263 0
-2516 8265 0
-8264 8265 0
-2516 -8264 0
-2517 8266 0
-8265 8266 0
-2517 -8265 0
-2518 8267 0
-8266 8267 0
-2518 -8266 0
-2519 8268 0
-8267 8268 0
-2519 -8267 0
-2520 8269 0
-8268 8269 0
-2520 -8268 0
-2521 8270 0
-8269 8270 0
-2521 -8269 0
-2522 8271 0
-8270 8271 0
-2522 -8270 0
-2523 -8271 0
137 258 320 502 562 683 860 971 1027 1139 1307 1363 1531 1643 1699 2524 2525 2526 2527 2528 2529 2530 2531 2532 2533 2534 2535 2536 2537 2538 2539 2540 2541 2542 2543 2544 2545 2546 2547 2548 2549 2550 2551 2552 2553 2554 2555 2556 2557 2558 2559 2560 2561 2562 2563 2564 2565 2566 2567 2568 2569 2570 2571 0
-137 8272 0
-258 8273 0
-8272 8273 0
-258 -8272 0
-320 8274 0
-8273 8274 0
-320 -8273 0
-502 8275 0
-8274 8275 0
-502 -8274 0
-562 8276 0
-8275 8276 0
-562 -8275 0
-683 8277 0
-8276 8277 0
-683 -8276 0
-860 8278 0
-8277 8278 0
-860 -8277 0
-971 8279 0
-8278 8279 0
-971 -8278 0
-1027 8280 0
-8279 8280 0
-1027 -8279 0
-1139 8281 0
-8280 8281 0
-1139 -8280 0
-1307 8282 0
-8281 8282 0
-1307 -8281 0
-1363 8283 0
-8282 8283 0
-1363 -8282 0
-1531 8284 0
-8283 8284 0
-1531 -8283 0
-1643 8285 0
-8284 8285 0
-1643 -8284 0
-1699 8286 0
-8285 8286 0
-1699 -8285 0
-2524 8287 0
-8286 8287 0
-2524 -8286 0
-2525 8288 0
-8287 8288 0
-2525 -8287 0
-2526 8289 0
-8288 8289 0
-2526 -8288 0
-2527 8290 0
-8289 8290 0
-2527 -8289 0
-2528 8291 0
-8290 8291 0
-2528 -8290 0
-2529 8292 0
-8291 8292 0
-2529 -8291 0
-2530 8293 0
-8292 8293 0
-2530 -8292 0
-2531 8294 0
-8293 8294 0
-2531 -8293 0
-2532 8295 0
-8294 8295 0
-2532 -8294 0
-2533 8296 0
-8295 8296 0
-2533 -8295 0
-2534 8297 0
-8296 8297 0
-2534 -8296 0
-2535 8298 0
-8297 8298 0
-2535 -8297 0
-2536 8299 0
-8298 8299 0
-2536 -8298 0
-2537 8300 0
-8299 8300 0
-2537 -8299 0
-2538 8301 0
-8300 8301 0
-2538 -8300 0
-2539 8302 0
-8301 8302 0
-2539 -8301 0
-2540 8303 0
-8302 8303 0
-2540 -8302 0
-2541 8304 0
-8303 8304 0
-2541 -8303 0
-2542 8305 0
-8304 8305 0
-2542 -8304 0
-2543 8306 0
-8305 8306 0
-2543 -8305 0
-2544 8307 0
-8306 8307 0
-2544 -8306 0
-2545 8308 0
-8307 8308 0
-2545 -8307 0
-2546 8309 0
-8308 8309 0
-2546 -8308 0
-2547 8310 0
-8309 8310 0
-2547 -8309 0
-2548 8311 0
-8310 8311 0
-2548 -8310 0
-2549 8312 0
-8311 8312 0
-2549 -8311 0
-2550 8313 0
-8312 8313 0
-2550 -8312 0
-2551 8314 0
-8313 8314 0
-2551 -8313 0
-2552 8315 0
-8314 8315 0
-2552 -8314 0
-2553 8316 0
-8315 8316 0
-2553 -8315 0
-2554 8317 0
-8316 8317 0
-2554 -8316 0
-2555 8318 0
-8317 8318 0
-2555 -8317 0
-2556 8319 0
-8318 8319 0
-2556 -8318 0
-2557 8320 0
-8319 8320 0
-2557 -8319 0
-2558 8321 0
-8320 8321 0
-2558 -8320 0
-2559 8322 0
-8321 8322 0
-2559 -8321 0
-2560 8323 0
-8322 8323 0
-2560 -8322 0
-2561 8324 0
-8323 8324 0
-2561 -8323 0
-2562 8325 0
-8324 8325 0
-2562 -8324 0
-2563 8326 0
-8325 8326 0
-2563 -8325 0
-2564 8327 0
-8326 8327 0
-2564 -8326 0
-2565 8328 0
-8327 8328 0
-2565 -8327 0
-2566 8329 0
-8328 8329 0
-2566 -8328 0
-2567 8330 0
-8329 8330 0
-2567 -8329 0
-2568 8331 0
-8330 8331 0
-2568 -8330 0
-2569 8332 0
-8331 8332 0
-2569 -8331 0
-2570 8333 0
-8332 8333 0
-2570 -8332 0
-2571 -8333 0
12 75 138 198 260 322 384 444 504 564 624 684 744 804 864 2572 2573 2574 2575 2576 2577 2578 2579 2580 2581 2582 2583 2584 2585 2586 2587 2588 2589 2590 2591 2592 2593 2594 2595 2596 2597 2598 2599 2600 2601 2602 2603 2604 2605 2606 2607 2608 2609 2610 2611 2612 2613 2614 2615 2616 2617 2618 2619 0
-12 8334 0
-75 8335 0
-8334 8335 0
-75 -8334 0
-138 8336 0
-8335 8336 0
-138 -8335 0
-198 8337 0
-8336 8337 0
-198 -8336 0
-260 8338 0
-8337 8338 0
-260 -8337 0
-322 8339 0
-8338 8339 0
-322 -8338 0
-384 8340 0
-8339 8340 0
-384 -8339 0
-444 8341 0
-8340 8341 0
-444 -8340 0
-504 8342 0
-8341 8342 0
-504 -8341 0
-564 8343 0
-8342 8343 0
-564 -8342 0
-624 8344 0
-8343 8344 0
-624 -8343 0
-684 8345 0
-8344 8345 0
-684 -8344 0
-744 8346 0
-8345 8346 0
-744 -8345 0
-804 8347 0
-8346 8347 0
-804 -8346 0
-864 8348 0
-8347 8348 0
-864 -8347 0
-2572 8349 0
-8348 8349 0
-2572 -8348 0
-2573 8350 0
-8349 8350 0
-2573 -8349 0
-2574 8351 0
-8350 8351 0
-2574 -8350 0
-2575 8352 0
-8351 8352 0
-2575 -8351 0
-2576 8353 0
-8352 8353 0
-2576 -8352 0
-2577 8354 0
-8353 8354 0
-2577 -8353 0
-2578 8355 0
-8354 8355 0
-2578 -8354 0
-2579 8356 0
-8355 8356 0
-2579 -8355 0
-2580 8357 0
-8356 8357 0
-2580 -8356 0
-2581 8358 0
-8357 8358 0
-2581 -8357 0
-2582 8359 0
-8358 8359 0
-2582 -8358 0
-2583 8360 0
-8359 8360 0
-2583 -8359 0
-2584 8361 0
-8360 8361 0
-2584 -8360 0
-2585 8362 0
-8361 8362 0
-2585 -8361 0
-2586 8363 0
-8362 8363 0
-2586 -8362 0
-2587 8364 0
-8363 8364 0
-2587 -8363 0
-2588 8365 0
-8364 8365 0
-2588 -8364 0
-2589 8366 0
-8365 8366 0
-2589 -8365 0
-2590 8367 0
-8366 8367 0
-2590 -8366 0
-2591 8368 0
-8367 8368 0
-2591 -8367 0
-2592 8369 0
-8368 8369 0
-2592 -8368 0
-2593 8370 0
-8369 8370 0
-2593 -8369 0
-2594 8371 0
-8370 8371 0
-2594 -8370 0
-2595 8372 0
-8371 8372 0
-2595 -8371 0
-2596 8373 0
-8372 8373 0
-2596 -8372 0
-2597 8374 0
-8373 8374 0
-2597 -8373 0
-2598 8375 0
-8374 8375 0
-2598 -8374 0
-2599 8376 0
-8375 8376 0
-2599 -8375 0
-2600 8377 0
-8376 8377 0
-2600 -8376 0
-2601 8378 0
-8377 8378 0
-2601 -8377 0
-2602 8379 0
-8378 8379 0
-2602 -8378 0
-2603 8380 0
-8379 8380 0
-2603 -8379 0
-2604 8381 0
-8380 8381 0
-2604 -8380 0
-2605 8382 0
-8381 8382 0
-2605 -8381 0
-2606 8383 0
-8382 8383 0
-2606 -8382 0
-2607 8384 0
-8383 8384 0
-2607 -8383 0
-2608 8385 0
-8384 8385 0
-2608 -8384 0
-2609 8386 0
-8385 8386 0
-2609 -8385 0
-2610 8387 0
-8386 8387 0
-2610 -8386 0
-2611 8388 0
-8387 8388 0
-2611 -8387 0
-2612 8389 0
-8388 8389 0
-2612 -8388 0
-2613 8390 0
-8389 8390 0
-2613 -8389 0
-2614 8391 0
-8390 8391 0
-2614 -8390 0
-2615 8392 0
-8391 8392 0
-2615 -8391 0
-2616 8393 0
-8392 8393 0
-2616 -8392 0
-2617 8394 0
-8393 8394 0
-2617 -8393 0
-2618 8395 0
-8394 8395 0
-2618 -8394 0
-2619 -8395 0
12 199 261 445 505 685 745 1021 1077 1247 1303 1473 1529 1699 1755 2620 2621 2622 2623 2624 2625 2626 2627 2628 2629 2630 2631 2632 2633 2634 2635 2636 2637 2638 2639 2640 2641 2642 2643 2644 2645 2646 2647 2648 2649 2650 2651 2652 2653 2654 2655 2656 2657 2658 2659 2660 2661 2662 2663 2664 2665 2666 2667 0
-12 8396 0
-199 8397 0
-8396 8397 0
-199 -8396 0
-261 8398 0
-8397 8398 0
-261 -8397 0
-445 8399 0
-8398 8399 0
-445 -8398 0
-505 8400 0
-8399 8400 0
-505 -8399 0
-685 8401 0
-8400 8401 0
-685 -8400 0
-745 8402 0
-8401 8402 0
-745 -8401 0
-1021 8403 0
-8402 8403 0
-1021 -8402 0
-1077 8404 0
-8403 8404 0
-1077 -8403 0
-1247 8405 0
-8404 8405 0
-1247 -8404 0
-1303 8406 0
-8405 8406 0
-1303 -8405 0
-1473 8407 0
-8406 8407 0
-1473 -8406 0
-1529 8408 0
-8407 8408 0
-1529 -8407 0
-1699 8409 0
-8408 8409 0
-1699 -8408 0
-1755 8410 0
-8409 8410 0
-1755 -8409 0
-2620 8411 0
-8410 8411 0
-2620 -8410 0
-2621 8412 0
-8411 8412 0
-2621 -8411 0
-2622 8413 0
-8412 8413 0
-2622 -8412 0
-2623 8414 0
-8413 8414 0
-2623 -8413 0
-2624 8415 0
-8414 8415 0
-2624 -8414 0
-2625 8416 0
-8415 8416 0
-2625 -8415 0
-2626 8417 0
-8416 8417 0
-2626 -8416 0
-2627 8418 0
-8417 8418 0
-2627 -8417 0
-2628 8419 0
-8418 8419 0
-2628 -8418 0
-2629 8420 0
-8419 8420 0
-2629 -8419 0
-2630 8421 0
-8420 8421 0
-2630 -8420 0
-2631 8422 0
-8421 8422 0
-2631 -8421 0
-2632 8423 0
-8422 8423 0
-2632 -8422 0
-2633 8424 0
-8423 8424 0
-2633 -8423 0
-2634 8425 0
-8424 8425 0
-2634 -8424 0
-2635 8426 0
-8425 8426 0
-2635 -8425 0
-2636 8427 0
-8426 8427 0
-2636 -8426 0
-2637 8428 0
-8427 8428 0
-2637 -8427 0
-2638 8429 0
-8428 8429 0
-2638 -8428 0
-2639 8430 0
-8429 8430 0
-2639 -8429 0
-2640 8431 0
-8430 8431 0
-2640 -8430 0
-2641 8432 0
-8431 8432 0
-2641 -8431 0
-2642 8433 0
-8432 8433 0
-2642 -8432 0
-2643 8434 0
-8433 8434 0
-2643 -8433 0
-2644 8435 0
-8434 8435 0
-2644 -8434 0
-2645 8436 0
-8435 8436 0
-2645 -8435 0
-2646 8437 0
-8436 8437 0
-2646 -8436 0
-2647 8438 0
-8437 8438 0
-2647 -8437 0
-2648 8439 0
-8438 8439 0
-2648 -8438 0
-2649 8440 0
-8439 8440 0
-2649 -8439 0
-2650 8441 0
-8440 8441 0
-2650 -8440 0
-2651 8442 0
-8441 8442 0
-2651 -8441 0
-2652 8443 0
-8442 8443 0
-2652 -8442 0
-2653 8444 0
-8443 8444 0
-2653 -8443 0
-2654 8445 0
-8444 8445 0
-2654 -8444 0
-2655 8446 0
-8445 8446 0
-2655 -8445 0
-2656 8447 0
-8446 8447 0
-2656 -8446 0
-2657 8448 0
-8447 8448 0
-2657 -8447 0
-2658 8449 0
-8448 8449 0
-2658 -8448 0
-2659 8450 0
-8449 8450 0
-2659 -8449 0
-2660 8451 0
-8450 8451 0
-2660 -8450 0
-2661 8452 0
-8451 8452 0
-2661 -8451 0
-2662 8453 0
-8452 8453 0
-2662 -8452 0
-2663 8454 0
-8453 8454 0
-2663 -8453 0
-2664 8455 0
-8454 8455 0
-2664 -8454 0
-2665 8456 0
-8455 8456 0
-2665 -8455 0
-2666 8457 0
-8456 8457 0
-2666 -8456 0
-2667 -8457 0
75 200 323 446 565 686 805 965 1076 1191 1302 1417 1528 1643 1754 2668 2669 2670 2671 2672 2673 2674 2675 2676 2677 2678 2679 2680 2681 2682 2683 2684 2685 2686 2687 2688 2689 2690 2691 2692 2693 2694 2695 2696 2697 2698 2699 2700 2701 2702 2703 2704 2705 2706 2707 2708 2709 2710 2711 2712 2713 2714 2715 0
-75 8458 0
-200 8459 0
-8458 8459 0
-200 -8458 0
-323 8460 0
-8459 8460 0
-323 -8459 0
-446 8461 0
-8460 8461 0
-446 -8460 0
-565 8462 0
-8461 8462 0
-565 -8461 0
-686 8463 0
-8462 8463 0
-686 -8462 0
-805 8464 0
-8463 8464 0
-805 -8463 0
-965 8465 0
-8464 8465 0
-965 -8464 0
-1076 8466 0
-8465 8466 0
-1076 -8465 0
-1191 8467 0
-8466 8467 0
-1191 -8466 0
-1302 8468 0
-8467 8468 0
-1302 -8467 0
-1417 8469 0
-8468 8469 0
-1417 -8468 0
-1528 8470 0
-8469 8470 0
-1528 -8469 0
-1643 8471 0
-8470 8471 0
-1643 -8470 0
-1754 8472 0
-8471 8472 0
-1754 -8471 0
-2668 8473 0
-8472 8473 0
-2668 -8472 0
-2669 8474 0
-8473 8474 0
-2669 -8473 0
-2670 8475 0
-8474 8475 0
-2670 -8474 0
-2671 8476 0
-8475 8476 0
-2671 -8475 0
-2672 8477 0
-8476 8477 0
-2672 -8476 0
-2673 8478 0
-8477 8478 0
-2673 -8477 0
-2674 8479 0
-8478 8479 0
-2674 -8478 0
-2675 8480 0
-8479 8480 0
-2675 -8479 0
-2676 8481 0
-8480 8481 0
-2676 -8480 0
-2677 8482 0
-8481 8482 0
-2677 -8481 0
-2678 8483 0
-8482 8483 0
-2678 -8482 0
-2679 8484 0
-8483 8484 0
-2679 -8483 0
-2680 8485 0
-8484 8485 0
-2680 -8484 0
-2681 8486 0
-8485 8486 0
-2681 -8485 0
-2682 8487 0
-8486 8487 0
-2682 -8486 0
-2683 8488 0
-8487 8488 0
-2683 -8487 0
-2684 8489 0
-8488 8489 0
-2684 -8488 0
-2685 8490 0
-8489 8490 0
-2685 -8489 0
-2686 8491 0
-8490 8491 0
-2686 -8490 0
-2687 8492 0
-8491 8492 0
-2687 -8491 0
-2688 8493 0
-8492 8493 0
-2688 -8492 0
-2689 8494 0
-8493 8494 0
-2689 -8493 0
-2690 8495 0
-8494 8495 0
-2690 -8494 0
-2691 8496 0
-8495 8496 0
-2691 -8495 0
-2692 8497 0
-8496 8497 0
-2692 -8496 0
-2693 8498 0
-8497 8498 0
-2693 -8497 0
-2694 8499 0
-8498 8499 0
-2694 -8498 0
-2695 8500 0
-8499 8500 0
-2695 -8499 0
-2696 8501 0
-8500 8501 0
-2696 -8500 0
-2697 8502 0
-8501 8502 0
-2697 -8501 0
-2698 8503 0
-8502 8503 0
-2698 -8502 0
-2699 8504 0
-8503 8504 0
-2699 -8503 0
-2700 8505 0
-8504 8505 0
-2700 -8504 0
-2701 8506 0
-8505 8506 0
-2701 -8505 0
-2702 8507 0
-8506 8507 0
-2702 -8506 0
-2703 8508 0
-8507 8508 0
-2703 -8507 0
-2704 8509 0
-8508 8509 0
-2704 -8508 0
-2705 8510 0
-8509 8510 0
-2705 -8509 0
-2706 8511 0
-8510 8511 0
-2706 -8510 0
-2707 8512 0
-8511 8512 0
-2707 -8511 0
-2708 8513 0
-8512 8513 0
-2708 -8512 0
-2709 8514 0
-8513 8514 0
-2709 -8513 0
-2710 8515 0
-8514 8515 0
-2710 -8514 0
-2711 8516 0
-8515 8516 0
-2711 -8515 0
-2712 8517 0
-8516 8517 0
-2712 -8516 0
-2713 8518 0
-8517 8518 0
-2713 -8517 0
-2714 8519 0
-8518 8519 0
-2714 -8518 0
-2715 -8519 0
138 201 385 447 625 687 865 964 1020 1190 1246 1416 1472 1642 1698 2716 2717 2718 2719 2720 2721 2722 2723 2724 2725 2726 2727 2728 2729 2730 2731 2732 2733 2734 2735 2736 2737 2738 2739 2740 2741 2742 2743 2744 2745 2746 2747 2748 2749 2750 2751 2752 2753 2754 2755 2756 2757 2758 2759 2760 2761 2762 2763 0
-138 8520 0
-201 8521 0
-8520 8521 0
-201 -8520 0
-385 8522 0
-8521 8522 0
-385 -8521 0
-447 8523 0
-8522 8523 0
-447 -8522 0
-625 8524 0
-8523 8524 0
-625 -8523 0
-687 8525 0
-8524 8525 0
-687 -8524 0
-865 8526 0
-8525 8526 0
-865 -8525 0
-964 8527 0
-8526 8527 0
-964 -8526 0
-1020 8528 0
-8527 8528 0
-1020 -8527 0
-1190 8529 0
-8528 8529 0
-1190 -8528 0
-1246 8530 0
-8529 8530 0
-1246 -8529 0
-1416 8531 0
-8530 8531 0
-1416 -8530 0
-1472 8532 0
-8531 8532 0
-1472 -8531 0
-1642 8533 0
-8532 8533 0
-1642 -8532 0
-1698 8534 0
-8533 8534 0
-1698 -8533 0
-2716 8535 0
-8534 8535 0
-2716 -8534 0
-2717 8536 0
-8535 8536 0
-2717 -8535 0
-2718 8537 0
-8536 8537 0
-2718 -8536 0
-2719 8538 0
-8537 8538 0
-2719 -8537 0
-2720 8539 0
-8538 8539 0
-2720 -8538 0
-2721 8540 0
-8539 8540 0
-2721 -8539 0
-2722 8541 0
-8540 8541 0
-2722 -8540 0
-2723 8542 0
-8541 8542 0
-2723 -8541 0
-2724 8543 0
-8542 8543 0
-2724 -8542 0
-2725 8544 0
-8543 8544 0
-2725 -8543 0
-2726 8545 0
-8544 8545 0
-2726 -8544 0
-2727 8546 0
-8545 8546 0
-2727 -8545 0
-2728 8547 0
-8546 8547 0
-2728 -8546 0
-2729 8548 0
-8547 8548 0
-2729 -8547 0
-2730 8549 0
-8548 8549 0
-2730 -8548 0
-2731 8550 0
-8549 8550 0
-2731 -8549 0
-2732 8551 0
-8550 8551 0
-2732 -8550 0
-2733 8552 0
-8551 8552 0
-2733 -8551 0
-2734 8553 0
-8552 8553 0
-2734 -8552 0
-2735 8554 0
-8553 8554 0
-2735 -8553 0
-2736 8555 0
-8554 8555 0
-2736 -8554 0
-2737 8556 0
-8555 8556 0
-2737 -8555 0
-2738 8557 0
-8556 8557 0
-2738 -8556 0
-2739 8558 0
-8557 8558 0
-2739 -8557 0
-2740 8559 0
-8558 8559 0
-2740 -8558 0
-2741 8560 0
-8559 8560 0
-2741 -8559 0
-2742 8561 0
-8560 8561 0
-2742 -8560 0
-2743 8562 0
-8561 8562 0
-2743 -8561 0
-2744 8563 0
-8562 8563 0
-2744 -8562 0
-2745 8564 0
-8563 8564 0
-2745 -8563 0
-2746 8565 0
-8564 8565 0
-2746 -8564 0
-2747 8566 0
-8565 8566 0
-2747 -8565 0
-2748 8567 0
-8566 8567 0
-2748 -8566 0
-2749 8568 0
-8567 8568 0
-2749 -8567 0
-2750 8569 0
-8568 8569 0
-2750 -8568 0
-2751 8570 0
-8569 8570 0
-2751 -8569 0
-2752 8571 0
-8570 8571 0
-2752 -8570 0
-2753 8572 0
-8571 8572 0
-2753 -8571 0
-2754 8573 0
-8572 8573 0
-2754 -8572 0
-2755 8574 0
-8573 8574 0
-2755 -8573 0
-2756 8575 0
-8574 8575 0
-2756 -8574 0
-2757 8576 0
-8575 8576 0
-2757 -8575 0
-2758 8577 0
-8576 8577 0
-2758 -8576 0
-2759 8578 0
-8577 8578 0
-2759 -8577 0
-2760 8579 0
-8578 8579 0
-2760 -8578 0
-2761 8580 0
-8579 8580 0
-2761 -8579 0
-2762 8581 0
-8580 8581 0
-2762 -8580 0
-2763 -8581 0
13 76 139 198 261 323 385 1360 1419 1475 1531 1584 1641 1697 1753 2764 2765 2766 2767 2768 2769 2770 2771 2772 2773 2774 2775 2776 2777 2778 2779 2780 2781 2782 2783 2784 2785 2786 2787 2788 2789 2790 2791 2792 2793 2794 2795 2796 2797 2798 2799 2800 2801 2802 2803 2804 2805 2806 2807 2808 2809 2810 2811 0
-13 8582 0
-76 8583 0
-8582 8583 0
-76 -8582 0
-139 8584 0
-8583 8584 0
-139 -8583 0
-198 8585 0
-8584 8585 0
-198 -8584 0
-261 8586 0
-8585 8586 0
-261 -8585 0
-323 8587 0
-8586 8587 0
-323 -8586 0
-385 8588 0
-8587 8588 0
-385 -8587 0
-1360 8589 0
-8588 8589 0
-1360 -8588 0
-1419 8590 0
-8589 8590 0
-1419 -8589 0
-1475 8591 0
-8590 8591 0
-1475 -8590 0
-1531 8592 0
-8591 8592 0
-1531 -8591 0
-1584 8593 0
-8592 8593 0
-1584 -8592 0
-1641 8594 0
-8593 8594 0
-1641 -8593 0
-1697 8595 0
-8594 8595 0
-1697 -8594 0
-1753 8596 0
-8595 8596 0
-1753 -8595 0
-2764 8597 0
-8596 8597 0
-2764 -8596 0
-2765 8598 0
-8597 8598 0
-2765 -8597 0
-2766 8599 0
-8598 8599 0
-2766 -8598 0
-2767 8600 0
-8599 8600 0
-2767 -8599 0
-2768 8601 0
-8600 8601 0
-2768 -8600 0
-2769 8602 0
-8601 8602 0
-2769 -8601 0
-2770 8603 0
-8602 8603 0
-2770 -8602 0
-2771 8604 0
-8603 8604 0
-2771 -8603 0
-2772 8605 0
-8604 8605 0
-2772 -8604 0
-2773 8606 0
-8605 8606 0
-2773 -8605 0
-2774 8607 0
-8606 8607 0
-2774 -8606 0
-2775 8608 0
-8607 8608 0
-2775 -8607 0
-2776 8609 0
-8608 8609 0
-2776 -8608 0
-2777 8610 0
-8609 8610 0
-2777 -8609 0
-2778 8611 0
-8610 8611 0
-2778 -8610 0
-2779 8612 0
-8611 8612 0
-2779 -8611 0
-2780 8613 0
-8612 8613 0
-2780 -8612 0
-2781 8614 0
-8613 8614 0
-2781 -8613 0
-2782 8615 0
-8614 8615 0
-2782 -8614 0
-2783 8616 0
-8615 8616 0
-2783 -8615 0
-2784 8617 0
-8616 8617 0
-2784 -8616 0
-2785 8618 0
-8617 8618 0
-2785 -8617 0
-2786 8619 0
-8618 8619 0
-2786 -8618 0
-2787 8620 0
-8619 8620 0
-2787 -8619 0
-2788 8621 0
-8620 8621 0
-2788 -8620 0
-2789 8622 0
-8621 8622 0
-2789 -8621 0
-2790 8623 0
-8622 8623 0
-2790 -8622 0
-2791 8624 0
-8623 8624 0
-2791 -8623 0
-2792 8625 0
-8624 8625 0
-2792 -8624 0
-2793 8626 0
-8625 8626 0
-2793 -8625 0
-2794 8627 0
-8626 8627 0
-2794 -8626 0
-2795 8628 0
-8627 8628 0
-2795 -8627 0
-2796 8629 0
-8628 8629 0
-2796 -8628 0
-2797 8630 0
-8629 8630 0
-2797 -8629 0
-2798 8631 0
-8630 8631 0
-2798 -8630 0
-2799 8632 0
-8631 8632 0
-2799 -8631 0
-2800 8633 0
-8632 8633 0
-2800 -8632 0
-2801 8634 0
-8633 8634 0
-2801 -8633 0
-2802 8635 0
-8634 8635 0
-2802 -8634 0
-2803 8636 0
-8635 8636 0
-2803 -8635 0
-2804 8637 0
-8636 8637 0
-2804 -8636 0
-2805 8638 0
-8637 8638 0
-2805 -8637 0
-2806 8639 0
-8638 8639 0
-2806 -8638 0
-2807 8640 0
-8639 8640 0
-2807 -8639 0
-2808 8641 0
-8640 8641 0
-2808 -8640 0
-2809 8642 0
-8641 8642 0
-2809 -8641 0
-2810 8643 0
-8642 8643 0
-2810 -8642 0
-2811 -8643 0
13 199 260 566 626 806 866 1023 1079 1245 1301 1361 1418 1585 1640 2812 2813 2814 2815 2816 2817 2818 2819 2820 2821 2822 2823 2824 2825 2826 2827 2828 2829 2830 2831 2832 2833 2834 2835 2836 2837 2838 2839 2840 2841 2842 2843 2844 2845 2846 2847 2848 2849 2850 2851 2852 2853 2854 2855 2856 2857 2858 2859 0
-13 8644 0
-199 8645 0
-8644 8645 0
-199 -8644 0
-260 8646 0
-8645 8646 0
-260 -8645 0
-566 8647 0
-8646 8647 0
-566 -8646 0
-626 8648 0
-8647 8648 0
-626 -8647 0
-806 8649 0
-8648 8649 0
-806 -8648 0
-866 8650 0
-8649 8650 0
-866 -8649 0
-1023 8651 0
-8650 8651 0
-1023 -8650 0
-1079 8652 0
-8651 8652 0
-1079 -8651 0
-1245 8653 0
-8652 8653 0
-1245 -8652 0
-1301 8654 0
-8653 8654 0
-1301 -8653 0
-1361 8655 0
-8654 8655 0
-1361 -8654 0
-1418 8656 0
-8655 8656 0
-1418 -8655 0
-1585 8657 0
-8656 8657 0
-1585 -8656 0
-1640 8658 0
-8657 8658 0
-1640 -8657 0
-2812 8659 0
-8658 8659 0
-2812 -8658 0
-2813 8660 0
-8659 8660 0
-2813 -8659 0
-2814 8661 0
-8660 8661 0
-2814 -8660 0
-2815 8662 0
-8661 8662 0
-2815 -8661 0
-2816 8663 0
-8662 8663 0
-2816 -8662 0
-2817 8664 0
-8663 8664 0
-2817 -8663 0
-2818 8665 0
-8664 8665 0
-2818 -8664 0
-2819 8666 0
-8665 8666 0
-2819 -8665 0
-2820 8667 0
-8666 8667 0
-2820 -8666 0
-2821 8668 0
-8667 8668 0
-2821 -8667 0
-2822 8669 0
-8668 8669 0
-2822 -8668 0
-2823 8670 0
-8669 8670 0
-2823 -8669 0
-2824 8671 0
-8670 8671 0
-2824 -8670 0
-2825 8672 0
-8671 8672 0
-2825 -8671 0
-2826 8673 0
-8672 8673 0
-2826 -8672 0
-2827 8674 0
-8673 8674 0
-2827 -8673 0
-2828 8675 0
-8674 8675 0
-2828 -8674 0
-2829 8676 0
-8675 8676 0
-2829 -8675 0
-2830 8677 0
-8676 8677 0
-2830 -8676 0
-2831 8678 0
-8677 8678 0
-2831 -8677 0
-2832 8679 0
-8678 8679 0
-2832 -8678 0
-2833 8680 0
-8679 8680 0
-2833 -8679 0
-2834 8681 0
-8680 8681 0
-2834 -8680 0
-2835 8682 0
-8681 8682 0
-2835 -8681 0
-2836 8683 0
-8682 8683 0
-2836 -8682 0
-2837 8684 0
-8683 8684 0
-2837 -8683 0
-2838 8685 0
-8684 8685 0
-2838 -8684 0
-2839 8686 0
-8685 8686 0
-2839 -8685 0
-2840 8687 0
-8686 8687 0
-2840 -8686 0
-2841 8688 0
-8687 8688 0
-2841 -8687 0
-2842 8689 0
-8688 8689 0
-2842 -8688 0
-2843 8690 0
-8689 8690 0
-2843 -8689 0
-2844 8691 0
-8690 8691 0
-2844 -8690 0
-2845 8692 0
-8691 8692 0
-2845 -8691 0
-2846 8693 0
-8692 8693 0
-2846 -8692 0
-2847 8694 0
-8693 8694 0
-2847 -8693 0
-2848 8695 0
-8694 8695 0
-2848 -8694 0
-2849 8696 0
-8695 8696 0
-2849 -8695 0
-2850 8697 0
-8696 8697 0
-2850 -8696 0
-2851 8698 0
-8697 8698 0
-2851 -8697 0
-2852 8699 0
-8698 8699 0
-2852 -8698 0
-2853 8700 0
-8699 8700 0
-2853 -8699 0
-2854 8701 0
-8700 8701 0
-2854 -8700 0
-2855 8702 0
-8701 8702 0
-2855 -8701 0
-2856 8703 0
-8702 8703 0
-2856 -8702 0
-2857 8704 0
-8703 8704 0
-2857 -8703 0
-2858 8705 0
-8704 8705 0
-2858 -8704 0
-2859 -8705 0
76 200 322 506 627 746 867 967 1078 1189 1300 1362 1474 1586 1696 2860 2861 2862 2863 2864 2865 2866 2867 2868 2869 2870 2871 2872 2873 2874 2875 2876 2877 2878 2879 2880 2881 2882 2883 2884 2885 2886 2887 2888 2889 2890 2891 2892 2893 2894 2895 2896 2897 2898 2899 2900 2901 2902 2903 2904 2905 2906 2907 0
-76 8706 0
-200 8707 0
-8706 8707 0
-200 -8706 0
-322 8708 0
-8707 8708 0
-322 -8707 0
-506 8709 0
-8708 8709 0
-506 -8708 0
-627 8710 0
-8709 8710 0
-627 -8709 0
-746 8711 0
-8710 8711 0
-746 -8710 0
-867 8712 0
-8711 8712 0
-867 -8711 0
-967 8713 0
-8712 8713 0
-967 -8712 0
-1078 8714 0
-8713 8714 0
-1078 -8713 0
-1189 8715 0
-8714 8715 0
-1189 -8714 0
-1300 8716 0
-8715 8716 0
-1300 -8715 0
-1362 8717 0
-8716 8717 0
-1362 -8716 0
-1474 8718 0
-8717 8718 0
-1474 -8717 0
-1586 8719 0
-8718 8719 0
-1586 -8718 0
-1696 8720 0
-8719 8720 0
-1696 -8719 0
-2860 8721 0
-8720 8721 0
-2860 -8720 0
-2861 8722 0
-8721 8722 0
-2861 -8721 0
-2862 8723 0
-8722 8723 0
-2862 -8722 0
-2863 8724 0
-8723 8724 0
-2863 -8723 0
-2864 8725 0
-8724 8725 0
-2864 -8724 0
-2865 8726 0
-8725 8726 0
-2865 -8725 0
-2866 8727 0
-8726 8727 0
-2866 -8726 0
-2867 8728 0
-8727 8728 0
-2867 -8727 0
-2868 8729 0
-8728 8729 0
-2868 -8728 0
-2869 8730 0
-8729 8730 0
-2869 -8729 0
-2870 8731 0
-8730 8731 0
-2870 -8730 0
-2871 8732 0
-8731 8732 0
-2871 -8731 0
-2872 8733 0
-8732 8733 0
-2872 -8732 0
-2873 8734 0
-8733 8734 0
-2873 -8733 0
-2874 8735 0
-8734 8735 0
-2874 -8734 0
-2875 8736 0
-8735 8736 0
-2875 -8735 0
-2876 8737 0
-8736 8737 0
-2876 -8736 0
-2877 8738 0
-8737 8738 0
-2877 -8737 0
-2878 8739 0
-8738 8739 0
-2878 -8738 0
-2879 8740 0
-8739 8740 0
-2879 -8739 0
-2880 8741 0
-8740 8741 0
-2880 -8740 0
-2881 8742 0
-8741 8742 0
-2881 -8741 0
-2882 8743 0
-8742 8743 0
-2882 -8742 0
-2883 8744 0
-8743 8744 0
-2883 -8743 0
-2884 8745 0
-8744 8745 0
-2884 -8744 0
-2885 8746 0
-8745 8746 0
-2885 -8745 0
-2886 8747 0
-8746 8747 0
-2886 -8746 0
-2887 8748 0
-8747 8748 0
-2887 -8747 0
-2888 8749 0
-8748 8749 0
-2888 -8748 0
-2889 8750 0
-8749 8750 0
-2889 -8749 0
-2890 8751 0
-8750 8751 0
-2890 -8750 0
-2891 8752 0
-8751 8752 0
-2891 -8751 0
-2892 8753 0
-8752 8753 0
-2892 -8752 0
-2893 8754 0
-8753 8754 0
-2893 -8753 0
-2894 8755 0
-8754 8755 0
-2894 -8754 0
-2895 8756 0
-8755 8756 0
-2895 -8755 0
-2896 8757 0
-8756 8757 0
-2896 -8756 0
-2897 8758 0
-8757 8758 0
-2897 -8757 0
-2898 8759 0
-8758 8759 0
-2898 -8758 0
-2899 8760 0
-8759 8760 0
-2899 -8759 0
-2900 8761 0
-8760 8761 0
-2900 -8760 0
-2901 8762 0
-8761 8762 0
-2901 -8761 0
-2902 8763 0
-8762 8763 0
-2902 -8762 0
-2903 8764 0
-8763 8764 0
-2903 -8763 0
-2904 8765 0
-8764 8765 0
-2904 -8764 0
-2905 8766 0
-8765 8766 0
-2905 -8765 0
-2906 8767 0
-8766 8767 0
-2906 -8766 0
-2907 -8767 0
139 201 384 507 567 747 807 966 1022 1188 1244 1363 1530 1587 1752 2908 2909 2910 2911 2912 2913 2914 2915 2916 2917 2918 2919 2920 2921 2922 2923 2924 2925 2926 2927 2928 2929 2930 2931 2932 2933 2934 2935 2936 2937 2938 2939 2940 2941 2942 2943 2944 2945 2946 2947 2948 2949 2950 2951 2952 2953 2954 2955 0
-139 8768 0
-201 8769 0
-8768 8769 0
-201 -8768 0
-384 8770 0
-8769 8770 0
-384 -8769 0
-507 8771 0
-8770 8771 0
-507 -8770 0
-567 8772 0
-8771 8772 0
-567 -8771 0
-747 8773 0
-8772 8773 0
-747 -8772 0
-807 8774 0
-8773 8774 0
-807 -8773 0
-966 8775 0
-8774 8775 0
-966 -8774 0
-1022 8776 0
-8775 8776 0
-1022 -8775 0
-1188 8777 0
-8776 8777 0
-1188 -8776 0
-1244 8778 0
-8777 8778 0
-1244 -8777 0
-1363 8779 0
-8778 8779 0
-1363 -8778 0
-1530 8780 0
-8779 8780 0
-1530 -8779 0
-1587 8781 0
-8780 8781 0
-1587 -8780 0
-1752 8782 0
-8781 8782 0
-1752 -8781 0
-2908 8783 0
-8782 8783 0
-2908 -8782 0
-2909 8784 0
-8783 8784 0
-2909 -8783 0
-2910 8785 0
-8784 8785 0
-2910 -8784 0
-2911 8786 0
-8785 8786 0
-2911 -8785 0
-2912 8787 0
-8786 8787 0
-2912 -8786 0
-2913 8788 0
-8787 8788 0
-2913 -8787 0
-2914 8789 0
-8788 8789 0
-2914 -8788 0
-2915 8790 0
-8789 8790 0
-2915 -8789 0
-2916 8791 0
-8790 8791 0
-2916 -8790 0
-2917 8792 0
-8791 8792 0
-2917 -8791 0
-2918 8793 0
-8792 8793 0
-2918 -8792 0
-2919 8794 0
-8793 8794 0
-2919 -8793 0
-2920 8795 0
-8794 8795 0
-2920 -8794 0
-2921 8796 0
-8795 8796 0
-2921 -8795 0
-2922 8797 0
-8796 8797 0
-2922 -8796 0
-2923 8798 0
-8797 8798 0
-2923 -8797 0
-2924 8799 0
-8798 8799 0
-2924 -8798 0
-2925 8800 0
-8799 8800 0
-2925 -8799 0
-2926 8801 0
-8800 8801 0
-2926 -8800 0
-2927 8802 0
-8801 8802 0
-2927 -8801 0
-2928 8803 0
-8802 8803 0
-2928 -8802 0
-2929 8804 0
-8803 8804 0
-2929 -8803 0
-2930 8805 0
-8804 8805 0
-2930 -8804 0
-2931 8806 0
-8805 8806 0
-2931 -8805 0
-2932 8807 0
-8806 8807 0
-2932 -8806 0
-2933 8808 0
-8807 8808 0
-2933 -8807 0
-2934 8809 0
-8808 8809 0
-2934 -8808 0
-2935 8810 0
-8809 8810 0
-2935 -8809 0
-2936 8811 0
-8810 8811 0
-2936 -8810 0
-2937 8812 0
-8811 8812 0
-2937 -8811 0
-2938 8813 0
-8812 8813 0
-2938 -8812 0
-2939 8814 0
-8813 8814 0
-2939 -8813 0
-2940 8815 0
-8814 8815 0
-2940 -8814 0
-2941 8816 0
-8815 8816 0
-2941 -8815 0
-2942 8817 0
-8816 8817 0
-2942 -8816 0
-2943 8818 0
-8817 8818 0
-2943 -8817 0
-2944 8819 0
-8818 8819 0
-2944 -8818 0
-2945 8820 0
-8819 8820 0
-2945 -8819 0
-2946 8821 0
-8820 8821 0
-2946 -8820 0
-2947 8822 0
-8821 8822 0
-2947 -8821 0
-2948 8823 0
-8822 8823 0
-2948 -8822 0
-2949 8824 0
-8823 8824 0
-2949 -8823 0
-2950 8825 0
-8824 8825 0
-2950 -8824 0
-2951 8826 0
-8825 8826 0
-2951 -8825 0
-2952 8827 0
-8826 8827 0
-2952 -8826 0
-2953 8828 0
-8827 8828 0
-2953 -8827 0
-2954 8829 0
-8828 8829 0
-2954 -8828 0
-2955 -8829 0
14 77 140 444 505 565 625 1136 1195 1251 1307 1580 1639 1695 1751 2956 2957 2958 2959 2960 2961 2962 2963 2964 2965 2966 2967 2968 2969 2970 2971 2972 2973 2974 2975 2976 2977 2978 2979 2980 2981 2982 2983 2984 2985 2986 2987 2988 2989 2990 2991 2992 2993 2994 2995 2996 2997 2998 2999 3000 3001 3002 3003 0
-14 8830 0
-77 8831 0
-8830 8831 0
-77 -8830 0
-140 8832 0
-8831 8832 0
-140 -8831 0
-444 8833 0
-8832 8833 0
-444 -8832 0
-505 8834 0
-8833 8834 0
-505 -8833 0
-565 8835 0
-8834 8835 0
-565 -8834 0
-625 8836 0
-8835 8836 0
-625 -8835 0
-1136 8837 0
-8836 8837 0
-1136 -8836 0
-1195 8838 0
-8837 8838 0
-1195 -8837 0
-1251 8839 0
-8838 8839 0
-1251 -8838 0
-1307 8840 0
-8839 8840 0
-1307 -8839 0
-1580 8841 0
-8840 8841 0
-1580 -8840 0
-1639 8842 0
-8841 8842 0
-1639 -8841 0
-1695 8843 0
-8842 8843 0
-1695 -8842 0
-1751 8844 0
-8843 8844 0
-1751 -8843 0
-2956 8845 0
-8844 8845 0
-2956 -8844 0
-2957 8846 0
-8845 8846 0
-2957 -8845 0
-2958 8847 0
-8846 8847 0
-2958 -8846 0
-2959 8848 0
-8847 8848 0
-2959 -8847 0
-2960 8849 0
-8848 8849 0
-2960 -8848 0
-2961 8850 0
-8849 8850 0
-2961 -8849 0
-2962 8851 0
-8850 8851 0
-2962 -8850 0
-2963 8852 0
-8851 8852 0
-2963 -8851 0
-2964 8853 0
-8852 8853 0
-2964 -8852 0
-2965 8854 0
-8853 8854 0
-2965 -8853 0
-2966 8855 0
-8854 8855 0
-2966 -8854 0
-2967 8856 0
-8855 8856 0
-2967 -8855 0
-2968 8857 0
-8856 8857 0
-2968 -8856 0
-2969 8858 0
-8857 8858 0
-2969 -8857 0
-2970 8859 0
-8858 8859 0
-2970 -8858 0
-2971 8860 0
-8859 8860 0
-2971 -8859 0
-2972 8861 0
-8860 8861 0
-2972 -8860 0
-2973 8862 0
-8861 8862 0
-2973 -8861 0
-2974 8863 0
-8862 8863 0
-2974 -8862 0
-2975 8864 0
-8863 8864 0
-2975 -8863 0
-2976 8865 0
-8864 8865 0
-2976 -8864 0
-2977 8866 0
-8865 8866 0
-2977 -8865 0
-2978 8867 0
-8866 8867 0
-2978 -8866 0
-2979 8868 0
-8867 8868 0
-2979 -8867 0
-2980 8869 0
-8868 8869 0
-2980 -8868 0
-2981 8870 0
-8869 8870 0
-2981 -8869 0
-2982 8871 0
-8870 8871 0
-2982 -8870 0
-2983 8872 0
-8871 8872 0
-2983 -8871 0
-2984 8873 0
-8872 8873 0
-2984 -8872 0
-2985 8874 0
-8873 8874 0
-2985 -8873 0
-2986 8875 0
-8874 8875 0
-2986 -8874 0
-2987 8876 0
-8875 8876 0
-2987 -8875 0
-2988 8877 0
-8876 8877 0
-2988 -8876 0
-2989 8878 0
-8877 8878 0
-2989 -8877 0
-2990 8879 0
-8878 8879 0
-2990 -8878 0
-2991 8880 0
-8879 8880 0
-2991 -8879 0
-2992 8881 0
-8880 8881 0
-2992 -8880 0
-2993 8882 0
-8881 8882 0
-2993 -8881 0
-2994 8883 0
-8882 8883 0
-2994 -8882 0
-2995 8884 0
-8883 8884 0
-2995 -8883 0
-2996 8885 0
-8884 8885 0
-2996 -8884 0
-2997 8886 0
-8885 8886 0
-2997 -8885 0
-2998 8887 0
-8886 8887 0
-2998 -8886 0
-2999 8888 0
-8887 8888 0
-2999 -8887 0
-3000 8889 0
-8888 8889 0
-3000 -8888 0
-3001 8890 0
-8889 8890 0
-3001 -8889 0
-3002 8891 0
-8890 8891 0
-3002 -8890 0
-3003 -8891 0
14 324 386 445 504 807 867 1025 1081 1137 1194 1469 1525 1581 1638 3004 3005 3006 3007 3008 3009 3010 3011 3012 3013 3014 3015 3016 3017 3018 3019 3020 3021 3022 3023 3024 3025 3026 3027 3028 3029 3030 3031 3032 3033 3034 3035 3036 3037 3038 3039 3040 3041 3042 3043 3044 3045 3046 3047 3048 3049 3050 3051 0
-14 8892 0
-324 8893 0
-8892 8893 0
-324 -8892 0
-386 8894 0
-8893 8894 0
-386 -8893 0
-445 8895 0
-8894 8895 0
-445 -8894 0
-504 8896 0
-8895 8896 0
-504 -8895 0
-807 8897 0
-8896 8897 0
-807 -8896 0
-867 8898 0
-8897 8898 0
-867 -8897 0
-1025 8899 0
-8898 8899 0
-1025 -8898 0
-1081 8900 0
-8899 8900 0
-1081 -8899 0
-1137 8901 0
-8900 8901 0
-1137 -8900 0
-1194 8902 0
-8901 8902 0
-1194 -8901 0
-1469 8903 0
-8902 8903 0
-1469 -8902 0
-1525 8904 0
-8903 8904 0
-1525 -8903 0
-1581 8905 0
-8904 8905 0
-1581 -8904 0
-1638 8906 0
-8905 8906 0
-1638 -8905 0
-3004 8907 0
-8906 8907 0
-3004 -8906 0
-3005 8908 0
-8907 8908 0
-3005 -8907 0
-3006 8909 0
-8908 8909 0
-3006 -8908 0
-3007 8910 0
-8909 8910 0
-3007 -8909 0
-3008 8911 0
-8910 8911 0
-3008 -8910 0
-3009 8912 0
-8911 8912 0
-3009 -8911 0
-3010 8913 0
-8912 8913 0
-3010 -8912 0
-3011 8914 0
-8913 8914 0
-3011 -8913 0
-3012 8915 0
-8914 8915 0
-3012 -8914 0
-3013 8916 0
-8915 8916 0
-3013 -8915 0
-3014 8917 0
-8916 8917 0
-3014 -8916 0
-3015 8918 0
-8917 8918 0
-3015 -8917 0
-3016 8919 0
-8918 8919 0
-3016 -8918 0
-3017 8920 0
-8919 8920 0
-3017 -8919 0
-3018 8921 0
-8920 8921 0
-3018 -8920 0
-3019 8922 0
-8921 8922 0
-3019 -8921 0
-3020 8923 0
-8922 8923 0
-3020 -8922 0
-3021 8924 0
-8923 8924 0
-3021 -8923 0
-3022 8925 0
-8924 8925 0
-3022 -8924 0
-3023 8926 0
-8925 8926 0
-3023 -8925 0
-3024 8927 0
-8926 8927 0
-3024 -8926 0
-3025 8928 0
-8927 8928 0
-3025 -8927 0
-3026 8929 0
-8928 8929 0
-3026 -8928 0
-3027 8930 0
-8929 8930 0
-3027 -8929 0
-3028 8931 0
-8930 8931 0
-3028 -8930 0
-3029 8932 0
-8931 8932 0
-3029 -8931 0
-3030 8933 0
-8932 8933 0
-3030 -8932 0
-3031 8934 0
-8933 8934 0
-3031 -8933 0
-3032 8935 0
-8934 8935 0
-3032 -8934 0
-3033 8936 0
-8935 8936 0
-3033 -8935 0
-3034 8937 0
-8936 8937 0
-3034 -8936 0
-3035 8938 0
-8937 8938 0
-3035 -8937 0
-3036 8939 0
-8938 8939 0
-3036 -8938 0
-3037 8940 0
-8939 8940 0
-3037 -8939 0
-3038 8941 0
-8940 8941 0
-3038 -8940 0
-3039 8942 0
-8941 8942 0
-3039 -8941 0
-3040 8943 0
-8942 8943 0
-3040 -8942 0
-3041 8944 0
-8943 8944 0
-3041 -8943 0
-3042 8945 0
-8944 8945 0
-3042 -8944 0
-3043 8946 0
-8945 8946 0
-3043 -8945 0
-3044 8947 0
-8946 8947 0
-3044 -8946 0
-3045 8948 0
-8947 8948 0
-3045 -8947 0
-3046 8949 0
-8948 8949 0
-3046 -8948 0
-3047 8950 0
-8949 8950 0
-3047 -8949 0
-3048 8951 0
-8950 8951 0
-3048 -8950 0
-3049 8952 0
-8951 8952 0
-3049 -8951 0
-3050 8953 0
-8952 8953 0
-3050 -8952 0
-3051 -8953 0
77 262 387 446 564 747 866 969 1080 1138 1250 1413 1524 1582 1694 3052 3053 3054 3055 3056 3057 3058 3059 3060 3061 3062 3063 3064 3065 3066 3067 3068 3069 3070 3071 3072 3073 3074 3075 3076 3077 3078 3079 3080 3081 3082 3083 3084 3085 3086 3087 3088 3089 3090 3091 3092 3093 3094 3095 3096 3097 3098 3099 0
-77 8954 0
-262 8955 0
-8954 8955 0
-262 -8954 0
-387 8956 0
-8955 8956 0
-387 -8955 0
-446 8957 0
-8956 8957 0
-446 -8956 0
-564 8958 0
-8957 8958 0
-564 -8957 0
-747 8959 0
-8958 8959 0
-747 -8958 0
-866 8960 0
-8959 8960 0
-866 -8959 0
-969 8961 0
-8960 8961 0
-969 -8960 0
-1080 8962 0
-8961 8962 0
-1080 -8961 0
-1138 8963 0
-8962 8963 0
-1138 -8962 0
-1250 8964 0
-8963 8964 0
-1250 -8963 0
-1413 8965 0
-8964 8965 0
-1413 -8964 0
-1524 8966 0
-8965 8966 0
-1524 -8965 0
-1582 8967 0
-8966 8967 0
-1582 -8966 0
-1694 8968 0
-8967 8968 0
-1694 -8967 0
-3052 8969 0
-8968 8969 0
-3052 -8968 0
-3053 8970 0
-8969 8970 0
-3053 -8969 0
-3054 8971 0
-8970 8971 0
-3054 -8970 0
-3055 8972 0
-8971 8972 0
-3055 -8971 0
-3056 8973 0
-8972 8973 0
-3056 -8972 0
-3057 8974 0
-8973 8974 0
-3057 -8973 0
-3058 8975 0
-8974 8975 0
-3058 -8974 0
-3059 8976 0
-8975 8976 0
-3059 -8975 0
-3060 8977 0
-8976 8977 0
-3060 -8976 0
-3061 8978 0
-8977 8978 0
-3061 -8977 0
-3062 8979 0
-8978 8979 0
-3062 -8978 0
-3063 8980 0
-8979 8980 0
-3063 -8979 0
-3064 8981 0
-8980 8981 0
-3064 -8980 0
-3065 8982 0
-8981 8982 0
-3065 -8981 0
-3066 8983 0
-8982 8983 0
-3066 -8982 0
-3067 8984 0
-8983 8984 0
-3067 -8983 0
-3068 8985 0
-8984 8985 0
-3068 -8984 0
-3069 8986 0
-8985 8986 0
-3069 -8985 0
-3070 8987 0
-8986 8987 0
-3070 -8986 0
-3071 8988 0
-8987 8988 0
-3071 -8987 0
-3072 8989 0
-8988 8989 0
-3072 -8988 0
-3073 8990 0
-8989 8990 0
-3073 -8989 0
-3074 8991 0
-8990 8991 0
-3074 -8990 0
-3075 8992 0
-8991 8992 0
-3075 -8991 0
-3076 8993 0
-8992 8993 0
-3076 -8992 0
-3077 8994 0
-8993 8994 0
-3077 -8993 0
-3078 8995 0
-8994 8995 0
-3078 -8994 0
-3079 8996 0
-8995 8996 0
-3079 -8995 0
-3080 8997 0
-8996 8997 0
-3080 -8996 0
-3081 8998 0
-8997 8998 0
-3081 -8997 0
-3082 8999 0
-8998 8999 0
-3082 -8998 0
-3083 9000 0
-8999 9000 0
-3083 -8999 0
-3084 9001 0
-9000 9001 0
-3084 -9000 0
-3085 9002 0
-9001 9002 0
-3085 -9001 0
-3086 9003 0
-9002 9003 0
-3086 -9002 0
-3087 9004 0
-9003 9004 0
-3087 -9003 0
-3088 9005 0
-9004 9005 0
-3088 -9004 0
-3089 9006 0
-9005 9006 0
-3089 -9005 0
-3090 9007 0
-9006 9007 0
-3090 -9006 0
-3091 9008 0
-9007 9008 0
-3091 -9007 0
-3092 9009 0
-9008 9009 0
-3092 -9008 0
-3093 9010 0
-9009 9010 0
-3093 -9009 0
-3094 9011 0
-9010 9011 0
-3094 -9010 0
-3095 9012 0
-9011 9012 0
-3095 -9011 0
-3096 9013 0
-9012 9013 0
-3096 -9012 0
-3097 9014 0
-9013 9014 0
-3097 -9013 0
-3098 9015 0
-9014 9015 0
-3098 -9014 0
-3099 -9015 0
140 263 325 447 624 746 806 968 1024 1139 1306 1412 1468 1583 1750 3100 3101 3102 3103 3104 3105 3106 3107 3108 3109 3110 3111 3112 3113 3114 3115 3116 3117 3118 3119 3120 3121 3122 3123 3124 3125 3126 3127 3128 3129 3130 3131 3132 3133 3134 3135 3136 3137 3138 3139 3140 3141 3142 3143 3144 3145 3146 3147 0
-140 9016 0
-263 9017 0
-9016 9017 0
-263 -9016 0
-325 9018 0
-9017 9018 0
-325 -9017 0
-447 9019 0
-9018 9019 0
-447 -9018 0
-624 9020 0
-9019 9020 0
-624 -9019 0
-746 9021 0
-9020 9021 0
-746 -9020 0
-806 9022 0
-9021 9022 0
-806 -9021 0
-968 9023 0
-9022 9023 0
-968 -9022 0
-1024 9024 0
-9023 9024 0
-1024 -9023 0
-1139 9025 0
-9024 9025 0
-1139 -9024 0
-1306 9026 0
-9025 9026 0
-1306 -9025 0
-1412 9027 0
-9026 9027 0
-1412 -9026 0
-1468 9028 0
-9027 9028 0
-1468 -9027 0
-1583 9029 0
-9028 9029 0
-1583 -9028 0
-1750 9030 0
-9029 9030 0
-1750 -9029 0
-3100 9031 0
-9030 9031 0
-3100 -9030 0
-3101 9032 0
-9031 9032 0
-3101 -9031 0
-3102 9033 0
-9032 9033 0
-3102 -9032 0
-3103 9034 0
-9033 9034 0
-3103 -9033 0
-3104 9035 0
-9034 9035 0
-3104 -9034 0
-3105 9036 0
-9035 9036 0
-3105 -9035 0
-3106 9037 0
-9036 9037 0
-3106 -9036 0
-3107 9038 0
-9037 9038 0
-3107 -9037 0
-3108 9039 0
-9038 9039 0
-3108 -9038 0
-3109 9040 0
-9039 9040 0
-3109 -9039 0
-3110 9041 0
-9040 9041 0
-3110 -9040 0
-3111 9042 0
-9041 9042 0
-3111 -9041 0
-3112 9043 0
-9042 9043 0
-3112 -9042 0
-3113 9044 0
-9043 9044 0
-3113 -9043 0
-3114 9045 0
-9044 9045 0
-3114 -9044 0
-3115 9046 0
-9045 9046 0
-3115 -9045 0
-3116 9047 0
-9046 9047 0
-3116 -9046 0
-3117 9048 0
-9047 9048 0
-3117 -9047 0
-3118 9049 0
-9048 9049 0
-3118 -9048 0
-3119 9050 0
-9049 9050 0
-3119 -9049 0
-3120 9051 0
-9050 9051 0
-3120 -9050 0
-3121 9052 0
-9051 9052 0
-3121 -9051 0
-3122 9053 0
-9052 9053 0
-3122 -9052 0
-3123 9054 0
-9053 9054 0
-3123 -9053 0
-3124 9055 0
-9054 9055 0
-3124 -9054 0
-3125 9056 0
-9055 9056 0
-3125 -9055 0
-3126 9057 0
-9056 9057 0
-3126 -9056 0
-3127 9058 0
-9057 9058 0
-3127 -9057 0
-3128 9059 0
-9058 9059 0
-3128 -9058 0
-3129 9060 0
-9059 9060 0
-3129 -9059 0
-3130 9061 0
-9060 9061 0
-3130 -9060 0
-3131 9062 0
-9061 9062 0
-3131 -9061 0
-3132 9063 0
-9062 9063 0
-3132 -9062 0
-3133 9064 0
-9063 9064 0
-3133 -9063 0
-3134 9065 0
-9064 9065 0
-3134 -9064 0
-3135 9066 0
-9065 9066 0
-3135 -9065 0
-3136 9067 0
-9066 9067 0
-3136 -9066 0
-3137 9068 0
-9067 9068 0
-3137 -9067 0
-3138 9069 0
-9068 9069 0
-3138 -9068 0
-3139 9070 0
-9069 9070 0
-3139 -9069 0
-3140 9071 0
-9070 9071 0
-3140 -9070 0
-3141 9072 0
-9071 9072 0
-3141 -9071 0
-3142 9073 0
-9072 9073 0
-3142 -9072 0
-3143 9074 0
-9073 9074 0
-3143 -9073 0
-3144 9075 0
-9074 9075 0
-3144 -9074 0
-3145 9076 0
-9075 9076 0
-3145 -9075 0
-3146 9077 0
-9076 9077 0
-3146 -9076 0
-3147 -9077 0
15 78 141 684 745 805 865 1132 1193 1249 1305 1356 1415 1471 1527 3148 3149 3150 3151 3152 3153 3154 3155 3156 3157 3158 3159 3160 3161 3162 3163 3164 3165 3166 3167 3168 3169 3170 3171 3172 3173 3174 3175 3176 3177 3178 3179 3180 3181 3182 3183 3184 3185 3186 3187 3188 3189 3190 3191 3192 3193 3194 3195 0
-15 9078 0
-78 9079 0
-9078 9079 0
-78 -9078 0
-141 9080 0
-9079 9080 0
-141 -9079 0
-684 9081 0
-9080 9081 0
-684 -9080 0
-745 9082 0
-9081 9082 0
-745 -9081 0
-805 9083 0
-9082 9083 0
-805 -9082 0
-865 9084 0
-9083 9084 0
-865 -9083 0
-1132 9085 0
-9084 9085 0
-1132 -9084 0
-1193 9086 0
-9085 9086 0
-1193 -9085 0
-1249 9087 0
-9086 9087 0
-1249 -9086 0
-1305 9088 0
-9087 9088 0
-1305 -9087 0
-1356 9089 0
-9088 9089 0
-1356 -9088 0
-1415 9090 0
-9089 9090 0
-1415 -9089 0
-1471 9091 0
-9090 9091 0
-1471 -9090 0
-1527 9092 0
-9091 9092 0
-1527 -9091 0
-3148 9093 0
-9092 9093 0
-3148 -9092 0
-3149 9094 0
-9093 9094 0
-3149 -9093 0
-3150 9095 0
-9094 9095 0
-3150 -9094 0
-3151 9096 0
-9095 9096 0
-3151 -9095 0
-3152 9097 0
-9096 9097 0
-3152 -9096 0
-3153 9098 0
-9097 9098 0
-3153 -9097 0
-3154 9099 0
-9098 9099 0
-3154 -9098 0
-3155 9100 0
-9099 9100 0
-3155 -9099 0
-3156 9101 0
-9100 9101 0
-3156 -9100 0
-3157 9102 0
-9101 9102 0
-3157 -9101 0
-3158 9103 0
-9102 9103 0
-3158 -9102 0
-3159 9104 0
-9103 9104 0
-3159 -9103 0
-3160 9105 0
-9104 9105 0
-3160 -9104 0
-3161 9106 0
-9105 9106 0
-3161 -9105 0
-3162 9107 0
-9106 9107 0
-3162 -9106 0
-3163 9108 0
-9107 9108 0
-3163 -9107 0
-3164 9109 0
-9108 9109 0
-3164 -9108 0
-3165 9110 0
-9109 9110 0
-3165 -9109 0
-3166 9111 0
-9110 9111 0
-3166 -9110 0
-3167 9112 0
-9111 9112 0
-3167 -9111 0
-3168 9113 0
-9112 9113 0
-3168 -9112 0
-3169 9114 0
-9113 9114 0
-3169 -9113 0
-3170 9115 0
-9114 9115 0
-3170 -9114 0
-3171 9116 0
-9115 9116 0
-3171 -9115 0
-3172 9117 0
-9116 9117 0
-3172 -9116 0
-3173 9118 0
-9117 9118 0
-3173 -9117 0
-3174 9119 0
-9118 9119 0
-3174 -9118 0
-3175 9120 0
-9119 9120 0
-3175 -9119 0
-3176 9121 0
-9120 9121 0
-3176 -9120 0
-3177 9122 0
-9121 9122 0
-3177 -9121 0
-3178 9123 0
-9122 9123 0
-3178 -9122 0
-3179 9124 0
-9123 9124 0
-3179 -9123 0
-3180 9125 0
-9124 9125 0
-3180 -9124 0
-3181 9126 0
-9125 9126 0
-3181 -9125 0
-3182 9127 0
-9126 9127 0
-3182 -9126 0
-3183 9128 0
-9127 9128 0
-3183 -9127 0
-3184 9129 0
-9128 9129 0
-3184 -9128 0
-3185 9130 0
-9129 9130 0
-3185 -9129 0
-3186 9131 0
-9130 9131 0
-3186 -9130 0
-3187 9132 0
-9131 9132 0
-3187 -9131 0
-3188 9133 0
-9132 9133 0
-3188 -9132 0
-3189 9134 0
-9133 9134 0
-3189 -9133 0
-3190 9135 0
-9134 9135 0
-3190 -9134 0
-3191 9136 0
-9135 9136 0
-3191 -9135 0
-3192 9137 0
-9136 9137 0
-3192 -9136 0
-3193 9138 0
-9137 9138 0
-3193 -9137 0
-3194 9139 0
-9138 9139 0
-3194 -9138 0
-3195 -9139 0
15 325 387 567 627 685 744 1027 1083 1133 1192 1357 1414 1693 1749 3196 3197 3198 3199 3200 3201 3202 3203 3204 3205 3206 3207 3208 3209 3210 3211 3212 3213 3214 3215 3216 3217 3218 3219 3220 3221 3222 3223 3224 3225 3226 3227 3228 3229 3230 3231 3232 3233 3234 3235 3236 3237 3238 3239 3240 3241 3242 3243 0
-15 9140 0
-325 9141 0
-9140 9141 0
-325 -9140 0
-387 9142 0
-9141 9142 0
-387 -9141 0
-567 9143 0
-9142 9143 0
-567 -9142 0
-627 9144 0
-9143 9144 0
-627 -9143 0
-685 9145 0
-9144 9145 0
-685 -9144 0
-744 9146 0
-9145 9146 0
-744 -9145 0
-1027 9147 0
-9146 9147 0
-1027 -9146 0
-1083 9148 0
-9147 9148 0
-1083 -9147 0
-1133 9149 0
-9148 9149 0
-1133 -9148 0
-1192 9150 0
-9149 9150 0
-1192 -9149 0
-1357 9151 0
-9150 9151 0
-1357 -9150 0
-1414 9152 0
-9151 9152 0
-1414 -9151 0
-1693 9153 0
-9152 9153 0
-1693 -9152 0
-1749 9154 0
-9153 9154 0
-1749 -9153 0
-3196 9155 0
-9154 9155 0
-3196 -9154 0
-3197 9156 0
-9155 9156 0
-3197 -9155 0
-3198 9157 0
-9156 9157 0
-3198 -9156 0
-3199 9158 0
-9157 9158 0
-3199 -9157 0
-3200 9159 0
-9158 9159 0
-3200 -9158 0
-3201 9160 0
-9159 9160 0
-3201 -9159 0
-3202 9161 0
-9160 9161 0
-3202 -9160 0
-3203 9162 0
-9161 9162 0
-3203 -9161 0
-3204 9163 0
-9162 9163 0
-3204 -9162 0
-3205 9164 0
-9163 9164 0
-3205 -9163 0
-3206 9165 0
-9164 9165 0
-3206 -9164 0
-3207 9166 0
-9165 9166 0
-3207 -9165 0
-3208 9167 0
-9166 9167 0
-3208 -9166 0
-3209 9168 0
-9167 9168 0
-3209 -9167 0
-3210 9169 0
-9168 9169 0
-3210 -9168 0
-3211 9170 0
-9169 9170 0
-3211 -9169 0
-3212 9171 0
-9170 9171 0
-3212 -9170 0
-3213 9172 0
-9171 9172 0
-3213 -9171 0
-3214 9173 0
-9172 9173 0
-3214 -9172 0
-3215 9174 0
-9173 9174 0
-3215 -9173 0
-3216 9175 0
-9174 9175 0
-3216 -9174 0
-3217 9176 0
-9175 9176 0
-3217 -9175 0
-3218 9177 0
-9176 9177 0
-3218 -9176 0
-3219 9178 0
-9177 9178 0
-3219 -9177 0
-3220 9179 0
-9178 9179 0
-3220 -9178 0
-3221 9180 0
-9179 9180 0
-3221 -9179 0
-3222 9181 0
-9180 9181 0
-3222 -9180 0
-3223 9182 0
-9181 9182 0
-3223 -9181 0
-3224 9183 0
-9182 9183 0
-3224 -9182 0
-3225 9184 0
-9183 9184 0
-3225 -9183 0
-3226 9185 0
-9184 9185 0
-3226 -9184 0
-3227 9186 0
-9185 9186 0
-3227 -9185 0
-3228 9187 0
-9186 9187 0
-3228 -9186 0
-3229 9188 0
-9187 9188 0
-3229 -9187 0
-3230 9189 0
-9188 9189 0
-3230 -9188 0
-3231 9190 0
-9189 9190 0
-3231 -9189 0
-3232 9191 0
-9190 9191 0
-3232 -9190 0
-3233 9192 0
-9191 9192 0
-3233 -9191 0
-3234 9193 0
-9192 9193 0
-3234 -9192 0
-3235 9194 0
-9193 9194 0
-3235 -9193 0
-3236 9195 0
-9194 9195 0
-3236 -9194 0
-3237 9196 0
-9195 9196 0
-3237 -9195 0
-3238 9197 0
-9196 9197 0
-3238 -9196 0
-3239 9198 0
-9197 9198 0
-3239 -9197 0
-3240 9199 0
-9198 9199 0
-3240 -9198 0
-3241 9200 0
-9199 9200 0
-3241 -9199 0
-3242 9201 0
-9200 9201 0
-3242 -9200 0
-3243 -9201 0
78 263 386 507 626 686 804 971 1082 1134 1248 1358 1470 1637 1748 3244 3245 3246 3247 3248 3249 3250 3251 3252 3253 3254 3255 3256 3257 3258 3259 3260 3261 3262 3263 3264 3265 3266 3267 3268 3269 3270 3271 3272 3273 3274 3275 3276 3277 3278 3279 3280 3281 3282 3283 3284 3285 3286 3287 3288 3289 3290 3291 0
-78 9202 0
-263 9203 0
-9202 9203 0
-263 -9202 0
-386 9204 0
-9203 9204 0
-386 -9203 0
-507 9205 0
-9204 9205 0
-507 -9204 0
-626 9206 0
-9205 9206 0
-626 -9205 0
-686 9207 0
-9206 9207 0
-686 -9206 0
-804 9208 0
-9207 9208 0
-804 -9207 0
-971 9209 0
-9208 9209 0
-971 -9208 0
-1082 9210 0
-9209 9210 0
-1082 -9209 0
-1134 9211 0
-9210 9211 0
-1134 -9210 0
-1248 9212 0
-9211 9212 0
-1248 -9211 0
-1358 9213 0
-9212 9213 0
-1358 -9212 0
-1470 9214 0
-9213 9214 0
-1470 -9213 0
-1637 9215 0
-9214 9215 0
-1637 -9214 0
-1748 9216 0
-9215 9216 0
-1748 -9215 0
-3244 9217 0
-9216 9217 0
-3244 -9216 0
-3245 9218 0
-9217 9218 0
-3245 -9217 0
-3246 9219 0
-9218 9219 0
-3246 -9218 0
-3247 9220 0
-9219 9220 0
-3247 -9219 0
-3248 9221 0
-9220 9221 0
-3248 -9220 0
-3249 9222 0
-9221 9222 0
-3249 -9221 0
-3250 9223 0
-9222 9223 0
-3250 -9222 0
-3251 9224 0
-9223 9224 0
-3251 -9223 0
-3252 9225 0
-9224 9225 0
-3252 -9224 0
-3253 9226 0
-9225 9226 0
-3253 -9225 0
-3254 9227 0
-9226 9227 0
-3254 -9226 0
-3255 9228 0
-9227 9228 0
-3255 -9227 0
-3256 9229 0
-9228 9229 0
-3256 -9228 0
-3257 9230 0
-9229 9230 0
-3257 -9229 0
-3258 9231 0
-9230 9231 0
-3258 -9230 0
-3259 9232 0
-9231 9232 0
-3259 -9231 0
-3260 9233 0
-9232 9233 0
-3260 -9232 0
-3261 9234 0
-9233 9234 0
-3261 -9233 0
-3262 9235 0
-9234 9235 0
-3262 -9234 0
-3263 9236 0
-9235 9236 0
-3263 -9235 0
-3264 9237 0
-9236 9237 0
-3264 -9236 0
-3265 9238 0
-9237 9238 0
-3265 -9237 0
-3266 9239 0
-9238 9239 0
-3266 -9238 0
-3267 9240 0
-9239 9240 0
-3267 -9239 0
-3268 9241 0
-9240 9241 0
-3268 -9240 0
-3269 9242 0
-9241 9242 0
-3269 -9241 0
-3270 9243 0
-9242 9243 0
-3270 -9242 0
-3271 9244 0
-9243 9244 0
-3271 -9243 0
-3272 9245 0
-9244 9245 0
-3272 -9244 0
-3273 9246 0
-9245 9246 0
-3273 -9245 0
-3274 9247 0
-9246 9247 0
-3274 -9246 0
-3275 9248 0
-9247 9248 0
-3275 -9247 0
-3276 9249 0
-9248 9249 0
-3276 -9248 0
-3277 9250 0
-9249 9250 0
-3277 -9249 0
-3278 9251 0
-9250 9251 0
-3278 -9250 0
-3279 9252 0
-9251 9252 0
-3279 -9251 0
-3280 9253 0
-9252 9253 0
-3280 -9252 0
-3281 9254 0
-9253 9254 0
-3281 -9253 0
-3282 9255 0
-9254 9255 0
-3282 -9254 0
-3283 9256 0
-9255 9256 0
-3283 -9255 0
-3284 9257 0
-9256 9257 0
-3284 -9256 0
-3285 9258 0
-9257 9258 0
-3285 -9257 0
-3286 9259 0
-9258 9259 0
-3286 -9258 0
-3287 9260 0
-9259 9260 0
-3287 -9259 0
-3288 9261 0
-9260 9261 0
-3288 -9260 0
-3289 9262 0
-9261 9262 0
-3289 -9261 0
-3290 9263 0
-9262 9263 0
-3290 -9262 0
-3291 -9263 0
141 262 324 506 566 687 864 970 1026 1135 1304 1359 1526 1636 1692 3292 3293 3294 3295 3296 3297 3298 3299 3300 3301 3302 3303 3304 3305 3306 3307 3308 3309 3310 3311 3312 3313 3314 3315 3316 3317 3318 3319 3320 3321 3322 3323 3324 3325 3326 3327 3328 3329 3330 3331 3332 3333 3334 3335 3336 3337 3338 3339 0
-141 9264 0
-262 9265 0
-9264 9265 0
-262 -9264 0
-324 9266 0
-9265 9266 0
-324 -9265 0
-506 9267 0
-9266 9267 0
-506 -9266 0
-566 9268 0
-9267 9268 0
-566 -9267 0
-687 9269 0
-9268 9269 0
-687 -9268 0
-864 9270 0
-9269 9270 0
-864 -9269 0
-970 9271 0
-9270 9271 0
-970 -9270 0
-1026 9272 0
-9271 9272 0
-1026 -9271 0
-1135 9273 0
-9272 9273 0
-1135 -9272 0
-1304 9274 0
-9273 9274 0
-1304 -9273 0
-1359 9275 0
-9274 9275 0
-1359 -9274 0
-1526 9276 0
-9275 9276 0
-1526 -9275 0
-1636 9277 0
-9276 9277 0
-1636 -9276 0
-1692 9278 0
-9277 9278 0
-1692 -9277 0
-3292 9279 0
-9278 9279 0
-3292 -9278 0
-3293 9280 0
-9279 9280 0
-3293 -9279 0
-3294 9281 0
-9280 9281 0
-3294 -9280 0
-3295 9282 0
-9281 9282 0
-3295 -9281 0
-3296 9283 0
-9282 9283 0
-3296 -9282 0
-3297 9284 0
-9283 9284 0
-3297 -9283 0
-3298 9285 0
-9284 9285 0
-3298 -9284 0
-3299 9286 0
-9285 9286 0
-3299 -9285 0
-3300 9287 0
-9286 9287 0
-3300 -9286 0
-3301 9288 0
-9287 9288 0
-3301 -9287 0
-3302 9289 0
-9288 9289 0
-3302 -9288 0
-3303 9290 0
-9289 9290 0
-3303 -9289 0
-3304 9291 0
-9290 9291 0
-3304 -9290 0
-3305 9292 0
-9291 9292 0
-3305 -9291 0
-3306 9293 0
-9292 9293 0
-3306 -9292 0
-3307 9294 0
-9293 9294 0
-3307 -9293 0
-3308 9295 0
-9294 9295 0
-3308 -9294 0
-3309 9296 0
-9295 9296 0
-3309 -9295 0
-3310 9297 0
-9296 9297 0
-3310 -9296 0
-3311 9298 0
-9297 9298 0
-3311 -9297 0
-3312 9299 0
-9298 9299 0
-3312 -9298 0
-3313 9300 0
-9299 9300 0
-3313 -9299 0
-3314 9301 0
-9300 9301 0
-3314 -9300 0
-3315 9302 0
-9301 9302 0
-3315 -9301 0
-3316 9303 0
-9302 9303 0
-3316 -9302 0
-3317 9304 0
-9303 9304 0
-3317 -9303 0
-3318 9305 0
-9304 9305 0
-3318 -9304 0
-3319 9306 0
-9305 9306 0
-3319 -9305 0
-3320 9307 0
-9306 9307 0
-3320 -9306 0
-3321 9308 0
-9307 9308 0
-3321 -9307 0
-3322 9309 0
-9308 9309 0
-3322 -9308 0
-3323 9310 0
-9309 9310 0
-3323 -9309 0
-3324 9311 0
-9310 9311 0
-3324 -9310 0
-3325 9312 0
-9311 9312 0
-3325 -9311 0
-3326 9313 0
-9312 9313 0
-3326 -9312 0
-3327 9314 0
-9313 9314 0
-3327 -9313 0
-3328 9315 0
-9314 9315 0
-3328 -9314 0
-3329 9316 0
-9315 9316 0
-3329 -9315 0
-3330 9317 0
-9316 9317 0
-3330 -9316 0
-3331 9318 0
-9317 9318 0
-3331 -9317 0
-3332 9319 0
-9318 9319 0
-3332 -9318 0
-3333 9320 0
-9319 9320 0
-3333 -9319 0
-3334 9321 0
-9320 9321 0
-3334 -9320 0
-3335 9322 0
-9321 9322 0
-3335 -9321 0
-3336 9323 0
-9322 9323 0
-3336 -9322 0
-3337 9324 0
-9323 9324 0
-3337 -9323 0
-3338 9325 0
-9324 9325 0
-3338 -9324 0
-3339 -9325 0
16 79 142 202 264 326 388 448 508 568 628 688 748 808 868 916 972 1028 1084 1140 1196 1252 1308 1364 1420 1476 1532 1588 1644 1700 1756 1804 1852 1900 1948 1996 2044 2092 2140 2188 2236 2284 2332 2380 2428 2476 2524 2572 2620 2668 2716 2764 2812 2860 2908 2956 3004 3052 3100 3148 3196 3244 3292 3340 3341 3342 3343 3344 3345 3346 3347 3348 3349 3350 3351 3352 3353 3354 3355 3356 3357 3358 3359 3360 3361 3362 3363 3364 3365 3366 3367 3368 3369 3370 3371 3372 3373 3374 3375 3376 3377 3378 3379 3380 3381 3382 3383 3384 3385 3386 3387 3388 3389 3390 3391 3392 3393 3394 3395 3396 3397 3398 3399 3400 3401 3402 3403 0
-16 9326 0
-79 9327 0
-9326 9327 0
-79 -9326 0
-142 9328 0
-9327 9328 0
-142 -9327 0
-202 9329 0
-9328 9329 0
-202 -9328 0
-264 9330 0
-9329 9330 0
-264 -9329 0
-326 9331 0
-9330 9331 0
-326 -9330 0
-388 9332 0
-9331 9332 0
-388 -9331 0
-448 9333 0
-9332 9333 0
-448 -9332 0
-508 9334 0
-9333 9334 0
-508 -9333 0
-568 9335 0
-9334 9335 0
-568 -9334 0
-628 9336 0
-9335 9336 0
-628 -9335 0
-688 9337 0
-9336 9337 0
-688 -9336 0
-748 9338 0
-9337 9338 0
-748 -9337 0
-808 9339 0
-9338 9339 0
-808 -9338 0
-868 9340 0
-9339 9340 0
-868 -9339 0
-916 9341 0
-9340 9341 0
-916 -9340 0
-972 9342 0
-9341 9342 0
-972 -9341 0
-1028 9343 0
-9342 9343 0
-1028 -9342 0
-1084 9344 0
-9343 9344 0
-1084 -9343 0
-1140 9345 0
-9344 9345 0
-1140 -9344 0
-1196 9346 0
-9345 9346 0
-1196 -9345 0
-1252 9347 0
-9346 9347 0
-1252 -9346 0
-1308 9348 0
-9347 9348 0
-1308 -9347 0
-1364 9349 0
-9348 9349 0
-1364 -9348 0
-1420 9350 0
-9349 9350 0
-1420 -9349 0
-1476 9351 0
-9350 9351 0
-1476 -9350 0
-1532 9352 0
-9351 9352 0
-1532 -9351 0
-1588 9353 0
-9352 9353 0
-1588 -9352 0
-1644 9354 0
-9353 9354 0
-1644 -9353 0
-1700 9355 0
-9354 9355 0
-1700 -9354 0
-1756 9356 0
-9355 9356 0
-1756 -9355 0
-1804 9357 0
-9356 9357 0
-1804 -9356 0
-1852 9358 0
-9357 9358 0
-1852 -9357 0
-1900 9359 0
-9358 9359 0
-1900 -9358 0
-1948 9360 0
-9359 9360 0
-1948 -9359 0
-1996 9361 0
-9360 9361 0
-1996 -9360 0
-2044 9362 0
-9361 9362 0
-2044 -9361 0
-2092 9363 0
-9362 9363 0
-2092 -9362 0
-2140 9364 0
-9363 9364 0
-2140 -9363 0
-2188 9365 0
-9364 9365 0
-2188 -9364 0
-2236 9366 0
-9365 9366 0
-2236 -9365 0
-2284 9367 0
-9366 9367 0
-2284 -9366 0
-2332 9368 0
-9367 9368 0
-2332 -9367 0
-2380 9369 0
-9368 9369 0
-2380 -9368 0
-2428 9370 0
-9369 9370 0
-2428 -9369 0
-2476 9371 0
-9370 9371 0
-2476 -9370 0
-2524 9372 0
-9371 9372 0
-2524 -9371 0
-2572 9373 0
-9372 9373 0
-2572 -9372 0
-2620 9374 0
-9373 9374 0
-2620 -9373 0
-2668 9375 0
-9374 9375 0
-2668 -9374 0
-2716 9376 0
-9375 9376 0
-2716 -9375 0
-2764 9377 0
-9376 9377 0
-2764 -9376 0
-2812 9378 0
-9377 9378 0
-2812 -9377 0
-2860 9379 0
-9378 9379 0
-2860 -9378 0
-2908 9380 0
-9379 9380 0
-2908 -9379 0
-2956 9381 0
-9380 9381 0
-2956 -9380 0
-3004 9382 0
-9381 9382 0
-3004 -9381 0
-3052 9383 0
-9382 9383 0
-3052 -9382 0
-3100 9384 0
-9383 9384 0
-3100 -9383 0
-3148 9385 0
-9384 9385 0
-3148 -9384 0
-3196 9386 0
-9385 9386 0
-3196 -9385 0
-3244 9387 0
-9386 9387 0
-3244 -9386 0
-3292 9388 0
-9387 9388 0
-3292 -9387 0
-3340 9389 0
-9388 9389 0
-3340 -9388 0
-3341 9390 0
-9389 9390 0
-3341 -9389 0
-3342 9391 0
-9390 9391 0
-3342 -9390 0
-3343 9392 0
-9391 9392 0
-3343 -9391 0
-3344 9393 0
-9392 9393 0
-3344 -9392 0
-3345 9394 0
-9393 9394 0
-3345 -9393 0
-3346 9395 0
-9394 9395 0
-3346 -9394 0
-3347 9396 0
-9395 9396 0
-3347 -9395 0
-3348 9397 0
-9396 9397 0
-3348 -9396 0
-3349 9398 0
-9397 9398 0
-3349 -9397 0
-3350 9399 0
-9398 9399 0
-3350 -9398 0
-3351 9400 0
-9399 9400 0
-3351 -9399 0
-3352 9401 0
-9400 9401 0
-3352 -9400 0
-3353 9402 0
-9401 9402 0
-3353 -9401 0
-3354 9403 0
-9402 9403 0
-3354 -9402 0
-3355 9404 0
-9403 9404 0
-3355 -9403 0
-3356 9405 0
-9404 9405 0
-3356 -9404 0
-3357 9406 0
-9405 9406 0
-3357 -9405 0
-3358 9407 0
-9406 9407 0
-3358 -9406 0
-3359 9408 0
-9407 9408 0
-3359 -9407 0
-3360 9409 0
-9408 9409 0
-3360 -9408 0
-3361 9410 0
-9409 9410 0
-3361 -9409 0
-3362 9411 0
-9410 9411 0
-3362 -9410 0
-3363 9412 0
-9411 9412 0
-3363 -9411 0
-3364 9413 0
-9412 9413 0
-3364 -9412 0
-3365 9414 0
-9413 9414 0
-3365 -9413 0
-3366 9415 0
-9414 9415 0
-3366 -9414 0
-3367 9416 0
-9415 9416 0
-3367 -9415 0
-3368 9417 0
-9416 9417 0
-3368 -9416 0
-3369 9418 0
-9417 9418 0
-3369 -9417 0
-3370 9419 0
-9418 9419 0
-3370 -9418 0
-3371 9420 0
-9419 9420 0
-3371 -9419 0
-3372 9421 0
-9420 9421 0
-3372 -9420 0
-3373 9422 0
-9421 9422 0
-3373 -9421 0
-3374 9423 0
-9422 9423 0
-3374 -9422 0
-3375 9424 0
-9423 9424 0
-3375 -9423 0
-3376 9425 0
-9424 9425 0
-3376 -9424 0
-3377 9426 0
-9425 9426 0
-3377 -9425 0
-3378 9427 0
-9426 9427 0
-3378 -9426 0
-3379 9428 0
-9427 9428 0
-3379 -9427 0
-3380 9429 0
-9428 9429 0
-3380 -9428 0
-3381 9430 0
-9429 9430 0
-3381 -9429 0
-3382 9431 0
-9430 9431 0
-3382 -9430 0
-3383 9432 0
-9431 9432 0
-3383 -9431 0
-3384 9433 0
-9432 9433 0
-3384 -9432 0
-3385 9434 0
-9433 9434 0
-3385 -9433 0
-3386 9435 0
-9434 9435 0
-3386 -9434 0
-3387 9436 0
-9435 9436 0
-3387 -9435 0
-3388 9437 0
-9436 9437 0
-3388 -9436 0
-3389 9438 0
-9437 9438 0
-3389 -9437 0
-3390 9439 0
-9438 9439 0
-3390 -9438 0
-3391 9440 0
-9439 9440 0
-3391 -9439 0
-3392 9441 0
-9440 9441 0
-3392 -9440 0
-3393 9442 0
-9441 9442 0
-3393 -9441 0
-3394 9443 0
-9442 9443 0
-3394 -9442 0
-3395 9444 0
-9443 9444 0
-3395 -9443 0
-3396 9445 0
-9444 9445 0
-3396 -9444 0
-3397 9446 0
-9445 9446 0
-3397 -9445 0
-3398 9447 0
-9446 9447 0
-3398 -9446 0
-3399 9448 0
-9447 9448 0
-3399 -9447 0
-3400 9449 0
-9448 9449 0
-3400 -9448 0
-3401 9450 0
-9449 9450 0
-3401 -9449 0
-3402 9451 0
-9450 9451 0
-3402 -9450 0
-3403 -9451 0
16 203 265 449 509 689 749 917 973 1141 1197 1365 1421 1589 1645 1805 1853 1997 2045 2189 2237 2381 2429 2573 2621 2765 2813 2957 3005 3149 3197 3404 3405 3406 3407 3408 3409 3410 3411 3412 3413 3414 3415 3416 3417 3418 3419 3420 3421 3422 3423 3424 3425 3426 3427 3428 3429 3430 3431 3432 3433 3434 3435 0
-16 9452 0
-203 9453 0
-9452 9453 0
-203 -9452 0
-265 9454 0
-9453 9454 0
-265 -9453 0
-449 9455 0
-9454 9455 0
-449 -9454 0
-509 9456 0
-9455 9456 0
-509 -9455 0
-689 9457 0
-9456 9457 0
-689 -9456 0
-749 9458 0
-9457 9458 0
-749 -9457 0
-917 9459 0
-9458 9459 0
-917 -9458 0
-973 9460 0
-9459 9460 0
-973 -9459 0
-1141 9461 0
-9460 9461 0
-1141 -9460 0
-1197 9462 0
-9461 9462 0
-1197 -9461 0
-1365 9463 0
-9462 9463 0
-1365 -9462 0
-1421 9464 0
-9463 9464 0
-1421 -9463 0
-1589 9465 0
-9464 9465 0
-1589 -9464 0
-1645 9466 0
-9465 9466 0
-1645 -9465 0
-1805 9467 0
-9466 9467 0
-1805 -9466 0
-1853 9468 0
-9467 9468 0
-1853 -9467 0
-1997 9469 0
-9468 9469 0
-1997 -9468 0
-2045 9470 0
-9469 9470 0
-2045 -9469 0
-2189 9471 0
-9470 9471 0
-2189 -9470 0
-2237 9472 0
-9471 9472 0
-2237 -9471 0
-2381 9473 0
-9472 9473 0
-2381 -9472 0
-2429 9474 0
-9473 9474 0
-2429 -9473 0
-2573 9475 0
-9474 9475 0
-2573 -9474 0
-2621 9476 0
-9475 9476 0
-2621 -9475 0
-2765 9477 0
-9476 9477 0
-2765 -9476 0
-2813 9478 0
-9477 9478 0
-2813 -9477 0
-2957 9479 0
-9478 9479 0
-2957 -9478 0
-3005 9480 0
-9479 9480 0
-3005 -9479 0
-3149 9481 0
-9480 9481 0
-3149 -9480 0
-3197 9482 0
-9481 9482 0
-3197 -9481 0
-3404 9483 0
-9482 9483 0
-3404 -9482 0
-3405 9484 0
-9483 9484 0
-3405 -9483 0
-3406 9485 0
-9484 9485 0
-3406 -9484 0
-3407 9486 0
-9485 9486 0
-3407 -9485 0
-3408 9487 0
-9486 9487 0
-3408 -9486 0
-3409 9488 0
-9487 9488 0
-3409 -9487 0
-3410 9489 0
-9488 9489 0
-3410 -9488 0
-3411 9490 0
-9489 9490 0
-3411 -9489 0
-3412 9491 0
-9490 9491 0
-3412 -9490 0
-3413 9492 0
-9491 9492 0
-3413 -9491 0
-3414 9493 0
-9492 9493 0
-3414 -9492 0
-3415 9494 0
-9493 9494 0
-3415 -9493 0
-3416 9495 0
-9494 9495 0
-3416 -9494 0
-3417 9496 0
-9495 9496 0
-3417 -9495 0
-3418 9497 0
-9496 9497 0
-3418 -9496 0
-3419 9498 0
-9497 9498 0
-3419 -9497 0
-3420 9499 0
-9498 9499 0
-3420 -9498 0
-3421 9500 0
-9499 9500 0
-3421 -9499 0
-3422 9501 0
-9500 9501 0
-3422 -9500 0
-3423 9502 0
-9501 9502 0
-3423 -9501 0
-3424 9503 0
-9502 9503 0
-3424 -9502 0
-3425 9504 0
-9503 9504 0
-3425 -9503 0
-3426 9505 0
-9504 9505 0
-3426 -9504 0
-3427 9506 0
-9505 9506 0
-3427 -9505 0
-3428 9507 0
-9506 9507 0
-3428 -9506 0
-3429 9508 0
-9507 9508 0
-3429 -9507 0
-3430 9509 0
-9508 9509 0
-3430 -9508 0
-3431 9510 0
-9509 9510 0
-3431 -9509 0
-3432 9511 0
-9510 9511 0
-3432 -9510 0
-3433 9512 0
-9511 9512 0
-3433 -9511 0
-3434 9513 0
-9512 9513 0
-3434 -9512 0
-3435 -9513 0
79 204 327 450 569 690 809 918 1029 1142 1253 1366 1477 1590 1701 1806 1901 1998 2093 2190 2285 2382 2477 2574 2669 2766 2861 2958 3053 3150 3245 3436 3437 3438 3439 3440 3441 3442 3443 3444 3445 3446 3447 3448 3449 3450 3451 3452 3453 3454 3455 3456 3457 3458 3459 3460 3461 3462 3463 3464 3465 3466 3467 0
-79 9514 0
-204 9515 0
-9514 9515 0
-204 -9514 0
-327 9516 0
-9515 9516 0
-327 -9515 0
-450 9517 0
-9516 9517 0
-450 -9516 0
-569 9518 0
-9517 9518 0
-569 -9517 0
-690 9519 0
-9518 9519 0
-690 -9518 0
-809 9520 0
-9519 9520 0
-809 -9519 0
-918 9521 0
-9520 9521 0
-918 -9520 0
-1029 9522 0
-9521 9522 0
-1029 -9521 0
-1142 9523 0
-9522 9523 0
-1142 -9522 0
-1253 9524 0
-9523 9524 0
-1253 -9523 0
-1366 9525 0
-9524 9525 0
-1366 -9524 0
-1477 9526 0
-9525 9526 0
-1477 -9525 0
-1590 9527 0
-9526 9527 0
-1590 -9526 0
-1701 9528 0
-9527 9528 0
-1701 -9527 0
-1806 9529 0
-9528 9529 0
-1806 -9528 0
-1901 9530 0
-9529 9530 0
-1901 -9529 0
-1998 9531 0
-9530 9531 0
-1998 -9530 0
-2093 9532 0
-9531 9532 0
-2093 -9531 0
-2190 9533 0
-9532 9533 0
-2190 -9532 0
-2285 9534 0
-9533 9534 0
-2285 -9533 0
-2382 9535 0
-9534 9535 0
-2382 -9534 0
-2477 9536 0
-9535 9536 0
-2477 -9535 0
-2574 9537 0
-9536 9537 0
-2574 -9536 0
-2669 9538 0
-9537 9538 0
-2669 -9537 0
-2766 9539 0
-9538 9539 0
-2766 -9538 0
-2861 9540 0
-9539 9540 0
-2861 -9539 0
-2958 9541 0
-9540 9541 0
-2958 -9540 0
-3053 9542 0
-9541 9542 0
-3053 -9541 0
-3150 9543 0
-9542 9543 0
-3150 -9542 0
-3245 9544 0
-9543 9544 0
-3245 -9543 0
-3436 9545 0
-9544 9545 0
-3436 -9544 0
-3437 9546 0
-9545 9546 0
-3437 -9545 0
-3438 9547 0
-9546 9547 0
-3438 -9546 0
-3439 9548 0
-9547 9548 0
-3439 -9547 0
-3440 9549 0
-9548 9549 0
-3440 -9548 0
-3441 9550 0
-9549 9550 0
-3441 -9549 0
-3442 9551 0
-9550 9551 0
-3442 -9550 0
-3443 9552 0
-9551 9552 0
-3443 -9551 0
-3444 9553 0
-9552 9553 0
-3444 -9552 0
-3445 9554 0
-9553 9554 0
-3445 -9553 0
-3446 9555 0
-9554 9555 0
-3446 -9554 0
-3447 9556 0
-9555 9556 0
-3447 -9555 0
-3448 9557 0
-9556 9557 0
-3448 -9556 0
-3449 9558 0
-9557 9558 0
-3449 -9557 0
-3450 9559 0
-9558 9559 0
-3450 -9558 0
-3451 9560 0
-9559 9560 0
-3451 -9559 0
-3452 9561 0
-9560 9561 0
-3452 -9560 0
-3453 9562 0
-9561 9562 0
-3453 -9561 0
-3454 9563 0
-9562 9563 0
-3454 -9562 0
-3455 9564 0
-9563 9564 0
-3455 -9563 0
-3456 9565 0
-9564 9565 0
-3456 -9564 0
-3457 9566 0
-9565 9566 0
-3457 -9565 0
-3458 9567 0
-9566 9567 0
-3458 -9566 0
-3459 9568 0
-9567 9568 0
-3459 -9567 0
-3460 9569 0
-9568 9569 0
-3460 -9568 0
-3461 9570 0
-9569 9570 0
-3461 -9569 0
-3462 9571 0
-9570 9571 0
-3462 -9570 0
-3463 9572 0
-9571 9572 0
-3463 -9571 0
-3464 9573 0
-9572 9573 0
-3464 -9572 0
-3465 9574 0
-9573 9574 0
-3465 -9573 0
-3466 9575 0
-9574 9575 0
-3466 -9574 0
-3467 -9575 0
142 205 389 451 629 691 869 919 1085 1143 1309 1367 1533 1591 1757 1807 1949 1999 2141 2191 2333 2383 2525 2575 2717 2767 2909 2959 3101 3151 3293 3468 3469 3470 3471 3472 3473 3474 3475 3476 3477 3478 3479 3480 3481 3482 3483 3484 3485 3486 3487 3488 3489 3490 3491 3492 3493 3494 3495 3496 3497 3498 3499 0
-142 9576 0
-205 9577 0
-9576 9577 0
-205 -9576 0
-389 9578 0
-9577 9578 0
-389 -9577 0
-451 9579 0
-9578 9579 0
-451 -9578 0
-629 9580 0
-9579 9580 0
-629 -9579 0
-691 9581 0
-9580 9581 0
-691 -9580 0
-869 9582 0
-9581 9582 0
-869 -9581 0
-919 9583 0
-9582 9583 0
-919 -9582 0
-1085 9584 0
-9583 9584 0
-1085 -9583 0
-1143 9585 0
-9584 9585 0
-1143 -9584 0
-1309 9586 0
-9585 9586 0
-1309 -9585 0
-1367 9587 0
-9586 9587 0
-1367 -9586 0
-1533 9588 0
-9587 9588 0
-1533 -9587 0
-1591 9589 0
-9588 9589 0
-1591 -9588 0
-1757 9590 0
-9589 9590 0
-1757 -9589 0
-1807 9591 0
-9590 9591 0
-1807 -9590 0
-1949 9592 0
-9591 9592 0
-1949 -9591 0
-1999 9593 0
-9592 9593 0
-1999 -9592 0
-2141 9594 0
-9593 9594 0
-2141 -9593 0
-2191 9595 0
-9594 9595 0
-2191 -9594 0
-2333 9596 0
-9595 9596 0
-2333 -9595 0
-2383 9597 0
-9596 9597 0
-2383 -9596 0
-2525 9598 0
-9597 9598 0
-2525 -9597 0
-2575 9599 0
-9598 9599 0
-2575 -9598 0
-2717 9600 0
-9599 9600 0
-2717 -9599 0
-2767 9601 0
-9600 9601 0
-2767 -9600 0
-2909 9602 0
-9601 9602 0
-2909 -9601 0
-2959 9603 0
-9602 9603 0
-2959 -9602 0
-3101 9604 0
-9603 9604 0
-3101 -9603 0
-3151 9605 0
-9604 9605 0
-3151 -9604 0
-3293 9606 0
-9605 9606 0
-3293 -9605 0
-3468 9607 0
-9606 9607 0
-3468 -9606 0
-3469 9608 0
-9607 9608 0
-3469 -9607 0
-3470 9609 0
-9608 9609 0
-3470 -9608 0
-3471 9610 0
-9609 9610 0
-3471 -9609 0
-3472 9611 0
-9610 9611 0
-3472 -9610 0
-3473 9612 0
-9611 9612 0
-3473 -9611 0
-3474 9613 0
-9612 9613 0
-3474 -9612 0
-3475 9614 0
-9613 9614 0
-3475 -9613 0
-3476 9615 0
-9614 9615 0
-3476 -9614 0
-3477 9616 0
-9615 9616 0
-3477 -9615 0
-3478 9617 0
-9616 9617 0
-3478 -9616 0
-3479 9618 0
-9617 9618 0
-3479 -9617 0
-3480 9619 0
-9618 9619 0
-3480 -9618 0
-3481 9620 0
-9619 9620 0
-3481 -9619 0
-3482 9621 0
-9620 9621 0
-3482 -9620 0
-3483 9622 0
-9621 9622 0
-3483 -9621 0
-3484 9623 0
-9622 9623 0
-3484 -9622 0
-3485 9624 0
-9623 9624 0
-3485 -9623 0
-3486 9625 0
-9624 9625 0
-3486 -9624 0
-3487 9626 0
-9625 9626 0
-3487 -9625 0
-3488 9627 0
-9626 9627 0
-3488 -9626 0
-3489 9628 0
-9627 9628 0
-3489 -9627 0
-3490 9629 0
-9628 9629 0
-3490 -9628 0
-3491 9630 0
-9629 9630 0
-3491 -9629 0
-3492 9631 0
-9630 9631 0
-3492 -9630 0
-3493 9632 0
-9631 9632 0
-3493 -9631 0
-3494 9633 0
-9632 9633 0
-3494 -9632 0
-3495 9634 0
-9633 9634 0
-3495 -9633 0
-3496 9635 0
-9634 9635 0
-3496 -9634 0
-3497 9636 0
-9635 9636 0
-3497 -9635 0
-3498 9637 0
-9636 9637 0
-3498 -9636 0
-3499 -9637 0
17 80 143 202 265 327 389 920 974 1030 1086 1144 1198 1254 1310 1808 1854 1902 1950 2000 2046 2094 2142 2576 2622 2670 2718 2768 2814 2862 2910 3500 3501 3502 3503 3504 3505 3506 3507 3508 3509 3510 3511 3512 3513 3514 3515 3516 3517 3518 3519 3520 3521 3522 3523 3524 3525 3526 3527 3528 3529 3530 3531 0
-17 9638 0
-80 9639 0
-9638 9639 0
-80 -9638 0
-143 9640 0
-9639 9640 0
-143 -9639 0
-202 9641 0
-9640 9641 0
-202 -9640 0
-265 9642 0
-9641 9642 0
-265 -9641 0
-327 9643 0
-9642 9643 0
-327 -9642 0
-389 9644 0
-9643 9644 0
-389 -9643 0
-920 9645 0
-9644 9645 0
-920 -9644 0
-974 9646 0
-9645 9646 0
-974 -9645 0
-1030 9647 0
-9646 9647 0
-1030 -9646 0
-1086 9648 0
-9647 9648 0
-1086 -9647 0
-1144 9649 0
-9648 9649 0
-1144 -9648 0
-1198 9650 0
-9649 9650 0
-1198 -9649 0
-1254 9651 0
-9650 9651 0
-1254 -9650 0
-1310 9652 0
-9651 9652 0
-1310 -9651 0
-1808 9653 0
-9652 9653 0
-1808 -9652 0
-1854 9654 0
-9653 9654 0
-1854 -9653 0
-1902 9655 0
-9654 9655 0
-1902 -9654 0
-1950 9656 0
-9655 9656 0
-1950 -9655 0
-2000 9657 0
-9656 9657 0
-2000 -9656 0
-2046 9658 0
-9657 9658 0
-2046 -9657 0
-2094 9659 0
-9658 9659 0
-2094 -9658 0
-2142 9660 0
-9659 9660 0
-2142 -9659 0
-2576 9661 0
-9660 9661 0
-2576 -9660 0
-2622 9662 0
-9661 9662 0
-2622 -9661 0
-2670 9663 0
-9662 9663 0
-2670 -9662 0
-2718 9664 0
-9663 9664 0
-2718 -9663 0
-2768 9665 0
-9664 9665 0
-2768 -9664 0
-2814 9666 0
-9665 9666 0
-2814 -9665 0
-2862 9667 0
-9666 9667 0
-2862 -9666 0
-2910 9668 0
-9667 9668 0
-2910 -9667 0
-3500 9669 0
-9668 9669 0
-3500 -9668 0
-3501 9670 0
-9669 9670 0
-3501 -9669 0
-3502 9671 0
-9670 9671 0
-3502 -9670 0
-3503 9672 0
-9671 9672 0
-3503 -9671 0
-3504 9673 0
-9672 9673 0
-3504 -9672 0
-3505 9674 0
-9673 9674 0
-3505 -9673 0
-3506 9675 0
-9674 9675 0
-3506 -9674 0
-3507 9676 0
-9675 9676 0
-3507 -9675 0
-3508 9677 0
-9676 9677 0
-3508 -9676 0
-3509 9678 0
-9677 9678 0
-3509 -9677 0
-3510 9679 0
-9678 9679 0
-3510 -9678 0
-3511 9680 0
-9679 9680 0
-3511 -9679 0
-3512 9681 0
-9680 9681 0
-3512 -9680 0
-3513 9682 0
-9681 9682 0
-3513 -9681 0
-3514 9683 0
-9682 9683 0
-3514 -9682 0
-3515 9684 0
-9683 9684 0
-3515 -9683 0
-3516 9685 0
-9684 9685 0
-3516 -9684 0
-3517 9686 0
-9685 9686 0
-3517 -9685 0
-3518 9687 0
-9686 9687 0
-3518 -9686 0
-3519 9688 0
-9687 9688 0
-3519 -9687 0
-3520 9689 0
-9688 9689 0
-3520 -9688 0
-3521 9690 0
-9689 9690 0
-3521 -9689 0
-3522 9691 0
-9690 9691 0
-3522 -9690 0
-3523 9692 0
-9691 9692 0
-3523 -9691 0
-3524 9693 0
-9692 9693 0
-3524 -9692 0
-3525 9694 0
-9693 9694 0
-3525 -9693 0
-3526 9695 0
-9694 9695 0
-3526 -9694 0
-3527 9696 0
-9695 9696 0
-3527 -9695 0
-3528 9697 0
-9696 9697 0
-3528 -9696 0
-3529 9698 0
-9697 9698 0
-3529 -9697 0
-3530 9699 0
-9698 9699 0
-3530 -9698 0
-3531 -9699 0
17 203 264 570 630 810 870 921 975 1145 1199 1478 1534 1702 1758 1809 1855 2001 2047 2286 2334 2478 2526 2577 2623 2769 2815 3054 3102 3246 3294 3532 3533 3534 3535 3536 3537 3538 3539 3540 3541 3542 3543 3544 3545 3546 3547 3548 3549 3550 3551 3552 3553 3554 3555 3556 3557 3558 3559 3560 3561 3562 3563 0
-17 9700 0
-203 9701 0
-9700 9701 0
-203 -9700 0
-264 9702 0
-9701 9702 0
-264 -9701 0
-570 9703 0
-9702 9703 0
-570 -9702 0
-630 9704 0
-9703 9704 0
-630 -9703 0
-810 9705 0
-9704 9705 0
-810 -9704 0
-870 9706 0
-9705 9706 0
-870 -9705 0
-921 9707 0
-9706 9707 0
-921 -9706 0
-975 9708 0
-9707 9708 0
-975 -9707 0
-1145 9709 0
-9708 9709 0
-1145 -9708 0
-1199 9710 0
-9709 9710 0
-1199 -9709 0
-1478 9711 0
-9710 9711 0
-1478 -9710 0
-1534 9712 0
-9711 9712 0
-1534 -9711 0
-1702 9713 0
-9712 9713 0
-1702 -9712 0
-1758 9714 0
-9713 9714 0
-1758 -9713 0
-1809 9715 0
-9714 9715 0
-1809 -9714 0
-1855 9716 0
-9715 9716 0
-1855 -9715 0
-2001 9717 0
-9716 9717 0
-2001 -9716 0
-2047 9718 0
-9717 9718 0
-2047 -9717 0
-2286 9719 0
-9718 9719 0
-2286 -9718 0
-2334 9720 0
-9719 9720 0
-2334 -9719 0
-2478 9721 0
-9720 9721 0
-2478 -9720 0
-2526 9722 0
-9721 9722 0
-2526 -9721 0
-2577 9723 0
-9722 9723 0
-2577 -9722 0
-2623 9724 0
-9723 9724 0
-2623 -9723 0
-2769 9725 0
-9724 9725 0
-2769 -9724 0
-2815 9726 0
-9725 9726 0
-2815 -9725 0
-3054 9727 0
-9726 9727 0
-3054 -9726 0
-3102 9728 0
-9727 9728 0
-3102 -9727 0
-3246 9729 0
-9728 9729 0
-3246 -9728 0
-3294 9730 0
-9729 9730 0
-3294 -9729 0
-3532 9731 0
-9730 9731 0
-3532 -9730 0
-3533 9732 0
-9731 9732 0
-3533 -9731 0
-3534 9733 0
-9732 9733 0
-3534 -9732 0
-3535 9734 0
-9733 9734 0
-3535 -9733 0
-3536 9735 0
-9734 9735 0
-3536 -9734 0
-3537 9736 0
-9735 9736 0
-3537 -9735 0
-3538 9737 0
-9736 9737 0
-3538 -9736 0
-3539 9738 0
-9737 9738 0
-3539 -9737 0
-3540 9739 0
-9738 9739 0
-3540 -9738 0
-3541 9740 0
-9739 9740 0
-3541 -9739 0
-3542 9741 0
-9740 9741 0
-3542 -9740 0
-3543 9742 0
-9741 9742 0
-3543 -9741 0
-3544 9743 0
-9742 9743 0
-3544 -9742 0
-3545 9744 0
-9743 9744 0
-3545 -9743 0
-3546 9745 0
-9744 9745 0
-3546 -9744 0
-3547 9746 0
-9745 9746 0
-3547 -9745 0
-3548 9747 0
-9746 9747 0
-3548 -9746 0
-3549 9748 0
-9747 9748 0
-3549 -9747 0
-3550 9749 0
-9748 9749 0
-3550 -9748 0
-3551 9750 0
-9749 9750 0
-3551 -9749 0
-3552 9751 0
-9750 9751 0
-3552 -9750 0
-3553 9752 0
-9751 9752 0
-3553 -9751 0
-3554 9753 0
-9752 9753 0
-3554 -9752 0
-3555 9754 0
-9753 9754 0
-3555 -9753 0
-3556 9755 0
-9754 9755 0
-3556 -9754 0
-3557 9756 0
-9755 9756 0
-3557 -9755 0
-3558 9757 0
-9756 9757 0
-3558 -9756 0
-3559 9758 0
-9757 9758 0
-3559 -9757 0
-3560 9759 0
-9758 9759 0
-3560 -9758 0
-3561 9760 0
-9759 9760 0
-3561 -9759 0
-3562 9761 0
-9760 9761 0
-3562 -9760 0
-3563 -9761 0
80 204 326 510 631 750 871 922 1031 1146 1255 1422 1535 1646 1759 1810 1903 2002 2095 2238 2335 2430 2527 2578 2671 2770 2863 3006 3103 3198 3295 3564 3565 3566 3567 3568 3569 3570 3571 3572 3573 3574 3575 3576 3577 3578 3579 3580 3581 3582 3583 3584 3585 3586 3587 3588 3589 3590 3591 3592 3593 3594 3595 0
-80 9762 0
-204 9763 0
-9762 9763 0
-204 -9762 0
-326 9764 0
-9763 9764 0
-326 -9763 0
-510 9765 0
-9764 9765 0
-510 -9764 0
-631 9766 0
-9765 9766 0
-631 -9765 0
-750 9767 0
-9766 9767 0
-750 -9766 0
-871 9768 0
-9767 9768 0
-871 -9767 0
-922 9769 0
-9768 9769 0
-922 -9768 0
-1031 9770 0
-9769 9770 0
-1031 -9769 0
-1146 9771 0
-9770 9771 0
-1146 -9770 0
-1255 9772 0
-9771 9772 0
-1255 -9771 0
-1422 9773 0
-9772 9773 0
-1422 -9772 0
-1535 9774 0
-9773 9774 0
-1535 -9773 0
-1646 9775 0
-9774 9775 0
-1646 -9774 0
-1759 9776 0
-9775 9776 0
-1759 -9775 0
-1810 9777 0
-9776 9777 0
-1810 -9776 0
-1903 9778 0
-9777 9778 0
-1903 -9777 0
-2002 9779 0
-9778 9779 0
-2002 -9778 0
-2095 9780 0
-9779 9780 0
-2095 -9779 0
-2238 9781 0
-9780 9781 0
-2238 -9780 0
-2335 9782 0
-9781 9782 0
-2335 -9781 0
-2430 9783 0
-9782 9783 0
-2430 -9782 0
-2527 9784 0
-9783 9784 0
-2527 -9783 0
-2578 9785 0
-9784 9785 0
-2578 -9784 0
-2671 9786 0
-9785 9786 0
-2671 -9785 0
-2770 9787 0
-9786 9787 0
-2770 -9786 0
-2863 9788 0
-9787 9788 0
-2863 -9787 0
-3006 9789 0
-9788 9789 0
-3006 -9788 0
-3103 9790 0
-9789 9790 0
-3103 -9789 0
-3198 9791 0
-9790 9791 0
-3198 -9790 0
-3295 9792 0
-9791 9792 0
-3295 -9791 0
-3564 9793 0
-9792 9793 0
-3564 -9792 0
-3565 9794 0
-9793 9794 0
-3565 -9793 0
-3566 9795 0
-9794 9795 0
-3566 -9794 0
-3567 9796 0
-9795 9796 0
-3567 -9795 0
-3568 9797 0
-9796 9797 0
-3568 -9796 0
-3569 9798 0
-9797 9798 0
-3569 -9797 0
-3570 9799 0
-9798 9799 0
-3570 -9798 0
-3571 9800 0
-9799 9800 0
-3571 -9799 0
-3572 9801 0
-9800 9801 0
-3572 -9800 0
-3573 9802 0
-9801 9802 0
-3573 -9801 0
-3574 9803 0
-9802 9803 0
-3574 -9802 0
-3575 9804 0
-9803 9804 0
-3575 -9803 0
-3576 9805 0
-9804 9805 0
-3576 -9804 0
-3577 9806 0
-9805 9806 0
-3577 -9805 0
-3578 9807 0
-9806 9807 0
-3578 -9806 0
-3579 9808 0
-9807 9808 0
-3579 -9807 0
-3580 9809 0
-9808 9809 0
-3580 -9808 0
-3581 9810 0
-9809 9810 0
-3581 -9809 0
-3582 9811 0
-9810 9811 0
-3582 -9810 0
-3583 9812 0
-9811 9812 0
-3583 -9811 0
-3584 9813 0
-9812 9813 0
-3584 -9812 0
-3585 9814 0
-9813 9814 0
-3585 -9813 0
-3586 9815 0
-9814 9815 0
-3586 -9814 0
-3587 9816 0
-9815 9816 0
-3587 -9815 0
-3588 9817 0
-9816 9817 0
-3588 -9816 0
-3589 9818 0
-9817 9818 0
-3589 -9817 0
-3590 9819 0
-9818 9819 0
-3590 -9818 0
-3591 9820 0
-9819 9820 0
-3591 -9819 0
-3592 9821 0
-9820 9821 0
-3592 -9820 0
-3593 9822 0
-9821 9822 0
-3593 -9821 0
-3594 9823 0
-9822 9823 0
-3594 -9822 0
-3595 -9823 0
143 205 388 511 571 751 811 923 1087 1147 1311 1423 1479 1647 1703 1811 1951 2003 2143 2239 2287 2431 2479 2579 2719 2771 2911 3007 3055 3199 3247 3596 3597 3598 3599 3600 3601 3602 3603 3604 3605 3606 3607 3608 3609 3610 3611 3612 3613 3614 3615 3616 3617 3618 3619 3620 3621 3622 3623 3624 3625 3626 3627 0
-143 9824 0
-205 9825 0
-9824 9825 0
-205 -9824 0
-388 9826 0
-9825 9826 0
-388 -9825 0
-511 9827 0
-9826 9827 0
-511 -9826 0
-571 9828 0
-9827 9828 0
-571 -9827 0
-751 9829 0
-9828 9829 0
-751 -9828 0
-811 9830 0
-9829 9830 0
-811 -9829 0
-923 9831 0
-9830 9831 0
-923 -9830 0
-1087 9832 0
-9831 9832 0
-1087 -9831 0
-1147 9833 0
-9832 9833 0
-1147 -9832 0
-1311 9834 0
-9833 9834 0
-1311 -9833 0
-1423 9835 0
-9834 9835 0
-1423 -9834 0
-1479 9836 0
-9835 9836 0
-1479 -9835 0
-1647 9837 0
-9836 9837 0
-1647 -9836 0
-1703 9838 0
-9837 9838 0
-1703 -9837 0
-1811 9839 0
-9838 9839 0
-1811 -9838 0
-1951 9840 0
-9839 9840 0
-1951 -9839 0
-2003 9841 0
-9840 9841 0
-2003 -9840 0
-2143 9842 0
-9841 9842 0
-2143 -9841 0
-2239 9843 0
-9842 9843 0
-2239 -9842 0
-2287 9844 0
-9843 9844 0
-2287 -9843 0
-2431 9845 0
-9844 9845 0
-2431 -9844 0
-2479 9846 0
-9845 9846 0
-2479 -9845 0
-2579 9847 0
-9846 9847 0
-2579 -9846 0
-2719 9848 0
-9847 9848 0
-2719 -9847 0
-2771 9849 0
-9848 9849 0
-2771 -9848 0
-2911 9850 0
-9849 9850 0
-2911 -9849 0
-3007 9851 0
-9850 9851 0
-3007 -9850 0
-3055 9852 0
-9851 9852 0
-3055 -9851 0
-3199 9853 0
-9852 9853 0
-3199 -9852 0
-3247 9854 0
-9853 9854 0
-3247 -9853 0
-3596 9855 0
-9854 9855 0
-3596 -9854 0
-3597 9856 0
-9855 9856 0
-3597 -9855 0
-3598 9857 0
-9856 9857 0
-3598 -9856 0
-3599 9858 0
-9857 9858 0
-3599 -9857 0
-3600 9859 0
-9858 9859 0
-3600 -9858 0
-3601 9860 0
-9859 9860 0
-3601 -9859 0
-3602 9861 0
-9860 9861 0
-3602 -9860 0
-3603 9862 0
-9861 9862 0
-3603 -9861 0
-3604 9863 0
-9862 9863 0
-3604 -9862 0
-3605 9864 0
-9863 9864 0
-3605 -9863 0
-3606 9865 0
-9864 9865 0
-3606 -9864 0
-3607 9866 0
-9865 9866 0
-3607 -9865 0
-3608 9867 0
-9866 9867 0
-3608 -9866 0
-3609 9868 0
-9867 9868 0
-3609 -9867 0
-3610 9869 0
-9868 9869 0
-3610 -9868 0
-3611 9870 0
-9869 9870 0
-3611 -9869 0
-3612 9871 0
-9870 9871 0
-3612 -9870 0
-3613 9872 0
-9871 9872 0
-3613 -9871 0
-3614 9873 0
-9872 9873 0
-3614 -9872 0
-3615 9874 0
-9873 9874 0
-3615 -9873 0
-3616 9875 0
-9874 9875 0
-3616 -9874 0
-3617 9876 0
-9875 9876 0
-3617 -9875 0
-3618 9877 0
-9876 9877 0
-3618 -9876 0
-3619 9878 0
-9877 9878 0
-3619 -9877 0
-3620 9879 0
-9878 9879 0
-3620 -9878 0
-3621 9880 0
-9879 9880 0
-3621 -9879 0
-3622 9881 0
-9880 9881 0
-3622 -9880 0
-3623 9882 0
-9881 9882 0
-3623 -9881 0
-3624 9883 0
-9882 9883 0
-3624 -9882 0
-3625 9884 0
-9883 9884 0
-3625 -9883 0
-3626 9885 0
-9884 9885 0
-3626 -9884 0
-3627 -9885 0
18 81 144 448 509 569 629 924 976 1032 1088 1368 1424 1480 1536 1812 1856 1904 1952 2192 2240 2288 2336 2580 2624 2672 2720 2960 3008 3056 3104 3628 3629 3630 3631 3632 3633 3634 3635 3636 3637 3638 3639 3640 3641 3642 3643 3644 3645 3646 3647 3648 3649 3650 3651 3652 3653 3654 3655 3656 3657 3658 3659 0
-18 9886 0
-81 9887 0
-9886 9887 0
-81 -9886 0
-144 9888 0
-9887 9888 0
-144 -9887 0
-448 9889 0
-9888 9889 0
-448 -9888 0
-509 9890 0
-9889 9890 0
-509 -9889 0
-569 9891 0
-9890 9891 0
-569 -9890 0
-629 9892 0
-9891 9892 0
-629 -9891 0
-924 9893 0
-9892 9893 0
-924 -9892 0
-976 9894 0
-9893 9894 0
-976 -9893 0
-1032 9895 0
-9894 9895 0
-1032 -9894 0
-1088 9896 0
-9895 9896 0
-1088 -9895 0
-1368 9897 0
-9896 9897 0
-1368 -9896 0
-1424 9898 0
-9897 9898 0
-1424 -9897 0
-1480 9899 0
-9898 9899 0
-1480 -9898 0
-1536 9900 0
-9899 9900 0
-1536 -9899 0
-1812 9901 0
-9900 9901 0
-1812 -9900 0
-1856 9902 0
-9901 9902 0
-1856 -9901 0
-1904 9903 0
-9902 9903 0
-1904 -9902 0
-1952 9904 0
-9903 9904 0
-1952 -9903 0
-2192 9905 0
-9904 9905 0
-2192 -9904 0
-2240 9906 0
-9905 9906 0
-2240 -9905 0
-2288 9907 0
-9906 9907 0
-2288 -9906 0
-2336 9908 0
-9907 9908 0
-2336 -9907 0
-2580 9909 0
-9908 9909 0
-2580 -9908 0
-2624 9910 0
-9909 9910 0
-2624 -9909 0
-2672 9911 0
-9910 9911 0
-2672 -9910 0
-2720 9912 0
-9911 9912 0
-2720 -9911 0
-2960 9913 0
-9912 9913 0
-2960 -9912 0
-3008 9914 0
-9913 9914 0
-3008 -9913 0
-3056 9915 0
-9914 9915 0
-3056 -9914 0
-3104 9916 0
-9915 9916 0
-3104 -9915 0
-3628 9917 0
-9916 9917 0
-3628 -9916 0
-3629 9918 0
-9917 9918 0
-3629 -9917 0
-3630 9919 0
-9918 9919 0
-3630 -9918 0
-3631 9920 0
-9919 9920 0
-3631 -9919 0
-3632 9921 0
-9920 9921 0
-3632 -9920 0
-3633 9922 0
-9921 9922 0
-3633 -9921 0
-3634 9923 0
-9922 9923 0
-3634 -9922 0
-3635 9924 0
-9923 9924 0
-3635 -9923 0
-3636 9925 0
-9924 9925 0
-3636 -9924 0
-3637 9926 0
-9925 9926 0
-3637 -9925 0
-3638 9927 0
-9926 9927 0
-3638 -9926 0
-3639 9928 0
-9927 9928 0
-3639 -9927 0
-3640 9929 0
-9928 9929 0
-3640 -9928 0
-3641 9930 0
-9929 9930 0
-3641 -9929 0
-3642 9931 0
-9930 9931 0
-3642 -9930 0
-3643 9932 0
-9931 9932 0
-3643 -9931 0
-3644 9933 0
-9932 9933 0
-3644 -9932 0
-3645 9934 0
-9933 9934 0
-3645 -9933 0
-3646 9935 0
-9934 9935 0
-3646 -9934 0
-3647 9936 0
-9935 9936 0
-3647 -9935 0
-3648 9937 0
-9936 9937 0
-3648 -9936 0
-3649 9938 0
-9937 9938 0
-3649 -9937 0
-3650 9939 0
-9938 9939 0
-3650 -9938 0
-3651 9940 0
-9939 9940 0
-3651 -9939 0
-3652 9941 0
-9940 9941 0
-3652 -9940 0
-3653 9942 0
-9941 9942 0
-3653 -9941 0
-3654 9943 0
-9942 9943 0
-3654 -9942 0
-3655 9944 0
-9943 9944 0
-3655 -9943 0
-3656 9945 0
-9944 9945 0
-3656 -9944 0
-3657 9946 0
-9945 9946 0
-3657 -9945 0
-3658 9947 0
-9946 9947 0
-3658 -9946 0
-3659 -9947 0
18 328 390 449 508 811 871 925 977 1256 1312 1369 1425 1704 1760 1813 1857 2096 2144 2193 2241 2480 2528 2581 2625 2864 2912 2961 3009 3248 3296 3660 3661 3662 3663 3664 3665 3666 3667 3668 3669 3670 3671 3672 3673 3674 3675 3676 3677 3678 3679 3680 3681 3682 3683 3684 3685 3686 3687 3688 3689 3690 3691 0
-18 9948 0
-328 9949 0
-9948 9949 0
-328 -9948 0
-390 9950 0
-9949 9950 0
-390 -9949 0
-449 9951 0
-9950 9951 0
-449 -9950 0
-508 9952 0
-9951 9952 0
-508 -9951 0
-811 9953 0
-9952 9953 0
-811 -9952 0
-871 9954 0
-9953 9954 0
-871 -9953 0
-925 9955 0
-9954 9955 0
-925 -9954 0
-977 9956 0
-9955 9956 0
-977 -9955 0
-1256 9957 0
-9956 9957 0
-1256 -9956 0
-1312 9958 0
-9957 9958 0
-1312 -9957 0
-1369 9959 0
-9958 9959 0
-1369 -9958 0
-1425 9960 0
-9959 9960 0
-1425 -9959 0
-1704 9961 0
-9960 9961 0
-1704 -9960 0
-1760 9962 0
-9961 9962 0
-1760 -9961 0
-1813 9963 0
-9962 9963 0
-1813 -9962 0
-1857 9964 0
-9963 9964 0
-1857 -9963 0
-2096 9965 0
-9964 9965 0
-2096 -9964 0
-2144 9966 0
-9965 9966 0
-2144 -9965 0
-2193 9967 0
-9966 9967 0
-2193 -9966 0
-2241 9968 0
-9967 9968 0
-2241 -9967 0
-2480 9969 0
-9968 9969 0
-2480 -9968 0
-2528 9970 0
-9969 9970 0
-2528 -9969 0
-2581 9971 0
-9970 9971 0
-2581 -9970 0
-2625 9972 0
-9971 9972 0
-2625 -9971 0
-2864 9973 0
-9972 9973 0
-2864 -9972 0
-2912 9974 0
-9973 9974 0
-2912 -9973 0
-2961 9975 0
-9974 9975 0
-2961 -9974 0
-3009 9976 0
-9975 9976 0
-3009 -9975 0
-3248 9977 0
-9976 9977 0
-3248 -9976 0
-3296 9978 0
-9977 9978 0
-3296 -9977 0
-3660 9979 0
-9978 9979 0
-3660 -9978 0
-3661 9980 0
-9979 9980 0
-3661 -9979 0
-3662 9981 0
-9980 9981 0
-3662 -9980 0
-3663 9982 0
-9981 9982 0
-3663 -9981 0
-3664 9983 0
-9982 9983 0
-3664 -9982 0
-3665 9984 0
-9983 9984 0
-3665 -9983 0
-3666 9985 0
-9984 9985 0
-3666 -9984 0
-3667 9986 0
-9985 9986 0
-3667 -9985 0
-3668 9987 0
-9986 9987 0
-3668 -9986 0
-3669 9988 0
-9987 9988 0
-3669 -9987 0
-3670 9989 0
-9988 9989 0
-3670 -9988 0
-3671 9990 0
-9989 9990 0
-3671 -9989 0
-3672 9991 0
-9990 9991 0
-3672 -9990 0
-3673 9992 0
-9991 9992 0
-3673 -9991 0
-3674 9993 0
-9992 9993 0
-3674 -9992 0
-3675 9994 0
-9993 9994 0
-3675 -9993 0
-3676 9995 0
-9994 9995 0
-3676 -9994 0
-3677 9996 0
-9995 9996 0
-3677 -9995 0
-3678 9997 0
-9996 9997 0
-3678 -9996 0
-3679 9998 0
-9997 9998 0
-3679 -9997 0
-3680 9999 0
-9998 9999 0
-3680 -9998 0
-3681 10000 0
-9999 10000 0
-3681 -9999 0
-3682 10001 0
-10000 10001 0
-3682 -10000 0
-3683 10002 0
-10001 10002 0
-3683 -10001 0
-3684 10003 0
-10002 10003 0
-3684 -10002 0
-3685 10004 0
-10003 10004 0
-3685 -10003 0
-3686 10005 0
-10004 10005 0
-3686 -10004 0
-3687 10006 0
-10005 10006 0
-3687 -10005 0
-3688 10007 0
-10006 10007 0
-3688 -10006 0
-3689 10008 0
-10007 10008 0
-3689 -10007 0
-3690 10009 0
-10008 10009 0
-3690 -10008 0
-3691 -10009 0
81 266 391 450 568 751 870 926 1033 1200 1313 1370 1481 1648 1761 1814 1905 2048 2145 2194 2289 2432 2529 2582 2673 2816 2913 2962 3057 3200 3297 3692 3693 3694 3695 3696 3697 3698 3699 3700 3701 3702 3703 3704 3705 3706 3707 3708 3709 3710 3711 3712 3713 3714 3715 3716 3717 3718 3719 3720 3721 3722 3723 0
-81 10010 0
-266 10011 0
-10010 10011 0
-266 -10010 0
-391 10012 0
-10011 10012 0
-391 -10011 0
-450 10013 0
-10012 10013 0
-450 -10012 0
-568 10014 0
-10013 10014 0
-568 -10013 0
-751 10015 0
-10014 10015 0
-751 -10014 0
-870 10016 0
-10015 10016 0
-870 -10015 0
-926 10017 0
-10016 10017 0
-926 -10016 0
-1033 10018 0
-10017 10018 0
-1033 -10017 0
-1200 10019 0
-10018 10019 0
-1200 -10018 0
-1313 10020 0
-10019 10020 0
-1313 -10019 0
-1370 10021 0
-10020 10021 0
-1370 -10020 0
-1481 10022 0
-10021 10022 0
-1481 -10021 0
-1648 10023 0
-10022 10023 0
-1648 -10022 0
-1761 10024 0
-10023 10024 0
-1761 -10023 0
-1814 10025 0
-10024 10025 0
-1814 -10024 0
-1905 10026 0
-10025 10026 0
-1905 -10025 0
-2048 10027 0
-10026 10027 0
-2048 -10026 0
-2145 10028 0
-10027 10028 0
-2145 -10027 0
-2194 10029 0
-10028 10029 0
-2194 -10028 0
-2289 10030 0
-10029 10030 0
-2289 -10029 0
-2432 10031 0
-10030 10031 0
-2432 -10030 0
-2529 10032 0
-10031 10032 0
-2529 -10031 0
-2582 10033 0
-10032 10033 0
-2582 -10032 0
-2673 10034 0
-10033 10034 0
-2673 -10033 0
-2816 10035 0
-10034 10035 0
-2816 -10034 0
-2913 10036 0
-10035 10036 0
-2913 -10035 0
-2962 10037 0
-10036 10037 0
-2962 -10036 0
-3057 10038 0
-10037 10038 0
-3057 -10037 0
-3200 10039 0
-10038 10039 0
-3200 -10038 0
-3297 10040 0
-10039 10040 0
-3297 -10039 0
-3692 10041 0
-10040 10041 0
-3692 -10040 0
-3693 10042 0
-10041 10042 0
-3693 -10041 0
-3694 10043 0
-10042 10043 0
-3694 -10042 0
-3695 10044 0
-10043 10044 0
-3695 -10043 0
-3696 10045 0
-10044 10045 0
-3696 -10044 0
-3697 10046 0
-10045 10046 0
-3697 -10045 0
-3698 10047 0
-10046 10047 0
-3698 -10046 0
-3699 10048 0
-10047 10048 0
-3699 -10047 0
-3700 10049 0
-10048 10049 0
-3700 -10048 0
-3701 10050 0
-10049 10050 0
-3701 -10049 0
-3702 10051 0
-10050 10051 0
-3702 -10050 0
-3703 10052 0
-10051 10052 0
-3703 -10051 0
-3704 10053 0
-10052 10053 0
-3704 -10052 0
-3705 10054 0
-10053 10054 0
-3705 -10053 0
-3706 10055 0
-10054 10055 0
-3706 -10054 0
-3707 10056 0
-10055 10056 0
-3707 -10055 0
-3708 10057 0
-10056 10057 0
-3708 -10056 0
-3709 10058 0
-10057 10058 0
-3709 -10057 0
-3710 10059 0
-10058 10059 0
-3710 -10058 0
-3711 10060 0
-10059 10060 0
-3711 -10059 0
-3712 10061 0
-10060 10061 0
-3712 -10060 0
-3713 10062 0
-10061 10062 0
-3713 -10061 0
-3714 10063 0
-10062 10063 0
-3714 -10062 0
-3715 10064 0
-10063 10064 0
-3715 -10063 0
-3716 10065 0
-10064 10065 0
-3716 -10064 0
-3717 10066 0
-10065 10066 0
-3717 -10065 0
-3718 10067 0
-10066 10067 0
-3718 -10066 0
-3719 10068 0
-10067 10068 0
-3719 -10067 0
-3720 10069 0
-10068 10069 0
-3720 -10068 0
-3721 10070 0
-10069 10070 0
-3721 -10069 0
-3722 10071 0
-10070 10071 0
-3722 -10070 0
-3723 -10071 0
144 267 329 451 628 750 810 927 1089 1201 1257 1371 1537 1649 1705 1815 1953 2049 2097 2195 2337 2433 2481 2583 2721 2817 2865 2963 3105 3201 3249 3724 3725 3726 3727 3728 3729 3730 3731 3732 3733 3734 3735 3736 3737 3738 3739 3740 3741 3742 3743 3744 3745 3746 3747 3748 3749 3750 3751 3752 3753 3754 3755 0
-144 10072 0
-267 10073 0
-10072 10073 0
-267 -10072 0
-329 10074 0
-10073 10074 0
-329 -10073 0
-451 10075 0
-10074 10075 0
-451 -10074 0
-628 10076 0
-10075 10076 0
-628 -10075 0
-750 10077 0
-10076 10077 0
-750 -10076 0
-810 10078 0
-10077 10078 0
-810 -10077 0
-927 10079 0
-10078 10079 0
-927 -10078 0
-1089 10080 0
-10079 10080 0
-1089 -10079 0
-1201 10081 0
-10080 10081 0
-1201 -10080 0
-1257 10082 0
-10081 10082 0
-1257 -10081 0
-1371 10083 0
-10082 10083 0
-1371 -10082 0
-1537 10084 0
-10083 10084 0
-1537 -10083 0
-1649 10085 0
-10084 10085 0
-1649 -10084 0
-1705 10086 0
-10085 10086 0
-1705 -10085 0
-1815 10087 0
-10086 10087 0
-1815 -10086 0
-1953 10088 0
-10087 10088 0
-1953 -10087 0
-2049 10089 0
-10088 10089 0
-2049 -10088 0
-2097 10090 0
-10089 10090 0
-2097 -10089 0
-2195 10091 0
-10090 10091 0
-2195 -10090 0
-2337 10092 0
-10091 10092 0
-2337 -10091 0
-2433 10093 0
-10092 10093 0
-2433 -10092 0
-2481 10094 0
-10093 10094 0
-2481 -10093 0
-2583 10095 0
-10094 10095 0
-2583 -10094 0
-2721 10096 0
-10095 10096 0
-2721 -10095 0
-2817 10097 0
-10096 10097 0
-2817 -10096 0
-2865 10098 0
-10097 10098 0
-2865 -10097 0
-2963 10099 0
-10098 10099 0
-2963 -10098 0
-3105 10100 0
-10099 10100 0
-3105 -10099 0
-3201 10101 0
-10100 10101 0
-3201 -10100 0
-3249 10102 0
-10101 10102 0
-3249 -10101 0
-3724 10103 0
-10102 10103 0
-3724 -10102 0
-3725 10104 0
-10103 10104 0
-3725 -10103 0
-3726 10105 0
-10104 10105 0
-3726 -10104 0
-3727 10106 0
-10105 10106 0
-3727 -10105 0
-3728 10107 0
-10106 10107 0
-3728 -10106 0
-3729 10108 0
-10107 10108 0
-3729 -10107 0
-3730 10109 0
-10108 10109 0
-3730 -10108 0
-3731 10110 0
-10109 10110 0
-3731 -10109 0
-3732 10111 0
-10110 10111 0
-3732 -10110 0
-3733 10112 0
-10111 10112 0
-3733 -10111 0
-3734 10113 0
-10112 10113 0
-3734 -10112 0
-3735 10114 0
-10113 10114 0
-3735 -10113 0
-3736 10115 0
-10114 10115 0
-3736 -10114 0
-3737 10116 0
-10115 10116 0
-3737 -10115 0
-3738 10117 0
-10116 10117 0
-3738 -10116 0
-3739 10118 0
-10117 10118 0
-3739 -10117 0
-3740 10119 0
-10118 10119 0
-3740 -10118 0
-3741 10120 0
-10119 10120 0
-3741 -10119 0
-3742 10121 0
-10120 10121 0
-3742 -10120 0
-3743 10122 0
-10121 10122 0
-3743 -10121 0
-3744 10123 0
-10122 10123 0
-3744 -10122 0
-3745 10124 0
-10123 10124 0
-3745 -10123 0
-3746 10125 0
-10124 10125 0
-3746 -10124 0
-3747 10126 0
-10125 10126 0
-3747 -10125 0
-3748 10127 0
-10126 10127 0
-3748 -10126 0
-3749 10128 0
-10127 10128 0
-3749 -10127 0
-3750 10129 0
-10128 10129 0
-3750 -10128 0
-3751 10130 0
-10129 10130 0
-3751 -10129 0
-3752 10131 0
-10130 10131 0
-3752 -10130 0
-3753 10132 0
-10131 10132 0
-3753 -10131 0
-3754 10133 0
-10132 10133 0
-3754 -10132 0
-3755 -10133 0
19 82 145 688 749 809 869 928 978 1034 1090 1592 1650 1706 1762 1816 1858 1906 1954 2384 2434 2482 2530 2584 2626 2674 2722 3152 3202 3250 3298 3756 3757 3758 3759 3760 3761 3762 3763 3764 3765 3766 3767 3768 3769 3770 3771 3772 3773 3774 3775 3776 3777 3778 3779 3780 3781 3782 3783 3784 3785 3786 3787 0
-19 10134 0
-82 10135 0
-10134 10135 0
-82 -10134 0
-145 10136 0
-10135 10136 0
-145 -10135 0
-688 10137 0
-10136 10137 0
-688 -10136 0
-749 10138 0
-10137 10138 0
-749 -10137 0
-809 10139 0
-10138 10139 0
-809 -10138 0
-869 10140 0
-10139 10140 0
-869 -10139 0
-928 10141 0
-10140 10141 0
-928 -10140 0
-978 10142 0
-10141 10142 0
-978 -10141 0
-1034 10143 0
-10142 10143 0
-1034 -10142 0
-1090 10144 0
-10143 10144 0
-1090 -10143 0
-1592 10145 0
-10144 10145 0
-1592 -10144 0
-1650 10146 0
-10145 10146 0
-1650 -10145 0
-1706 10147 0
-10146 10147 0
-1706 -10146 0
-1762 10148 0
-10147 10148 0
-1762 -10147 0
-1816 10149 0
-10148 10149 0
-1816 -10148 0
-1858 10150 0
-10149 10150 0
-1858 -10149 0
-1906 10151 0
-10150 10151 0
-1906 -10150 0
-1954 10152 0
-10151 10152 0
-1954 -10151 0
-2384 10153 0
-10152 10153 0
-2384 -10152 0
-2434 10154 0
-10153 10154 0
-2434 -10153 0
-2482 10155 0
-10154 10155 0
-2482 -10154 0
-2530 10156 0
-10155 10156 0
-2530 -10155 0
-2584 10157 0
-10156 10157 0
-2584 -10156 0
-2626 10158 0
-10157 10158 0
-2626 -10157 0
-2674 10159 0
-10158 10159 0
-2674 -10158 0
-2722 10160 0
-10159 10160 0
-2722 -10159 0
-3152 10161 0
-10160 10161 0
-3152 -10160 0
-3202 10162 0
-10161 10162 0
-3202 -10161 0
-3250 10163 0
-10162 10163 0
-3250 -10162 0
-3298 10164 0
-10163 10164 0
-3298 -10163 0
-3756 10165 0
-10164 10165 0
-3756 -10164 0
-3757 10166 0
-10165 10166 0
-3757 -10165 0
-3758 10167 0
-10166 10167 0
-3758 -10166 0
-3759 10168 0
-10167 10168 0
-3759 -10167 0
-3760 10169 0
-10168 10169 0
-3760 -10168 0
-3761 10170 0
-10169 10170 0
-3761 -10169 0
-3762 10171 0
-10170 10171 0
-3762 -10170 0
-3763 10172 0
-10171 10172 0
-3763 -10171 0
-3764 10173 0
-10172 10173 0
-3764 -10172 0
-3765 10174 0
-10173 10174 0
-3765 -10173 0
-3766 10175 0
-10174 10175 0
-3766 -10174 0
-3767 10176 0
-10175 10176 0
-3767 -10175 0
-3768 10177 0
-10176 10177 0
-3768 -10176 0
-3769 10178 0
-10177 10178 0
-3769 -10177 0
-3770 10179 0
-10178 10179 0
-3770 -10178 0
-3771 10180 0
-10179 10180 0
-3771 -10179 0
-3772 10181 0
-10180 10181 0
-3772 -10180 0
-3773 10182 0
-10181 10182 0
-3773 -10181 0
-3774 10183 0
-10182 10183 0
-3774 -10182 0
-3775 10184 0
-10183 10184 0
-3775 -10183 0
-3776 10185 0
-10184 10185 0
-3776 -10184 0
-3777 10186 0
-10185 10186 0
-3777 -10185 0
-3778 10187 0
-10186 10187 0
-3778 -10186 0
-3779 10188 0
-10187 10188 0
-3779 -10187 0
-3780 10189 0
-10188 10189 0
-3780 -10188 0
-3781 10190 0
-10189 10190 0
-3781 -10189 0
-3782 10191 0
-10190 10191 0
-3782 -10190 0
-3783 10192 0
-10191 10192 0
-3783 -10191 0
-3784 10193 0
-10192 10193 0
-3784 -10192 0
-3785 10194 0
-10193 10194 0
-3785 -10193 0
-3786 10195 0
-10194 10195 0
-3786 -10194 0
-3787 -10195 0
19 329 391 571 631 689 748 929 979 1258 1314 1482 1538 1593 1651 1817 1859 2098 2146 2290 2338 2385 2435 2585 2627 2866 2914 3058 3106 3153 3203 3788 3789 3790 3791 3792 3793 3794 3795 3796 3797 3798 3799 3800 3801 3802 3803 3804 3805 3806 3807 3808 3809 3810 3811 3812 3813 3814 3815 3816 3817 3818 3819 0
-19 10196 0
-329 10197 0
-10196 10197 0
-329 -10196 0
-391 10198 0
-10197 10198 0
-391 -10197 0
-571 10199 0
-10198 10199 0
-571 -10198 0
-631 10200 0
-10199 10200 0
-631 -10199 0
-689 10201 0
-10200 10201 0
-689 -10200 0
-748 10202 0
-10201 10202 0
-748 -10201 0
-929 10203 0
-10202 10203 0
-929 -10202 0
-979 10204 0
-10203 10204 0
-979 -10203 0
-1258 10205 0
-10204 10205 0
-1258 -10204 0
-1314 10206 0
-10205 10206 0
-1314 -10205 0
-1482 10207 0
-10206 10207 0
-1482 -10206 0
-1538 10208 0
-10207 10208 0
-1538 -10207 0
-1593 10209 0
-10208 10209 0
-1593 -10208 0
-1651 10210 0
-10209 10210 0
-1651 -10209 0
-1817 10211 0
-10210 10211 0
-1817 -10210 0
-1859 10212 0
-10211 10212 0
-1859 -10211 0
-2098 10213 0
-10212 10213 0
-2098 -10212 0
-2146 10214 0
-10213 10214 0
-2146 -10213 0
-2290 10215 0
-10214 10215 0
-2290 -10214 0
-2338 10216 0
-10215 10216 0
-2338 -10215 0
-2385 10217 0
-10216 10217 0
-2385 -10216 0
-2435 10218 0
-10217 10218 0
-2435 -10217 0
-2585 10219 0
-10218 10219 0
-2585 -10218 0
-2627 10220 0
-10219 10220 0
-2627 -10219 0
-2866 10221 0
-10220 10221 0
-2866 -10220 0
-2914 10222 0
-10221 10222 0
-2914 -10221 0
-3058 10223 0
-10222 10223 0
-3058 -10222 0
-3106 10224 0
-10223 10224 0
-3106 -10223 0
-3153 10225 0
-10224 10225 0
-3153 -10224 0
-3203 10226 0
-10225 10226 0
-3203 -10225 0
-3788 10227 0
-10226 10227 0
-3788 -10226 0
-3789 10228 0
-10227 10228 0
-3789 -10227 0
-3790 10229 0
-10228 10229 0
-3790 -10228 0
-3791 10230 0
-10229 10230 0
-3791 -10229 0
-3792 10231 0
-10230 10231 0
-3792 -10230 0
-3793 10232 0
-10231 10232 0
-3793 -10231 0
-3794 10233 0
-10232 10233 0
-3794 -10232 0
-3795 10234 0
-10233 10234 0
-3795 -10233 0
-3796 10235 0
-10234 10235 0
-3796 -10234 0
-3797 10236 0
-10235 10236 0
-3797 -10235 0
-3798 10237 0
-10236 10237 0
-3798 -10236 0
-3799 10238 0
-10237 10238 0
-3799 -10237 0
-3800 10239 0
-10238 10239 0
-3800 -10238 0
-3801 10240 0
-10239 10240 0
-3801 -10239 0
-3802 10241 0
-10240 10241 0
-3802 -10240 0
-3803 10242 0
-10241 10242 0
-3803 -10241 0
-3804 10243 0
-10242 10243 0
-3804 -10242 0
-3805 10244 0
-10243 10244 0
-3805 -10243 0
-3806 10245 0
-10244 10245 0
-3806 -10244 0
-3807 10246 0
-10245 10246 0
-3807 -10245 0
-3808 10247 0
-10246 10247 0
-3808 -10246 0
-3809 10248 0
-10247 10248 0
-3809 -10247 0
-3810 10249 0
-10248 10249 0
-3810 -10248 0
-3811 10250 0
-10249 10250 0
-3811 -10249 0
-3812 10251 0
-10250 10251 0
-3812 -10250 0
-3813 10252 0
-10251 10252 0
-3813 -10251 0
-3814 10253 0
-10252 10253 0
-3814 -10252 0
-3815 10254 0
-10253 10254 0
-3815 -10253 0
-3816 10255 0
-10254 10255 0
-3816 -10254 0
-3817 10256 0
-10255 10256 0
-3817 -10255 0
-3818 10257 0
-10256 10257 0
-3818 -10256 0
-3819 -10257 0
82 267 390 511 630 690 808 930 1035 1202 1315 1426 1539 1594 1707 1818 1907 2050 2147 2242 2339 2386 2483 2586 2675 2818 2915 3010 3107 3154 3251 3820 3821 3822 3823 3824 3825 3826 3827 3828 3829 3830 3831 3832 3833 3834 3835 3836 3837 3838 3839 3840 3841 3842 3843 3844 3845 3846 3847 3848 3849 3850 3851 0
-82 10258 0
-267 10259 0
-10258 10259 0
-267 -10258 0
-390 10260 0
-10259 10260 0
-390 -10259 0
-511 10261 0
-10260 10261 0
-511 -10260 0
-630 10262 0
-10261 10262 0
-630 -10261 0
-690 10263 0
-10262 10263 0
-690 -10262 0
-808 10264 0
-10263 10264 0
-808 -10263 0
-930 10265 0
-10264 10265 0
-930 -10264 0
-1035 10266 0
-10265 10266 0
-1035 -10265 0
-1202 10267 0
-10266 10267 0
-1202 -10266 0
-1315 10268 0
-10267 10268 0
-1315 -10267 0
-1426 10269 0
-10268 10269 0
-1426 -10268 0
-1539 10270 0
-10269 10270 0
-1539 -10269 0
-1594 10271 0
-10270 10271 0
-1594 -10270 0
-1707 10272 0
-10271 10272 0
-1707 -10271 0
-1818 10273 0
-10272 10273 0
-1818 -10272 0
-1907 10274 0
-10273 10274 0
-1907 -10273 0
-2050 10275 0
-10274 10275 0
-2050 -10274 0
-2147 10276 0
-10275 10276 0
-2147 -10275 0
-2242 10277 0
-10276 10277 0
-2242 -10276 0
-2339 10278 0
-10277 10278 0
-2339 -10277 0
-2386 10279 0
-10278 10279 0
-2386 -10278 0
-2483 10280 0
-10279 10280 0
-2483 -10279 0
-2586 10281 0
-10280 10281 0
-2586 -10280 0
-2675 10282 0
-10281 10282 0
-2675 -10281 0
-2818 10283 0
-10282 10283 0
-2818 -10282 0
-2915 10284 0
-10283 10284 0
-2915 -10283 0
-3010 10285 0
-10284 10285 0
-3010 -10284 0
-3107 10286 0
-10285 10286 0
-3107 -10285 0
-3154 10287 0
-10286 10287 0
-3154 -10286 0
-3251 10288 0
-10287 10288 0
-3251 -10287 0
-3820 10289 0
-10288 10289 0
-3820 -10288 0
-3821 10290 0
-10289 10290 0
-3821 -10289 0
-3822 10291 0
-10290 10291 0
-3822 -10290 0
-3823 10292 0
-10291 10292 0
-3823 -10291 0
-3824 10293 0
-10292 10293 0
-3824 -10292 0
-3825 10294 0
-10293 10294 0
-3825 -10293 0
-3826 10295 0
-10294 10295 0
-3826 -10294 0
-3827 10296 0
-10295 10296 0
-3827 -10295 0
-3828 10297 0
-10296 10297 0
-3828 -10296 0
-3829 10298 0
-10297 10298 0
-3829 -10297 0
-3830 10299 0
-10298 10299 0
-3830 -10298 0
-3831 10300 0
-10299 10300 0
-3831 -10299 0
-3832 10301 0
-10300 10301 0
-3832 -10300 0
-3833 10302 0
-10301 10302 0
-3833 -10301 0
-3834 10303 0
-10302 10303 0
-3834 -10302 0
-3835 10304 0
-10303 10304 0
-3835 -10303 0
-3836 10305 0
-10304 10305 0
-3836 -10304 0
-3837 10306 0
-10305 10306 0
-3837 -10305 0
-3838 10307 0
-10306 10307 0
-3838 -10306 0
-3839 10308 0
-10307 10308 0
-3839 -10307 0
-3840 10309 0
-10308 10309 0
-3840 -10308 0
-3841 10310 0
-10309 10310 0
-3841 -10309 0
-3842 10311 0
-10310 10311 0
-3842 -10310 0
-3843 10312 0
-10311 10312 0
-3843 -10311 0
-3844 10313 0
-10312 10313 0
-3844 -10312 0
-3845 10314 0
-10313 10314 0
-3845 -10313 0
-3846 10315 0
-10314 10315 0
-3846 -10314 0
-3847 10316 0
-10315 10316 0
-3847 -10315 0
-3848 10317 0
-10316 10317 0
-3848 -10316 0
-3849 10318 0
-10317 10318 0
-3849 -10317 0
-3850 10319 0
-10318 10319 0
-3850 -10318 0
-3851 -10319 0
145 266 328 510 570 691 868 931 1091 1203 1259 1427 1483 1595 1763 1819 1955 2051 2099 2243 2291 2387 2531 2587 2723 2819 2867 3011 3059 3155 3299 3852 3853 3854 3855 3856 3857 3858 3859 3860 3861 3862 3863 3864 3865 3866 3867 3868 3869 3870 3871 3872 3873 3874 3875 3876 3877 3878 3879 3880 3881 3882 3883 0
-145 10320 0
-266 10321 0
-10320 10321 0
-266 -10320 0
-328 10322 0
-10321 10322 0
-328 -10321 0
-510 10323 0
-10322 10323 0
-510 -10322 0
-570 10324 0
-10323 10324 0
-570 -10323 0
-691 10325 0
-10324 10325 0
-691 -10324 0
-868 10326 0
-10325 10326 0
-868 -10325 0
-931 10327 0
-10326 10327 0
-931 -10326 0
-1091 10328 0
-10327 10328 0
-1091 -10327 0
-1203 10329 0
-10328 10329 0
-1203 -10328 0
-1259 10330 0
-10329 10330 0
-1259 -10329 0
-1427 10331 0
-10330 10331 0
-1427 -10330 0
-1483 10332 0
-10331 10332 0
-1483 -10331 0
-1595 10333 0
-10332 10333 0
-1595 -10332 0
-1763 10334 0
-10333 10334 0
-1763 -10333 0
-1819 10335 0
-10334 10335 0
-1819 -10334 0
-1955 10336 0
-10335 10336 0
-1955 -10335 0
-2051 10337 0
-10336 10337 0
-2051 -10336 0
-2099 10338 0
-10337 10338 0
-2099 -10337 0
-2243 10339 0
-10338 10339 0
-2243 -10338 0
-2291 10340 0
-10339 10340 0
-2291 -10339 0
-2387 10341 0
-10340 10341 0
-2387 -10340 0
-2531 10342 0
-10341 10342 0
-2531 -10341 0
-2587 10343 0
-10342 10343 0
-2587 -10342 0
-2723 10344 0
-10343 10344 0
-2723 -10343 0
-2819 10345 0
-10344 10345 0
-2819 -10344 0
-2867 10346 0
-10345 10346 0
-2867 -10345 0
-3011 10347 0
-10346 10347 0
-3011 -10346 0
-3059 10348 0
-10347 10348 0
-3059 -10347 0
-3155 10349 0
-10348 10349 0
-3155 -10348 0
-3299 10350 0
-10349 10350 0
-3299 -10349 0
-3852 10351 0
-10350 10351 0
-3852 -10350 0
-3853 10352 0
-10351 10352 0
-3853 -10351 0
-3854 10353 0
-10352 10353 0
-3854 -10352 0
-3855 10354 0
-10353 10354 0
-3855 -10353 0
-3856 10355 0
-10354 10355 0
-3856 -10354 0
-3857 10356 0
-10355 10356 0
-3857 -10355 0
-3858 10357 0
-10356 10357 0
-3858 -10356 0
-3859 10358 0
-10357 10358 0
-3859 -10357 0
-3860 10359 0
-10358 10359 0
-3860 -10358 0
-3861 10360 0
-10359 10360 0
-3861 -10359 0
-3862 10361 0
-10360 10361 0
-3862 -10360 0
-3863 10362 0
-10361 10362 0
-3863 -10361 0
-3864 10363 0
-10362 10363 0
-3864 -10362 0
-3865 10364 0
-10363 10364 0
-3865 -10363 0
-3866 10365 0
-10364 10365 0
-3866 -10364 0
-3867 10366 0
-10365 10366 0
-3867 -10365 0
-3868 10367 0
-10366 10367 0
-3868 -10366 0
-3869 10368 0
-10367 10368 0
-3869 -10367 0
-3870 10369 0
-10368 10369 0
-3870 -10368 0
-3871 10370 0
-10369 10370 0
-3871 -10369 0
-3872 10371 0
-10370 10371 0
-3872 -10370 0
-3873 10372 0
-10371 10372 0
-3873 -10371 0
-3874 10373 0
-10372 10373 0
-3874 -10372 0
-3875 10374 0
-10373 10374 0
-3875 -10373 0
-3876 10375 0
-10374 10375 0
-3876 -10374 0
-3877 10376 0
-10375 10376 0
-3877 -10375 0
-3878 10377 0
-10376 10377 0
-3878 -10376 0
-3879 10378 0
-10377 10378 0
-3879 -10377 0
-3880 10379 0
-10378 10379 0
-3880 -10378 0
-3881 10380 0
-10379 10380 0
-3881 -10379 0
-3882 10381 0
-10380 10381 0
-3882 -10380 0
-3883 -10381 0
20 83 146 206 268 330 392 452 512 572 632 692 752 812 872 916 973 1029 1085 1144 1199 1255 1311 1368 1425 1481 1537 1592 1651 1707 1763 3884 3885 3886 3887 3888 3889 3890 3891 3892 3893 3894 3895 3896 3897 3898 3899 3900 3901 3902 3903 3904 3905 3906 3907 3908 3909 3910 3911 3912 3913 3914 3915 0
-20 10382 0
-83 10383 0
-10382 10383 0
-83 -10382 0
-146 10384 0
-10383 10384 0
-146 -10383 0
-206 10385 0
-10384 10385 0
-206 -10384 0
-268 10386 0
-10385 10386 0
-268 -10385 0
-330 10387 0
-10386 10387 0
-330 -10386 0
-392 10388 0
-10387 10388 0
-392 -10387 0
-452 10389 0
-10388 10389 0
-452 -10388 0
-512 10390 0
-10389 10390 0
-512 -10389 0
-572 10391 0
-10390 10391 0
-572 -10390 0
-632 10392 0
-10391 10392 0
-632 -10391 0
-692 10393 0
-10392 10393 0
-692 -10392 0
-752 10394 0
-10393 10394 0
-752 -10393 0
-812 10395 0
-10394 10395 0
-812 -10394 0
-872 10396 0
-10395 10396 0
-872 -10395 0
-916 10397 0
-10396 10397 0
-916 -10396 0
-973 10398 0
-10397 10398 0
-973 -10397 0
-1029 10399 0
-10398 10399 0
-1029 -10398 0
-1085 10400 0
-10399 10400 0
-1085 -10399 0
-1144 10401 0
-10400 10401 0
-1144 -10400 0
-1199 10402 0
-10401 10402 0
-1199 -10401 0
-1255 10403 0
-10402 10403 0
-1255 -10402 0
-1311 10404 0
-10403 10404 0
-1311 -10403 0
-1368 10405 0
-10404 10405 0
-1368 -10404 0
-1425 10406 0
-10405 10406 0
-1425 -10405 0
-1481 10407 0
-10406 10407 0
-1481 -10406 0
-1537 10408 0
-10407 10408 0
-1537 -10407 0
-1592 10409 0
-10408 10409 0
-1592 -10408 0
-1651 10410 0
-10409 10410 0
-1651 -10409 0
-1707 10411 0
-10410 10411 0
-1707 -10410 0
-1763 10412 0
-10411 10412 0
-1763 -10411 0
-3884 10413 0
-10412 10413 0
-3884 -10412 0
-3885 10414 0
-10413 10414 0
-3885 -10413 0
-3886 10415 0
-10414 10415 0
-3886 -10414 0
-3887 10416 0
-10415 10416 0
-3887 -10415 0
-3888 10417 0
-10416 10417 0
-3888 -10416 0
-3889 10418 0
-10417 10418 0
-3889 -10417 0
-3890 10419 0
-10418 10419 0
-3890 -10418 0
-3891 10420 0
-10419 10420 0
-3891 -10419 0
-3892 10421 0
-10420 10421 0
-3892 -10420 0
-3893 10422 0
-10421 10422 0
-3893 -10421 0
-3894 10423 0
-10422 10423 0
-3894 -10422 0
-3895 10424 0
-10423 10424 0
-3895 -10423 0
-3896 10425 0
-10424 10425 0
-3896 -10424 0
-3897 10426 0
-10425 10426 0
-3897 -10425 0
-3898 10427 0
-10426 10427 0
-3898 -10426 0
-3899 10428 0
-10427 10428 0
-3899 -10427 0
-3900 10429 0
-10428 10429 0
-3900 -10428 0
-3901 10430 0
-10429 10430 0
-3901 -10429 0
-3902 10431 0
-10430 10431 0
-3902 -10430 0
-3903 10432 0
-10431 10432 0
-3903 -10431 0
-3904 10433 0
-10432 10433 0
-3904 -10432 0
-3905 10434 0
-10433 10434 0
-3905 -10433 0
-3906 10435 0
-10434 10435 0
-3906 -10434 0
-3907 10436 0
-10435 10436 0
-3907 -10435 0
-3908 10437 0
-10436 10437 0
-3908 -10436 0
-3909 10438 0
-10437 10438 0
-3909 -10437 0
-3910 10439 0
-10438 10439 0
-3910 -10438 0
-3911 10440 0
-10439 10440 0
-3911 -10439 0
-3912 10441 0
-10440 10441 0
-3912 -10440 0
-3913 10442 0
-10441 10442 0
-3913 -10441 0
-3914 10443 0
-10442 10443 0
-3914 -10442 0
-3915 -10443 0
20 207 269 453 513 693 753 917 972 1145 1198 1369 1424 1593 1650 1908 1956 2100 2148 2292 2340 2484 2532 2676 2724 2868 2916 3060 3108 3252 3300 3916 3917 3918 3919 3920 3921 3922 3923 3924 3925 3926 3927 3928 3929 3930 3931 3932 3933 3934 3935 3936 3937 3938 3939 3940 3941 3942 3943 3944 3945 3946 3947 0
-20 10444 0
-207 10445 0
-10444 10445 0
-207 -10444 0
-269 10446 0
-10445 10446 0
-269 -10445 0
-453 10447 0
-10446 10447 0
-453 -10446 0
-513 10448 0
-10447 10448 0
-513 -10447 0
-693 10449 0
-10448 10449 0
-693 -10448 0
-753 10450 0
-10449 10450 0
-753 -10449 0
-917 10451 0
-10450 10451 0
-917 -10450 0
-972 10452 0
-10451 10452 0
-972 -10451 0
-1145 10453 0
-10452 10453 0
-1145 -10452 0
-1198 10454 0
-10453 10454 0
-1198 -10453 0
-1369 10455 0
-10454 10455 0
-1369 -10454 0
-1424 10456 0
-10455 10456 0
-1424 -10455 0
-1593 10457 0
-10456 10457 0
-1593 -10456 0
-1650 10458 0
-10457 10458 0
-1650 -10457 0
-1908 10459 0
-10458 10459 0
-1908 -10458 0
-1956 10460 0
-10459 10460 0
-1956 -10459 0
-2100 10461 0
-10460 10461 0
-2100 -10460 0
-2148 10462 0
-10461 10462 0
-2148 -10461 0
-2292 10463 0
-10462 10463 0
-2292 -10462 0
-2340 10464 0
-10463 10464 0
-2340 -10463 0
-2484 10465 0
-10464 10465 0
-2484 -10464 0
-2532 10466 0
-10465 10466 0
-2532 -10465 0
-2676 10467 0
-10466 10467 0
-2676 -10466 0
-2724 10468 0
-10467 10468 0
-2724 -10467 0
-2868 10469 0
-10468 10469 0
-2868 -10468 0
-2916 10470 0
-10469 10470 0
-2916 -10469 0
-3060 10471 0
-10470 10471 0
-3060 -10470 0
-3108 10472 0
-10471 10472 0
-3108 -10471 0
-3252 10473 0
-10472 10473 0
-3252 -10472 0
-3300 10474 0
-10473 10474 0
-3300 -10473 0
-3916 10475 0
-10474 10475 0
-3916 -10474 0
-3917 10476 0
-10475 10476 0
-3917 -10475 0
-3918 10477 0
-10476 10477 0
-3918 -10476 0
-3919 10478 0
-10477 10478 0
-3919 -10477 0
-3920 10479 0
-10478 10479 0
-3920 -10478 0
-3921 10480 0
-10479 10480 0
-3921 -10479 0
-3922 10481 0
-10480 10481 0
-3922 -10480 0
-3923 10482 0
-10481 10482 0
-3923 -10481 0
-3924 10483 0
-10482 10483 0
-3924 -10482 0
-3925 10484 0
-10483 10484 0
-3925 -10483 0
-3926 10485 0
-10484 10485 0
-3926 -10484 0
-3927 10486 0
-10485 10486 0
-3927 -10485 0
-3928 10487 0
-10486 10487 0
-3928 -10486 0
-3929 10488 0
-10487 10488 0
-3929 -10487 0
-3930 10489 0
-10488 10489 0
-3930 -10488 0
-3931 10490 0
-10489 10490 0
-3931 -10489 0
-3932 10491 0
-10490 10491 0
-3932 -10490 0
-3933 10492 0
-10491 10492 0
-3933 -10491 0
-3934 10493 0
-10492 10493 0
-3934 -10492 0
-3935 10494 0
-10493 10494 0
-3935 -10493 0
-3936 10495 0
-10494 10495 0
-3936 -10494 0
-3937 10496 0
-10495 10496 0
-3937 -10495 0
-3938 10497 0
-10496 10497 0
-3938 -10496 0
-3939 10498 0
-10497 10498 0
-3939 -10497 0
-3940 10499 0
-10498 10499 0
-3940 -10498 0
-3941 10500 0
-10499 10500 0
-3941 -10499 0
-3942 10501 0
-10500 10501 0
-3942 -10500 0
-3943 10502 0
-10501 10502 0
-3943 -10501 0
-3944 10503 0
-10502 10503 0
-3944 -10502 0
-3945 10504 0
-10503 10504 0
-3945 -10503 0
-3946 10505 0
-10504 10505 0
-3946 -10504 0
-3947 -10505 0
83 208 331 454 573 694 813 918 1028 1146 1254 1370 1480 1594 1706 1860 1957 2052 2149 2244 2341 2436 2533 2628 2725 2820 2917 3012 3109 3204 3301 3948 3949 3950 3951 3952 3953 3954 3955 3956 3957 3958 3959 3960 3961 3962 3963 3964 3965 3966 3967 3968 3969 3970 3971 3972 3973 3974 3975 3976 3977 3978 3979 0
-83 10506 0
-208 10507 0
-10506 10507 0
-208 -10506 0
-331 10508 0
-10507 10508 0
-331 -10507 0
-454 10509 0
-10508 10509 0
-454 -10508 0
-573 10510 0
-10509 10510 0
-573 -10509 0
-694 10511 0
-10510 10511 0
-694 -10510 0
-813 10512 0
-10511 10512 0
-813 -10511 0
-918 10513 0
-10512 10513 0
-918 -10512 0
-1028 10514 0
-10513 10514 0
-1028 -10513 0
-1146 10515 0
-10514 10515 0
-1146 -10514 0
-1254 10516 0
-10515 10516 0
-1254 -10515 0
-1370 10517 0
-10516 10517 0
-1370 -10516 0
-1480 10518 0
-10517 10518 0
-1480 -10517 0
-1594 10519 0
-10518 10519 0
-1594 -10518 0
-1706 10520 0
-10519 10520 0
-1706 -10519 0
-1860 10521 0
-10520 10521 0
-1860 -10520 0
-1957 10522 0
-10521 10522 0
-1957 -10521 0
-2052 10523 0
-10522 10523 0
-2052 -10522 0
-2149 10524 0
-10523 10524 0
-2149 -10523 0
-2244 10525 0
-10524 10525 0
-2244 -10524 0
-2341 10526 0
-10525 10526 0
-2341 -10525 0
-2436 10527 0
-10526 10527 0
-2436 -10526 0
-2533 10528 0
-10527 10528 0
-2533 -10527 0
-2628 10529 0
-10528 10529 0
-2628 -10528 0
-2725 10530 0
-10529 10530 0
-2725 -10529 0
-2820 10531 0
-10530 10531 0
-2820 -10530 0
-2917 10532 0
-10531 10532 0
-2917 -10531 0
-3012 10533 0
-10532 10533 0
-3012 -10532 0
-3109 10534 0
-10533 10534 0
-3109 -10533 0
-3204 10535 0
-10534 10535 0
-3204 -10534 0
-3301 10536 0
-10535 10536 0
-3301 -10535 0
-3948 10537 0
-10536 10537 0
-3948 -10536 0
-3949 10538 0
-10537 10538 0
-3949 -10537 0
-3950 10539 0
-10538 10539 0
-3950 -10538 0
-3951 10540 0
-10539 10540 0
-3951 -10539 0
-3952 10541 0
-10540 10541 0
-3952 -10540 0
-3953 10542 0
-10541 10542 0
-3953 -10541 0
-3954 10543 0
-10542 10543 0
-3954 -10542 0
-3955 10544 0
-10543 10544 0
-3955 -10543 0
-3956 10545 0
-10544 10545 0
-3956 -10544 0
-3957 10546 0
-10545 10546 0
-3957 -10545 0
-3958 10547 0
-10546 10547 0
-3958 -10546 0
-3959 10548 0
-10547 10548 0
-3959 -10547 0
-3960 10549 0
-10548 10549 0
-3960 -10548 0
-3961 10550 0
-10549 10550 0
-3961 -10549 0
-3962 10551 0
-10550 10551 0
-3962 -10550 0
-3963 10552 0
-10551 10552 0
-3963 -10551 0
-3964 10553 0
-10552 10553 0
-3964 -10552 0
-3965 10554 0
-10553 10554 0
-3965 -10553 0
-3966 10555 0
-10554 10555 0
-3966 -10554 0
-3967 10556 0
-10555 10556 0
-3967 -10555 0
-3968 10557 0
-10556 10557 0
-3968 -10556 0
-3969 10558 0
-10557 10558 0
-3969 -10557 0
-3970 10559 0
-10558 10559 0
-3970 -10558 0
-3971 10560 0
-10559 10560 0
-3971 -10559 0
-3972 10561 0
-10560 10561 0
-3972 -10560 0
-3973 10562 0
-10561 10562 0
-3973 -10561 0
-3974 10563 0
-10562 10563 0
-3974 -10562 0
-3975 10564 0
-10563 10564 0
-3975 -10563 0
-3976 10565 0
-10564 10565 0
-3976 -10564 0
-3977 10566 0
-10565 10566 0
-3977 -10565 0
-3978 10567 0
-10566 10567 0
-3978 -10566 0
-3979 -10567 0
146 209 393 455 633 695 873 919 1084 1147 1310 1371 1536 1595 1762 1861 1909 2053 2101 2245 2293 2437 2485 2629 2677 2821 2869 3013 3061 3205 3253 3980 3981 3982 3983 3984 3985 3986 3987 3988 3989 3990 3991 3992 3993 3994 3995 3996 3997 3998 3999 4000 4001 4002 4003 4004 4005 4006 4007 4008 4009 4010 4011 0
-146 10568 0
-209 10569 0
-10568 10569 0
-209 -10568 0
-393 10570 0
-10569 10570 0
-393 -10569 0
-455 10571 0
-10570 10571 0
-455 -10570 0
-633 10572 0
-10571 10572 0
-633 -10571 0
-695 10573 0
-10572 10573 0
-695 -10572 0
-873 10574 0
-10573 10574 0
-873 -10573 0
-919 10575 0
-10574 10575 0
-919 -10574 0
-1084 10576 0
-10575 10576 0
-1084 -10575 0
-1147 10577 0
-10576 10577 0
-1147 -10576 0
-1310 10578 0
-10577 10578 0
-1310 -10577 0
-1371 10579 0
-10578 10579 0
-1371 -10578 0
-1536 10580 0
-10579 10580 0
-1536 -10579 0
-1595 10581 0
-10580 10581 0
-1595 -10580 0
-1762 10582 0
-10581 10582 0
-1762 -10581 0
-1861 10583 0
-10582 10583 0
-1861 -10582 0
-1909 10584 0
-10583 10584 0
-1909 -10583 0
-2053 10585 0
-10584 10585 0
-2053 -10584 0
-2101 10586 0
-10585 10586 0
-2101 -10585 0
-2245 10587 0
-10586 10587 0
-2245 -10586 0
-2293 10588 0
-10587 10588 0
-2293 -10587 0
-2437 10589 0
-10588 10589 0
-2437 -10588 0
-2485 10590 0
-10589 10590 0
-2485 -10589 0
-2629 10591 0
-10590 10591 0
-2629 -10590 0
-2677 10592 0
-10591 10592 0
-2677 -10591 0
-2821 10593 0
-10592 10593 0
-2821 -10592 0
-2869 10594 0
-10593 10594 0
-2869 -10593 0
-3013 10595 0
-10594 10595 0
-3013 -10594 0
-3061 10596 0
-10595 10596 0
-3061 -10595 0
-3205 10597 0
-10596 10597 0
-3205 -10596 0
-3253 10598 0
-10597 10598 0
-3253 -10597 0
-3980 10599 0
-10598 10599 0
-3980 -10598 0
-3981 10600 0
-10599 10600 0
-3981 -10599 0
-3982 10601 0
-10600 10601 0
-3982 -10600 0
-3983 10602 0
-10601 10602 0
-3983 -10601 0
-3984 10603 0
-10602 10603 0
-3984 -10602 0
-3985 10604 0
-10603 10604 0
-3985 -10603 0
-3986 10605 0
-10604 10605 0
-3986 -10604 0
-3987 10606 0
-10605 10606 0
-3987 -10605 0
-3988 10607 0
-10606 10607 0
-3988 -10606 0
-3989 10608 0
-10607 10608 0
-3989 -10607 0
-3990 10609 0
-10608 10609 0
-3990 -10608 0
-3991 10610 0
-10609 10610 0
-3991 -10609 0
-3992 10611 0
-10610 10611 0
-3992 -10610 0
-3993 10612 0
-10611 10612 0
-3993 -10611 0
-3994 10613 0
-10612 10613 0
-3994 -10612 0
-3995 10614 0
-10613 10614 0
-3995 -10613 0
-3996 10615 0
-10614 10615 0
-3996 -10614 0
-3997 10616 0
-10615 10616 0
-3997 -10615 0
-3998 10617 0
-10616 10617 0
-3998 -10616 0
-3999 10618 0
-10617 10618 0
-3999 -10617 0
-4000 10619 0
-10618 10619 0
-4000 -10618 0
-4001 10620 0
-10619 10620 0
-4001 -10619 0
-4002 10621 0
-10620 10621 0
-4002 -10620 0
-4003 10622 0
-10621 10622 0
-4003 -10621 0
-4004 10623 0
-10622 10623 0
-4004 -10622 0
-4005 10624 0
-10623 10624 0
-4005 -10623 0
-4006 10625 0
-10624 10625 0
-4006 -10624 0
-4007 10626 0
-10625 10626 0
-4007 -10625 0
-4008 10627 0
-10626 10627 0
-4008 -10626 0
-4009 10628 0
-10627 10628 0
-4009 -10627 0
-4010 10629 0
-10628 10629 0
-4010 -10628 0
-4011 -10629 0
21 84 147 206 269 331 393 920 975 1031 1087 1140 1197 1253 1309 2196 2246 2294 2342 2388 2438 2486 2534 2964 3014 3062 3110 3156 3206 3254 3302 4012 4013 4014 4015 4016 4017 4018 4019 4020 4021 4022 4023 4024 4025 4026 4027 4028 4029 4030 4031 4032 4033 4034 4035 4036 4037 4038 4039 4040 4041 4042 4043 0
-21 10630 0
-84 10631 0
-10630 10631 0
-84 -10630 0
-147 10632 0
-10631 10632 0
-147 -10631 0
-206 10633 0
-10632 10633 0
-206 -10632 0
-269 10634 0
-10633 10634 0
-269 -10633 0
-331 10635 0
-10634 10635 0
-331 -10634 0
-393 10636 0
-10635 10636 0
-393 -10635 0
-920 10637 0
-10636 10637 0
-920 -10636 0
-975 10638 0
-10637 10638 0
-975 -10637 0
-1031 10639 0
-10638 10639 0
-1031 -10638 0
-1087 10640 0
-10639 10640 0
-1087 -10639 0
-1140 10641 0
-10640 10641 0
-1140 -10640 0
-1197 10642 0
-10641 10642 0
-1197 -10641 0
-1253 10643 0
-10642 10643 0
-1253 -10642 0
-1309 10644 0
-10643 10644 0
-1309 -10643 0
-2196 10645 0
-10644 10645 0
-2196 -10644 0
-2246 10646 0
-10645 10646 0
-2246 -10645 0
-2294 10647 0
-10646 10647 0
-2294 -10646 0
-2342 10648 0
-10647 10648 0
-2342 -10647 0
-2388 10649 0
-10648 10649 0
-2388 -10648 0
-2438 10650 0
-10649 10650 0
-2438 -10649 0
-2486 10651 0
-10650 10651 0
-2486 -10650 0
-2534 10652 0
-10651 10652 0
-2534 -10651 0
-2964 10653 0
-10652 10653 0
-2964 -10652 0
-3014 10654 0
-10653 10654 0
-3014 -10653 0
-3062 10655 0
-10654 10655 0
-3062 -10654 0
-3110 10656 0
-10655 10656 0
-3110 -10655 0
-3156 10657 0
-10656 10657 0
-3156 -10656 0
-3206 10658 0
-10657 10658 0
-3206 -10657 0
-3254 10659 0
-10658 10659 0
-3254 -10658 0
-3302 10660 0
-10659 10660 0
-3302 -10659 0
-4012 10661 0
-10660 10661 0
-4012 -10660 0
-4013 10662 0
-10661 10662 0
-4013 -10661 0
-4014 10663 0
-10662 10663 0
-4014 -10662 0
-4015 10664 0
-10663 10664 0
-4015 -10663 0
-4016 10665 0
-10664 10665 0
-4016 -10664 0
-4017 10666 0
-10665 10666 0
-4017 -10665 0
-4018 10667 0
-10666 10667 0
-4018 -10666 0
-4019 10668 0
-10667 10668 0
-4019 -10667 0
-4020 10669 0
-10668 10669 0
-4020 -10668 0
-4021 10670 0
-10669 10670 0
-4021 -10669 0
-4022 10671 0
-10670 10671 0
-4022 -10670 0
-4023 10672 0
-10671 10672 0
-4023 -10671 0
-4024 10673 0
-10672 10673 0
-4024 -10672 0
-4025 10674 0
-10673 10674 0
-4025 -10673 0
-4026 10675 0
-10674 10675 0
-4026 -10674 0
-4027 10676 0
-10675 10676 0
-4027 -10675 0
-4028 10677 0
-10676 10677 0
-4028 -10676 0
-4029 10678 0
-10677 10678 0
-4029 -10677 0
-4030 10679 0
-10678 10679 0
-4030 -10678 0
-4031 10680 0
-10679 10680 0
-4031 -10679 0
-4032 10681 0
-10680 10681 0
-4032 -10680 0
-4033 10682 0
-10681 10682 0
-4033 -10681 0
-4034 10683 0
-10682 10683 0
-4034 -10682 0
-4035 10684 0
-10683 10684 0
-4035 -10683 0
-4036 10685 0
-10684 10685 0
-4036 -10684 0
-4037 10686 0
-10685 10686 0
-4037 -10685 0
-4038 10687 0
-10686 10687 0
-4038 -10686 0
-4039 10688 0
-10687 10688 0
-4039 -10687 0
-4040 10689 0
-10688 10689 0
-4040 -10688 0
-4041 10690 0
-10689 10690 0
-4041 -10689 0
-4042 10691 0
-10690 10691 0
-4042 -10690 0
-4043 -10691 0
21 207 268 574 634 814 874 921 974 1141 1196 1483 1539 1705 1761 1910 1958 2102 2150 2197 2247 2389 2439 2678 2726 2870 2918 2965 3015 3157 3207 4044 4045 4046 4047 4048 4049 4050 4051 4052 4053 4054 4055 4056 4057 4058 4059 4060 4061 4062 4063 4064 4065 4066 4067 4068 4069 4070 4071 4072 4073 4074 4075 0
-21 10692 0
-207 10693 0
-10692 10693 0
-207 -10692 0
-268 10694 0
-10693 10694 0
-268 -10693 0
-574 10695 0
-10694 10695 0
-574 -10694 0
-634 10696 0
-10695 10696 0
-634 -10695 0
-814 10697 0
-10696 10697 0
-814 -10696 0
-874 10698 0
-10697 10698 0
-874 -10697 0
-921 10699 0
-10698 10699 0
-921 -10698 0
-974 10700 0
-10699 10700 0
-974 -10699 0
-1141 10701 0
-10700 10701 0
-1141 -10700 0
-1196 10702 0
-10701 10702 0
-1196 -10701 0
-1483 10703 0
-10702 10703 0
-1483 -10702 0
-1539 10704 0
-10703 10704 0
-1539 -10703 0
-1705 10705 0
-10704 10705 0
-1705 -10704 0
-1761 10706 0
-10705 10706 0
-1761 -10705 0
-1910 10707 0
-10706 10707 0
-1910 -10706 0
-1958 10708 0
-10707 10708 0
-1958 -10707 0
-2102 10709 0
-10708 10709 0
-2102 -10708 0
-2150 10710 0
-10709 10710 0
-2150 -10709 0
-2197 10711 0
-10710 10711 0
-2197 -10710 0
-2247 10712 0
-10711 10712 0
-2247 -10711 0
-2389 10713 0
-10712 10713 0
-2389 -10712 0
-2439 10714 0
-10713 10714 0
-2439 -10713 0
-2678 10715 0
-10714 10715 0
-2678 -10714 0
-2726 10716 0
-10715 10716 0
-2726 -10715 0
-2870 10717 0
-10716 10717 0
-2870 -10716 0
-2918 10718 0
-10717 10718 0
-2918 -10717 0
-2965 10719 0
-10718 10719 0
-2965 -10718 0
-3015 10720 0
-10719 10720 0
-3015 -10719 0
-3157 10721 0
-10720 10721 0
-3157 -10720 0
-3207 10722 0
-10721 10722 0
-3207 -10721 0
-4044 10723 0
-10722 10723 0
-4044 -10722 0
-4045 10724 0
-10723 10724 0
-4045 -10723 0
-4046 10725 0
-10724 10725 0
-4046 -10724 0
-4047 10726 0
-10725 10726 0
-4047 -10725 0
-4048 10727 0
-10726 10727 0
-4048 -10726 0
-4049 10728 0
-10727 10728 0
-4049 -10727 0
-4050 10729 0
-10728 10729 0
-4050 -10728 0
-4051 10730 0
-10729 10730 0
-4051 -10729 0
-4052 10731 0
-10730 10731 0
-4052 -10730 0
-4053 10732 0
-10731 10732 0
-4053 -10731 0
-4054 10733 0
-10732 10733 0
-4054 -10732 0
-4055 10734 0
-10733 10734 0
-4055 -10733 0
-4056 10735 0
-10734 10735 0
-4056 -10734 0
-4057 10736 0
-10735 10736 0
-4057 -10735 0
-4058 10737 0
-10736 10737 0
-4058 -10736 0
-4059 10738 0
-10737 10738 0
-4059 -10737 0
-4060 10739 0
-10738 10739 0
-4060 -10738 0
-4061 10740 0
-10739 10740 0
-4061 -10739 0
-4062 10741 0
-10740 10741 0
-4062 -10740 0
-4063 10742 0
-10741 10742 0
-4063 -10741 0
-4064 10743 0
-10742 10743 0
-4064 -10742 0
-4065 10744 0
-10743 10744 0
-4065 -10743 0
-4066 10745 0
-10744 10745 0
-4066 -10744 0
-4067 10746 0
-10745 10746 0
-4067 -10745 0
-4068 10747 0
-10746 10747 0
-4068 -10746 0
-4069 10748 0
-10747 10748 0
-4069 -10747 0
-4070 10749 0
-10748 10749 0
-4070 -10748 0
-4071 10750 0
-10749 10750 0
-4071 -10749 0
-4072 10751 0
-10750 10751 0
-4072 -10750 0
-4073 10752 0
-10751 10752 0
-4073 -10751 0
-4074 10753 0
-10752 10753 0
-4074 -10752 0
-4075 -10753 0
84 208 330 514 635 754 875 922 1030 1142 1252 1427 1538 1649 1760 1862 1959 2054 2151 2198 2295 2390 2487 2630 2727 2822 2919 2966 3063 3158 3255 4076 4077 4078 4079 4080 4081 4082 4083 4084 4085 4086 4087 4088 4089 4090 4091 4092 4093 4094 4095 4096 4097 4098 4099 4100 4101 4102 4103 4104 4105 4106 4107 0
-84 10754 0
-208 10755 0
-10754 10755 0
-208 -10754 0
-330 10756 0
-10755 10756 0
-330 -10755 0
-514 10757 0
-10756 10757 0
-514 -10756 0
-635 10758 0
-10757 10758 0
-635 -10757 0
-754 10759 0
-10758 10759 0
-754 -10758 0
-875 10760 0
-10759 10760 0
-875 -10759 0
-922 10761 0
-10760 10761 0
-922 -10760 0
-1030 10762 0
-10761 10762 0
-1030 -10761 0
-1142 10763 0
-10762 10763 0
-1142 -10762 0
-1252 10764 0
-10763 10764 0
-1252 -10763 0
-1427 10765 0
-10764 10765 0
-1427 -10764 0
-1538 10766 0
-10765 10766 0
-1538 -10765 0
-1649 10767 0
-10766 10767 0
-1649 -10766 0
-1760 10768 0
-10767 10768 0
-1760 -10767 0
-1862 10769 0
-10768 10769 0
-1862 -10768 0
-1959 10770 0
-10769 10770 0
-1959 -10769 0
-2054 10771 0
-10770 10771 0
-2054 -10770 0
-2151 10772 0
-10771 10772 0
-2151 -10771 0
-2198 10773 0
-10772 10773 0
-2198 -10772 0
-2295 10774 0
-10773 10774 0
-2295 -10773 0
-2390 10775 0
-10774 10775 0
-2390 -10774 0
-2487 10776 0
-10775 10776 0
-2487 -10775 0
-2630 10777 0
-10776 10777 0
-2630 -10776 0
-2727 10778 0
-10777 10778 0
-2727 -10777 0
-2822 10779 0
-10778 10779 0
-2822 -10778 0
-2919 10780 0
-10779 10780 0
-2919 -10779 0
-2966 10781 0
-10780 10781 0
-2966 -10780 0
-3063 10782 0
-10781 10782 0
-3063 -10781 0
-3158 10783 0
-10782 10783 0
-3158 -10782 0
-3255 10784 0
-10783 10784 0
-3255 -10783 0
-4076 10785 0
-10784 10785 0
-4076 -10784 0
-4077 10786 0
-10785 10786 0
-4077 -10785 0
-4078 10787 0
-10786 10787 0
-4078 -10786 0
-4079 10788 0
-10787 10788 0
-4079 -10787 0
-4080 10789 0
-10788 10789 0
-4080 -10788 0
-4081 10790 0
-10789 10790 0
-4081 -10789 0
-4082 10791 0
-10790 10791 0
-4082 -10790 0
-4083 10792 0
-10791 10792 0
-4083 -10791 0
-4084 10793 0
-10792 10793 0
-4084 -10792 0
-4085 10794 0
-10793 10794 0
-4085 -10793 0
-4086 10795 0
-10794 10795 0
-4086 -10794 0
-4087 10796 0
-10795 10796 0
-4087 -10795 0
-4088 10797 0
-10796 10797 0
-4088 -10796 0
-4089 10798 0
-10797 10798 0
-4089 -10797 0
-4090 10799 0
-10798 10799 0
-4090 -10798 0
-4091 10800 0
-10799 10800 0
-4091 -10799 0
-4092 10801 0
-10800 10801 0
-4092 -10800 0
-4093 10802 0
-10801 10802 0
-4093 -10801 0
-4094 10803 0
-10802 10803 0
-4094 -10802 0
-4095 10804 0
-10803 10804 0
-4095 -10803 0
-4096 10805 0
-10804 10805 0
-4096 -10804 0
-4097 10806 0
-10805 10806 0
-4097 -10805 0
-4098 10807 0
-10806 10807 0
-4098 -10806 0
-4099 10808 0
-10807 10808 0
-4099 -10807 0
-4100 10809 0
-10808 10809 0
-4100 -10808 0
-4101 10810 0
-10809 10810 0
-4101 -10809 0
-4102 10811 0
-10810 10811 0
-4102 -10810 0
-4103 10812 0
-10811 10812 0
-4103 -10811 0
-4104 10813 0
-10812 10813 0
-4104 -10812 0
-4105 10814 0
-10813 10814 0
-4105 -10813 0
-4106 10815 0
-10814 10815 0
-4106 -10814 0
-4107 -10815 0
147 209 392 515 575 755 815 923 1086 1143 1308 1426 1482 1648 1704 1863 1911 2055 2103 2199 2343 2391 2535 2631 2679 2823 2871 2967 3111 3159 3303 4108 4109 4110 4111 4112 4113 4114 4115 4116 4117 4118 4119 4120 4121 4122 4123 4124 4125 4126 4127 4128 4129 4130 4131 4132 4133 4134 4135 4136 4137 4138 4139 0
-147 10816 0
-209 10817 0
-10816 10817 0
-209 -10816 0
-392 10818 0
-10817 10818 0
-392 -10817 0
-515 10819 0
-10818 10819 0
-515 -10818 0
-575 10820 0
-10819 10820 0
-575 -10819 0
-755 10821 0
-10820 10821 0
-755 -10820 0
-815 10822 0
-10821 10822 0
-815 -10821 0
-923 10823 0
-10822 10823 0
-923 -10822 0
-1086 10824 0
-10823 10824 0
-1086 -10823 0
-1143 10825 0
-10824 10825 0
-1143 -10824 0
-1308 10826 0
-10825 10826 0
-1308 -10825 0
-1426 10827 0
-10826 10827 0
-1426 -10826 0
-1482 10828 0
-10827 10828 0
-1482 -10827 0
-1648 10829 0
-10828 10829 0
-1648 -10828 0
-1704 10830 0
-10829 10830 0
-1704 -10829 0
-1863 10831 0
-10830 10831 0
-1863 -10830 0
-1911 10832 0
-10831 10832 0
-1911 -10831 0
-2055 10833 0
-10832 10833 0
-2055 -10832 0
-2103 10834 0
-10833 10834 0
-2103 -10833 0
-2199 10835 0
-10834 10835 0
-2199 -10834 0
-2343 10836 0
-10835 10836 0
-2343 -10835 0
-2391 10837 0
-10836 10837 0
-2391 -10836 0
-2535 10838 0
-10837 10838 0
-2535 -10837 0
-2631 10839 0
-10838 10839 0
-2631 -10838 0
-2679 10840 0
-10839 10840 0
-2679 -10839 0
-2823 10841 0
-10840 10841 0
-2823 -10840 0
-2871 10842 0
-10841 10842 0
-2871 -10841 0
-2967 10843 0
-10842 10843 0
-2967 -10842 0
-3111 10844 0
-10843 10844 0
-3111 -10843 0
-3159 10845 0
-10844 10845 0
-3159 -10844 0
-3303 10846 0
-10845 10846 0
-3303 -10845 0
-4108 10847 0
-10846 10847 0
-4108 -10846 0
-4109 10848 0
-10847 10848 0
-4109 -10847 0
-4110 10849 0
-10848 10849 0
-4110 -10848 0
-4111 10850 0
-10849 10850 0
-4111 -10849 0
-4112 10851 0
-10850 10851 0
-4112 -10850 0
-4113 10852 0
-10851 10852 0
-4113 -10851 0
-4114 10853 0
-10852 10853 0
-4114 -10852 0
-4115 10854 0
-10853 10854 0
-4115 -10853 0
-4116 10855 0
-10854 10855 0
-4116 -10854 0
-4117 10856 0
-10855 10856 0
-4117 -10855 0
-4118 10857 0
-10856 10857 0
-4118 -10856 0
-4119 10858 0
-10857 10858 0
-4119 -10857 0
-4120 10859 0
-10858 10859 0
-4120 -10858 0
-4121 10860 0
-10859 10860 0
-4121 -10859 0
-4122 10861 0
-10860 10861 0
-4122 -10860 0
-4123 10862 0
-10861 10862 0
-4123 -10861 0
-4124 10863 0
-10862 10863 0
-4124 -10862 0
-4125 10864 0
-10863 10864 0
-4125 -10863 0
-4126 10865 0
-10864 10865 0
-4126 -10864 0
-4127 10866 0
-10865 10866 0
-4127 -10865 0
-4128 10867 0
-10866 10867 0
-4128 -10866 0
-4129 10868 0
-10867 10868 0
-4129 -10867 0
-4130 10869 0
-10868 10869 0
-4130 -10868 0
-4131 10870 0
-10869 10870 0
-4131 -10869 0
-4132 10871 0
-10870 10871 0
-4132 -10870 0
-4133 10872 0
-10871 10872 0
-4133 -10871 0
-4134 10873 0
-10872 10873 0
-4134 -10872 0
-4135 10874 0
-10873 10874 0
-4135 -10873 0
-4136 10875 0
-10874 10875 0
-4136 -10874 0
-4137 10876 0
-10875 10876 0
-4137 -10875 0
-4138 10877 0
-10876 10877 0
-4138 -10876 0
-4139 -10877 0
22 85 148 452 513 573 633 924 977 1033 1089 1364 1421 1477 1533 2004 2056 2104 2152 2392 2440 2488 2536 2772 2824 2872 2920 3160 3208 3256 3304 4140 4141 4142 4143 4144 4145 4146 4147 4148 4149 4150 4151 4152 4153 4154 4155 4156 4157 4158 4159 4160 4161 4162 4163 4164 4165 4166 4167 4168 4169 4170 4171 0
-22 10878 0
-85 10879 0
-10878 10879 0
-85 -10878 0
-148 10880 0
-10879 10880 0
-148 -10879 0
-452 10881 0
-10880 10881 0
-452 -10880 0
-513 10882 0
-10881 10882 0
-513 -10881 0
-573 10883 0
-10882 10883 0
-573 -10882 0
-633 10884 0
-10883 10884 0
-633 -10883 0
-924 10885 0
-10884 10885 0
-924 -10884 0
-977 10886 0
-10885 10886 0
-977 -10885 0
-1033 10887 0
-10886 10887 0
-1033 -10886 0
-1089 10888 0
-10887 10888 0
-1089 -10887 0
-1364 10889 0
-10888 10889 0
-1364 -10888 0
-1421 10890 0
-10889 10890 0
-1421 -10889 0
-1477 10891 0
-10890 10891 0
-1477 -10890 0
-1533 10892 0
-10891 10892 0
-1533 -10891 0
-2004 10893 0
-10892 10893 0
-2004 -10892 0
-2056 10894 0
-10893 10894 0
-2056 -10893 0
-2104 10895 0
-10894 10895 0
-2104 -10894 0
-2152 10896 0
-10895 10896 0
-2152 -10895 0
-2392 10897 0
-10896 10897 0
-2392 -10896 0
-2440 10898 0
-10897 10898 0
-2440 -10897 0
-2488 10899 0
-10898 10899 0
-2488 -10898 0
-2536 10900 0
-10899 10900 0
-2536 -10899 0
-2772 10901 0
-10900 10901 0
-2772 -10900 0
-2824 10902 0
-10901 10902 0
-2824 -10901 0
-2872 10903 0
-10902 10903 0
-2872 -10902 0
-2920 10904 0
-10903 10904 0
-2920 -10903 0
-3160 10905 0
-10904 10905 0
-3160 -10904 0
-3208 10906 0
-10905 10906 0
-3208 -10905 0
-3256 10907 0
-10906 10907 0
-3256 -10906 0
-3304 10908 0
-10907 10908 0
-3304 -10907 0
-4140 10909 0
-10908 10909 0
-4140 -10908 0
-4141 10910 0
-10909 10910 0
-4141 -10909 0
-4142 10911 0
-10910 10911 0
-4142 -10910 0
-4143 10912 0
-10911 10912 0
-4143 -10911 0
-4144 10913 0
-10912 10913 0
-4144 -10912 0
-4145 10914 0
-10913 10914 0
-4145 -10913 0
-4146 10915 0
-10914 10915 0
-4146 -10914 0
-4147 10916 0
-10915 10916 0
-4147 -10915 0
-4148 10917 0
-10916 10917 0
-4148 -10916 0
-4149 10918 0
-10917 10918 0
-4149 -10917 0
-4150 10919 0
-10918 10919 0
-4150 -10918 0
-4151 10920 0
-10919 10920 0
-4151 -10919 0
-4152 10921 0
-10920 10921 0
-4152 -10920 0
-4153 10922 0
-10921 10922 0
-4153 -10921 0
-4154 10923 0
-10922 10923 0
-4154 -10922 0
-4155 10924 0
-10923 10924 0
-4155 -10923 0
-4156 10925 0
-10924 10925 0
-4156 -10924 0
-4157 10926 0
-10925 10926 0
-4157 -10925 0
-4158 10927 0
-10926 10927 0
-4158 -10926 0
-4159 10928 0
-10927 10928 0
-4159 -10927 0
-4160 10929 0
-10928 10929 0
-4160 -10928 0
-4161 10930 0
-10929 10930 0
-4161 -10929 0
-4162 10931 0
-10930 10931 0
-4162 -10930 0
-4163 10932 0
-10931 10932 0
-4163 -10931 0
-4164 10933 0
-10932 10933 0
-4164 -10932 0
-4165 10934 0
-10933 10934 0
-4165 -10933 0
-4166 10935 0
-10934 10935 0
-4166 -10934 0
-4167 10936 0
-10935 10936 0
-4167 -10935 0
-4168 10937 0
-10936 10937 0
-4168 -10936 0
-4169 10938 0
-10937 10938 0
-4169 -10937 0
-4170 10939 0
-10938 10939 0
-4170 -10938 0
-4171 -10939 0
22 332 394 453 512 815 875 925 976 1259 1315 1365 1420 1703 1759 1912 1960 2005 2057 2296 2344 2393 2441 2680 2728 2773 2825 3064 3112 3161 3209 4172 4173 4174 4175 4176 4177 4178 4179 4180 4181 4182 4183 4184 4185 4186 4187 4188 4189 4190 4191 4192 4193 4194 4195 4196 4197 4198 4199 4200 4201 4202 4203 0
-22 10940 0
-332 10941 0
-10940 10941 0
-332 -10940 0
-394 10942 0
-10941 10942 0
-394 -10941 0
-453 10943 0
-10942 10943 0
-453 -10942 0
-512 10944 0
-10943 10944 0
-512 -10943 0
-815 10945 0
-10944 10945 0
-815 -10944 0
-875 10946 0
-10945 10946 0
-875 -10945 0
-925 10947 0
-10946 10947 0
-925 -10946 0
-976 10948 0
-10947 10948 0
-976 -10947 0
-1259 10949 0
-10948 10949 0
-1259 -10948 0
-1315 10950 0
-10949 10950 0
-1315 -10949 0
-1365 10951 0
-10950 10951 0
-1365 -10950 0
-1420 10952 0
-10951 10952 0
-1420 -10951 0
-1703 10953 0
-10952 10953 0
-1703 -10952 0
-1759 10954 0
-10953 10954 0
-1759 -10953 0
-1912 10955 0
-10954 10955 0
-1912 -10954 0
-1960 10956 0
-10955 10956 0
-1960 -10955 0
-2005 10957 0
-10956 10957 0
-2005 -10956 0
-2057 10958 0
-10957 10958 0
-2057 -10957 0
-2296 10959 0
-10958 10959 0
-2296 -10958 0
-2344 10960 0
-10959 10960 0
-2344 -10959 0
-2393 10961 0
-10960 10961 0
-2393 -10960 0
-2441 10962 0
-10961 10962 0
-2441 -10961 0
-2680 10963 0
-10962 10963 0
-2680 -10962 0
-2728 10964 0
-10963 10964 0
-2728 -10963 0
-2773 10965 0
-10964 10965 0
-2773 -10964 0
-2825 10966 0
-10965 10966 0
-2825 -10965 0
-3064 10967 0
-10966 10967 0
-3064 -10966 0
-3112 10968 0
-10967 10968 0
-3112 -10967 0
-3161 10969 0
-10968 10969 0
-3161 -10968 0
-3209 10970 0
-10969 10970 0
-3209 -10969 0
-4172 10971 0
-10970 10971 0
-4172 -10970 0
-4173 10972 0
-10971 10972 0
-4173 -10971 0
-4174 10973 0
-10972 10973 0
-4174 -10972 0
-4175 10974 0
-10973 10974 0
-4175 -10973 0
-4176 10975 0
-10974 10975 0
-4176 -10974 0
-4177 10976 0
-10975 10976 0
-4177 -10975 0
-4178 10977 0
-10976 10977 0
-4178 -10976 0
-4179 10978 0
-10977 10978 0
-4179 -10977 0
-4180 10979 0
-10978 10979 0
-4180 -10978 0
-4181 10980 0
-10979 10980 0
-4181 -10979 0
-4182 10981 0
-10980 10981 0
-4182 -10980 0
-4183 10982 0
-10981 10982 0
-4183 -10981 0
-4184 10983 0
-10982 10983 0
-4184 -10982 0
-4185 10984 0
-10983 10984 0
-4185 -10983 0
-4186 10985 0
-10984 10985 0
-4186 -10984 0
-4187 10986 0
-10985 10986 0
-4187 -10985 0
-4188 10987 0
-10986 10987 0
-4188 -10986 0
-4189 10988 0
-10987 10988 0
-4189 -10987 0
-4190 10989 0
-10988 10989 0
-4190 -10988 0
-4191 10990 0
-10989 10990 0
-4191 -10989 0
-4192 10991 0
-10990 10991 0
-4192 -10990 0
-4193 10992 0
-10991 10992 0
-4193 -10991 0
-4194 10993 0
-10992 10993 0
-4194 -10992 0
-4195 10994 0
-10993 10994 0
-4195 -10993 0
-4196 10995 0
-10994 10995 0
-4196 -10994 0
-4197 10996 0
-10995 10996 0
-4197 -10995 0
-4198 10997 0
-10996 10997 0
-4198 -10996 0
-4199 10998 0
-10997 10998 0
-4199 -10997 0
-4200 10999 0
-10998 10999 0
-4200 -10998 0
-4201 11000 0
-10999 11000 0
-4201 -10999 0
-4202 11001 0
-11000 11001 0
-4202 -11000 0
-4203 -11001 0
85 270 395 454 572 755 874 926 1032 1203 1314 1366 1476 1647 1758 1864 1961 2006 2105 2248 2345 2394 2489 2632 2729 2774 2873 3016 3113 3162 3257 4204 4205 4206 4207 4208 4209 4210 4211 4212 4213 4214 4215 4216 4217 4218 4219 4220 4221 4222 4223 4224 4225 4226 4227 4228 4229 4230 4231 4232 4233 4234 4235 0
-85 11002 0
-270 11003 0
-11002 11003 0
-270 -11002 0
-395 11004 0
-11003 11004 0
-395 -11003 0
-454 11005 0
-11004 11005 0
-454 -11004 0
-572 11006 0
-11005 11006 0
-572 -11005 0
-755 11007 0
-11006 11007 0
-755 -11006 0
-874 11008 0
-11007 11008 0
-874 -11007 0
-926 11009 0
-11008 11009 0
-926 -11008 0
-1032 11010 0
-11009 11010 0
-1032 -11009 0
-1203 11011 0
-11010 11011 0
-1203 -11010 0
-1314 11012 0
-11011 11012 0
-1314 -11011 0
-1366 11013 0
-11012 11013 0
-1366 -11012 0
-1476 11014 0
-11013 11014 0
-1476 -11013 0
-1647 11015 0
-11014 11015 0
-1647 -11014 0
-1758 11016 0
-11015 11016 0
-1758 -11015 0
-1864 11017 0
-11016 11017 0
-1864 -11016 0
-1961 11018 0
-11017 11018 0
-1961 -11017 0
-2006 11019 0
-11018 11019 0
-2006 -11018 0
-2105 11020 0
-11019 11020 0
-2105 -11019 0
-2248 11021 0
-11020 11021 0
-2248 -11020 0
-2345 11022 0
-11021 11022 0
-2345 -11021 0
-2394 11023 0
-11022 11023 0
-2394 -11022 0
-2489 11024 0
-11023 11024 0
-2489 -11023 0
-2632 11025 0
-11024 11025 0
-2632 -11024 0
-2729 11026 0
-11025 11026 0
-2729 -11025 0
-2774 11027 0
-11026 11027 0
-2774 -11026 0
-2873 11028 0
-11027 11028 0
-2873 -11027 0
-3016 11029 0
-11028 11029 0
-3016 -11028 0
-3113 11030 0
-11029 11030 0
-3113 -11029 0
-3162 11031 0
-11030 11031 0
-3162 -11030 0
-3257 11032 0
-11031 11032 0
-3257 -11031 0
-4204 11033 0
-11032 11033 0
-4204 -11032 0
-4205 11034 0
-11033 11034 0
-4205 -11033 0
-4206 11035 0
-11034 11035 0
-4206 -11034 0
-4207 11036 0
-11035 11036 0
-4207 -11035 0
-4208 11037 0
-11036 11037 0
-4208 -11036 0
-4209 11038 0
-11037 11038 0
-4209 -11037 0
-4210 11039 0
-11038 11039 0
-4210 -11038 0
-4211 11040 0
-11039 11040 0
-4211 -11039 0
-4212 11041 0
-11040 11041 0
-4212 -11040 0
-4213 11042 0
-11041 11042 0
-4213 -11041 0
-4214 11043 0
-11042 11043 0
-4214 -11042 0
-4215 11044 0
-11043 11044 0
-4215 -11043 0
-4216 11045 0
-11044 11045 0
-4216 -11044 0
-4217 11046 0
-11045 11046 0
-4217 -11045 0
-4218 11047 0
-11046 11047 0
-4218 -11046 0
-4219 11048 0
-11047 11048 0
-4219 -11047 0
-4220 11049 0
-11048 11049 0
-4220 -11048 0
-4221 11050 0
-11049 11050 0
-4221 -11049 0
-4222 11051 0
-11050 11051 0
-4222 -11050 0
-4223 11052 0
-11051 11052 0
-4223 -11051 0
-4224 11053 0
-11052 11053 0
-4224 -11052 0
-4225 11054 0
-11053 11054 0
-4225 -11053 0
-4226 11055 0
-11054 11055 0
-4226 -11054 0
-4227 11056 0
-11055 11056 0
-4227 -11055 0
-4228 11057 0
-11056 11057 0
-4228 -11056 0
-4229 11058 0
-11057 11058 0
-4229 -11057 0
-4230 11059 0
-11058 11059 0
-4230 -11058 0
-4231 11060 0
-11059 11060 0
-4231 -11059 0
-4232 11061 0
-11060 11061 0
-4232 -11060 0
-4233 11062 0
-11061 11062 0
-4233 -11061 0
-4234 11063 0
-11062 11063 0
-4234 -11062 0
-4235 -11063 0
148 271 333 455 632 754 814 927 1088 1202 1258 1367 1532 1646 1702 1865 1913 2007 2153 2249 2297 2395 2537 2633 2681 2775 2921 3017 3065 3163 3305 4236 4237 4238 4239 4240 4241 4242 4243 4244 4245 4246 4247 4248 4249 4250 4251 4252 4253 4254 4255 4256 4257 4258 4259 4260 4261 4262 4263 4264 4265 4266 4267 0
-148 11064 0
-271 11065 0
-11064 11065 0
-271 -11064 0
-333 11066 0
-11065 11066 0
-333 -11065 0
-455 11067 0
-11066 11067 0
-455 -11066 0
-632 11068 0
-11067 11068 0
-632 -11067 0
-754 11069 0
-11068 11069 0
-754 -11068 0
-814 11070 0
-11069 11070 0
-814 -11069 0
-927 11071 0
-11070 11071 0
-927 -11070 0
-1088 11072 0
-11071 11072 0
-1088 -11071 0
-1202 11073 0
-11072 11073 0
-1202 -11072 0
-1258 11074 0
-11073 11074 0
-1258 -11073 0
-1367 11075 0
-11074 11075 0
-1367 -11074 0
-1532 11076 0
-11075 11076 0
-1532 -11075 0
-1646 11077 0
-11076 11077 0
-1646 -11076 0
-1702 11078 0
-11077 11078 0
-1702 -11077 0
-1865 11079 0
-11078 11079 0
-1865 -11078 0
-1913 11080 0
-11079 11080 0
-1913 -11079 0
-2007 11081 0
-11080 11081 0
-2007 -11080 0
-2153 11082 0
-11081 11082 0
-2153 -11081 0
-2249 11083 0
-11082 11083 0
-2249 -11082 0
-2297 11084 0
-11083 11084 0
-2297 -11083 0
-2395 11085 0
-11084 11085 0
-2395 -11084 0
-2537 11086 0
-11085 11086 0
-2537 -11085 0
-2633 11087 0
-11086 11087 0
-2633 -11086 0
-2681 11088 0
-11087 11088 0
-2681 -11087 0
-2775 11089 0
-11088 11089 0
-2775 -11088 0
-2921 11090 0
-11089 11090 0
-2921 -11089 0
-3017 11091 0
-11090 11091 0
-3017 -11090 0
-3065 11092 0
-11091 11092 0
-3065 -11091 0
-3163 11093 0
-11092 11093 0
-3163 -11092 0
-3305 11094 0
-11093 11094 0
-3305 -11093 0
-4236 11095 0
-11094 11095 0
-4236 -11094 0
-4237 11096 0
-11095 11096 0
-4237 -11095 0
-4238 11097 0
-11096 11097 0
-4238 -11096 0
-4239 11098 0
-11097 11098 0
-4239 -11097 0
-4240 11099 0
-11098 11099 0
-4240 -11098 0
-4241 11100 0
-11099 11100 0
-4241 -11099 0
-4242 11101 0
-11100 11101 0
-4242 -11100 0
-4243 11102 0
-11101 11102 0
-4243 -11101 0
-4244 11103 0
-11102 11103 0
-4244 -11102 0
-4245 11104 0
-11103 11104 0
-4245 -11103 0
-4246 11105 0
-11104 11105 0
-4246 -11104 0
-4247 11106 0
-11105 11106 0
-4247 -11105 0
-4248 11107 0
-11106 11107 0
-4248 -11106 0
-4249 11108 0
-11107 11108 0
-4249 -11107 0
-4250 11109 0
-11108 11109 0
-4250 -11108 0
-4251 11110 0
-11109 11110 0
-4251 -11109 0
-4252 11111 0
-11110 11111 0
-4252 -11110 0
-4253 11112 0
-11111 11112 0
-4253 -11111 0
-4254 11113 0
-11112 11113 0
-4254 -11112 0
-4255 11114 0
-11113 11114 0
-4255 -11113 0
-4256 11115 0
-11114 11115 0
-4256 -11114 0
-4257 11116 0
-11115 11116 0
-4257 -11115 0
-4258 11117 0
-11116 11117 0
-4258 -11116 0
-4259 11118 0
-11117 11118 0
-4259 -11117 0
-4260 11119 0
-11118 11119 0
-4260 -11118 0
-4261 11120 0
-11119 11120 0
-4261 -11119 0
-4262 11121 0
-11120 11121 0
-4262 -11120 0
-4263 11122 0
-11121 11122 0
-4263 -11121 0
-4264 11123 0
-11122 11123 0
-4264 -11122 0
-4265 11124 0
-11123 11124 0
-4265 -11123 0
-4266 11125 0
-11124 11125 0
-4266 -11124 0
-4267 -11125 0
23 86 149 692 753 813 873 928 979 1035 1091 1588 1645 1701 1757 2008 2058 2106 2154 2200 2250 2298 2346 2776 2826 2874 2922 2968 3018 3066 3114 4268 4269 4270 4271 4272 4273 4274 4275 4276 4277 4278 4279 4280 4281 4282 4283 4284 4285 4286 4287 4288 4289 4290 4291 4292 4293 4294 4295 4296 4297 4298 4299 0
-23 11126 0
-86 11127 0
-11126 11127 0
-86 -11126 0
-149 11128 0
-11127 11128 0
-149 -11127 0
-692 11129 0
-11128 11129 0
-692 -11128 0
-753 11130 0
-11129 11130 0
-753 -11129 0
-813 11131 0
-11130 11131 0
-813 -11130 0
-873 11132 0
-11131 11132 0
-873 -11131 0
-928 11133 0
-11132 11133 0
-928 -11132 0
-979 11134 0
-11133 11134 0
-979 -11133 0
-1035 11135 0
-11134 11135 0
-1035 -11134 0
-1091 11136 0
-11135 11136 0
-1091 -11135 0
-1588 11137 0
-11136 11137 0
-1588 -11136 0
-1645 11138 0
-11137 11138 0
-1645 -11137 0
-1701 11139 0
-11138 11139 0
-1701 -11138 0
-1757 11140 0
-11139 11140 0
-1757 -11139 0
-2008 11141 0
-11140 11141 0
-2008 -11140 0
-2058 11142 0
-11141 11142 0
-2058 -11141 0
-2106 11143 0
-11142 11143 0
-2106 -11142 0
-2154 11144 0
-11143 11144 0
-2154 -11143 0
-2200 11145 0
-11144 11145 0
-2200 -11144 0
-2250 11146 0
-11145 11146 0
-2250 -11145 0
-2298 11147 0
-11146 11147 0
-2298 -11146 0
-2346 11148 0
-11147 11148 0
-2346 -11147 0
-2776 11149 0
-11148 11149 0
-2776 -11148 0
-2826 11150 0
-11149 11150 0
-2826 -11149 0
-2874 11151 0
-11150 11151 0
-2874 -11150 0
-2922 11152 0
-11151 11152 0
-2922 -11151 0
-2968 11153 0
-11152 11153 0
-2968 -11152 0
-3018 11154 0
-11153 11154 0
-3018 -11153 0
-3066 11155 0
-11154 11155 0
-3066 -11154 0
-3114 11156 0
-11155 11156 0
-3114 -11155 0
-4268 11157 0
-11156 11157 0
-4268 -11156 0
-4269 11158 0
-11157 11158 0
-4269 -11157 0
-4270 11159 0
-11158 11159 0
-4270 -11158 0
-4271 11160 0
-11159 11160 0
-4271 -11159 0
-4272 11161 0
-11160 11161 0
-4272 -11160 0
-4273 11162 0
-11161 11162 0
-4273 -11161 0
-4274 11163 0
-11162 11163 0
-4274 -11162 0
-4275 11164 0
-11163 11164 0
-4275 -11163 0
-4276 11165 0
-11164 11165 0
-4276 -11164 0
-4277 11166 0
-11165 11166 0
-4277 -11165 0
-4278 11167 0
-11166 11167 0
-4278 -11166 0
-4279 11168 0
-11167 11168 0
-4279 -11167 0
-4280 11169 0
-11168 11169 0
-4280 -11168 0
-4281 11170 0
-11169 11170 0
-4281 -11169 0
-4282 11171 0
-11170 11171 0
-4282 -11170 0
-4283 11172 0
-11171 11172 0
-4283 -11171 0
-4284 11173 0
-11172 11173 0
-4284 -11172 0
-4285 11174 0
-11173 11174 0
-4285 -11173 0
-4286 11175 0
-11174 11175 0
-4286 -11174 0
-4287 11176 0
-11175 11176 0
-4287 -11175 0
-4288 11177 0
-11176 11177 0
-4288 -11176 0
-4289 11178 0
-11177 11178 0
-4289 -11177 0
-4290 11179 0
-11178 11179 0
-4290 -11178 0
-4291 11180 0
-11179 11180 0
-4291 -11179 0
-4292 11181 0
-11180 11181 0
-4292 -11180 0
-4293 11182 0
-11181 11182 0
-4293 -11181 0
-4294 11183 0
-11182 11183 0
-4294 -11182 0
-4295 11184 0
-11183 11184 0
-4295 -11183 0
-4296 11185 0
-11184 11185 0
-4296 -11184 0
-4297 11186 0
-11185 11186 0
-4297 -11185 0
-4298 11187 0
-11186 11187 0
-4298 -11186 0
-4299 -11187 0
23 333 395 575 635 693 752 929 978 1257 1313 1479 1535 1589 1644 1914 1962 2009 2059 2201 2251 2490 2538 2682 2730 2777 2827 2969 3019 3258 3306 4300 4301 4302 4303 4304 4305 4306 4307 4308 4309 4310 4311 4312 4313 4314 4315 4316 4317 4318 4319 4320 4321 4322 4323 4324 4325 4326 4327 4328 4329 4330 4331 0
-23 11188 0
-333 11189 0
-11188 11189 0
-333 -11188 0
-395 11190 0
-11189 11190 0
-395 -11189 0
-575 11191 0
-11190 11191 0
-575 -11190 0
-635 11192 0
-11191 11192 0
-635 -11191 0
-693 11193 0
-11192 11193 0
-693 -11192 0
-752 11194 0
-11193 11194 0
-752 -11193 0
-929 11195 0
-11194 11195 0
-929 -11194 0
-978 11196 0
-11195 11196 0
-978 -11195 0
-1257 11197 0
-11196 11197 0
-1257 -11196 0
-1313 11198 0
-11197 11198 0
-1313 -11197 0
-1479 11199 0
-11198 11199 0
-1479 -11198 0
-1535 11200 0
-11199 11200 0
-1535 -11199 0
-1589 11201 0
-11200 11201 0
-1589 -11200 0
-1644 11202 0
-11201 11202 0
-1644 -11201 0
-1914 11203 0
-11202 11203 0
-1914 -11202 0
-1962 11204 0
-11203 11204 0
-1962 -11203 0
-2009 11205 0
-11204 11205 0
-2009 -11204 0
-2059 11206 0
-11205 11206 0
-2059 -11205 0
-2201 11207 0
-11206 11207 0
-2201 -11206 0
-2251 11208 0
-11207 11208 0
-2251 -11207 0
-2490 11209 0
-11208 11209 0
-2490 -11208 0
-2538 11210 0
-11209 11210 0
-2538 -11209 0
-2682 11211 0
-11210 11211 0
-2682 -11210 0
-2730 11212 0
-11211 11212 0
-2730 -11211 0
-2777 11213 0
-11212 11213 0
-2777 -11212 0
-2827 11214 0
-11213 11214 0
-2827 -11213 0
-2969 11215 0
-11214 11215 0
-2969 -11214 0
-3019 11216 0
-11215 11216 0
-3019 -11215 0
-3258 11217 0
-11216 11217 0
-3258 -11216 0
-3306 11218 0
-11217 11218 0
-3306 -11217 0
-4300 11219 0
-11218 11219 0
-4300 -11218 0
-4301 11220 0
-11219 11220 0
-4301 -11219 0
-4302 11221 0
-11220 11221 0
-4302 -11220 0
-4303 11222 0
-11221 11222 0
-4303 -11221 0
-4304 11223 0
-11222 11223 0
-4304 -11222 0
-4305 11224 0
-11223 11224 0
-4305 -11223 0
-4306 11225 0
-11224 11225 0
-4306 -11224 0
-4307 11226 0
-11225 11226 0
-4307 -11225 0
-4308 11227 0
-11226 11227 0
-4308 -11226 0
-4309 11228 0
-11227 11228 0
-4309 -11227 0
-4310 11229 0
-11228 11229 0
-4310 -11228 0
-4311 11230 0
-11229 11230 0
-4311 -11229 0
-4312 11231 0
-11230 11231 0
-4312 -11230 0
-4313 11232 0
-11231 11232 0
-4313 -11231 0
-4314 11233 0
-11232 11233 0
-4314 -11232 0
-4315 11234 0
-11233 11234 0
-4315 -11233 0
-4316 11235 0
-11234 11235 0
-4316 -11234 0
-4317 11236 0
-11235 11236 0
-4317 -11235 0
-4318 11237 0
-11236 11237 0
-4318 -11236 0
-4319 11238 0
-11237 11238 0
-4319 -11237 0
-4320 11239 0
-11238 11239 0
-4320 -11238 0
-4321 11240 0
-11239 11240 0
-4321 -11239 0
-4322 11241 0
-11240 11241 0
-4322 -11240 0
-4323 11242 0
-11241 11242 0
-4323 -11241 0
-4324 11243 0
-11242 11243 0
-4324 -11242 0
-4325 11244 0
-11243 11244 0
-4325 -11243 0
-4326 11245 0
-11244 11245 0
-4326 -11244 0
-4327 11246 0
-11245 11246 0
-4327 -11245 0
-4328 11247 0
-11246 11247 0
-4328 -11246 0
-4329 11248 0
-11247 11248 0
-4329 -11247 0
-4330 11249 0
-11248 11249 0
-4330 -11248 0
-4331 -11249 0
86 271 394 515 634 694 812 930 1034 1201 1312 1423 1534 1590 1700 1866 1963 2010 2107 2202 2299 2442 2539 2634 2731 2778 2875 2970 3067 3210 3307 4332 4333 4334 4335 4336 4337 4338 4339 4340 4341 4342 4343 4344 4345 4346 4347 4348 4349 4350 4351 4352 4353 4354 4355 4356 4357 4358 4359 4360 4361 4362 4363 0
-86 11250 0
-271 11251 0
-11250 11251 0
-271 -11250 0
-394 11252 0
-11251 11252 0
-394 -11251 0
-515 11253 0
-11252 11253 0
-515 -11252 0
-634 11254 0
-11253 11254 0
-634 -11253 0
-694 11255 0
-11254 11255 0
-694 -11254 0
-812 11256 0
-11255 11256 0
-812 -11255 0
-930 11257 0
-11256 11257 0
-930 -11256 0
-1034 11258 0
-11257 11258 0
-1034 -11257 0
-1201 11259 0
-11258 11259 0
-1201 -11258 0
-1312 11260 0
-11259 11260 0
-1312 -11259 0
-1423 11261 0
-11260 11261 0
-1423 -11260 0
-1534 11262 0
-11261 11262 0
-1534 -11261 0
-1590 11263 0
-11262 11263 0
-1590 -11262 0
-1700 11264 0
-11263 11264 0
-1700 -11263 0
-1866 11265 0
-11264 11265 0
-1866 -11264 0
-1963 11266 0
-11265 11266 0
-1963 -11265 0
-2010 11267 0
-11266 11267 0
-2010 -11266 0
-2107 11268 0
-11267 11268 0
-2107 -11267 0
-2202 11269 0
-11268 11269 0
-2202 -11268 0
-2299 11270 0
-11269 11270 0
-2299 -11269 0
-2442 11271 0
-11270 11271 0
-2442 -11270 0
-2539 11272 0
-11271 11272 0
-2539 -11271 0
-2634 11273 0
-11272 11273 0
-2634 -11272 0
-2731 11274 0
-11273 11274 0
-2731 -11273 0
-2778 11275 0
-11274 11275 0
-2778 -11274 0
-2875 11276 0
-11275 11276 0
-2875 -11275 0
-2970 11277 0
-11276 11277 0
-2970 -11276 0
-3067 11278 0
-11277 11278 0
-3067 -11277 0
-3210 11279 0
-11278 11279 0
-3210 -11278 0
-3307 11280 0
-11279 11280 0
-3307 -11279 0
-4332 11281 0
-11280 11281 0
-4332 -11280 0
-4333 11282 0
-11281 11282 0
-4333 -11281 0
-4334 11283 0
-11282 11283 0
-4334 -11282 0
-4335 11284 0
-11283 11284 0
-4335 -11283 0
-4336 11285 0
-11284 11285 0
-4336 -11284 0
-4337 11286 0
-11285 11286 0
-4337 -11285 0
-4338 11287 0
-11286 11287 0
-4338 -11286 0
-4339 11288 0
-11287 11288 0
-4339 -11287 0
-4340 11289 0
-11288 11289 0
-4340 -11288 0
-4341 11290 0
-11289 11290 0
-4341 -11289 0
-4342 11291 0
-11290 11291 0
-4342 -11290 0
-4343 11292 0
-11291 11292 0
-4343 -11291 0
-4344 11293 0
-11292 11293 0
-4344 -11292 0
-4345 11294 0
-11293 11294 0
-4345 -11293 0
-4346 11295 0
-11294 11295 0
-4346 -11294 0
-4347 11296 0
-11295 11296 0
-4347 -11295 0
-4348 11297 0
-11296 11297 0
-4348 -11296 0
-4349 11298 0
-11297 11298 0
-4349 -11297 0
-4350 11299 0
-11298 11299 0
-4350 -11298 0
-4351 11300 0
-11299 11300 0
-4351 -11299 0
-4352 11301 0
-11300 11301 0
-4352 -11300 0
-4353 11302 0
-11301 11302 0
-4353 -11301 0
-4354 11303 0
-11302 11303 0
-4354 -11302 0
-4355 11304 0
-11303 11304 0
-4355 -11303 0
-4356 11305 0
-11304 11305 0
-4356 -11304 0
-4357 11306 0
-11305 11306 0
-4357 -11305 0
-4358 11307 0
-11306 11307 0
-4358 -11306 0
-4359 11308 0
-11307 11308 0
-4359 -11307 0
-4360 11309 0
-11308 11309 0
-4360 -11308 0
-4361 11310 0
-11309 11310 0
-4361 -11309 0
-4362 11311 0
-11310 11311 0
-4362 -11310 0
-4363 -11311 0
149 270 332 514 574 695 872 931 1090 1200 1256 1422 1478 1591 1756 1867 1915 2011 2155 2203 2347 2443 2491 2635 2683 2779 2923 2971 3115 3211 3259 4364 4365 4366 4367 4368 4369 4370 4371 4372 4373 4374 4375 4376 4377 4378 4379 4380 4381 4382 4383 4384 4385 4386 4387 4388 4389 4390 4391 4392 4393 4394 4395 0
-149 11312 0
-270 11313 0
-11312 11313 0
-270 -11312 0
-332 11314 0
-11313 11314 0
-332 -11313 0
-514 11315 0
-11314 11315 0
-514 -11314 0
-574 11316 0
-11315 11316 0
-574 -11315 0
-695 11317 0
-11316 11317 0
-695 -11316 0
-872 11318 0
-11317 11318 0
-872 -11317 0
-931 11319 0
-11318 11319 0
-931 -11318 0
-1090 11320 0
-11319 11320 0
-1090 -11319 0
-1200 11321 0
-11320 11321 0
-1200 -11320 0
-1256 11322 0
-11321 11322 0
-1256 -11321 0
-1422 11323 0
-11322 11323 0
-1422 -11322 0
-1478 11324 0
-11323 11324 0
-1478 -11323 0
-1591 11325 0
-11324 11325 0
-1591 -11324 0
-1756 11326 0
-11325 11326 0
-1756 -11325 0
-1867 11327 0
-11326 11327 0
-1867 -11326 0
-1915 11328 0
-11327 11328 0
-1915 -11327 0
-2011 11329 0
-11328 11329 0
-2011 -11328 0
-2155 11330 0
-11329 11330 0
-2155 -11329 0
-2203 11331 0
-11330 11331 0
-2203 -11330 0
-2347 11332 0
-11331 11332 0
-2347 -11331 0
-2443 11333 0
-11332 11333 0
-2443 -11332 0
-2491 11334 0
-11333 11334 0
-2491 -11333 0
-2635 11335 0
-11334 11335 0
-2635 -11334 0
-2683 11336 0
-11335 11336 0
-2683 -11335 0
-2779 11337 0
-11336 11337 0
-2779 -11336 0
-2923 11338 0
-11337 11338 0
-2923 -11337 0
-2971 11339 0
-11338 11339 0
-2971 -11338 0
-3115 11340 0
-11339 11340 0
-3115 -11339 0
-3211 11341 0
-11340 11341 0
-3211 -11340 0
-3259 11342 0
-11341 11342 0
-3259 -11341 0
-4364 11343 0
-11342 11343 0
-4364 -11342 0
-4365 11344 0
-11343 11344 0
-4365 -11343 0
-4366 11345 0
-11344 11345 0
-4366 -11344 0
-4367 11346 0
-11345 11346 0
-4367 -11345 0
-4368 11347 0
-11346 11347 0
-4368 -11346 0
-4369 11348 0
-11347 11348 0
-4369 -11347 0
-4370 11349 0
-11348 11349 0
-4370 -11348 0
-4371 11350 0
-11349 11350 0
-4371 -11349 0
-4372 11351 0
-11350 11351 0
-4372 -11350 0
-4373 11352 0
-11351 11352 0
-4373 -11351 0
-4374 11353 0
-11352 11353 0
-4374 -11352 0
-4375 11354 0
-11353 11354 0
-4375 -11353 0
-4376 11355 0
-11354 11355 0
-4376 -11354 0
-4377 11356 0
-11355 11356 0
-4377 -11355 0
-4378 11357 0
-11356 11357 0
-4378 -11356 0
-4379 11358 0
-11357 11358 0
-4379 -11357 0
-4380 11359 0
-11358 11359 0
-4380 -11358 0
-4381 11360 0
-11359 11360 0
-4381 -11359 0
-4382 11361 0
-11360 11361 0
-4382 -11360 0
-4383 11362 0
-11361 11362 0
-4383 -11361 0
-4384 11363 0
-11362 11363 0
-4384 -11362 0
-4385 11364 0
-11363 11364 0
-4385 -11363 0
-4386 11365 0
-11364 11365 0
-4386 -11364 0
-4387 11366 0
-11365 11366 0
-4387 -11365 0
-4388 11367 0
-11366 11367 0
-4388 -11366 0
-4389 11368 0
-11367 11368 0
-4389 -11367 0
-4390 11369 0
-11368 11369 0
-4390 -11368 0
-4391 11370 0
-11369 11370 0
-4391 -11369 0
-4392 11371 0
-11370 11371 0
-4392 -11370 0
-4393 11372 0
-11371 11372 0
-4393 -11371 0
-4394 11373 0
-11372 11373 0
-4394 -11372 0
-4395 -11373 0
24 87 150 210 272 334 396 456 516 576 636 696 756 816 876 1804 1853 1901 1949 2000 2047 2095 2143 2192 2241 2289 2337 2384 2435 2483 2531 4396 4397 4398 4399 4400 4401 4402 4403 4404 4405 4406 4407 4408 4409 4410 4411 4412 4413 4414 4415 4416 4417 4418 4419 4420 4421 4422 4423 4424 4425 4426 4427 0
-24 11374 0
-87 11375 0
-11374 11375 0
-87 -11374 0
-150 11376 0
-11375 11376 0
-150 -11375 0
-210 11377 0
-11376 11377 0
-210 -11376 0
-272 11378 0
-11377 11378 0
-272 -11377 0
-334 11379 0
-11378 11379 0
-334 -11378 0
-396 11380 0
-11379 11380 0
-396 -11379 0
-456 11381 0
-11380 11381 0
-456 -11380 0
-516 11382 0
-11381 11382 0
-516 -11381 0
-576 11383 0
-11382 11383 0
-576 -11382 0
-636 11384 0
-11383 11384 0
-636 -11383 0
-696 11385 0
-11384 11385 0
-696 -11384 0
-756 11386 0
-11385 11386 0
-756 -11385 0
-816 11387 0
-11386 11387 0
-816 -11386 0
-876 11388 0
-11387 11388 0
-876 -11387 0
-1804 11389 0
-11388 11389 0
-1804 -11388 0
-1853 11390 0
-11389 11390 0
-1853 -11389 0
-1901 11391 0
-11390 11391 0
-1901 -11390 0
-1949 11392 0
-11391 11392 0
-1949 -11391 0
-2000 11393 0
-11392 11393 0
-2000 -11392 0
-2047 11394 0
-11393 11394 0
-2047 -11393 0
-2095 11395 0
-11394 11395 0
-2095 -11394 0
-2143 11396 0
-11395 11396 0
-2143 -11395 0
-2192 11397 0
-11396 11397 0
-2192 -11396 0
-2241 11398 0
-11397 11398 0
-2241 -11397 0
-2289 11399 0
-11398 11399 0
-2289 -11398 0
-2337 11400 0
-11399 11400 0
-2337 -11399 0
-2384 11401 0
-11400 11401 0
-2384 -11400 0
-2435 11402 0
-11401 11402 0
-2435 -11401 0
-2483 11403 0
-11402 11403 0
-2483 -11402 0
-2531 11404 0
-11403 11404 0
-2531 -11403 0
-4396 11405 0
-11404 11405 0
-4396 -11404 0
-4397 11406 0
-11405 11406 0
-4397 -11405 0
-4398 11407 0
-11406 11407 0
-4398 -11406 0
-4399 11408 0
-11407 11408 0
-4399 -11407 0
-4400 11409 0
-11408 11409 0
-4400 -11408 0
-4401 11410 0
-11409 11410 0
-4401 -11409 0
-4402 11411 0
-11410 11411 0
-4402 -11410 0
-4403 11412 0
-11411 11412 0
-4403 -11411 0
-4404 11413 0
-11412 11413 0
-4404 -11412 0
-4405 11414 0
-11413 11414 0
-4405 -11413 0
-4406 11415 0
-11414 11415 0
-4406 -11414 0
-4407 11416 0
-11415 11416 0
-4407 -11415 0
-4408 11417 0
-11416 11417 0
-4408 -11416 0
-4409 11418 0
-11417 11418 0
-4409 -11417 0
-4410 11419 0
-11418 11419 0
-4410 -11418 0
-4411 11420 0
-11419 11420 0
-4411 -11419 0
-4412 11421 0
-11420 11421 0
-4412 -11420 0
-4413 11422 0
-11421 11422 0
-4413 -11421 0
-4414 11423 0
-11422 11423 0
-4414 -11422 0
-4415 11424 0
-11423 11424 0
-4415 -11423 0
-4416 11425 0
-11424 11425 0
-4416 -11424 0
-4417 11426 0
-11425 11426 0
-4417 -11425 0
-4418 11427 0
-11426 11427 0
-4418 -11426 0
-4419 11428 0
-11427 11428 0
-4419 -11427 0
-4420 11429 0
-11428 11429 0
-4420 -11428 0
-4421 11430 0
-11429 11430 0
-4421 -11429 0
-4422 11431 0
-11430 11431 0
-4422 -11430 0
-4423 11432 0
-11431 11432 0
-4423 -11431 0
-4424 11433 0
-11432 11433 0
-4424 -11432 0
-4425 11434 0
-11433 11434 0
-4425 -11433 0
-4426 11435 0
-11434 11435 0
-4426 -11434 0
-4427 -11435 0
24 211 273 457 517 697 757 1036 1092 1260 1316 1484 1540 1708 1764 1805 1852 2001 2046 2193 2240 2385 2434 2677 2725 2871 2919 3065 3113 3259 3307 4428 4429 4430 4431 4432 4433 4434 4435 4436 4437 4438 4439 4440 4441 4442 4443 4444 4445 4446 4447 4448 4449 4450 4451 4452 4453 4454 4455 4456 4457 4458 4459 0
-24 11436 0
-211 11437 0
-11436 11437 0
-211 -11436 0
-273 11438 0
-11437 11438 0
-273 -11437 0
-457 11439 0
-11438 11439 0
-457 -11438 0
-517 11440 0
-11439 11440 0
-517 -11439 0
-697 11441 0
-11440 11441 0
-697 -11440 0
-757 11442 0
-11441 11442 0
-757 -11441 0
-1036 11443 0
-11442 11443 0
-1036 -11442 0
-1092 11444 0
-11443 11444 0
-1092 -11443 0
-1260 11445 0
-11444 11445 0
-1260 -11444 0
-1316 11446 0
-11445 11446 0
-1316 -11445 0
-1484 11447 0
-11446 11447 0
-1484 -11446 0
-1540 11448 0
-11447 11448 0
-1540 -11447 0
-1708 11449 0
-11448 11449 0
-1708 -11448 0
-1764 11450 0
-11449 11450 0
-1764 -11449 0
-1805 11451 0
-11450 11451 0
-1805 -11450 0
-1852 11452 0
-11451 11452 0
-1852 -11451 0
-2001 11453 0
-11452 11453 0
-2001 -11452 0
-2046 11454 0
-11453 11454 0
-2046 -11453 0
-2193 11455 0
-11454 11455 0
-2193 -11454 0
-2240 11456 0
-11455 11456 0
-2240 -11455 0
-2385 11457 0
-11456 11457 0
-2385 -11456 0
-2434 11458 0
-11457 11458 0
-2434 -11457 0
-2677 11459 0
-11458 11459 0
-2677 -11458 0
-2725 11460 0
-11459 11460 0
-2725 -11459 0
-2871 11461 0
-11460 11461 0
-2871 -11460 0
-2919 11462 0
-11461 11462 0
-2919 -11461 0
-3065 11463 0
-11462 11463 0
-3065 -11462 0
-3113 11464 0
-11463 11464 0
-3113 -11463 0
-3259 11465 0
-11464 11465 0
-3259 -11464 0
-3307 11466 0
-11465 11466 0
-3307 -11465 0
-4428 11467 0
-11466 11467 0
-4428 -11466 0
-4429 11468 0
-11467 11468 0
-4429 -11467 0
-4430 11469 0
-11468 11469 0
-4430 -11468 0
-4431 11470 0
-11469 11470 0
-4431 -11469 0
-4432 11471 0
-11470 11471 0
-4432 -11470 0
-4433 11472 0
-11471 11472 0
-4433 -11471 0
-4434 11473 0
-11472 11473 0
-4434 -11472 0
-4435 11474 0
-11473 11474 0
-4435 -11473 0
-4436 11475 0
-11474 11475 0
-4436 -11474 0
-4437 11476 0
-11475 11476 0
-4437 -11475 0
-4438 11477 0
-11476 11477 0
-4438 -11476 0
-4439 11478 0
-11477 11478 0
-4439 -11477 0
-4440 11479 0
-11478 11479 0
-4440 -11478 0
-4441 11480 0
-11479 11480 0
-4441 -11479 0
-4442 11481 0
-11480 11481 0
-4442 -11480 0
-4443 11482 0
-11481 11482 0
-4443 -11481 0
-4444 11483 0
-11482 11483 0
-4444 -11482 0
-4445 11484 0
-11483 11484 0
-4445 -11483 0
-4446 11485 0
-11484 11485 0
-4446 -11484 0
-4447 11486 0
-11485 11486 0
-4447 -11485 0
-4448 11487 0
-11486 11487 0
-4448 -11486 0
-4449 11488 0
-11487 11488 0
-4449 -11487 0
-4450 11489 0
-11488 11489 0
-4450 -11488 0
-4451 11490 0
-11489 11490 0
-4451 -11489 0
-4452 11491 0
-11490 11491 0
-4452 -11490 0
-4453 11492 0
-11491 11492 0
-4453 -11491 0
-4454 11493 0
-11492 11493 0
-4454 -11492 0
-4455 11494 0
-11493 11494 0
-4455 -11493 0
-4456 11495 0
-11494 11495 0
-4456 -11494 0
-4457 11496 0
-11495 11496 0
-4457 -11495 0
-4458 11497 0
-11496 11497 0
-4458 -11496 0
-4459 -11497 0
87 212 335 458 577 698 817 980 1093 1204 1317 1428 1541 1652 1765 1806 1900 2002 2094 2194 2288 2386 2482 2629 2724 2823 2918 3017 3112 3211 3306 4460 4461 4462 4463 4464 4465 4466 4467 4468 4469 4470 4471 4472 4473 4474 4475 4476 4477 4478 4479 4480 4481 4482 4483 4484 4485 4486 4487 4488 4489 4490 4491 0
-87 11498 0
-212 11499 0
-11498 11499 0
-212 -11498 0
-335 11500 0
-11499 11500 0
-335 -11499 0
-458 11501 0
-11500 11501 0
-458 -11500 0
-577 11502 0
-11501 11502 0
-577 -11501 0
-698 11503 0
-11502 11503 0
-698 -11502 0
-817 11504 0
-11503 11504 0
-817 -11503 0
-980 11505 0
-11504 11505 0
-980 -11504 0
-1093 11506 0
-11505 11506 0
-1093 -11505 0
-1204 11507 0
-11506 11507 0
-1204 -11506 0
-1317 11508 0
-11507 11508 0
-1317 -11507 0
-1428 11509 0
-11508 11509 0
-1428 -11508 0
-1541 11510 0
-11509 11510 0
-1541 -11509 0
-1652 11511 0
-11510 11511 0
-1652 -11510 0
-1765 11512 0
-11511 11512 0
-1765 -11511 0
-1806 11513 0
-11512 11513 0
-1806 -11512 0
-1900 11514 0
-11513 11514 0
-1900 -11513 0
-2002 11515 0
-11514 11515 0
-2002 -11514 0
-2094 11516 0
-11515 11516 0
-2094 -11515 0
-2194 11517 0
-11516 11517 0
-2194 -11516 0
-2288 11518 0
-11517 11518 0
-2288 -11517 0
-2386 11519 0
-11518 11519 0
-2386 -11518 0
-2482 11520 0
-11519 11520 0
-2482 -11519 0
-2629 11521 0
-11520 11521 0
-2629 -11520 0
-2724 11522 0
-11521 11522 0
-2724 -11521 0
-2823 11523 0
-11522 11523 0
-2823 -11522 0
-2918 11524 0
-11523 11524 0
-2918 -11523 0
-3017 11525 0
-11524 11525 0
-3017 -11524 0
-3112 11526 0
-11525 11526 0
-3112 -11525 0
-3211 11527 0
-11526 11527 0
-3211 -11526 0
-3306 11528 0
-11527 11528 0
-3306 -11527 0
-4460 11529 0
-11528 11529 0
-4460 -11528 0
-4461 11530 0
-11529 11530 0
-4461 -11529 0
-4462 11531 0
-11530 11531 0
-4462 -11530 0
-4463 11532 0
-11531 11532 0
-4463 -11531 0
-4464 11533 0
-11532 11533 0
-4464 -11532 0
-4465 11534 0
-11533 11534 0
-4465 -11533 0
-4466 11535 0
-11534 11535 0
-4466 -11534 0
-4467 11536 0
-11535 11536 0
-4467 -11535 0
-4468 11537 0
-11536 11537 0
-4468 -11536 0
-4469 11538 0
-11537 11538 0
-4469 -11537 0
-4470 11539 0
-11538 11539 0
-4470 -11538 0
-4471 11540 0
-11539 11540 0
-4471 -11539 0
-4472 11541 0
-11540 11541 0
-4472 -11540 0
-4473 11542 0
-11541 11542 0
-4473 -11541 0
-4474 11543 0
-11542 11543 0
-4474 -11542 0
-4475 11544 0
-11543 11544 0
-4475 -11543 0
-4476 11545 0
-11544 11545 0
-4476 -11544 0
-4477 11546 0
-11545 11546 0
-4477 -11545 0
-4478 11547 0
-11546 11547 0
-4478 -11546 0
-4479 11548 0
-11547 11548 0
-4479 -11547 0
-4480 11549 0
-11548 11549 0
-4480 -11548 0
-4481 11550 0
-11549 11550 0
-4481 -11549 0
-4482 11551 0
-11550 11551 0
-4482 -11550 0
-4483 11552 0
-11551 11552 0
-4483 -11551 0
-4484 11553 0
-11552 11553 0
-4484 -11552 0
-4485 11554 0
-11553 11554 0
-4485 -11553 0
-4486 11555 0
-11554 11555 0
-4486 -11554 0
-4487 11556 0
-11555 11556 0
-4487 -11555 0
-4488 11557 0
-11556 11557 0
-4488 -11556 0
-4489 11558 0
-11557 11558 0
-4489 -11557 0
-4490 11559 0
-11558 11559 0
-4490 -11558 0
-4491 -11559 0
150 213 397 459 637 699 877 981 1037 1205 1261 1429 1485 1653 1709 1807 1948 2003 2142 2195 2336 2387 2530 2628 2676 2822 2870 3016 3064 3210 3258 4492 4493 4494 4495 4496 4497 4498 4499 4500 4501 4502 4503 4504 4505 4506 4507 4508 4509 4510 4511 4512 4513 4514 4515 4516 4517 4518 4519 4520 4521 4522 4523 0
-150 11560 0
-213 11561 0
-11560 11561 0
-213 -11560 0
-397 11562 0
-11561 11562 0
-397 -11561 0
-459 11563 0
-11562 11563 0
-459 -11562 0
-637 11564 0
-11563 11564 0
-637 -11563 0
-699 11565 0
-11564 11565 0
-699 -11564 0
-877 11566 0
-11565 11566 0
-877 -11565 0
-981 11567 0
-11566 11567 0
-981 -11566 0
-1037 11568 0
-11567 11568 0
-1037 -11567 0
-1205 11569 0
-11568 11569 0
-1205 -11568 0
-1261 11570 0
-11569 11570 0
-1261 -11569 0
-1429 11571 0
-11570 11571 0
-1429 -11570 0
-1485 11572 0
-11571 11572 0
-1485 -11571 0
-1653 11573 0
-11572 11573 0
-1653 -11572 0
-1709 11574 0
-11573 11574 0
-1709 -11573 0
-1807 11575 0
-11574 11575 0
-1807 -11574 0
-1948 11576 0
-11575 11576 0
-1948 -11575 0
-2003 11577 0
-11576 11577 0
-2003 -11576 0
-2142 11578 0
-11577 11578 0
-2142 -11577 0
-2195 11579 0
-11578 11579 0
-2195 -11578 0
-2336 11580 0
-11579 11580 0
-2336 -11579 0
-2387 11581 0
-11580 11581 0
-2387 -11580 0
-2530 11582 0
-11581 11582 0
-2530 -11581 0
-2628 11583 0
-11582 11583 0
-2628 -11582 0
-2676 11584 0
-11583 11584 0
-2676 -11583 0
-2822 11585 0
-11584 11585 0
-2822 -11584 0
-2870 11586 0
-11585 11586 0
-2870 -11585 0
-3016 11587 0
-11586 11587 0
-3016 -11586 0
-3064 11588 0
-11587 11588 0
-3064 -11587 0
-3210 11589 0
-11588 11589 0
-3210 -11588 0
-3258 11590 0
-11589 11590 0
-3258 -11589 0
-4492 11591 0
-11590 11591 0
-4492 -11590 0
-4493 11592 0
-11591 11592 0
-4493 -11591 0
-4494 11593 0
-11592 11593 0
-4494 -11592 0
-4495 11594 0
-11593 11594 0
-4495 -11593 0
-4496 11595 0
-11594 11595 0
-4496 -11594 0
-4497 11596 0
-11595 11596 0
-4497 -11595 0
-4498 11597 0
-11596 11597 0
-4498 -11596 0
-4499 11598 0
-11597 11598 0
-4499 -11597 0
-4500 11599 0
-11598 11599 0
-4500 -11598 0
-4501 11600 0
-11599 11600 0
-4501 -11599 0
-4502 11601 0
-11600 11601 0
-4502 -11600 0
-4503 11602 0
-11601 11602 0
-4503 -11601 0
-4504 11603 0
-11602 11603 0
-4504 -11602 0
-4505 11604 0
-11603 11604 0
-4505 -11603 0
-4506 11605 0
-11604 11605 0
-4506 -11604 0
-4507 11606 0
-11605 11606 0
-4507 -11605 0
-4508 11607 0
-11606 11607 0
-4508 -11606 0
-4509 11608 0
-11607 11608 0
-4509 -11607 0
-4510 11609 0
-11608 11609 0
-4510 -11608 0
-4511 11610 0
-11609 11610 0
-4511 -11609 0
-4512 11611 0
-11610 11611 0
-4512 -11610 0
-4513 11612 0
-11611 11612 0
-4513 -11611 0
-4514 11613 0
-11612 11613 0
-4514 -11612 0
-4515 11614 0
-11613 11614 0
-4515 -11613 0
-4516 11615 0
-11614 11615 0
-4516 -11614 0
-4517 11616 0
-11615 11616 0
-4517 -11615 0
-4518 11617 0
-11616 11617 0
-4518 -11616 0
-4519 11618 0
-11617 11618 0
-4519 -11617 0
-4520 11619 0
-11618 11619 0
-4520 -11618 0
-4521 11620 0
-11619 11620 0
-4521 -11619 0
-4522 11621 0
-11620 11621 0
-4522 -11620 0
-4523 -11621 0
25 88 151 210 273 335 397 1372 1430 1486 1542 1596 1654 1710 1766 1808 1855 1903 1951 1996 2045 2093 2141 2968 3019 3067 3115 3160 3209 3257 3305 4524 4525 4526 4527 4528 4529 4530 4531 4532 4533 4534 4535 4536 4537 4538 4539 4540 4541 4542 4543 4544 4545 4546 4547 4548 4549 4550 4551 4552 4553 4554 4555 0
-25 11622 0
-88 11623 0
-11622 11623 0
-88 -11622 0
-151 11624 0
-11623 11624 0
-151 -11623 0
-210 11625 0
-11624 11625 0
-210 -11624 0
-273 11626 0
-11625 11626 0
-273 -11625 0
-335 11627 0
-11626 11627 0
-335 -11626 0
-397 11628 0
-11627 11628 0
-397 -11627 0
-1372 11629 0
-11628 11629 0
-1372 -11628 0
-1430 11630 0
-11629 11630 0
-1430 -11629 0
-1486 11631 0
-11630 11631 0
-1486 -11630 0
-1542 11632 0
-11631 11632 0
-1542 -11631 0
-1596 11633 0
-11632 11633 0
-1596 -11632 0
-1654 11634 0
-11633 11634 0
-1654 -11633 0
-1710 11635 0
-11634 11635 0
-1710 -11634 0
-1766 11636 0
-11635 11636 0
-1766 -11635 0
-1808 11637 0
-11636 11637 0
-1808 -11636 0
-1855 11638 0
-11637 11638 0
-1855 -11637 0
-1903 11639 0
-11638 11639 0
-1903 -11638 0
-1951 11640 0
-11639 11640 0
-1951 -11639 0
-1996 11641 0
-11640 11641 0
-1996 -11640 0
-2045 11642 0
-11641 11642 0
-2045 -11641 0
-2093 11643 0
-11642 11643 0
-2093 -11642 0
-2141 11644 0
-11643 11644 0
-2141 -11643 0
-2968 11645 0
-11644 11645 0
-2968 -11644 0
-3019 11646 0
-11645 11646 0
-3019 -11645 0
-3067 11647 0
-11646 11647 0
-3067 -11646 0
-3115 11648 0
-11647 11648 0
-3115 -11647 0
-3160 11649 0
-11648 11649 0
-3160 -11648 0
-3209 11650 0
-11649 11650 0
-3209 -11649 0
-3257 11651 0
-11650 11651 0
-3257 -11650 0
-3305 11652 0
-11651 11652 0
-3305 -11651 0
-4524 11653 0
-11652 11653 0
-4524 -11652 0
-4525 11654 0
-11653 11654 0
-4525 -11653 0
-4526 11655 0
-11654 11655 0
-4526 -11654 0
-4527 11656 0
-11655 11656 0
-4527 -11655 0
-4528 11657 0
-11656 11657 0
-4528 -11656 0
-4529 11658 0
-11657 11658 0
-4529 -11657 0
-4530 11659 0
-11658 11659 0
-4530 -11658 0
-4531 11660 0
-11659 11660 0
-4531 -11659 0
-4532 11661 0
-11660 11661 0
-4532 -11660 0
-4533 11662 0
-11661 11662 0
-4533 -11661 0
-4534 11663 0
-11662 11663 0
-4534 -11662 0
-4535 11664 0
-11663 11664 0
-4535 -11663 0
-4536 11665 0
-11664 11665 0
-4536 -11664 0
-4537 11666 0
-11665 11666 0
-4537 -11665 0
-4538 11667 0
-11666 11667 0
-4538 -11666 0
-4539 11668 0
-11667 11668 0
-4539 -11667 0
-4540 11669 0
-11668 11669 0
-4540 -11668 0
-4541 11670 0
-11669 11670 0
-4541 -11669 0
-4542 11671 0
-11670 11671 0
-4542 -11670 0
-4543 11672 0
-11671 11672 0
-4543 -11671 0
-4544 11673 0
-11672 11673 0
-4544 -11672 0
-4545 11674 0
-11673 11674 0
-4545 -11673 0
-4546 11675 0
-11674 11675 0
-4546 -11674 0
-4547 11676 0
-11675 11676 0
-4547 -11675 0
-4548 11677 0
-11676 11677 0
-4548 -11676 0
-4549 11678 0
-11677 11678 0
-4549 -11677 0
-4550 11679 0
-11678 11679 0
-4550 -11678 0
-4551 11680 0
-11679 11680 0
-4551 -11679 0
-4552 11681 0
-11680 11681 0
-4552 -11680 0
-4553 11682 0
-11681 11682 0
-4553 -11681 0
-4554 11683 0
-11682 11683 0
-4554 -11682 0
-4555 -11683 0
25 211 272 578 638 818 878 1038 1094 1262 1318 1373 1431 1597 1655 1809 1854 1997 2044 2291 2339 2481 2529 2679 2727 2869 2917 2969 3018 3161 3208 4556 4557 4558 4559 4560 4561 4562 4563 4564 4565 4566 4567 4568 4569 4570 4571 4572 4573 4574 4575 4576 4577 4578 4579 4580 4581 4582 4583 4584 4585 4586 4587 0
-25 11684 0
-211 11685 0
-11684 11685 0
-211 -11684 0
-272 11686 0
-11685 11686 0
-272 -11685 0
-578 11687 0
-11686 11687 0
-578 -11686 0
-638 11688 0
-11687 11688 0
-638 -11687 0
-818 11689 0
-11688 11689 0
-818 -11688 0
-878 11690 0
-11689 11690 0
-878 -11689 0
-1038 11691 0
-11690 11691 0
-1038 -11690 0
-1094 11692 0
-11691 11692 0
-1094 -11691 0
-1262 11693 0
-11692 11693 0
-1262 -11692 0
-1318 11694 0
-11693 11694 0
-1318 -11693 0
-1373 11695 0
-11694 11695 0
-1373 -11694 0
-1431 11696 0
-11695 11696 0
-1431 -11695 0
-1597 11697 0
-11696 11697 0
-1597 -11696 0
-1655 11698 0
-11697 11698 0
-1655 -11697 0
-1809 11699 0
-11698 11699 0
-1809 -11698 0
-1854 11700 0
-11699 11700 0
-1854 -11699 0
-1997 11701 0
-11700 11701 0
-1997 -11700 0
-2044 11702 0
-11701 11702 0
-2044 -11701 0
-2291 11703 0
-11702 11703 0
-2291 -11702 0
-2339 11704 0
-11703 11704 0
-2339 -11703 0
-2481 11705 0
-11704 11705 0
-2481 -11704 0
-2529 11706 0
-11705 11706 0
-2529 -11705 0
-2679 11707 0
-11706 11707 0
-2679 -11706 0
-2727 11708 0
-11707 11708 0
-2727 -11707 0
-2869 11709 0
-11708 11709 0
-2869 -11708 0
-2917 11710 0
-11709 11710 0
-2917 -11709 0
-2969 11711 0
-11710 11711 0
-2969 -11710 0
-3018 11712 0
-11711 11712 0
-3018 -11711 0
-3161 11713 0
-11712 11713 0
-3161 -11712 0
-3208 11714 0
-11713 11714 0
-3208 -11713 0
-4556 11715 0
-11714 11715 0
-4556 -11714 0
-4557 11716 0
-11715 11716 0
-4557 -11715 0
-4558 11717 0
-11716 11717 0
-4558 -11716 0
-4559 11718 0
-11717 11718 0
-4559 -11717 0
-4560 11719 0
-11718 11719 0
-4560 -11718 0
-4561 11720 0
-11719 11720 0
-4561 -11719 0
-4562 11721 0
-11720 11721 0
-4562 -11720 0
-4563 11722 0
-11721 11722 0
-4563 -11721 0
-4564 11723 0
-11722 11723 0
-4564 -11722 0
-4565 11724 0
-11723 11724 0
-4565 -11723 0
-4566 11725 0
-11724 11725 0
-4566 -11724 0
-4567 11726 0
-11725 11726 0
-4567 -11725 0
-4568 11727 0
-11726 11727 0
-4568 -11726 0
-4569 11728 0
-11727 11728 0
-4569 -11727 0
-4570 11729 0
-11728 11729 0
-4570 -11728 0
-4571 11730 0
-11729 11730 0
-4571 -11729 0
-4572 11731 0
-11730 11731 0
-4572 -11730 0
-4573 11732 0
-11731 11732 0
-4573 -11731 0
-4574 11733 0
-11732 11733 0
-4574 -11732 0
-4575 11734 0
-11733 11734 0
-4575 -11733 0
-4576 11735 0
-11734 11735 0
-4576 -11734 0
-4577 11736 0
-11735 11736 0
-4577 -11735 0
-4578 11737 0
-11736 11737 0
-4578 -11736 0
-4579 11738 0
-11737 11738 0
-4579 -11737 0
-4580 11739 0
-11738 11739 0
-4580 -11738 0
-4581 11740 0
-11739 11740 0
-4581 -11739 0
-4582 11741 0
-11740 11741 0
-4582 -11740 0
-4583 11742 0
-11741 11742 0
-4583 -11741 0
-4584 11743 0
-11742 11743 0
-4584 -11742 0
-4585 11744 0
-11743 11744 0
-4585 -11743 0
-4586 11745 0
-11744 11745 0
-4586 -11744 0
-4587 -11745 0
88 212 334 518 639 758 879 982 1095 1206 1319 1374 1487 1598 1711 1810 1902 1998 2092 2243 2338 2433 2528 2631 2726 2821 2916 2970 3066 3162 3256 4588 4589 4590 4591 4592 4593 4594 4595 4596 4597 4598 4599 4600 4601 4602 4603 4604 4605 4606 4607 4608 4609 4610 4611 4612 4613 4614 4615 4616 4617 4618 4619 0
-88 11746 0
-212 11747 0
-11746 11747 0
-212 -11746 0
-334 11748 0
-11747 11748 0
-334 -11747 0
-518 11749 0
-11748 11749 0
-518 -11748 0
-639 11750 0
-11749 11750 0
-639 -11749 0
-758 11751 0
-11750 11751 0
-758 -11750 0
-879 11752 0
-11751 11752 0
-879 -11751 0
-982 11753 0
-11752 11753 0
-982 -11752 0
-1095 11754 0
-11753 11754 0
-1095 -11753 0
-1206 11755 0
-11754 11755 0
-1206 -11754 0
-1319 11756 0
-11755 11756 0
-1319 -11755 0
-1374 11757 0
-11756 11757 0
-1374 -11756 0
-1487 11758 0
-11757 11758 0
-1487 -11757 0
-1598 11759 0
-11758 11759 0
-1598 -11758 0
-1711 11760 0
-11759 11760 0
-1711 -11759 0
-1810 11761 0
-11760 11761 0
-1810 -11760 0
-1902 11762 0
-11761 11762 0
-1902 -11761 0
-1998 11763 0
-11762 11763 0
-1998 -11762 0
-2092 11764 0
-11763 11764 0
-2092 -11763 0
-2243 11765 0
-11764 11765 0
-2243 -11764 0
-2338 11766 0
-11765 11766 0
-2338 -11765 0
-2433 11767 0
-11766 11767 0
-2433 -11766 0
-2528 11768 0
-11767 11768 0
-2528 -11767 0
-2631 11769 0
-11768 11769 0
-2631 -11768 0
-2726 11770 0
-11769 11770 0
-2726 -11769 0
-2821 11771 0
-11770 11771 0
-2821 -11770 0
-2916 11772 0
-11771 11772 0
-2916 -11771 0
-2970 11773 0
-11772 11773 0
-2970 -11772 0
-3066 11774 0
-11773 11774 0
-3066 -11773 0
-3162 11775 0
-11774 11775 0
-3162 -11774 0
-3256 11776 0
-11775 11776 0
-3256 -11775 0
-4588 11777 0
-11776 11777 0
-4588 -11776 0
-4589 11778 0
-11777 11778 0
-4589 -11777 0
-4590 11779 0
-11778 11779 0
-4590 -11778 0
-4591 11780 0
-11779 11780 0
-4591 -11779 0
-4592 11781 0
-11780 11781 0
-4592 -11780 0
-4593 11782 0
-11781 11782 0
-4593 -11781 0
-4594 11783 0
-11782 11783 0
-4594 -11782 0
-4595 11784 0
-11783 11784 0
-4595 -11783 0
-4596 11785 0
-11784 11785 0
-4596 -11784 0
-4597 11786 0
-11785 11786 0
-4597 -11785 0
-4598 11787 0
-11786 11787 0
-4598 -11786 0
-4599 11788 0
-11787 11788 0
-4599 -11787 0
-4600 11789 0
-11788 11789 0
-4600 -11788 0
-4601 11790 0
-11789 11790 0
-4601 -11789 0
-4602 11791 0
-11790 11791 0
-4602 -11790 0
-4603 11792 0
-11791 11792 0
-4603 -11791 0
-4604 11793 0
-11792 11793 0
-4604 -11792 0
-4605 11794 0
-11793 11794 0
-4605 -11793 0
-4606 11795 0
-11794 11795 0
-4606 -11794 0
-4607 11796 0
-11795 11796 0
-4607 -11795 0
-4608 11797 0
-11796 11797 0
-4608 -11796 0
-4609 11798 0
-11797 11798 0
-4609 -11797 0
-4610 11799 0
-11798 11799 0
-4610 -11798 0
-4611 11800 0
-11799 11800 0
-4611 -11799 0
-4612 11801 0
-11800 11801 0
-4612 -11800 0
-4613 11802 0
-11801 11802 0
-4613 -11801 0
-4614 11803 0
-11802 11803 0
-4614 -11802 0
-4615 11804 0
-11803 11804 0
-4615 -11803 0
-4616 11805 0
-11804 11805 0
-4616 -11804 0
-4617 11806 0
-11805 11806 0
-4617 -11805 0
-4618 11807 0
-11806 11807 0
-4618 -11806 0
-4619 -11807 0
151 213 396 519 579 759 819 983 1039 1207 1263 1375 1543 1599 1767 1811 1950 1999 2140 2242 2290 2432 2480 2630 2678 2820 2868 2971 3114 3163 3304 4620 4621 4622 4623 4624 4625 4626 4627 4628 4629 4630 4631 4632 4633 4634 4635 4636 4637 4638 4639 4640 4641 4642 4643 4644 4645 4646 4647 4648 4649 4650 4651 0
-151 11808 0
-213 11809 0
-11808 11809 0
-213 -11808 0
-396 11810 0
-11809 11810 0
-396 -11809 0
-519 11811 0
-11810 11811 0
-519 -11810 0
-579 11812 0
-11811 11812 0
-579 -11811 0
-759 11813 0
-11812 11813 0
-759 -11812 0
-819 11814 0
-11813 11814 0
-819 -11813 0
-983 11815 0
-11814 11815 0
-983 -11814 0
-1039 11816 0
-11815 11816 0
-1039 -11815 0
-1207 11817 0
-11816 11817 0
-1207 -11816 0
-1263 11818 0
-11817 11818 0
-1263 -11817 0
-1375 11819 0
-11818 11819 0
-1375 -11818 0
-1543 11820 0
-11819 11820 0
-1543 -11819 0
-1599 11821 0
-11820 11821 0
-1599 -11820 0
-1767 11822 0
-11821 11822 0
-1767 -11821 0
-1811 11823 0
-11822 11823 0
-1811 -11822 0
-1950 11824 0
-11823 11824 0
-1950 -11823 0
-1999 11825 0
-11824 11825 0
-1999 -11824 0
-2140 11826 0
-11825 11826 0
-2140 -11825 0
-2242 11827 0
-11826 11827 0
-2242 -11826 0
-2290 11828 0
-11827 11828 0
-2290 -11827 0
-2432 11829 0
-11828 11829 0
-2432 -11828 0
-2480 11830 0
-11829 11830 0
-2480 -11829 0
-2630 11831 0
-11830 11831 0
-2630 -11830 0
-2678 11832 0
-11831 11832 0
-2678 -11831 0
-2820 11833 0
-11832 11833 0
-2820 -11832 0
-2868 11834 0
-11833 11834 0
-2868 -11833 0
-2971 11835 0
-11834 11835 0
-2971 -11834 0
-3114 11836 0
-11835 11836 0
-3114 -11835 0
-3163 11837 0
-11836 11837 0
-3163 -11836 0
-3304 11838 0
-11837 11838 0
-3304 -11837 0
-4620 11839 0
-11838 11839 0
-4620 -11838 0
-4621 11840 0
-11839 11840 0
-4621 -11839 0
-4622 11841 0
-11840 11841 0
-4622 -11840 0
-4623 11842 0
-11841 11842 0
-4623 -11841 0
-4624 11843 0
-11842 11843 0
-4624 -11842 0
-4625 11844 0
-11843 11844 0
-4625 -11843 0
-4626 11845 0
-11844 11845 0
-4626 -11844 0
-4627 11846 0
-11845 11846 0
-4627 -11845 0
-4628 11847 0
-11846 11847 0
-4628 -11846 0
-4629 11848 0
-11847 11848 0
-4629 -11847 0
-4630 11849 0
-11848 11849 0
-4630 -11848 0
-4631 11850 0
-11849 11850 0
-4631 -11849 0
-4632 11851 0
-11850 11851 0
-4632 -11850 0
-4633 11852 0
-11851 11852 0
-4633 -11851 0
-4634 11853 0
-11852 11853 0
-4634 -11852 0
-4635 11854 0
-11853 11854 0
-4635 -11853 0
-4636 11855 0
-11854 11855 0
-4636 -11854 0
-4637 11856 0
-11855 11856 0
-4637 -11855 0
-4638 11857 0
-11856 11857 0
-4638 -11856 0
-4639 11858 0
-11857 11858 0
-4639 -11857 0
-4640 11859 0
-11858 11859 0
-4640 -11858 0
-4641 11860 0
-11859 11860 0
-4641 -11859 0
-4642 11861 0
-11860 11861 0
-4642 -11860 0
-4643 11862 0
-11861 11862 0
-4643 -11861 0
-4644 11863 0
-11862 11863 0
-4644 -11862 0
-4645 11864 0
-11863 11864 0
-4645 -11863 0
-4646 11865 0
-11864 11865 0
-4646 -11864 0
-4647 11866 0
-11865 11866 0
-4647 -11865 0
-4648 11867 0
-11866 11867 0
-4648 -11866 0
-4649 11868 0
-11867 11868 0
-4649 -11867 0
-4650 11869 0
-11868 11869 0
-4650 -11868 0
-4651 -11869 0
26 89 152 456 517 577 637 1148 1208 1264 1320 1600 1656 1712 1768 1812 1857 1905 1953 2188 2237 2285 2333 2776 2827 2875 2923 3156 3207 3255 3303 4652 4653 4654 4655 4656 4657 4658 4659 4660 4661 4662 4663 4664 4665 4666 4667 4668 4669 4670 4671 4672 4673 4674 4675 4676 4677 4678 4679 4680 4681 4682 4683 0
-26 11870 0
-89 11871 0
-11870 11871 0
-89 -11870 0
-152 11872 0
-11871 11872 0
-152 -11871 0
-456 11873 0
-11872 11873 0
-456 -11872 0
-517 11874 0
-11873 11874 0
-517 -11873 0
-577 11875 0
-11874 11875 0
-577 -11874 0
-637 11876 0
-11875 11876 0
-637 -11875 0
-1148 11877 0
-11876 11877 0
-1148 -11876 0
-1208 11878 0
-11877 11878 0
-1208 -11877 0
-1264 11879 0
-11878 11879 0
-1264 -11878 0
-1320 11880 0
-11879 11880 0
-1320 -11879 0
-1600 11881 0
-11880 11881 0
-1600 -11880 0
-1656 11882 0
-11881 11882 0
-1656 -11881 0
-1712 11883 0
-11882 11883 0
-1712 -11882 0
-1768 11884 0
-11883 11884 0
-1768 -11883 0
-1812 11885 0
-11884 11885 0
-1812 -11884 0
-1857 11886 0
-11885 11886 0
-1857 -11885 0
-1905 11887 0
-11886 11887 0
-1905 -11886 0
-1953 11888 0
-11887 11888 0
-1953 -11887 0
-2188 11889 0
-11888 11889 0
-2188 -11888 0
-2237 11890 0
-11889 11890 0
-2237 -11889 0
-2285 11891 0
-11890 11891 0
-2285 -11890 0
-2333 11892 0
-11891 11892 0
-2333 -11891 0
-2776 11893 0
-11892 11893 0
-2776 -11892 0
-2827 11894 0
-11893 11894 0
-2827 -11893 0
-2875 11895 0
-11894 11895 0
-2875 -11894 0
-2923 11896 0
-11895 11896 0
-2923 -11895 0
-3156 11897 0
-11896 11897 0
-3156 -11896 0
-3207 11898 0
-11897 11898 0
-3207 -11897 0
-3255 11899 0
-11898 11899 0
-3255 -11898 0
-3303 11900 0
-11899 11900 0
-3303 -11899 0
-4652 11901 0
-11900 11901 0
-4652 -11900 0
-4653 11902 0
-11901 11902 0
-4653 -11901 0
-4654 11903 0
-11902 11903 0
-4654 -11902 0
-4655 11904 0
-11903 11904 0
-4655 -11903 0
-4656 11905 0
-11904 11905 0
-4656 -11904 0
-4657 11906 0
-11905 11906 0
-4657 -11905 0
-4658 11907 0
-11906 11907 0
-4658 -11906 0
-4659 11908 0
-11907 11908 0
-4659 -11907 0
-4660 11909 0
-11908 11909 0
-4660 -11908 0
-4661 11910 0
-11909 11910 0
-4661 -11909 0
-4662 11911 0
-11910 11911 0
-4662 -11910 0
-4663 11912 0
-11911 11912 0
-4663 -11911 0
-4664 11913 0
-11912 11913 0
-4664 -11912 0
-4665 11914 0
-11913 11914 0
-4665 -11913 0
-4666 11915 0
-11914 11915 0
-4666 -11914 0
-4667 11916 0
-11915 11916 0
-4667 -11915 0
-4668 11917 0
-11916 11917 0
-4668 -11916 0
-4669 11918 0
-11917 11918 0
-4669 -11917 0
-4670 11919 0
-11918 11919 0
-4670 -11918 0
-4671 11920 0
-11919 11920 0
-4671 -11919 0
-4672 11921 0
-11920 11921 0
-4672 -11920 0
-4673 11922 0
-11921 11922 0
-4673 -11921 0
-4674 11923 0
-11922 11923 0
-4674 -11922 0
-4675 11924 0
-11923 11924 0
-4675 -11923 0
-4676 11925 0
-11924 11925 0
-4676 -11924 0
-4677 11926 0
-11925 11926 0
-4677 -11925 0
-4678 11927 0
-11926 11927 0
-4678 -11926 0
-4679 11928 0
-11927 11928 0
-4679 -11927 0
-4680 11929 0
-11928 11929 0
-4680 -11928 0
-4681 11930 0
-11929 11930 0
-4681 -11929 0
-4682 11931 0
-11930 11931 0
-4682 -11930 0
-4683 -11931 0
26 336 398 457 516 819 879 1040 1096 1149 1209 1488 1544 1601 1657 1813 1856 2099 2147 2189 2236 2479 2527 2681 2729 2777 2826 3061 3109 3157 3206 4684 4685 4686 4687 4688 4689 4690 4691 4692 4693 4694 4695 4696 4697 4698 4699 4700 4701 4702 4703 4704 4705 4706 4707 4708 4709 4710 4711 4712 4713 4714 4715 0
-26 11932 0
-336 11933 0
-11932 11933 0
-336 -11932 0
-398 11934 0
-11933 11934 0
-398 -11933 0
-457 11935 0
-11934 11935 0
-457 -11934 0
-516 11936 0
-11935 11936 0
-516 -11935 0
-819 11937 0
-11936 11937 0
-819 -11936 0
-879 11938 0
-11937 11938 0
-879 -11937 0
-1040 11939 0
-11938 11939 0
-1040 -11938 0
-1096 11940 0
-11939 11940 0
-1096 -11939 0
-1149 11941 0
-11940 11941 0
-1149 -11940 0
-1209 11942 0
-11941 11942 0
-1209 -11941 0
-1488 11943 0
-11942 11943 0
-1488 -11942 0
-1544 11944 0
-11943 11944 0
-1544 -11943 0
-1601 11945 0
-11944 11945 0
-1601 -11944 0
-1657 11946 0
-11945 11946 0
-1657 -11945 0
-1813 11947 0
-11946 11947 0
-1813 -11946 0
-1856 11948 0
-11947 11948 0
-1856 -11947 0
-2099 11949 0
-11948 11949 0
-2099 -11948 0
-2147 11950 0
-11949 11950 0
-2147 -11949 0
-2189 11951 0
-11950 11951 0
-2189 -11950 0
-2236 11952 0
-11951 11952 0
-2236 -11951 0
-2479 11953 0
-11952 11953 0
-2479 -11952 0
-2527 11954 0
-11953 11954 0
-2527 -11953 0
-2681 11955 0
-11954 11955 0
-2681 -11954 0
-2729 11956 0
-11955 11956 0
-2729 -11955 0
-2777 11957 0
-11956 11957 0
-2777 -11956 0
-2826 11958 0
-11957 11958 0
-2826 -11957 0
-3061 11959 0
-11958 11959 0
-3061 -11958 0
-3109 11960 0
-11959 11960 0
-3109 -11959 0
-3157 11961 0
-11960 11961 0
-3157 -11960 0
-3206 11962 0
-11961 11962 0
-3206 -11961 0
-4684 11963 0
-11962 11963 0
-4684 -11962 0
-4685 11964 0
-11963 11964 0
-4685 -11963 0
-4686 11965 0
-11964 11965 0
-4686 -11964 0
-4687 11966 0
-11965 11966 0
-4687 -11965 0
-4688 11967 0
-11966 11967 0
-4688 -11966 0
-4689 11968 0
-11967 11968 0
-4689 -11967 0
-4690 11969 0
-11968 11969 0
-4690 -11968 0
-4691 11970 0
-11969 11970 0
-4691 -11969 0
-4692 11971 0
-11970 11971 0
-4692 -11970 0
-4693 11972 0
-11971 11972 0
-4693 -11971 0
-4694 11973 0
-11972 11973 0
-4694 -11972 0
-4695 11974 0
-11973 11974 0
-4695 -11973 0
-4696 11975 0
-11974 11975 0
-4696 -11974 0
-4697 11976 0
-11975 11976 0
-4697 -11975 0
-4698 11977 0
-11976 11977 0
-4698 -11976 0
-4699 11978 0
-11977 11978 0
-4699 -11977 0
-4700 11979 0
-11978 11979 0
-4700 -11978 0
-4701 11980 0
-11979 11980 0
-4701 -11979 0
-4702 11981 0
-11980 11981 0
-4702 -11980 0
-4703 11982 0
-11981 11982 0
-4703 -11981 0
-4704 11983 0
-11982 11983 0
-4704 -11982 0
-4705 11984 0
-11983 11984 0
-4705 -11983 0
-4706 11985 0
-11984 11985 0
-4706 -11984 0
-4707 11986 0
-11985 11986 0
-4707 -11985 0
-4708 11987 0
-11986 11987 0
-4708 -11986 0
-4709 11988 0
-11987 11988 0
-4709 -11987 0
-4710 11989 0
-11988 11989 0
-4710 -11988 0
-4711 11990 0
-11989 11990 0
-4711 -11989 0
-4712 11991 0
-11990 11991 0
-4712 -11990 0
-4713 11992 0
-11991 11992 0
-4713 -11991 0
-4714 11993 0
-11992 11993 0
-4714 -11992 0
-4715 -11993 0
89 274 399 458 576 759 878 984 1097 1150 1265 1432 1545 1602 1713 1814 1904 2051 2146 2190 2284 2431 2526 2633 2728 2778 2874 3013 3108 3158 3254 4716 4717 4718 4719 4720 4721 4722 4723 4724 4725 4726 4727 4728 4729 4730 4731 4732 4733 4734 4735 4736 4737 4738 4739 4740 4741 4742 4743 4744 4745 4746 4747 0
-89 11994 0
-274 11995 0
-11994 11995 0
-274 -11994 0
-399 11996 0
-11995 11996 0
-399 -11995 0
-458 11997 0
-11996 11997 0
-458 -11996 0
-576 11998 0
-11997 11998 0
-576 -11997 0
-759 11999 0
-11998 11999 0
-759 -11998 0
-878 12000 0
-11999 12000 0
-878 -11999 0
-984 12001 0
-12000 12001 0
-984 -12000 0
-1097 12002 0
-12001 12002 0
-1097 -12001 0
-1150 12003 0
-12002 12003 0
-1150 -12002 0
-1265 12004 0
-12003 12004 0
-1265 -12003 0
-1432 12005 0
-12004 12005 0
-1432 -12004 0
-1545 12006 0
-12005 12006 0
-1545 -12005 0
-1602 12007 0
-12006 12007 0
-1602 -12006 0
-1713 12008 0
-12007 12008 0
-1713 -12007 0
-1814 12009 0
-12008 12009 0
-1814 -12008 0
-1904 12010 0
-12009 12010 0
-1904 -12009 0
-2051 12011 0
-12010 12011 0
-2051 -12010 0
-2146 12012 0
-12011 12012 0
-2146 -12011 0
-2190 12013 0
-12012 12013 0
-2190 -12012 0
-2284 12014 0
-12013 12014 0
-2284 -12013 0
-2431 12015 0
-12014 12015 0
-2431 -12014 0
-2526 12016 0
-12015 12016 0
-2526 -12015 0
-2633 12017 0
-12016 12017 0
-2633 -12016 0
-2728 12018 0
-12017 12018 0
-2728 -12017 0
-2778 12019 0
-12018 12019 0
-2778 -12018 0
-2874 12020 0
-12019 12020 0
-2874 -12019 0
-3013 12021 0
-12020 12021 0
-3013 -12020 0
-3108 12022 0
-12021 12022 0
-3108 -12021 0
-3158 12023 0
-12022 12023 0
-3158 -12022 0
-3254 12024 0
-12023 12024 0
-3254 -12023 0
-4716 12025 0
-12024 12025 0
-4716 -12024 0
-4717 12026 0
-12025 12026 0
-4717 -12025 0
-4718 12027 0
-12026 12027 0
-4718 -12026 0
-4719 12028 0
-12027 12028 0
-4719 -12027 0
-4720 12029 0
-12028 12029 0
-4720 -12028 0
-4721 12030 0
-12029 12030 0
-4721 -12029 0
-4722 12031 0
-12030 12031 0
-4722 -12030 0
-4723 12032 0
-12031 12032 0
-4723 -12031 0
-4724 12033 0
-12032 12033 0
-4724 -12032 0
-4725 12034 0
-12033 12034 0
-4725 -12033 0
-4726 12035 0
-12034 12035 0
-4726 -12034 0
-4727 12036 0
-12035 12036 0
-4727 -12035 0
-4728 12037 0
-12036 12037 0
-4728 -12036 0
-4729 12038 0
-12037 12038 0
-4729 -12037 0
-4730 12039 0
-12038 12039 0
-4730 -12038 0
-4731 12040 0
-12039 12040 0
-4731 -12039 0
-4732 12041 0
-12040 12041 0
-4732 -12040 0
-4733 12042 0
-12041 12042 0
-4733 -12041 0
-4734 12043 0
-12042 12043 0
-4734 -12042 0
-4735 12044 0
-12043 12044 0
-4735 -12043 0
-4736 12045 0
-12044 12045 0
-4736 -12044 0
-4737 12046 0
-12045 12046 0
-4737 -12045 0
-4738 12047 0
-12046 12047 0
-4738 -12046 0
-4739 12048 0
-12047 12048 0
-4739 -12047 0
-4740 12049 0
-12048 12049 0
-4740 -12048 0
-4741 12050 0
-12049 12050 0
-4741 -12049 0
-4742 12051 0
-12050 12051 0
-4742 -12050 0
-4743 12052 0
-12051 12052 0
-4743 -12051 0
-4744 12053 0
-12052 12053 0
-4744 -12052 0
-4745 12054 0
-12053 12054 0
-4745 -12053 0
-4746 12055 0
-12054 12055 0
-4746 -12054 0
-4747 -12055 0
152 275 337 459 636 758 818 985 1041 1151 1321 1433 1489 1603 1769 1815 1952 2050 2098 2191 2332 2430 2478 2632 2680 2779 2922 3012 3060 3159 3302 4748 4749 4750 4751 4752 4753 4754 4755 4756 4757 4758 4759 4760 4761 4762 4763 4764 4765 4766 4767 4768 4769 4770 4771 4772 4773 4774 4775 4776 4777 4778 4779 0
-152 12056 0
-275 12057 0
-12056 12057 0
-275 -12056 0
-337 12058 0
-12057 12058 0
-337 -12057 0
-459 12059 0
-12058 12059 0
-459 -12058 0
-636 12060 0
-12059 12060 0
-636 -12059 0
-758 12061 0
-12060 12061 0
-758 -12060 0
-818 12062 0
-12061 12062 0
-818 -12061 0
-985 12063 0
-12062 12063 0
-985 -12062 0
-1041 12064 0
-12063 12064 0
-1041 -12063 0
-1151 12065 0
-12064 12065 0
-1151 -12064 0
-1321 12066 0
-12065 12066 0
-1321 -12065 0
-1433 12067 0
-12066 12067 0
-1433 -12066 0
-1489 12068 0
-12067 12068 0
-1489 -12067 0
-1603 12069 0
-12068 12069 0
-1603 -12068 0
-1769 12070 0
-12069 12070 0
-1769 -12069 0
-1815 12071 0
-12070 12071 0
-1815 -12070 0
-1952 12072 0
-12071 12072 0
-1952 -12071 0
-2050 12073 0
-12072 12073 0
-2050 -12072 0
-2098 12074 0
-12073 12074 0
-2098 -12073 0
-2191 12075 0
-12074 12075 0
-2191 -12074 0
-2332 12076 0
-12075 12076 0
-2332 -12075 0
-2430 12077 0
-12076 12077 0
-2430 -12076 0
-2478 12078 0
-12077 12078 0
-2478 -12077 0
-2632 12079 0
-12078 12079 0
-2632 -12078 0
-2680 12080 0
-12079 12080 0
-2680 -12079 0
-2779 12081 0
-12080 12081 0
-2779 -12080 0
-2922 12082 0
-12081 12082 0
-2922 -12081 0
-3012 12083 0
-12082 12083 0
-3012 -12082 0
-3060 12084 0
-12083 12084 0
-3060 -12083 0
-3159 12085 0
-12084 12085 0
-3159 -12084 0
-3302 12086 0
-12085 12086 0
-3302 -12085 0
-4748 12087 0
-12086 12087 0
-4748 -12086 0
-4749 12088 0
-12087 12088 0
-4749 -12087 0
-4750 12089 0
-12088 12089 0
-4750 -12088 0
-4751 12090 0
-12089 12090 0
-4751 -12089 0
-4752 12091 0
-12090 12091 0
-4752 -12090 0
-4753 12092 0
-12091 12092 0
-4753 -12091 0
-4754 12093 0
-12092 12093 0
-4754 -12092 0
-4755 12094 0
-12093 12094 0
-4755 -12093 0
-4756 12095 0
-12094 12095 0
-4756 -12094 0
-4757 12096 0
-12095 12096 0
-4757 -12095 0
-4758 12097 0
-12096 12097 0
-4758 -12096 0
-4759 12098 0
-12097 12098 0
-4759 -12097 0
-4760 12099 0
-12098 12099 0
-4760 -12098 0
-4761 12100 0
-12099 12100 0
-4761 -12099 0
-4762 12101 0
-12100 12101 0
-4762 -12100 0
-4763 12102 0
-12101 12102 0
-4763 -12101 0
-4764 12103 0
-12102 12103 0
-4764 -12102 0
-4765 12104 0
-12103 12104 0
-4765 -12103 0
-4766 12105 0
-12104 12105 0
-4766 -12104 0
-4767 12106 0
-12105 12106 0
-4767 -12105 0
-4768 12107 0
-12106 12107 0
-4768 -12106 0
-4769 12108 0
-12107 12108 0
-4769 -12107 0
-4770 12109 0
-12108 12109 0
-4770 -12108 0
-4771 12110 0
-12109 12110 0
-4771 -12109 0
-4772 12111 0
-12110 12111 0
-4772 -12110 0
-4773 12112 0
-12111 12112 0
-4773 -12111 0
-4774 12113 0
-12112 12113 0
-4774 -12112 0
-4775 12114 0
-12113 12114 0
-4775 -12113 0
-4776 12115 0
-12114 12115 0
-4776 -12114 0
-4777 12116 0
-12115 12116 0
-4777 -12115 0
-4778 12117 0
-12116 12117 0
-4778 -12116 0
-4779 -12117 0
27 90 153 696 757 817 877 1152 1210 1266 1322 1376 1434 1490 1546 1816 1859 1907 1955 2380 2429 2477 2525 2772 2825 2873 2921 2964 3015 3063 3111 4780 4781 4782 4783 4784 4785 4786 4787 4788 4789 4790 4791 4792 4793 4794 4795 4796 4797 4798 4799 4800 4801 4802 4803 4804 4805 4806 4807 4808 4809 4810 4811 0
-27 12118 0
-90 12119 0
-12118 12119 0
-90 -12118 0
-153 12120 0
-12119 12120 0
-153 -12119 0
-696 12121 0
-12120 12121 0
-696 -12120 0
-757 12122 0
-12121 12122 0
-757 -12121 0
-817 12123 0
-12122 12123 0
-817 -12122 0
-877 12124 0
-12123 12124 0
-877 -12123 0
-1152 12125 0
-12124 12125 0
-1152 -12124 0
-1210 12126 0
-12125 12126 0
-1210 -12125 0
-1266 12127 0
-12126 12127 0
-1266 -12126 0
-1322 12128 0
-12127 12128 0
-1322 -12127 0
-1376 12129 0
-12128 12129 0
-1376 -12128 0
-1434 12130 0
-12129 12130 0
-1434 -12129 0
-1490 12131 0
-12130 12131 0
-1490 -12130 0
-1546 12132 0
-12131 12132 0
-1546 -12131 0
-1816 12133 0
-12132 12133 0
-1816 -12132 0
-1859 12134 0
-12133 12134 0
-1859 -12133 0
-1907 12135 0
-12134 12135 0
-1907 -12134 0
-1955 12136 0
-12135 12136 0
-1955 -12135 0
-2380 12137 0
-12136 12137 0
-2380 -12136 0
-2429 12138 0
-12137 12138 0
-2429 -12137 0
-2477 12139 0
-12138 12139 0
-2477 -12138 0
-2525 12140 0
-12139 12140 0
-2525 -12139 0
-2772 12141 0
-12140 12141 0
-2772 -12140 0
-2825 12142 0
-12141 12142 0
-2825 -12141 0
-2873 12143 0
-12142 12143 0
-2873 -12142 0
-2921 12144 0
-12143 12144 0
-2921 -12143 0
-2964 12145 0
-12144 12145 0
-2964 -12144 0
-3015 12146 0
-12145 12146 0
-3015 -12145 0
-3063 12147 0
-12146 12147 0
-3063 -12146 0
-3111 12148 0
-12147 12148 0
-3111 -12147 0
-4780 12149 0
-12148 12149 0
-4780 -12148 0
-4781 12150 0
-12149 12150 0
-4781 -12149 0
-4782 12151 0
-12150 12151 0
-4782 -12150 0
-4783 12152 0
-12151 12152 0
-4783 -12151 0
-4784 12153 0
-12152 12153 0
-4784 -12152 0
-4785 12154 0
-12153 12154 0
-4785 -12153 0
-4786 12155 0
-12154 12155 0
-4786 -12154 0
-4787 12156 0
-12155 12156 0
-4787 -12155 0
-4788 12157 0
-12156 12157 0
-4788 -12156 0
-4789 12158 0
-12157 12158 0
-4789 -12157 0
-4790 12159 0
-12158 12159 0
-4790 -12158 0
-4791 12160 0
-12159 12160 0
-4791 -12159 0
-4792 12161 0
-12160 12161 0
-4792 -12160 0
-4793 12162 0
-12161 12162 0
-4793 -12161 0
-4794 12163 0
-12162 12163 0
-4794 -12162 0
-4795 12164 0
-12163 12164 0
-4795 -12163 0
-4796 12165 0
-12164 12165 0
-4796 -12164 0
-4797 12166 0
-12165 12166 0
-4797 -12165 0
-4798 12167 0
-12166 12167 0
-4798 -12166 0
-4799 12168 0
-12167 12168 0
-4799 -12167 0
-4800 12169 0
-12168 12169 0
-4800 -12168 0
-4801 12170 0
-12169 12170 0
-4801 -12169 0
-4802 12171 0
-12170 12171 0
-4802 -12170 0
-4803 12172 0
-12171 12172 0
-4803 -12171 0
-4804 12173 0
-12172 12173 0
-4804 -12172 0
-4805 12174 0
-12173 12174 0
-4805 -12173 0
-4806 12175 0
-12174 12175 0
-4806 -12174 0
-4807 12176 0
-12175 12176 0
-4807 -12175 0
-4808 12177 0
-12176 12177 0
-4808 -12176 0
-4809 12178 0
-12177 12178 0
-4809 -12177 0
-4810 12179 0
-12178 12179 0
-4810 -12178 0
-4811 -12179 0
27 337 399 579 639 697 756 1042 1098 1153 1211 1377 1435 1714 1770 1817 1858 2097 2145 2287 2335 2381 2428 2683 2731 2773 2824 2965 3014 3253 3301 4812 4813 4814 4815 4816 4817 4818 4819 4820 4821 4822 4823 4824 4825 4826 4827 4828 4829 4830 4831 4832 4833 4834 4835 4836 4837 4838 4839 4840 4841 4842 4843 0
-27 12180 0
-337 12181 0
-12180 12181 0
-337 -12180 0
-399 12182 0
-12181 12182 0
-399 -12181 0
-579 12183 0
-12182 12183 0
-579 -12182 0
-639 12184 0
-12183 12184 0
-639 -12183 0
-697 12185 0
-12184 12185 0
-697 -12184 0
-756 12186 0
-12185 12186 0
-756 -12185 0
-1042 12187 0
-12186 12187 0
-1042 -12186 0
-1098 12188 0
-12187 12188 0
-1098 -12187 0
-1153 12189 0
-12188 12189 0
-1153 -12188 0
-1211 12190 0
-12189 12190 0
-1211 -12189 0
-1377 12191 0
-12190 12191 0
-1377 -12190 0
-1435 12192 0
-12191 12192 0
-1435 -12191 0
-1714 12193 0
-12192 12193 0
-1714 -12192 0
-1770 12194 0
-12193 12194 0
-1770 -12193 0
-1817 12195 0
-12194 12195 0
-1817 -12194 0
-1858 12196 0
-12195 12196 0
-1858 -12195 0
-2097 12197 0
-12196 12197 0
-2097 -12196 0
-2145 12198 0
-12197 12198 0
-2145 -12197 0
-2287 12199 0
-12198 12199 0
-2287 -12198 0
-2335 12200 0
-12199 12200 0
-2335 -12199 0
-2381 12201 0
-12200 12201 0
-2381 -12200 0
-2428 12202 0
-12201 12202 0
-2428 -12201 0
-2683 12203 0
-12202 12203 0
-2683 -12202 0
-2731 12204 0
-12203 12204 0
-2731 -12203 0
-2773 12205 0
-12204 12205 0
-2773 -12204 0
-2824 12206 0
-12205 12206 0
-2824 -12205 0
-2965 12207 0
-12206 12207 0
-2965 -12206 0
-3014 12208 0
-12207 12208 0
-3014 -12207 0
-3253 12209 0
-12208 12209 0
-3253 -12208 0
-3301 12210 0
-12209 12210 0
-3301 -12209 0
-4812 12211 0
-12210 12211 0
-4812 -12210 0
-4813 12212 0
-12211 12212 0
-4813 -12211 0
-4814 12213 0
-12212 12213 0
-4814 -12212 0
-4815 12214 0
-12213 12214 0
-4815 -12213 0
-4816 12215 0
-12214 12215 0
-4816 -12214 0
-4817 12216 0
-12215 12216 0
-4817 -12215 0
-4818 12217 0
-12216 12217 0
-4818 -12216 0
-4819 12218 0
-12217 12218 0
-4819 -12217 0
-4820 12219 0
-12218 12219 0
-4820 -12218 0
-4821 12220 0
-12219 12220 0
-4821 -12219 0
-4822 12221 0
-12220 12221 0
-4822 -12220 0
-4823 12222 0
-12221 12222 0
-4823 -12221 0
-4824 12223 0
-12222 12223 0
-4824 -12222 0
-4825 12224 0
-12223 12224 0
-4825 -12223 0
-4826 12225 0
-12224 12225 0
-4826 -12224 0
-4827 12226 0
-12225 12226 0
-4827 -12225 0
-4828 12227 0
-12226 12227 0
-4828 -12226 0
-4829 12228 0
-12227 12228 0
-4829 -12227 0
-4830 12229 0
-12228 12229 0
-4830 -12228 0
-4831 12230 0
-12229 12230 0
-4831 -12229 0
-4832 12231 0
-12230 12231 0
-4832 -12230 0
-4833 12232 0
-12231 12232 0
-4833 -12231 0
-4834 12233 0
-12232 12233 0
-4834 -12232 0
-4835 12234 0
-12233 12234 0
-4835 -12233 0
-4836 12235 0
-12234 12235 0
-4836 -12234 0
-4837 12236 0
-12235 12236 0
-4837 -12235 0
-4838 12237 0
-12236 12237 0
-4838 -12236 0
-4839 12238 0
-12237 12238 0
-4839 -12237 0
-4840 12239 0
-12238 12239 0
-4840 -12238 0
-4841 12240 0
-12239 12240 0
-4841 -12239 0
-4842 12241 0
-12240 12241 0
-4842 -12240 0
-4843 -12241 0
90 275 398 519 638 698 816 986 1099 1154 1267 1378 1491 1658 1771 1818 1906 2049 2144 2239 2334 2382 2476 2635 2730 2774 2872 2966 3062 3205 3300 4844 4845 4846 4847 4848 4849 4850 4851 4852 4853 4854 4855 4856 4857 4858 4859 4860 4861 4862 4863 4864 4865 4866 4867 4868 4869 4870 4871 4872 4873 4874 4875 0
-90 12242 0
-275 12243 0
-12242 12243 0
-275 -12242 0
-398 12244 0
-12243 12244 0
-398 -12243 0
-519 12245 0
-12244 12245 0
-519 -12244 0
-638 12246 0
-12245 12246 0
-638 -12245 0
-698 12247 0
-12246 12247 0
-698 -12246 0
-816 12248 0
-12247 12248 0
-816 -12247 0
-986 12249 0
-12248 12249 0
-986 -12248 0
-1099 12250 0
-12249 12250 0
-1099 -12249 0
-1154 12251 0
-12250 12251 0
-1154 -12250 0
-1267 12252 0
-12251 12252 0
-1267 -12251 0
-1378 12253 0
-12252 12253 0
-1378 -12252 0
-1491 12254 0
-12253 12254 0
-1491 -12253 0
-1658 12255 0
-12254 12255 0
-1658 -12254 0
-1771 12256 0
-12255 12256 0
-1771 -12255 0
-1818 12257 0
-12256 12257 0
-1818 -12256 0
-1906 12258 0
-12257 12258 0
-1906 -12257 0
-2049 12259 0
-12258 12259 0
-2049 -12258 0
-2144 12260 0
-12259 12260 0
-2144 -12259 0
-2239 12261 0
-12260 12261 0
-2239 -12260 0
-2334 12262 0
-12261 12262 0
-2334 -12261 0
-2382 12263 0
-12262 12263 0
-2382 -12262 0
-2476 12264 0
-12263 12264 0
-2476 -12263 0
-2635 12265 0
-12264 12265 0
-2635 -12264 0
-2730 12266 0
-12265 12266 0
-2730 -12265 0
-2774 12267 0
-12266 12267 0
-2774 -12266 0
-2872 12268 0
-12267 12268 0
-2872 -12267 0
-2966 12269 0
-12268 12269 0
-2966 -12268 0
-3062 12270 0
-12269 12270 0
-3062 -12269 0
-3205 12271 0
-12270 12271 0
-3205 -12270 0
-3300 12272 0
-12271 12272 0
-3300 -12271 0
-4844 12273 0
-12272 12273 0
-4844 -12272 0
-4845 12274 0
-12273 12274 0
-4845 -12273 0
-4846 12275 0
-12274 12275 0
-4846 -12274 0
-4847 12276 0
-12275 12276 0
-4847 -12275 0
-4848 12277 0
-12276 12277 0
-4848 -12276 0
-4849 12278 0
-12277 12278 0
-4849 -12277 0
-4850 12279 0
-12278 12279 0
-4850 -12278 0
-4851 12280 0
-12279 12280 0
-4851 -12279 0
-4852 12281 0
-12280 12281 0
-4852 -12280 0
-4853 12282 0
-12281 12282 0
-4853 -12281 0
-4854 12283 0
-12282 12283 0
-4854 -12282 0
-4855 12284 0
-12283 12284 0
-4855 -12283 0
-4856 12285 0
-12284 12285 0
-4856 -12284 0
-4857 12286 0
-12285 12286 0
-4857 -12285 0
-4858 12287 0
-12286 12287 0
-4858 -12286 0
-4859 12288 0
-12287 12288 0
-4859 -12287 0
-4860 12289 0
-12288 12289 0
-4860 -12288 0
-4861 12290 0
-12289 12290 0
-4861 -12289 0
-4862 12291 0
-12290 12291 0
-4862 -12290 0
-4863 12292 0
-12291 12292 0
-4863 -12291 0
-4864 12293 0
-12292 12293 0
-4864 -12292 0
-4865 12294 0
-12293 12294 0
-4865 -12293 0
-4866 12295 0
-12294 12295 0
-4866 -12294 0
-4867 12296 0
-12295 12296 0
-4867 -12295 0
-4868 12297 0
-12296 12297 0
-4868 -12296 0
-4869 12298 0
-12297 12298 0
-4869 -12297 0
-4870 12299 0
-12298 12299 0
-4870 -12298 0
-4871 12300 0
-12299 12300 0
-4871 -12299 0
-4872 12301 0
-12300 12301 0
-4872 -12300 0
-4873 12302 0
-12301 12302 0
-4873 -12301 0
-4874 12303 0
-12302 12303 0
-4874 -12302 0
-4875 -12303 0
153 274 336 518 578 699 876 987 1043 1155 1323 1379 1547 1659 1715 1819 1954 2048 2096 2238 2286 2383 2524 2634 2682 2775 2920 2967 3110 3204 3252 4876 4877 4878 4879 4880 4881 4882 4883 4884 4885 4886 4887 4888 4889 4890 4891 4892 4893 4894 4895 4896 4897 4898 4899 4900 4901 4902 4903 4904 4905 4906 4907 0
-153 12304 0
-274 12305 0
-12304 12305 0
-274 -12304 0
-336 12306 0
-12305 12306 0
-336 -12305 0
-518 12307 0
-12306 12307 0
-518 -12306 0
-578 12308 0
-12307 12308 0
-578 -12307 0
-699 12309 0
-12308 12309 0
-699 -12308 0
-876 12310 0
-12309 12310 0
-876 -12309 0
-987 12311 0
-12310 12311 0
-987 -12310 0
-1043 12312 0
-12311 12312 0
-1043 -12311 0
-1155 12313 0
-12312 12313 0
-1155 -12312 0
-1323 12314 0
-12313 12314 0
-1323 -12313 0
-1379 12315 0
-12314 12315 0
-1379 -12314 0
-1547 12316 0
-12315 12316 0
-1547 -12315 0
-1659 12317 0
-12316 12317 0
-1659 -12316 0
-1715 12318 0
-12317 12318 0
-1715 -12317 0
-1819 12319 0
-12318 12319 0
-1819 -12318 0
-1954 12320 0
-12319 12320 0
-1954 -12319 0
-2048 12321 0
-12320 12321 0
-2048 -12320 0
-2096 12322 0
-12321 12322 0
-2096 -12321 0
-2238 12323 0
-12322 12323 0
-2238 -12322 0
-2286 12324 0
-12323 12324 0
-2286 -12323 0
-2383 12325 0
-12324 12325 0
-2383 -12324 0
-2524 12326 0
-12325 12326 0
-2524 -12325 0
-2634 12327 0
-12326 12327 0
-2634 -12326 0
-2682 12328 0
-12327 12328 0
-2682 -12327 0
-2775 12329 0
-12328 12329 0
-2775 -12328 0
-2920 12330 0
-12329 12330 0
-2920 -12329 0
-2967 12331 0
-12330 12331 0
-2967 -12330 0
-3110 12332 0
-12331 12332 0
-3110 -12331 0
-3204 12333 0
-12332 12333 0
-3204 -12332 0
-3252 12334 0
-12333 12334 0
-3252 -12333 0
-4876 12335 0
-12334 12335 0
-4876 -12334 0
-4877 12336 0
-12335 12336 0
-4877 -12335 0
-4878 12337 0
-12336 12337 0
-4878 -12336 0
-4879 12338 0
-12337 12338 0
-4879 -12337 0
-4880 12339 0
-12338 12339 0
-4880 -12338 0
-4881 12340 0
-12339 12340 0
-4881 -12339 0
-4882 12341 0
-12340 12341 0
-4882 -12340 0
-4883 12342 0
-12341 12342 0
-4883 -12341 0
-4884 12343 0
-12342 12343 0
-4884 -12342 0
-4885 12344 0
-12343 12344 0
-4885 -12343 0
-4886 12345 0
-12344 12345 0
-4886 -12344 0
-4887 12346 0
-12345 12346 0
-4887 -12345 0
-4888 12347 0
-12346 12347 0
-4888 -12346 0
-4889 12348 0
-12347 12348 0
-4889 -12347 0
-4890 12349 0
-12348 12349 0
-4890 -12348 0
-4891 12350 0
-12349 12350 0
-4891 -12349 0
-4892 12351 0
-12350 12351 0
-4892 -12350 0
-4893 12352 0
-12351 12352 0
-4893 -12351 0
-4894 12353 0
-12352 12353 0
-4894 -12352 0
-4895 12354 0
-12353 12354 0
-4895 -12353 0
-4896 12355 0
-12354 12355 0
-4896 -12354 0
-4897 12356 0
-12355 12356 0
-4897 -12355 0
-4898 12357 0
-12356 12357 0
-4898 -12356 0
-4899 12358 0
-12357 12358 0
-4899 -12357 0
-4900 12359 0
-12358 12359 0
-4900 -12358 0
-4901 12360 0
-12359 12360 0
-4901 -12359 0
-4902 12361 0
-12360 12361 0
-4902 -12360 0
-4903 12362 0
-12361 12362 0
-4903 -12361 0
-4904 12363 0
-12362 12363 0
-4904 -12362 0
-4905 12364 0
-12363 12364 0
-4905 -12363 0
-4906 12365 0
-12364 12365 0
-4906 -12364 0
-4907 -12365 0
28 91 154 214 276 338 400 460 520 580 640 700 760 820 880 2572 2621 2669 2717 2768 2815 2863 2911 2960 3009 3057 3105 3152 3203 3251 3299 4908 4909 4910 4911 4912 4913 4914 4915 4916 4917 4918 4919 4920 4921 4922 4923 4924 4925 4926 4927 4928 4929 4930 4931 4932 4933 4934 4935 4936 4937 4938 4939 0
-28 12366 0
-91 12367 0
-12366 12367 0
-91 -12366 0
-154 12368 0
-12367 12368 0
-154 -12367 0
-214 12369 0
-12368 12369 0
-214 -12368 0
-276 12370 0
-12369 12370 0
-276 -12369 0
-338 12371 0
-12370 12371 0
-338 -12370 0
-400 12372 0
-12371 12372 0
-400 -12371 0
-460 12373 0
-12372 12373 0
-460 -12372 0
-520 12374 0
-12373 12374 0
-520 -12373 0
-580 12375 0
-12374 12375 0
-580 -12374 0
-640 12376 0
-12375 12376 0
-640 -12375 0
-700 12377 0
-12376 12377 0
-700 -12376 0
-760 12378 0
-12377 12378 0
-760 -12377 0
-820 12379 0
-12378 12379 0
-820 -12378 0
-880 12380 0
-12379 12380 0
-880 -12379 0
-2572 12381 0
-12380 12381 0
-2572 -12380 0
-2621 12382 0
-12381 12382 0
-2621 -12381 0
-2669 12383 0
-12382 12383 0
-2669 -12382 0
-2717 12384 0
-12383 12384 0
-2717 -12383 0
-2768 12385 0
-12384 12385 0
-2768 -12384 0
-2815 12386 0
-12385 12386 0
-2815 -12385 0
-2863 12387 0
-12386 12387 0
-2863 -12386 0
-2911 12388 0
-12387 12388 0
-2911 -12387 0
-2960 12389 0
-12388 12389 0
-2960 -12388 0
-3009 12390 0
-12389 12390 0
-3009 -12389 0
-3057 12391 0
-12390 12391 0
-3057 -12390 0
-3105 12392 0
-12391 12392 0
-3105 -12391 0
-3152 12393 0
-12392 12393 0
-3152 -12392 0
-3203 12394 0
-12393 12394 0
-3203 -12393 0
-3251 12395 0
-12394 12395 0
-3251 -12394 0
-3299 12396 0
-12395 12396 0
-3299 -12395 0
-4908 12397 0
-12396 12397 0
-4908 -12396 0
-4909 12398 0
-12397 12398 0
-4909 -12397 0
-4910 12399 0
-12398 12399 0
-4910 -12398 0
-4911 12400 0
-12399 12400 0
-4911 -12399 0
-4912 12401 0
-12400 12401 0
-4912 -12400 0
-4913 12402 0
-12401 12402 0
-4913 -12401 0
-4914 12403 0
-12402 12403 0
-4914 -12402 0
-4915 12404 0
-12403 12404 0
-4915 -12403 0
-4916 12405 0
-12404 12405 0
-4916 -12404 0
-4917 12406 0
-12405 12406 0
-4917 -12405 0
-4918 12407 0
-12406 12407 0
-4918 -12406 0
-4919 12408 0
-12407 12408 0
-4919 -12407 0
-4920 12409 0
-12408 12409 0
-4920 -12408 0
-4921 12410 0
-12409 12410 0
-4921 -12409 0
-4922 12411 0
-12410 12411 0
-4922 -12410 0
-4923 12412 0
-12411 12412 0
-4923 -12411 0
-4924 12413 0
-12412 12413 0
-4924 -12412 0
-4925 12414 0
-12413 12414 0
-4925 -12413 0
-4926 12415 0
-12414 12415 0
-4926 -12414 0
-4927 12416 0
-12415 12416 0
-4927 -12415 0
-4928 12417 0
-12416 12417 0
-4928 -12416 0
-4929 12418 0
-12417 12418 0
-4929 -12417 0
-4930 12419 0
-12418 12419 0
-4930 -12418 0
-4931 12420 0
-12419 12420 0
-4931 -12419 0
-4932 12421 0
-12420 12421 0
-4932 -12420 0
-4933 12422 0
-12421 12422 0
-4933 -12421 0
-4934 12423 0
-12422 12423 0
-4934 -12422 0
-4935 12424 0
-12423 12424 0
-4935 -12423 0
-4936 12425 0
-12424 12425 0
-4936 -12424 0
-4937 12426 0
-12425 12426 0
-4937 -12425 0
-4938 12427 0
-12426 12427 0
-4938 -12426 0
-4939 -12427 0
28 215 277 461 521 701 761 1037 1093 1263 1319 1489 1545 1715 1771 1909 1957 2103 2151 2297 2345 2491 2539 2573 2620 2769 2814 2961 3008 3153 3202 4940 4941 4942 4943 4944 4945 4946 4947 4948 4949 4950 4951 4952 4953 4954 4955 4956 4957 4958 4959 4960 4961 4962 4963 4964 4965 4966 4967 4968 4969 4970 4971 0
-28 12428 0
-215 12429 0
-12428 12429 0
-215 -12428 0
-277 12430 0
-12429 12430 0
-277 -12429 0
-461 12431 0
-12430 12431 0
-461 -12430 0
-521 12432 0
-12431 12432 0
-521 -12431 0
-701 12433 0
-12432 12433 0
-701 -12432 0
-761 12434 0
-12433 12434 0
-761 -12433 0
-1037 12435 0
-12434 12435 0
-1037 -12434 0
-1093 12436 0
-12435 12436 0
-1093 -12435 0
-1263 12437 0
-12436 12437 0
-1263 -12436 0
-1319 12438 0
-12437 12438 0
-1319 -12437 0
-1489 12439 0
-12438 12439 0
-1489 -12438 0
-1545 12440 0
-12439 12440 0
-1545 -12439 0
-1715 12441 0
-12440 12441 0
-1715 -12440 0
-1771 12442 0
-12441 12442 0
-1771 -12441 0
-1909 12443 0
-12442 12443 0
-1909 -12442 0
-1957 12444 0
-12443 12444 0
-1957 -12443 0
-2103 12445 0
-12444 12445 0
-2103 -12444 0
-2151 12446 0
-12445 12446 0
-2151 -12445 0
-2297 12447 0
-12446 12447 0
-2297 -12446 0
-2345 12448 0
-12447 12448 0
-2345 -12447 0
-2491 12449 0
-12448 12449 0
-2491 -12448 0
-2539 12450 0
-12449 12450 0
-2539 -12449 0
-2573 12451 0
-12450 12451 0
-2573 -12450 0
-2620 12452 0
-12451 12452 0
-2620 -12451 0
-2769 12453 0
-12452 12453 0
-2769 -12452 0
-2814 12454 0
-12453 12454 0
-2814 -12453 0
-2961 12455 0
-12454 12455 0
-2961 -12454 0
-3008 12456 0
-12455 12456 0
-3008 -12455 0
-3153 12457 0
-12456 12457 0
-3153 -12456 0
-3202 12458 0
-12457 12458 0
-3202 -12457 0
-4940 12459 0
-12458 12459 0
-4940 -12458 0
-4941 12460 0
-12459 12460 0
-4941 -12459 0
-4942 12461 0
-12460 12461 0
-4942 -12460 0
-4943 12462 0
-12461 12462 0
-4943 -12461 0
-4944 12463 0
-12462 12463 0
-4944 -12462 0
-4945 12464 0
-12463 12464 0
-4945 -12463 0
-4946 12465 0
-12464 12465 0
-4946 -12464 0
-4947 12466 0
-12465 12466 0
-4947 -12465 0
-4948 12467 0
-12466 12467 0
-4948 -12466 0
-4949 12468 0
-12467 12468 0
-4949 -12467 0
-4950 12469 0
-12468 12469 0
-4950 -12468 0
-4951 12470 0
-12469 12470 0
-4951 -12469 0
-4952 12471 0
-12470 12471 0
-4952 -12470 0
-4953 12472 0
-12471 12472 0
-4953 -12471 0
-4954 12473 0
-12472 12473 0
-4954 -12472 0
-4955 12474 0
-12473 12474 0
-4955 -12473 0
-4956 12475 0
-12474 12475 0
-4956 -12474 0
-4957 12476 0
-12475 12476 0
-4957 -12475 0
-4958 12477 0
-12476 12477 0
-4958 -12476 0
-4959 12478 0
-12477 12478 0
-4959 -12477 0
-4960 12479 0
-12478 12479 0
-4960 -12478 0
-4961 12480 0
-12479 12480 0
-4961 -12479 0
-4962 12481 0
-12480 12481 0
-4962 -12480 0
-4963 12482 0
-12481 12482 0
-4963 -12481 0
-4964 12483 0
-12482 12483 0
-4964 -12482 0
-4965 12484 0
-12483 12484 0
-4965 -12483 0
-4966 12485 0
-12484 12485 0
-4966 -12484 0
-4967 12486 0
-12485 12486 0
-4967 -12485 0
-4968 12487 0
-12486 12487 0
-4968 -12486 0
-4969 12488 0
-12487 12488 0
-4969 -12487 0
-4970 12489 0
-12488 12489 0
-4970 -12488 0
-4971 -12489 0
91 216 339 462 581 702 821 981 1092 1207 1318 1433 1544 1659 1770 1861 1956 2055 2150 2249 2344 2443 2538 2574 2668 2770 2862 2962 3056 3154 3250 4972 4973 4974 4975 4976 4977 4978 4979 4980 4981 4982 4983 4984 4985 4986 4987 4988 4989 4990 4991 4992 4993 4994 4995 4996 4997 4998 4999 5000 5001 5002 5003 0
-91 12490 0
-216 12491 0
-12490 12491 0
-216 -12490 0
-339 12492 0
-12491 12492 0
-339 -12491 0
-462 12493 0
-12492 12493 0
-462 -12492 0
-581 12494 0
-12493 12494 0
-581 -12493 0
-702 12495 0
-12494 12495 0
-702 -12494 0
-821 12496 0
-12495 12496 0
-821 -12495 0
-981 12497 0
-12496 12497 0
-981 -12496 0
-1092 12498 0
-12497 12498 0
-1092 -12497 0
-1207 12499 0
-12498 12499 0
-1207 -12498 0
-1318 12500 0
-12499 12500 0
-1318 -12499 0
-1433 12501 0
-12500 12501 0
-1433 -12500 0
-1544 12502 0
-12501 12502 0
-1544 -12501 0
-1659 12503 0
-12502 12503 0
-1659 -12502 0
-1770 12504 0
-12503 12504 0
-1770 -12503 0
-1861 12505 0
-12504 12505 0
-1861 -12504 0
-1956 12506 0
-12505 12506 0
-1956 -12505 0
-2055 12507 0
-12506 12507 0
-2055 -12506 0
-2150 12508 0
-12507 12508 0
-2150 -12507 0
-2249 12509 0
-12508 12509 0
-2249 -12508 0
-2344 12510 0
-12509 12510 0
-2344 -12509 0
-2443 12511 0
-12510 12511 0
-2443 -12510 0
-2538 12512 0
-12511 12512 0
-2538 -12511 0
-2574 12513 0
-12512 12513 0
-2574 -12512 0
-2668 12514 0
-12513 12514 0
-2668 -12513 0
-2770 12515 0
-12514 12515 0
-2770 -12514 0
-2862 12516 0
-12515 12516 0
-2862 -12515 0
-2962 12517 0
-12516 12517 0
-2962 -12516 0
-3056 12518 0
-12517 12518 0
-3056 -12517 0
-3154 12519 0
-12518 12519 0
-3154 -12518 0
-3250 12520 0
-12519 12520 0
-3250 -12519 0
-4972 12521 0
-12520 12521 0
-4972 -12520 0
-4973 12522 0
-12521 12522 0
-4973 -12521 0
-4974 12523 0
-12522 12523 0
-4974 -12522 0
-4975 12524 0
-12523 12524 0
-4975 -12523 0
-4976 12525 0
-12524 12525 0
-4976 -12524 0
-4977 12526 0
-12525 12526 0
-4977 -12525 0
-4978 12527 0
-12526 12527 0
-4978 -12526 0
-4979 12528 0
-12527 12528 0
-4979 -12527 0
-4980 12529 0
-12528 12529 0
-4980 -12528 0
-4981 12530 0
-12529 12530 0
-4981 -12529 0
-4982 12531 0
-12530 12531 0
-4982 -12530 0
-4983 12532 0
-12531 12532 0
-4983 -12531 0
-4984 12533 0
-12532 12533 0
-4984 -12532 0
-4985 12534 0
-12533 12534 0
-4985 -12533 0
-4986 12535 0
-12534 12535 0
-4986 -12534 0
-4987 12536 0
-12535 12536 0
-4987 -12535 0
-4988 12537 0
-12536 12537 0
-4988 -12536 0
-4989 12538 0
-12537 12538 0
-4989 -12537 0
-4990 12539 0
-12538 12539 0
-4990 -12538 0
-4991 12540 0
-12539 12540 0
-4991 -12539 0
-4992 12541 0
-12540 12541 0
-4992 -12540 0
-4993 12542 0
-12541 12542 0
-4993 -12541 0
-4994 12543 0
-12542 12543 0
-4994 -12542 0
-4995 12544 0
-12543 12544 0
-4995 -12543 0
-4996 12545 0
-12544 12545 0
-4996 -12544 0
-4997 12546 0
-12545 12546 0
-4997 -12545 0
-4998 12547 0
-12546 12547 0
-4998 -12546 0
-4999 12548 0
-12547 12548 0
-4999 -12547 0
-5000 12549 0
-12548 12549 0
-5000 -12548 0
-5001 12550 0
-12549 12550 0
-5001 -12549 0
-5002 12551 0
-12550 12551 0
-5002 -12550 0
-5003 -12551 0
154 217 401 463 641 703 881 980 1036 1206 1262 1432 1488 1658 1714 1860 1908 2054 2102 2248 2296 2442 2490 2575 2716 2771 2910 2963 3104 3155 3298 5004 5005 5006 5007 5008 5009 5010 5011 5012 5013 5014 5015 5016 5017 5018 5019 5020 5021 5022 5023 5024 5025 5026 5027 5028 5029 5030 5031 5032 5033 5034 5035 0
-154 12552 0
-217 12553 0
-12552 12553 0
-217 -12552 0
-401 12554 0
-12553 12554 0
-401 -12553 0
-463 12555 0
-12554 12555 0
-463 -12554 0
-641 12556 0
-12555 12556 0
-641 -12555 0
-703 12557 0
-12556 12557 0
-703 -12556 0
-881 12558 0
-12557 12558 0
-881 -12557 0
-980 12559 0
-12558 12559 0
-980 -12558 0
-1036 12560 0
-12559 12560 0
-1036 -12559 0
-1206 12561 0
-12560 12561 0
-1206 -12560 0
-1262 12562 0
-12561 12562 0
-1262 -12561 0
-1432 12563 0
-12562 12563 0
-1432 -12562 0
-1488 12564 0
-12563 12564 0
-1488 -12563 0
-1658 12565 0
-12564 12565 0
-1658 -12564 0
-1714 12566 0
-12565 12566 0
-1714 -12565 0
-1860 12567 0
-12566 12567 0
-1860 -12566 0
-1908 12568 0
-12567 12568 0
-1908 -12567 0
-2054 12569 0
-12568 12569 0
-2054 -12568 0
-2102 12570 0
-12569 12570 0
-2102 -12569 0
-2248 12571 0
-12570 12571 0
-2248 -12570 0
-2296 12572 0
-12571 12572 0
-2296 -12571 0
-2442 12573 0
-12572 12573 0
-2442 -12572 0
-2490 12574 0
-12573 12574 0
-2490 -12573 0
-2575 12575 0
-12574 12575 0
-2575 -12574 0
-2716 12576 0
-12575 12576 0
-2716 -12575 0
-2771 12577 0
-12576 12577 0
-2771 -12576 0
-2910 12578 0
-12577 12578 0
-2910 -12577 0
-2963 12579 0
-12578 12579 0
-2963 -12578 0
-3104 12580 0
-12579 12580 0
-3104 -12579 0
-3155 12581 0
-12580 12581 0
-3155 -12580 0
-3298 12582 0
-12581 12582 0
-3298 -12581 0
-5004 12583 0
-12582 12583 0
-5004 -12582 0
-5005 12584 0
-12583 12584 0
-5005 -12583 0
-5006 12585 0
-12584 12585 0
-5006 -12584 0
-5007 12586 0
-12585 12586 0
-5007 -12585 0
-5008 12587 0
-12586 12587 0
-5008 -12586 0
-5009 12588 0
-12587 12588 0
-5009 -12587 0
-5010 12589 0
-12588 12589 0
-5010 -12588 0
-5011 12590 0
-12589 12590 0
-5011 -12589 0
-5012 12591 0
-12590 12591 0
-5012 -12590 0
-5013 12592 0
-12591 12592 0
-5013 -12591 0
-5014 12593 0
-12592 12593 0
-5014 -12592 0
-5015 12594 0
-12593 12594 0
-5015 -12593 0
-5016 12595 0
-12594 12595 0
-5016 -12594 0
-5017 12596 0
-12595 12596 0
-5017 -12595 0
-5018 12597 0
-12596 12597 0
-5018 -12596 0
-5019 12598 0
-12597 12598 0
-5019 -12597 0
-5020 12599 0
-12598 12599 0
-5020 -12598 0
-5021 12600 0
-12599 12600 0
-5021 -12599 0
-5022 12601 0
-12600 12601 0
-5022 -12600 0
-5023 12602 0
-12601 12602 0
-5023 -12601 0
-5024 12603 0
-12602 12603 0
-5024 -12602 0
-5025 12604 0
-12603 12604 0
-5025 -12603 0
-5026 12605 0
-12604 12605 0
-5026 -12604 0
-5027 12606 0
-12605 12606 0
-5027 -12605 0
-5028 12607 0
-12606 12607 0
-5028 -12606 0
-5029 12608 0
-12607 12608 0
-5029 -12607 0
-5030 12609 0
-12608 12609 0
-5030 -12608 0
-5031 12610 0
-12609 12610 0
-5031 -12609 0
-5032 12611 0
-12610 12611 0
-5032 -12610 0
-5033 12612 0
-12611 12612 0
-5033 -12611 0
-5034 12613 0
-12612 12613 0
-5034 -12612 0
-5035 -12613 0
29 92 155 214 277 339 401 1376 1435 1491 1547 1600 1657 1713 1769 2200 2251 2299 2347 2392 2441 2489 2537 2576 2623 2671 2719 2764 2813 2861 2909 5036 5037 5038 5039 5040 5041 5042 5043 5044 5045 5046 5047 5048 5049 5050 5051 5052 5053 5054 5055 5056 5057 5058 5059 5060 5061 5062 5063 5064 5065 5066 5067 0
-29 12614 0
-92 12615 0
-12614 12615 0
-92 -12614 0
-155 12616 0
-12615 12616 0
-155 -12615 0
-214 12617 0
-12616 12617 0
-214 -12616 0
-277 12618 0
-12617 12618 0
-277 -12617 0
-339 12619 0
-12618 12619 0
-339 -12618 0
-401 12620 0
-12619 12620 0
-401 -12619 0
-1376 12621 0
-12620 12621 0
-1376 -12620 0
-1435 12622 0
-12621 12622 0
-1435 -12621 0
-1491 12623 0
-12622 12623 0
-1491 -12622 0
-1547 12624 0
-12623 12624 0
-1547 -12623 0
-1600 12625 0
-12624 12625 0
-1600 -12624 0
-1657 12626 0
-12625 12626 0
-1657 -12625 0
-1713 12627 0
-12626 12627 0
-1713 -12626 0
-1769 12628 0
-12627 12628 0
-1769 -12627 0
-2200 12629 0
-12628 12629 0
-2200 -12628 0
-2251 12630 0
-12629 12630 0
-2251 -12629 0
-2299 12631 0
-12630 12631 0
-2299 -12630 0
-2347 12632 0
-12631 12632 0
-2347 -12631 0
-2392 12633 0
-12632 12633 0
-2392 -12632 0
-2441 12634 0
-12633 12634 0
-2441 -12633 0
-2489 12635 0
-12634 12635 0
-2489 -12634 0
-2537 12636 0
-12635 12636 0
-2537 -12635 0
-2576 12637 0
-12636 12637 0
-2576 -12636 0
-2623 12638 0
-12637 12638 0
-2623 -12637 0
-2671 12639 0
-12638 12639 0
-2671 -12638 0
-2719 12640 0
-12639 12640 0
-2719 -12639 0
-2764 12641 0
-12640 12641 0
-2764 -12640 0
-2813 12642 0
-12641 12642 0
-2813 -12641 0
-2861 12643 0
-12642 12643 0
-2861 -12642 0
-2909 12644 0
-12643 12644 0
-2909 -12643 0
-5036 12645 0
-12644 12645 0
-5036 -12644 0
-5037 12646 0
-12645 12646 0
-5037 -12645 0
-5038 12647 0
-12646 12647 0
-5038 -12646 0
-5039 12648 0
-12647 12648 0
-5039 -12647 0
-5040 12649 0
-12648 12649 0
-5040 -12648 0
-5041 12650 0
-12649 12650 0
-5041 -12649 0
-5042 12651 0
-12650 12651 0
-5042 -12650 0
-5043 12652 0
-12651 12652 0
-5043 -12651 0
-5044 12653 0
-12652 12653 0
-5044 -12652 0
-5045 12654 0
-12653 12654 0
-5045 -12653 0
-5046 12655 0
-12654 12655 0
-5046 -12654 0
-5047 12656 0
-12655 12656 0
-5047 -12655 0
-5048 12657 0
-12656 12657 0
-5048 -12656 0
-5049 12658 0
-12657 12658 0
-5049 -12657 0
-5050 12659 0
-12658 12659 0
-5050 -12658 0
-5051 12660 0
-12659 12660 0
-5051 -12659 0
-5052 12661 0
-12660 12661 0
-5052 -12660 0
-5053 12662 0
-12661 12662 0
-5053 -12661 0
-5054 12663 0
-12662 12663 0
-5054 -12662 0
-5055 12664 0
-12663 12664 0
-5055 -12663 0
-5056 12665 0
-12664 12665 0
-5056 -12664 0
-5057 12666 0
-12665 12666 0
-5057 -12665 0
-5058 12667 0
-12666 12667 0
-5058 -12666 0
-5059 12668 0
-12667 12668 0
-5059 -12667 0
-5060 12669 0
-12668 12669 0
-5060 -12668 0
-5061 12670 0
-12669 12670 0
-5061 -12669 0
-5062 12671 0
-12670 12671 0
-5062 -12670 0
-5063 12672 0
-12671 12672 0
-5063 -12671 0
-5064 12673 0
-12672 12673 0
-5064 -12672 0
-5065 12674 0
-12673 12674 0
-5065 -12673 0
-5066 12675 0
-12674 12675 0
-5066 -12674 0
-5067 -12675 0
29 215 276 582 642 822 882 1039 1095 1261 1317 1377 1434 1601 1656 1911 1959 2101 2149 2201 2250 2393 2440 2577 2622 2765 2812 3059 3107 3249 3297 5068 5069 5070 5071 5072 5073 5074 5075 5076 5077 5078 5079 5080 5081 5082 5083 5084 5085 5086 5087 5088 5089 5090 5091 5092 5093 5094 5095 5096 5097 5098 5099 0
-29 12676 0
-215 12677 0
-12676 12677 0
-215 -12676 0
-276 12678 0
-12677 12678 0
-276 -12677 0
-582 12679 0
-12678 12679 0
-582 -12678 0
-642 12680 0
-12679 12680 0
-642 -12679 0
-822 12681 0
-12680 12681 0
-822 -12680 0
-882 12682 0
-12681 12682 0
-882 -12681 0
-1039 12683 0
-12682 12683 0
-1039 -12682 0
-1095 12684 0
-12683 12684 0
-1095 -12683 0
-1261 12685 0
-12684 12685 0
-1261 -12684 0
-1317 12686 0
-12685 12686 0
-1317 -12685 0
-1377 12687 0
-12686 12687 0
-1377 -12686 0
-1434 12688 0
-12687 12688 0
-1434 -12687 0
-1601 12689 0
-12688 12689 0
-1601 -12688 0
-1656 12690 0
-12689 12690 0
-1656 -12689 0
-1911 12691 0
-12690 12691 0
-1911 -12690 0
-1959 12692 0
-12691 12692 0
-1959 -12691 0
-2101 12693 0
-12692 12693 0
-2101 -12692 0
-2149 12694 0
-12693 12694 0
-2149 -12693 0
-2201 12695 0
-12694 12695 0
-2201 -12694 0
-2250 12696 0
-12695 12696 0
-2250 -12695 0
-2393 12697 0
-12696 12697 0
-2393 -12696 0
-2440 12698 0
-12697 12698 0
-2440 -12697 0
-2577 12699 0
-12698 12699 0
-2577 -12698 0
-2622 12700 0
-12699 12700 0
-2622 -12699 0
-2765 12701 0
-12700 12701 0
-2765 -12700 0
-2812 12702 0
-12701 12702 0
-2812 -12701 0
-3059 12703 0
-12702 12703 0
-3059 -12702 0
-3107 12704 0
-12703 12704 0
-3107 -12703 0
-3249 12705 0
-12704 12705 0
-3249 -12704 0
-3297 12706 0
-12705 12706 0
-3297 -12705 0
-5068 12707 0
-12706 12707 0
-5068 -12706 0
-5069 12708 0
-12707 12708 0
-5069 -12707 0
-5070 12709 0
-12708 12709 0
-5070 -12708 0
-5071 12710 0
-12709 12710 0
-5071 -12709 0
-5072 12711 0
-12710 12711 0
-5072 -12710 0
-5073 12712 0
-12711 12712 0
-5073 -12711 0
-5074 12713 0
-12712 12713 0
-5074 -12712 0
-5075 12714 0
-12713 12714 0
-5075 -12713 0
-5076 12715 0
-12714 12715 0
-5076 -12714 0
-5077 12716 0
-12715 12716 0
-5077 -12715 0
-5078 12717 0
-12716 12717 0
-5078 -12716 0
-5079 12718 0
-12717 12718 0
-5079 -12717 0
-5080 12719 0
-12718 12719 0
-5080 -12718 0
-5081 12720 0
-12719 12720 0
-5081 -12719 0
-5082 12721 0
-12720 12721 0
-5082 -12720 0
-5083 12722 0
-12721 12722 0
-5083 -12721 0
-5084 12723 0
-12722 12723 0
-5084 -12722 0
-5085 12724 0
-12723 12724 0
-5085 -12723 0
-5086 12725 0
-12724 12725 0
-5086 -12724 0
-5087 12726 0
-12725 12726 0
-5087 -12725 0
-5088 12727 0
-12726 12727 0
-5088 -12726 0
-5089 12728 0
-12727 12728 0
-5089 -12727 0
-5090 12729 0
-12728 12729 0
-5090 -12728 0
-5091 12730 0
-12729 12730 0
-5091 -12729 0
-5092 12731 0
-12730 12731 0
-5092 -12730 0
-5093 12732 0
-12731 12732 0
-5093 -12731 0
-5094 12733 0
-12732 12733 0
-5094 -12732 0
-5095 12734 0
-12733 12734 0
-5095 -12733 0
-5096 12735 0
-12734 12735 0
-5096 -12734 0
-5097 12736 0
-12735 12736 0
-5097 -12735 0
-5098 12737 0
-12736 12737 0
-5098 -12736 0
-5099 -12737 0
92 216 338 522 643 762 883 983 1094 1205 1316 1378 1490 1602 1712 1863 1958 2053 2148 2202 2298 2394 2488 2578 2670 2766 2860 3011 3106 3201 3296 5100 5101 5102 5103 5104 5105 5106 5107 5108 5109 5110 5111 5112 5113 5114 5115 5116 5117 5118 5119 5120 5121 5122 5123 5124 5125 5126 5127 5128 5129 5130 5131 0
-92 12738 0
-216 12739 0
-12738 12739 0
-216 -12738 0
-338 12740 0
-12739 12740 0
-338 -12739 0
-522 12741 0
-12740 12741 0
-522 -12740 0
-643 12742 0
-12741 12742 0
-643 -12741 0
-762 12743 0
-12742 12743 0
-762 -12742 0
-883 12744 0
-12743 12744 0
-883 -12743 0
-983 12745 0
-12744 12745 0
-983 -12744 0
-1094 12746 0
-12745 12746 0
-1094 -12745 0
-1205 12747 0
-12746 12747 0
-1205 -12746 0
-1316 12748 0
-12747 12748 0
-1316 -12747 0
-1378 12749 0
-12748 12749 0
-1378 -12748 0
-1490 12750 0
-12749 12750 0
-1490 -12749 0
-1602 12751 0
-12750 12751 0
-1602 -12750 0
-1712 12752 0
-12751 12752 0
-1712 -12751 0
-1863 12753 0
-12752 12753 0
-1863 -12752 0
-1958 12754 0
-12753 12754 0
-1958 -12753 0
-2053 12755 0
-12754 12755 0
-2053 -12754 0
-2148 12756 0
-12755 12756 0
-2148 -12755 0
-2202 12757 0
-12756 12757 0
-2202 -12756 0
-2298 12758 0
-12757 12758 0
-2298 -12757 0
-2394 12759 0
-12758 12759 0
-2394 -12758 0
-2488 12760 0
-12759 12760 0
-2488 -12759 0
-2578 12761 0
-12760 12761 0
-2578 -12760 0
-2670 12762 0
-12761 12762 0
-2670 -12761 0
-2766 12763 0
-12762 12763 0
-2766 -12762 0
-2860 12764 0
-12763 12764 0
-2860 -12763 0
-3011 12765 0
-12764 12765 0
-3011 -12764 0
-3106 12766 0
-12765 12766 0
-3106 -12765 0
-3201 12767 0
-12766 12767 0
-3201 -12766 0
-3296 12768 0
-12767 12768 0
-3296 -12767 0
-5100 12769 0
-12768 12769 0
-5100 -12768 0
-5101 12770 0
-12769 12770 0
-5101 -12769 0
-5102 12771 0
-12770 12771 0
-5102 -12770 0
-5103 12772 0
-12771 12772 0
-5103 -12771 0
-5104 12773 0
-12772 12773 0
-5104 -12772 0
-5105 12774 0
-12773 12774 0
-5105 -12773 0
-5106 12775 0
-12774 12775 0
-5106 -12774 0
-5107 12776 0
-12775 12776 0
-5107 -12775 0
-5108 12777 0
-12776 12777 0
-5108 -12776 0
-5109 12778 0
-12777 12778 0
-5109 -12777 0
-5110 12779 0
-12778 12779 0
-5110 -12778 0
-5111 12780 0
-12779 12780 0
-5111 -12779 0
-5112 12781 0
-12780 12781 0
-5112 -12780 0
-5113 12782 0
-12781 12782 0
-5113 -12781 0
-5114 12783 0
-12782 12783 0
-5114 -12782 0
-5115 12784 0
-12783 12784 0
-5115 -12783 0
-5116 12785 0
-12784 12785 0
-5116 -12784 0
-5117 12786 0
-12785 12786 0
-5117 -12785 0
-5118 12787 0
-12786 12787 0
-5118 -12786 0
-5119 12788 0
-12787 12788 0
-5119 -12787 0
-5120 12789 0
-12788 12789 0
-5120 -12788 0
-5121 12790 0
-12789 12790 0
-5121 -12789 0
-5122 12791 0
-12790 12791 0
-5122 -12790 0
-5123 12792 0
-12791 12792 0
-5123 -12791 0
-5124 12793 0
-12792 12793 0
-5124 -12792 0
-5125 12794 0
-12793 12794 0
-5125 -12793 0
-5126 12795 0
-12794 12795 0
-5126 -12794 0
-5127 12796 0
-12795 12796 0
-5127 -12795 0
-5128 12797 0
-12796 12797 0
-5128 -12796 0
-5129 12798 0
-12797 12798 0
-5129 -12797 0
-5130 12799 0
-12798 12799 0
-5130 -12798 0
-5131 -12799 0
155 217 400 523 583 763 823 982 1038 1204 1260 1379 1546 1603 1768 1862 1910 2052 2100 2203 2346 2395 2536 2579 2718 2767 2908 3010 3058 3200 3248 5132 5133 5134 5135 5136 5137 5138 5139 5140 5141 5142 5143 5144 5145 5146 5147 5148 5149 5150 5151 5152 5153 5154 5155 5156 5157 5158 5159 5160 5161 5162 5163 0
-155 12800 0
-217 12801 0
-12800 12801 0
-217 -12800 0
-400 12802 0
-12801 12802 0
-400 -12801 0
-523 12803 0
-12802 12803 0
-523 -12802 0
-583 12804 0
-12803 12804 0
-583 -12803 0
-763 12805 0
-12804 12805 0
-763 -12804 0
-823 12806 0
-12805 12806 0
-823 -12805 0
-982 12807 0
-12806 12807 0
-982 -12806 0
-1038 12808 0
-12807 12808 0
-1038 -12807 0
-1204 12809 0
-12808 12809 0
-1204 -12808 0
-1260 12810 0
-12809 12810 0
-1260 -12809 0
-1379 12811 0
-12810 12811 0
-1379 -12810 0
-1546 12812 0
-12811 12812 0
-1546 -12811 0
-1603 12813 0
-12812 12813 0
-1603 -12812 0
-1768 12814 0
-12813 12814 0
-1768 -12813 0
-1862 12815 0
-12814 12815 0
-1862 -12814 0
-1910 12816 0
-12815 12816 0
-1910 -12815 0
-2052 12817 0
-12816 12817 0
-2052 -12816 0
-2100 12818 0
-12817 12818 0
-2100 -12817 0
-2203 12819 0
-12818 12819 0
-2203 -12818 0
-2346 12820 0
-12819 12820 0
-2346 -12819 0
-2395 12821 0
-12820 12821 0
-2395 -12820 0
-2536 12822 0
-12821 12822 0
-2536 -12821 0
-2579 12823 0
-12822 12823 0
-2579 -12822 0
-2718 12824 0
-12823 12824 0
-2718 -12823 0
-2767 12825 0
-12824 12825 0
-2767 -12824 0
-2908 12826 0
-12825 12826 0
-2908 -12825 0
-3010 12827 0
-12826 12827 0
-3010 -12826 0
-3058 12828 0
-12827 12828 0
-3058 -12827 0
-3200 12829 0
-12828 12829 0
-3200 -12828 0
-3248 12830 0
-12829 12830 0
-3248 -12829 0
-5132 12831 0
-12830 12831 0
-5132 -12830 0
-5133 12832 0
-12831 12832 0
-5133 -12831 0
-5134 12833 0
-12832 12833 0
-5134 -12832 0
-5135 12834 0
-12833 12834 0
-5135 -12833 0
-5136 12835 0
-12834 12835 0
-5136 -12834 0
-5137 12836 0
-12835 12836 0
-5137 -12835 0
-5138 12837 0
-12836 12837 0
-5138 -12836 0
-5139 12838 0
-12837 12838 0
-5139 -12837 0
-5140 12839 0
-12838 12839 0
-5140 -12838 0
-5141 12840 0
-12839 12840 0
-5141 -12839 0
-5142 12841 0
-12840 12841 0
-5142 -12840 0
-5143 12842 0
-12841 12842 0
-5143 -12841 0
-5144 12843 0
-12842 12843 0
-5144 -12842 0
-5145 12844 0
-12843 12844 0
-5145 -12843 0
-5146 12845 0
-12844 12845 0
-5146 -12844 0
-5147 12846 0
-12845 12846 0
-5147 -12845 0
-5148 12847 0
-12846 12847 0
-5148 -12846 0
-5149 12848 0
-12847 12848 0
-5149 -12847 0
-5150 12849 0
-12848 12849 0
-5150 -12848 0
-5151 12850 0
-12849 12850 0
-5151 -12849 0
-5152 12851 0
-12850 12851 0
-5152 -12850 0
-5153 12852 0
-12851 12852 0
-5153 -12851 0
-5154 12853 0
-12852 12853 0
-5154 -12852 0
-5155 12854 0
-12853 12854 0
-5155 -12853 0
-5156 12855 0
-12854 12855 0
-5156 -12854 0
-5157 12856 0
-12855 12856 0
-5157 -12855 0
-5158 12857 0
-12856 12857 0
-5158 -12856 0
-5159 12858 0
-12857 12858 0
-5159 -12857 0
-5160 12859 0
-12858 12859 0
-5160 -12858 0
-5161 12860 0
-12859 12860 0
-5161 -12859 0
-5162 12861 0
-12860 12861 0
-5162 -12860 0
-5163 -12861 0
30 93 156 460 521 581 641 1152 1211 1267 1323 1596 1655 1711 1767 2008 2059 2107 2155 2388 2439 2487 2535 2580 2625 2673 2721 2956 3005 3053 3101 5164 5165 5166 5167 5168 5169 5170 5171 5172 5173 5174 5175 5176 5177 5178 5179 5180 5181 5182 5183 5184 5185 5186 5187 5188 5189 5190 5191 5192 5193 5194 5195 0
-30 12862 0
-93 12863 0
-12862 12863 0
-93 -12862 0
-156 12864 0
-12863 12864 0
-156 -12863 0
-460 12865 0
-12864 12865 0
-460 -12864 0
-521 12866 0
-12865 12866 0
-521 -12865 0
-581 12867 0
-12866 12867 0
-581 -12866 0
-641 12868 0
-12867 12868 0
-641 -12867 0
-1152 12869 0
-12868 12869 0
-1152 -12868 0
-1211 12870 0
-12869 12870 0
-1211 -12869 0
-1267 12871 0
-12870 12871 0
-1267 -12870 0
-1323 12872 0
-12871 12872 0
-1323 -12871 0
-1596 12873 0
-12872 12873 0
-1596 -12872 0
-1655 12874 0
-12873 12874 0
-1655 -12873 0
-1711 12875 0
-12874 12875 0
-1711 -12874 0
-1767 12876 0
-12875 12876 0
-1767 -12875 0
-2008 12877 0
-12876 12877 0
-2008 -12876 0
-2059 12878 0
-12877 12878 0
-2059 -12877 0
-2107 12879 0
-12878 12879 0
-2107 -12878 0
-2155 12880 0
-12879 12880 0
-2155 -12879 0
-2388 12881 0
-12880 12881 0
-2388 -12880 0
-2439 12882 0
-12881 12882 0
-2439 -12881 0
-2487 12883 0
-12882 12883 0
-2487 -12882 0
-2535 12884 0
-12883 12884 0
-2535 -12883 0
-2580 12885 0
-12884 12885 0
-2580 -12884 0
-2625 12886 0
-12885 12886 0
-2625 -12885 0
-2673 12887 0
-12886 12887 0
-2673 -12886 0
-2721 12888 0
-12887 12888 0
-2721 -12887 0
-2956 12889 0
-12888 12889 0
-2956 -12888 0
-3005 12890 0
-12889 12890 0
-3005 -12889 0
-3053 12891 0
-12890 12891 0
-3053 -12890 0
-3101 12892 0
-12891 12892 0
-3101 -12891 0
-5164 12893 0
-12892 12893 0
-5164 -12892 0
-5165 12894 0
-12893 12894 0
-5165 -12893 0
-5166 12895 0
-12894 12895 0
-5166 -12894 0
-5167 12896 0
-12895 12896 0
-5167 -12895 0
-5168 12897 0
-12896 12897 0
-5168 -12896 0
-5169 12898 0
-12897 12898 0
-5169 -12897 0
-5170 12899 0
-12898 12899 0
-5170 -12898 0
-5171 12900 0
-12899 12900 0
-5171 -12899 0
-5172 12901 0
-12900 12901 0
-5172 -12900 0
-5173 12902 0
-12901 12902 0
-5173 -12901 0
-5174 12903 0
-12902 12903 0
-5174 -12902 0
-5175 12904 0
-12903 12904 0
-5175 -12903 0
-5176 12905 0
-12904 12905 0
-5176 -12904 0
-5177 12906 0
-12905 12906 0
-5177 -12905 0
-5178 12907 0
-12906 12907 0
-5178 -12906 0
-5179 12908 0
-12907 12908 0
-5179 -12907 0
-5180 12909 0
-12908 12909 0
-5180 -12908 0
-5181 12910 0
-12909 12910 0
-5181 -12909 0
-5182 12911 0
-12910 12911 0
-5182 -12910 0
-5183 12912 0
-12911 12912 0
-5183 -12911 0
-5184 12913 0
-12912 12913 0
-5184 -12912 0
-5185 12914 0
-12913 12914 0
-5185 -12913 0
-5186 12915 0
-12914 12915 0
-5186 -12914 0
-5187 12916 0
-12915 12916 0
-5187 -12915 0
-5188 12917 0
-12916 12917 0
-5188 -12916 0
-5189 12918 0
-12917 12918 0
-5189 -12917 0
-5190 12919 0
-12918 12919 0
-5190 -12918 0
-5191 12920 0
-12919 12920 0
-5191 -12919 0
-5192 12921 0
-12920 12921 0
-5192 -12920 0
-5193 12922 0
-12921 12922 0
-5193 -12921 0
-5194 12923 0
-12922 12923 0
-5194 -12922 0
-5195 -12923 0
30 340 402 461 520 823 883 1041 1097 1153 1210 1485 1541 1597 1654 1913 1961 2009 2058 2293 2341 2389 2438 2581 2624 2867 2915 2957 3004 3247 3295 5196 5197 5198 5199 5200 5201 5202 5203 5204 5205 5206 5207 5208 5209 5210 5211 5212 5213 5214 5215 5216 5217 5218 5219 5220 5221 5222 5223 5224 5225 5226 5227 0
-30 12924 0
-340 12925 0
-12924 12925 0
-340 -12924 0
-402 12926 0
-12925 12926 0
-402 -12925 0
-461 12927 0
-12926 12927 0
-461 -12926 0
-520 12928 0
-12927 12928 0
-520 -12927 0
-823 12929 0
-12928 12929 0
-823 -12928 0
-883 12930 0
-12929 12930 0
-883 -12929 0
-1041 12931 0
-12930 12931 0
-1041 -12930 0
-1097 12932 0
-12931 12932 0
-1097 -12931 0
-1153 12933 0
-12932 12933 0
-1153 -12932 0
-1210 12934 0
-12933 12934 0
-1210 -12933 0
-1485 12935 0
-12934 12935 0
-1485 -12934 0
-1541 12936 0
-12935 12936 0
-1541 -12935 0
-1597 12937 0
-12936 12937 0
-1597 -12936 0
-1654 12938 0
-12937 12938 0
-1654 -12937 0
-1913 12939 0
-12938 12939 0
-1913 -12938 0
-1961 12940 0
-12939 12940 0
-1961 -12939 0
-2009 12941 0
-12940 12941 0
-2009 -12940 0
-2058 12942 0
-12941 12942 0
-2058 -12941 0
-2293 12943 0
-12942 12943 0
-2293 -12942 0
-2341 12944 0
-12943 12944 0
-2341 -12943 0
-2389 12945 0
-12944 12945 0
-2389 -12944 0
-2438 12946 0
-12945 12946 0
-2438 -12945 0
-2581 12947 0
-12946 12947 0
-2581 -12946 0
-2624 12948 0
-12947 12948 0
-2624 -12947 0
-2867 12949 0
-12948 12949 0
-2867 -12948 0
-2915 12950 0
-12949 12950 0
-2915 -12949 0
-2957 12951 0
-12950 12951 0
-2957 -12950 0
-3004 12952 0
-12951 12952 0
-3004 -12951 0
-3247 12953 0
-12952 12953 0
-3247 -12952 0
-3295 12954 0
-12953 12954 0
-3295 -12953 0
-5196 12955 0
-12954 12955 0
-5196 -12954 0
-5197 12956 0
-12955 12956 0
-5197 -12955 0
-5198 12957 0
-12956 12957 0
-5198 -12956 0
-5199 12958 0
-12957 12958 0
-5199 -12957 0
-5200 12959 0
-12958 12959 0
-5200 -12958 0
-5201 12960 0
-12959 12960 0
-5201 -12959 0
-5202 12961 0
-12960 12961 0
-5202 -12960 0
-5203 12962 0
-12961 12962 0
-5203 -12961 0
-5204 12963 0
-12962 12963 0
-5204 -12962 0
-5205 12964 0
-12963 12964 0
-5205 -12963 0
-5206 12965 0
-12964 12965 0
-5206 -12964 0
-5207 12966 0
-12965 12966 0
-5207 -12965 0
-5208 12967 0
-12966 12967 0
-5208 -12966 0
-5209 12968 0
-12967 12968 0
-5209 -12967 0
-5210 12969 0
-12968 12969 0
-5210 -12968 0
-5211 12970 0
-12969 12970 0
-5211 -12969 0
-5212 12971 0
-12970 12971 0
-5212 -12970 0
-5213 12972 0
-12971 12972 0
-5213 -12971 0
-5214 12973 0
-12972 12973 0
-5214 -12972 0
-5215 12974 0
-12973 12974 0
-5215 -12973 0
-5216 12975 0
-12974 12975 0
-5216 -12974 0
-5217 12976 0
-12975 12976 0
-5217 -12975 0
-5218 12977 0
-12976 12977 0
-5218 -12976 0
-5219 12978 0
-12977 12978 0
-5219 -12977 0
-5220 12979 0
-12978 12979 0
-5220 -12978 0
-5221 12980 0
-12979 12980 0
-5221 -12979 0
-5222 12981 0
-12980 12981 0
-5222 -12980 0
-5223 12982 0
-12981 12982 0
-5223 -12981 0
-5224 12983 0
-12982 12983 0
-5224 -12982 0
-5225 12984 0
-12983 12984 0
-5225 -12983 0
-5226 12985 0
-12984 12985 0
-5226 -12984 0
-5227 -12985 0
93 278 403 462 580 763 882 985 1096 1154 1266 1429 1540 1598 1710 1865 1960 2010 2106 2245 2340 2390 2486 2582 2672 2819 2914 2958 3052 3199 3294 5228 5229 5230 5231 5232 5233 5234 5235 5236 5237 5238 5239 5240 5241 5242 5243 5244 5245 5246 5247 5248 5249 5250 5251 5252 5253 5254 5255 5256 5257 5258 5259 0
-93 12986 0
-278 12987 0
-12986 12987 0
-278 -12986 0
-403 12988 0
-12987 12988 0
-403 -12987 0
-462 12989 0
-12988 12989 0
-462 -12988 0
-580 12990 0
-12989 12990 0
-580 -12989 0
-763 12991 0
-12990 12991 0
-763 -12990 0
-882 12992 0
-12991 12992 0
-882 -12991 0
-985 12993 0
-12992 12993 0
-985 -12992 0
-1096 12994 0
-12993 12994 0
-1096 -12993 0
-1154 12995 0
-12994 12995 0
-1154 -12994 0
-1266 12996 0
-12995 12996 0
-1266 -12995 0
-1429 12997 0
-12996 12997 0
-1429 -12996 0
-1540 12998 0
-12997 12998 0
-1540 -12997 0
-1598 12999 0
-12998 12999 0
-1598 -12998 0
-1710 13000 0
-12999 13000 0
-1710 -12999 0
-1865 13001 0
-13000 13001 0
-1865 -13000 0
-1960 13002 0
-13001 13002 0
-1960 -13001 0
-2010 13003 0
-13002 13003 0
-2010 -13002 0
-2106 13004 0
-13003 13004 0
-2106 -13003 0
-2245 13005 0
-13004 13005 0
-2245 -13004 0
-2340 13006 0
-13005 13006 0
-2340 -13005 0
-2390 13007 0
-13006 13007 0
-2390 -13006 0
-2486 13008 0
-13007 13008 0
-2486 -13007 0
-2582 13009 0
-13008 13009 0
-2582 -13008 0
-2672 13010 0
-13009 13010 0
-2672 -13009 0
-2819 13011 0
-13010 13011 0
-2819 -13010 0
-2914 13012 0
-13011 13012 0
-2914 -13011 0
-2958 13013 0
-13012 13013 0
-2958 -13012 0
-3052 13014 0
-13013 13014 0
-3052 -13013 0
-3199 13015 0
-13014 13015 0
-3199 -13014 0
-3294 13016 0
-13015 13016 0
-3294 -13015 0
-5228 13017 0
-13016 13017 0
-5228 -13016 0
-5229 13018 0
-13017 13018 0
-5229 -13017 0
-5230 13019 0
-13018 13019 0
-5230 -13018 0
-5231 13020 0
-13019 13020 0
-5231 -13019 0
-5232 13021 0
-13020 13021 0
-5232 -13020 0
-5233 13022 0
-13021 13022 0
-5233 -13021 0
-5234 13023 0
-13022 13023 0
-5234 -13022 0
-5235 13024 0
-13023 13024 0
-5235 -13023 0
-5236 13025 0
-13024 13025 0
-5236 -13024 0
-5237 13026 0
-13025 13026 0
-5237 -13025 0
-5238 13027 0
-13026 13027 0
-5238 -13026 0
-5239 13028 0
-13027 13028 0
-5239 -13027 0
-5240 13029 0
-13028 13029 0
-5240 -13028 0
-5241 13030 0
-13029 13030 0
-5241 -13029 0
-5242 13031 0
-13030 13031 0
-5242 -13030 0
-5243 13032 0
-13031 13032 0
-5243 -13031 0
-5244 13033 0
-13032 13033 0
-5244 -13032 0
-5245 13034 0
-13033 13034 0
-5245 -13033 0
-5246 13035 0
-13034 13035 0
-5246 -13034 0
-5247 13036 0
-13035 13036 0
-5247 -13035 0
-5248 13037 0
-13036 13037 0
-5248 -13036 0
-5249 13038 0
-13037 13038 0
-5249 -13037 0
-5250 13039 0
-13038 13039 0
-5250 -13038 0
-5251 13040 0
-13039 13040 0
-5251 -13039 0
-5252 13041 0
-13040 13041 0
-5252 -13040 0
-5253 13042 0
-13041 13042 0
-5253 -13041 0
-5254 13043 0
-13042 13043 0
-5254 -13042 0
-5255 13044 0
-13043 13044 0
-5255 -13043 0
-5256 13045 0
-13044 13045 0
-5256 -13044 0
-5257 13046 0
-13045 13046 0
-5257 -13045 0
-5258 13047 0
-13046 13047 0
-5258 -13046 0
-5259 -13047 0
156 279 341 463 640 762 822 984 1040 1155 1322 1428 1484 1599 1766 1864 1912 2011 2154 2244 2292 2391 2534 2583 2720 2818 2866 2959 3100 3198 3246 5260 5261 5262 5263 5264 5265 5266 5267 5268 5269 5270 5271 5272 5273 5274 5275 5276 5277 5278 5279 5280 5281 5282 5283 5284 5285 5286 5287 5288 5289 5290 5291 0
-156 13048 0
-279 13049 0
-13048 13049 0
-279 -13048 0
-341 13050 0
-13049 13050 0
-341 -13049 0
-463 13051 0
-13050 13051 0
-463 -13050 0
-640 13052 0
-13051 13052 0
-640 -13051 0
-762 13053 0
-13052 13053 0
-762 -13052 0
-822 13054 0
-13053 13054 0
-822 -13053 0
-984 13055 0
-13054 13055 0
-984 -13054 0
-1040 13056 0
-13055 13056 0
-1040 -13055 0
-1155 13057 0
-13056 13057 0
-1155 -13056 0
-1322 13058 0
-13057 13058 0
-1322 -13057 0
-1428 13059 0
-13058 13059 0
-1428 -13058 0
-1484 13060 0
-13059 13060 0
-1484 -13059 0
-1599 13061 0
-13060 13061 0
-1599 -13060 0
-1766 13062 0
-13061 13062 0
-1766 -13061 0
-1864 13063 0
-13062 13063 0
-1864 -13062 0
-1912 13064 0
-13063 13064 0
-1912 -13063 0
-2011 13065 0
-13064 13065 0
-2011 -13064 0
-2154 13066 0
-13065 13066 0
-2154 -13065 0
-2244 13067 0
-13066 13067 0
-2244 -13066 0
-2292 13068 0
-13067 13068 0
-2292 -13067 0
-2391 13069 0
-13068 13069 0
-2391 -13068 0
-2534 13070 0
-13069 13070 0
-2534 -13069 0
-2583 13071 0
-13070 13071 0
-2583 -13070 0
-2720 13072 0
-13071 13072 0
-2720 -13071 0
-2818 13073 0
-13072 13073 0
-2818 -13072 0
-2866 13074 0
-13073 13074 0
-2866 -13073 0
-2959 13075 0
-13074 13075 0
-2959 -13074 0
-3100 13076 0
-13075 13076 0
-3100 -13075 0
-3198 13077 0
-13076 13077 0
-3198 -13076 0
-3246 13078 0
-13077 13078 0
-3246 -13077 0
-5260 13079 0
-13078 13079 0
-5260 -13078 0
-5261 13080 0
-13079 13080 0
-5261 -13079 0
-5262 13081 0
-13080 13081 0
-5262 -13080 0
-5263 13082 0
-13081 13082 0
-5263 -13081 0
-5264 13083 0
-13082 13083 0
-5264 -13082 0
-5265 13084 0
-13083 13084 0
-5265 -13083 0
-5266 13085 0
-13084 13085 0
-5266 -13084 0
-5267 13086 0
-13085 13086 0
-5267 -13085 0
-5268 13087 0
-13086 13087 0
-5268 -13086 0
-5269 13088 0
-13087 13088 0
-5269 -13087 0
-5270 13089 0
-13088 13089 0
-5270 -13088 0
-5271 13090 0
-13089 13090 0
-5271 -13089 0
-5272 13091 0
-13090 13091 0
-5272 -13090 0
-5273 13092 0
-13091 13092 0
-5273 -13091 0
-5274 13093 0
-13092 13093 0
-5274 -13092 0
-5275 13094 0
-13093 13094 0
-5275 -13093 0
-5276 13095 0
-13094 13095 0
-5276 -13094 0
-5277 13096 0
-13095 13096 0
-5277 -13095 0
-5278 13097 0
-13096 13097 0
-5278 -13096 0
-5279 13098 0
-13097 13098 0
-5279 -13097 0
-5280 13099 0
-13098 13099 0
-5280 -13098 0
-5281 13100 0
-13099 13100 0
-5281 -13099 0
-5282 13101 0
-13100 13101 0
-5282 -13100 0
-5283 13102 0
-13101 13102 0
-5283 -13101 0
-5284 13103 0
-13102 13103 0
-5284 -13102 0
-5285 13104 0
-13103 13104 0
-5285 -13103 0
-5286 13105 0
-13104 13105 0
-5286 -13104 0
-5287 13106 0
-13105 13106 0
-5287 -13105 0
-5288 13107 0
-13106 13107 0
-5288 -13106 0
-5289 13108 0
-13107 13108 0
-5289 -13107 0
-5290 13109 0
-13108 13109 0
-5290 -13108 0
-5291 -13109 0
31 94 157 700 761 821 881 1148 1209 1265 1321 1372 1431 1487 1543 2004 2057 2105 2153 2196 2247 2295 2343 2584 2627 2675 2723 3148 3197 3245 3293 5292 5293 5294 5295 5296 5297 5298 5299 5300 5301 5302 5303 5304 5305 5306 5307 5308 5309 5310 5311 5312 5313 5314 5315 5316 5317 5318 5319 5320 5321 5322 5323 0
-31 13110 0
-94 13111 0
-13110 13111 0
-94 -13110 0
-157 13112 0
-13111 13112 0
-157 -13111 0
-700 13113 0
-13112 13113 0
-700 -13112 0
-761 13114 0
-13113 13114 0
-761 -13113 0
-821 13115 0
-13114 13115 0
-821 -13114 0
-881 13116 0
-13115 13116 0
-881 -13115 0
-1148 13117 0
-13116 13117 0
-1148 -13116 0
-1209 13118 0
-13117 13118 0
-1209 -13117 0
-1265 13119 0
-13118 13119 0
-1265 -13118 0
-1321 13120 0
-13119 13120 0
-1321 -13119 0
-1372 13121 0
-13120 13121 0
-1372 -13120 0
-1431 13122 0
-13121 13122 0
-1431 -13121 0
-1487 13123 0
-13122 13123 0
-1487 -13122 0
-1543 13124 0
-13123 13124 0
-1543 -13123 0
-2004 13125 0
-13124 13125 0
-2004 -13124 0
-2057 13126 0
-13125 13126 0
-2057 -13125 0
-2105 13127 0
-13126 13127 0
-2105 -13126 0
-2153 13128 0
-13127 13128 0
-2153 -13127 0
-2196 13129 0
-13128 13129 0
-2196 -13128 0
-2247 13130 0
-13129 13130 0
-2247 -13129 0
-2295 13131 0
-13130 13131 0
-2295 -13130 0
-2343 13132 0
-13131 13132 0
-2343 -13131 0
-2584 13133 0
-13132 13133 0
-2584 -13132 0
-2627 13134 0
-13133 13134 0
-2627 -13133 0
-2675 13135 0
-13134 13135 0
-2675 -13134 0
-2723 13136 0
-13135 13136 0
-2723 -13135 0
-3148 13137 0
-13136 13137 0
-3148 -13136 0
-3197 13138 0
-13137 13138 0
-3197 -13137 0
-3245 13139 0
-13138 13139 0
-3245 -13138 0
-3293 13140 0
-13139 13140 0
-3293 -13139 0
-5292 13141 0
-13140 13141 0
-5292 -13140 0
-5293 13142 0
-13141 13142 0
-5293 -13141 0
-5294 13143 0
-13142 13143 0
-5294 -13142 0
-5295 13144 0
-13143 13144 0
-5295 -13143 0
-5296 13145 0
-13144 13145 0
-5296 -13144 0
-5297 13146 0
-13145 13146 0
-5297 -13145 0
-5298 13147 0
-13146 13147 0
-5298 -13146 0
-5299 13148 0
-13147 13148 0
-5299 -13147 0
-5300 13149 0
-13148 13149 0
-5300 -13148 0
-5301 13150 0
-13149 13150 0
-5301 -13149 0
-5302 13151 0
-13150 13151 0
-5302 -13150 0
-5303 13152 0
-13151 13152 0
-5303 -13151 0
-5304 13153 0
-13152 13153 0
-5304 -13152 0
-5305 13154 0
-13153 13154 0
-5305 -13153 0
-5306 13155 0
-13154 13155 0
-5306 -13154 0
-5307 13156 0
-13155 13156 0
-5307 -13155 0
-5308 13157 0
-13156 13157 0
-5308 -13156 0
-5309 13158 0
-13157 13158 0
-5309 -13157 0
-5310 13159 0
-13158 13159 0
-5310 -13158 0
-5311 13160 0
-13159 13160 0
-5311 -13159 0
-5312 13161 0
-13160 13161 0
-5312 -13160 0
-5313 13162 0
-13161 13162 0
-5313 -13161 0
-5314 13163 0
-13162 13163 0
-5314 -13162 0
-5315 13164 0
-13163 13164 0
-5315 -13163 0
-5316 13165 0
-13164 13165 0
-5316 -13164 0
-5317 13166 0
-13165 13166 0
-5317 -13165 0
-5318 13167 0
-13166 13167 0
-5318 -13166 0
-5319 13168 0
-13167 13168 0
-5319 -13167 0
-5320 13169 0
-13168 13169 0
-5320 -13168 0
-5321 13170 0
-13169 13170 0
-5321 -13169 0
-5322 13171 0
-13170 13171 0
-5322 -13170 0
-5323 -13171 0
31 341 403 583 643 701 760 1043 1099 1149 1208 1373 1430 1709 1765 1915 1963 2005 2056 2197 2246 2485 2533 2585 2626 2865 2913 3055 3103 3149 3196 5324 5325 5326 5327 5328 5329 5330 5331 5332 5333 5334 5335 5336 5337 5338 5339 5340 5341 5342 5343 5344 5345 5346 5347 5348 5349 5350 5351 5352 5353 5354 5355 0
-31 13172 0
-341 13173 0
-13172 13173 0
-341 -13172 0
-403 13174 0
-13173 13174 0
-403 -13173 0
-583 13175 0
-13174 13175 0
-583 -13174 0
-643 13176 0
-13175 13176 0
-643 -13175 0
-701 13177 0
-13176 13177 0
-701 -13176 0
-760 13178 0
-13177 13178 0
-760 -13177 0
-1043 13179 0
-13178 13179 0
-1043 -13178 0
-1099 13180 0
-13179 13180 0
-1099 -13179 0
-1149 13181 0
-13180 13181 0
-1149 -13180 0
-1208 13182 0
-13181 13182 0
-1208 -13181 0
-1373 13183 0
-13182 13183 0
-1373 -13182 0
-1430 13184 0
-13183 13184 0
-1430 -13183 0
-1709 13185 0
-13184 13185 0
-1709 -13184 0
-1765 13186 0
-13185 13186 0
-1765 -13185 0
-1915 13187 0
-13186 13187 0
-1915 -13186 0
-1963 13188 0
-13187 13188 0
-1963 -13187 0
-2005 13189 0
-13188 13189 0
-2005 -13188 0
-2056 13190 0
-13189 13190 0
-2056 -13189 0
-2197 13191 0
-13190 13191 0
-2197 -13190 0
-2246 13192 0
-13191 13192 0
-2246 -13191 0
-2485 13193 0
-13192 13193 0
-2485 -13192 0
-2533 13194 0
-13193 13194 0
-2533 -13193 0
-2585 13195 0
-13194 13195 0
-2585 -13194 0
-2626 13196 0
-13195 13196 0
-2626 -13195 0
-2865 13197 0
-13196 13197 0
-2865 -13196 0
-2913 13198 0
-13197 13198 0
-2913 -13197 0
-3055 13199 0
-13198 13199 0
-3055 -13198 0
-3103 13200 0
-13199 13200 0
-3103 -13199 0
-3149 13201 0
-13200 13201 0
-3149 -13200 0
-3196 13202 0
-13201 13202 0
-3196 -13201 0
-5324 13203 0
-13202 13203 0
-5324 -13202 0
-5325 13204 0
-13203 13204 0
-5325 -13203 0
-5326 13205 0
-13204 13205 0
-5326 -13204 0
-5327 13206 0
-13205 13206 0
-5327 -13205 0
-5328 13207 0
-13206 13207 0
-5328 -13206 0
-5329 13208 0
-13207 13208 0
-5329 -13207 0
-5330 13209 0
-13208 13209 0
-5330 -13208 0
-5331 13210 0
-13209 13210 0
-5331 -13209 0
-5332 13211 0
-13210 13211 0
-5332 -13210 0
-5333 13212 0
-13211 13212 0
-5333 -13211 0
-5334 13213 0
-13212 13213 0
-5334 -13212 0
-5335 13214 0
-13213 13214 0
-5335 -13213 0
-5336 13215 0
-13214 13215 0
-5336 -13214 0
-5337 13216 0
-13215 13216 0
-5337 -13215 0
-5338 13217 0
-13216 13217 0
-5338 -13216 0
-5339 13218 0
-13217 13218 0
-5339 -13217 0
-5340 13219 0
-13218 13219 0
-5340 -13218 0
-5341 13220 0
-13219 13220 0
-5341 -13219 0
-5342 13221 0
-13220 13221 0
-5342 -13220 0
-5343 13222 0
-13221 13222 0
-5343 -13221 0
-5344 13223 0
-13222 13223 0
-5344 -13222 0
-5345 13224 0
-13223 13224 0
-5345 -13223 0
-5346 13225 0
-13224 13225 0
-5346 -13224 0
-5347 13226 0
-13225 13226 0
-5347 -13225 0
-5348 13227 0
-13226 13227 0
-5348 -13226 0
-5349 13228 0
-13227 13228 0
-5349 -13227 0
-5350 13229 0
-13228 13229 0
-5350 -13228 0
-5351 13230 0
-13229 13230 0
-5351 -13229 0
-5352 13231 0
-13230 13231 0
-5352 -13230 0
-5353 13232 0
-13231 13232 0
-5353 -13231 0
-5354 13233 0
-13232 13233 0
-5354 -13232 0
-5355 -13233 0
94 279 402 523 642 702 820 987 1098 1150 1264 1374 1486 1653 1764 1867 1962 2006 2104 2198 2294 2437 2532 2586 2674 2817 2912 3007 3102 3150 3244 5356 5357 5358 5359 5360 5361 5362 5363 5364 5365 5366 5367 5368 5369 5370 5371 5372 5373 5374 5375 5376 5377 5378 5379 5380 5381 5382 5383 5384 5385 5386 5387 0
-94 13234 0
-279 13235 0
-13234 13235 0
-279 -13234 0
-402 13236 0
-13235 13236 0
-402 -13235 0
-523 13237 0
-13236 13237 0
-523 -13236 0
-642 13238 0
-13237 13238 0
-642 -13237 0
-702 13239 0
-13238 13239 0
-702 -13238 0
-820 13240 0
-13239 13240 0
-820 -13239 0
-987 13241 0
-13240 13241 0
-987 -13240 0
-1098 13242 0
-13241 13242 0
-1098 -13241 0
-1150 13243 0
-13242 13243 0
-1150 -13242 0
-1264 13244 0
-13243 13244 0
-1264 -13243 0
-1374 13245 0
-13244 13245 0
-1374 -13244 0
-1486 13246 0
-13245 13246 0
-1486 -13245 0
-1653 13247 0
-13246 13247 0
-1653 -13246 0
-1764 13248 0
-13247 13248 0
-1764 -13247 0
-1867 13249 0
-13248 13249 0
-1867 -13248 0
-1962 13250 0
-13249 13250 0
-1962 -13249 0
-2006 13251 0
-13250 13251 0
-2006 -13250 0
-2104 13252 0
-13251 13252 0
-2104 -13251 0
-2198 13253 0
-13252 13253 0
-2198 -13252 0
-2294 13254 0
-13253 13254 0
-2294 -13253 0
-2437 13255 0
-13254 13255 0
-2437 -13254 0
-2532 13256 0
-13255 13256 0
-2532 -13255 0
-2586 13257 0
-13256 13257 0
-2586 -13256 0
-2674 13258 0
-13257 13258 0
-2674 -13257 0
-2817 13259 0
-13258 13259 0
-2817 -13258 0
-2912 13260 0
-13259 13260 0
-2912 -13259 0
-3007 13261 0
-13260 13261 0
-3007 -13260 0
-3102 13262 0
-13261 13262 0
-3102 -13261 0
-3150 13263 0
-13262 13263 0
-3150 -13262 0
-3244 13264 0
-13263 13264 0
-3244 -13263 0
-5356 13265 0
-13264 13265 0
-5356 -13264 0
-5357 13266 0
-13265 13266 0
-5357 -13265 0
-5358 13267 0
-13266 13267 0
-5358 -13266 0
-5359 13268 0
-13267 13268 0
-5359 -13267 0
-5360 13269 0
-13268 13269 0
-5360 -13268 0
-5361 13270 0
-13269 13270 0
-5361 -13269 0
-5362 13271 0
-13270 13271 0
-5362 -13270 0
-5363 13272 0
-13271 13272 0
-5363 -13271 0
-5364 13273 0
-13272 13273 0
-5364 -13272 0
-5365 13274 0
-13273 13274 0
-5365 -13273 0
-5366 13275 0
-13274 13275 0
-5366 -13274 0
-5367 13276 0
-13275 13276 0
-5367 -13275 0
-5368 13277 0
-13276 13277 0
-5368 -13276 0
-5369 13278 0
-13277 13278 0
-5369 -13277 0
-5370 13279 0
-13278 13279 0
-5370 -13278 0
-5371 13280 0
-13279 13280 0
-5371 -13279 0
-5372 13281 0
-13280 13281 0
-5372 -13280 0
-5373 13282 0
-13281 13282 0
-5373 -13281 0
-5374 13283 0
-13282 13283 0
-5374 -13282 0
-5375 13284 0
-13283 13284 0
-5375 -13283 0
-5376 13285 0
-13284 13285 0
-5376 -13284 0
-5377 13286 0
-13285 13286 0
-5377 -13285 0
-5378 13287 0
-13286 13287 0
-5378 -13286 0
-5379 13288 0
-13287 13288 0
-5379 -13287 0
-5380 13289 0
-13288 13289 0
-5380 -13288 0
-5381 13290 0
-13289 13290 0
-5381 -13289 0
-5382 13291 0
-13290 13291 0
-5382 -13290 0
-5383 13292 0
-13291 13292 0
-5383 -13291 0
-5384 13293 0
-13292 13293 0
-5384 -13292 0
-5385 13294 0
-13293 13294 0
-5385 -13293 0
-5386 13295 0
-13294 13295 0
-5386 -13294 0
-5387 -13295 0
157 278 340 522 582 703 880 986 1042 1151 1320 1375 1542 1652 1708 1866 1914 2007 2152 2199 2342 2436 2484 2587 2722 2816 2864 3006 3054 3151 3292 5388 5389 5390 5391 5392 5393 5394 5395 5396 5397 5398 5399 5400 5401 5402 5403 5404 5405 5406 5407 5408 5409 5410 5411 5412 5413 5414 5415 5416 5417 5418 5419 0
-157 13296 0
-278 13297 0
-13296 13297 0
-278 -13296 0
-340 13298 0
-13297 13298 0
-340 -13297 0
-522 13299 0
-13298 13299 0
-522 -13298 0
-582 13300 0
-13299 13300 0
-582 -13299 0
-703 13301 0
-13300 13301 0
-703 -13300 0
-880 13302 0
-13301 13302 0
-880 -13301 0
-986 13303 0
-13302 13303 0
-986 -13302 0
-1042 13304 0
-13303 13304 0
-1042 -13303 0
-1151 13305 0
-13304 13305 0
-1151 -13304 0
-1320 13306 0
-13305 13306 0
-1320 -13305 0
-1375 13307 0
-13306 13307 0
-1375 -13306 0
-1542 13308 0
-13307 13308 0
-1542 -13307 0
-1652 13309 0
-13308 13309 0
-1652 -13308 0
-1708 13310 0
-13309 13310 0
-1708 -13309 0
-1866 13311 0
-13310 13311 0
-1866 -13310 0
-1914 13312 0
-13311 13312 0
-1914 -13311 0
-2007 13313 0
-13312 13313 0
-2007 -13312 0
-2152 13314 0
-13313 13314 0
-2152 -13313 0
-2199 13315 0
-13314 13315 0
-2199 -13314 0
-2342 13316 0
-13315 13316 0
-2342 -13315 0
-2436 13317 0
-13316 13317 0
-2436 -13316 0
-2484 13318 0
-13317 13318 0
-2484 -13317 0
-2587 13319 0
-13318 13319 0
-2587 -13318 0
-2722 13320 0
-13319 13320 0
-2722 -13319 0
-2816 13321 0
-13320 13321 0
-2816 -13320 0
-2864 13322 0
-13321 13322 0
-2864 -13321 0
-3006 13323 0
-13322 13323 0
-3006 -13322 0
-3054 13324 0
-13323 13324 0
-3054 -13323 0
-3151 13325 0
-13324 13325 0
-3151 -13324 0
-3292 13326 0
-13325 13326 0
-3292 -13325 0
-5388 13327 0
-13326 13327 0
-5388 -13326 0
-5389 13328 0
-13327 13328 0
-5389 -13327 0
-5390 13329 0
-13328 13329 0
-5390 -13328 0
-5391 13330 0
-13329 13330 0
-5391 -13329 0
-5392 13331 0
-13330 13331 0
-5392 -13330 0
-5393 13332 0
-13331 13332 0
-5393 -13331 0
-5394 13333 0
-13332 13333 0
-5394 -13332 0
-5395 13334 0
-13333 13334 0
-5395 -13333 0
-5396 13335 0
-13334 13335 0
-5396 -13334 0
-5397 13336 0
-13335 13336 0
-5397 -13335 0
-5398 13337 0
-13336 13337 0
-5398 -13336 0
-5399 13338 0
-13337 13338 0
-5399 -13337 0
-5400 13339 0
-13338 13339 0
-5400 -13338 0
-5401 13340 0
-13339 13340 0
-5401 -13339 0
-5402 13341 0
-13340 13341 0
-5402 -13340 0
-5403 13342 0
-13341 13342 0
-5403 -13341 0
-5404 13343 0
-13342 13343 0
-5404 -13342 0
-5405 13344 0
-13343 13344 0
-5405 -13343 0
-5406 13345 0
-13344 13345 0
-5406 -13344 0
-5407 13346 0
-13345 13346 0
-5407 -13345 0
-5408 13347 0
-13346 13347 0
-5408 -13346 0
-5409 13348 0
-13347 13348 0
-5409 -13347 0
-5410 13349 0
-13348 13349 0
-5410 -13348 0
-5411 13350 0
-13349 13350 0
-5411 -13349 0
-5412 13351 0
-13350 13351 0
-5412 -13350 0
-5413 13352 0
-13351 13352 0
-5413 -13351 0
-5414 13353 0
-13352 13353 0
-5414 -13352 0
-5415 13354 0
-13353 13354 0
-5415 -13353 0
-5416 13355 0
-13354 13355 0
-5416 -13354 0
-5417 13356 0
-13355 13356 0
-5417 -13355 0
-5418 13357 0
-13356 13357 0
-5418 -13356 0
-5419 -13357 0
32 95 158 218 280 342 404 464 524 584 644 704 764 824 884 932 988 1044 1100 1156 1212 1268 1324 1380 1436 1492 1548 1604 1660 1716 1772 1820 1868 1916 1964 2012 2060 2108 2156 2204 2252 2300 2348 2396 2444 2492 2540 2588 2636 2684 2732 2780 2828 2876 2924 2972 3020 3068 3116 3164 3212 3260 3308 3340 3404 3436 3468 3500 3532 3564 3596 3628 3660 3692 3724 3756 3788 3820 3852 3884 3916 3948 3980 4012 4044 4076 4108 4140 4172 4204 4236 4268 4300 4332 4364 4396 4428 4460 4492 4524 4556 4588 4620 4652 4684 4716 4748 4780 4812 4844 4876 4908 4940 4972 5004 5036 5068 5100 5132 5164 5196 5228 5260 5292 5324 5356 5388 0
-32 13358 0
-95 13359 0
-13358 13359 0
-95 -13358 0
-158 13360 0
-13359 13360 0
-158 -13359 0
-218 13361 0
-13360 13361 0
-218 -13360 0
-280 13362 0
-13361 13362 0
-280 -13361 0
-342 13363 0
-13362 13363 0
-342 -13362 0
-404 13364 0
-13363 13364 0
-404 -13363 0
-464 13365 0
-13364 13365 0
-464 -13364 0
-524 13366 0
-13365 13366 0
-524 -13365 0
-584 13367 0
-13366 13367 0
-584 -13366 0
-644 13368 0
-13367 13368 0
-644 -13367 0
-704 13369 0
-13368 13369 0
-704 -13368 0
-764 13370 0
-13369 13370 0
-764 -13369 0
-824 13371 0
-13370 13371 0
-824 -13370 0
-884 13372 0
-13371 13372 0
-884 -13371 0
-932 13373 0
-13372 13373 0
-932 -13372 0
-988 13374 0
-13373 13374 0
-988 -13373 0
-1044 13375 0
-13374 13375 0
-1044 -13374 0
-1100 13376 0
-13375 13376 0
-1100 -13375 0
-1156 13377 0
-13376 13377 0
-1156 -13376 0
-1212 13378 0
-13377 13378 0
-1212 -13377 0
-1268 13379 0
-13378 13379 0
-1268 -13378 0
-1324 13380 0
-13379 13380 0
-1324 -13379 0
-1380 13381 0
-13380 13381 0
-1380 -13380 0
-1436 13382 0
-13381 13382 0
-1436 -13381 0
-1492 13383 0
-13382 13383 0
-1492 -13382 0
-1548 13384 0
-13383 13384 0
-1548 -13383 0
-1604 13385 0
-13384 13385 0
-1604 -13384 0
-1660 13386 0
-13385 13386 0
-1660 -13385 0
-1716 13387 0
-13386 13387 0
-1716 -13386 0
-1772 13388 0
-13387 13388 0
-1772 -13387 0
-1820 13389 0
-13388 13389 0
-1820 -13388 0
-1868 13390 0
-13389 13390 0
-1868 -13389 0
-1916 13391 0
-13390 13391 0
-1916 -13390 0
-1964 13392 0
-13391 13392 0
-1964 -13391 0
-2012 13393 0
-13392 13393 0
-2012 -13392 0
-2060 13394 0
-13393 13394 0
-2060 -13393 0
-2108 13395 0
-13394 13395 0
-2108 -13394 0
-2156 13396 0
-13395 13396 0
-2156 -13395 0
-2204 13397 0
-13396 13397 0
-2204 -13396 0
-2252 13398 0
-13397 13398 0
-2252 -13397 0
-2300 13399 0
-13398 13399 0
-2300 -13398 0
-2348 13400 0
-13399 13400 0
-2348 -13399 0
-2396 13401 0
-13400 13401 0
-2396 -13400 0
-2444 13402 0
-13401 13402 0
-2444 -13401 0
-2492 13403 0
-13402 13403 0
-2492 -13402 0
-2540 13404 0
-13403 13404 0
-2540 -13403 0
-2588 13405 0
-13404 13405 0
-2588 -13404 0
-2636 13406 0
-13405 13406 0
-2636 -13405 0
-2684 13407 0
-13406 13407 0
-2684 -13406 0
-2732 13408 0
-13407 13408 0
-2732 -13407 0
-2780 13409 0
-13408 13409 0
-2780 -13408 0
-2828 13410 0
-13409 13410 0
-2828 -13409 0
-2876 13411 0
-13410 13411 0
-2876 -13410 0
-2924 13412 0
-13411 13412 0
-2924 -13411 0
-2972 13413 0
-13412 13413 0
-2972 -13412 0
-3020 13414 0
-13413 13414 0
-3020 -13413 0
-3068 13415 0
-13414 13415 0
-3068 -13414 0
-3116 13416 0
-13415 13416 0
-3116 -13415 0
-3164 13417 0
-13416 13417 0
-3164 -13416 0
-3212 13418 0
-13417 13418 0
-3212 -13417 0
-3260 13419 0
-13418 13419 0
-3260 -13418 0
-3308 13420 0
-13419 13420 0
-3308 -13419 0
-3340 13421 0
-13420 13421 0
-3340 -13420 0
-3404 13422 0
-13421 13422 0
-3404 -13421 0
-3436 13423 0
-13422 13423 0
-3436 -13422 0
-3468 13424 0
-13423 13424 0
-3468 -13423 0
-3500 13425 0
-13424 13425 0
-3500 -13424 0
-3532 13426 0
-13425 13426 0
-3532 -13425 0
-3564 13427 0
-13426 13427 0
-3564 -13426 0
-3596 13428 0
-13427 13428 0
-3596 -13427 0
-3628 13429 0
-13428 13429 0
-3628 -13428 0
-3660 13430 0
-13429 13430 0
-3660 -13429 0
-3692 13431 0
-13430 13431 0
-3692 -13430 0
-3724 13432 0
-13431 13432 0
-3724 -13431 0
-3756 13433 0
-13432 13433 0
-3756 -13432 0
-3788 13434 0
-13433 13434 0
-3788 -13433 0
-3820 13435 0
-13434 13435 0
-3820 -13434 0
-3852 13436 0
-13435 13436 0
-3852 -13435 0
-3884 13437 0
-13436 13437 0
-3884 -13436 0
-3916 13438 0
-13437 13438 0
-3916 -13437 0
-3948 13439 0
-13438 13439 0
-3948 -13438 0
-3980 13440 0
-13439 13440 0
-3980 -13439 0
-4012 13441 0
-13440 13441 0
-4012 -13440 0
-4044 13442 0
-13441 13442 0
-4044 -13441 0
-4076 13443 0
-13442 13443 0
-4076 -13442 0
-4108 13444 0
-13443 13444 0
-4108 -13443 0
-4140 13445 0
-13444 13445 0
-4140 -13444 0
-4172 13446 0
-13445 13446 0
-4172 -13445 0
-4204 13447 0
-13446 13447 0
-4204 -13446 0
-4236 13448 0
-13447 13448 0
-4236 -13447 0
-4268 13449 0
-13448 13449 0
-4268 -13448 0
-4300 13450 0
-13449 13450 0
-4300 -13449 0
-4332 13451 0
-13450 13451 0
-4332 -13450 0
-4364 13452 0
-13451 13452 0
-4364 -13451 0
-4396 13453 0
-13452 13453 0
-4396 -13452 0
-4428 13454 0
-13453 13454 0
-4428 -13453 0
-4460 13455 0
-13454 13455 0
-4460 -13454 0
-4492 13456 0
-13455 13456 0
-4492 -13455 0
-4524 13457 0
-13456 13457 0
-4524 -13456 0
-4556 13458 0
-13457 13458 0
-4556 -13457 0
-4588 13459 0
-13458 13459 0
-4588 -13458 0
-4620 13460 0
-13459 13460 0
-4620 -13459 0
-4652 13461 0
-13460 13461 0
-4652 -13460 0
-4684 13462 0
-13461 13462 0
-4684 -13461 0
-4716 13463 0
-13462 13463 0
-4716 -13462 0
-4748 13464 0
-13463 13464 0
-4748 -13463 0
-4780 13465 0
-13464 13465 0
-4780 -13464 0
-4812 13466 0
-13465 13466 0
-4812 -13465 0
-4844 13467 0
-13466 13467 0
-4844 -13466 0
-4876 13468 0
-13467 13468 0
-4876 -13467 0
-4908 13469 0
-13468 13469 0
-4908 -13468 0
-4940 13470 0
-13469 13470 0
-4940 -13469 0
-4972 13471 0
-13470 13471 0
-4972 -13470 0
-5004 13472 0
-13471 13472 0
-5004 -13471 0
-5036 13473 0
-13472 13473 0
-5036 -13472 0
-5068 13474 0
-13473 13474 0
-5068 -13473 0
-5100 13475 0
-13474 13475 0
-5100 -13474 0
-5132 13476 0
-13475 13476 0
-5132 -13475 0
-5164 13477 0
-13476 13477 0
-5164 -13476 0
-5196 13478 0
-13477 13478 0
-5196 -13477 0
-5228 13479 0
-13478 13479 0
-5228 -13478 0
-5260 13480 0
-13479 13480 0
-5260 -13479 0
-5292 13481 0
-13480 13481 0
-5292 -13480 0
-5324 13482 0
-13481 13482 0
-5324 -13481 0
-5356 13483 0
-13482 13483 0
-5356 -13482 0
-5388 -13483 0
32 219 281 465 525 705 765 933 989 1157 1213 1381 1437 1605 1661 1821 1869 2013 2061 2205 2253 2397 2445 2589 2637 2781 2829 2973 3021 3165 3213 3341 3405 3501 3533 3629 3661 3757 3789 3885 3917 4013 4045 4141 4173 4269 4301 4397 4429 4525 4557 4653 4685 4781 4813 4909 4941 5037 5069 5165 5197 5293 5325 0
-32 13484 0
-219 13485 0
-13484 13485 0
-219 -13484 0
-281 13486 0
-13485 13486 0
-281 -13485 0
-465 13487 0
-13486 13487 0
-465 -13486 0
-525 13488 0
-13487 13488 0
-525 -13487 0
-705 13489 0
-13488 13489 0
-705 -13488 0
-765 13490 0
-13489 13490 0
-765 -13489 0
-933 13491 0
-13490 13491 0
-933 -13490 0
-989 13492 0
-13491 13492 0
-989 -13491 0
-1157 13493 0
-13492 13493 0
-1157 -13492 0
-1213 13494 0
-13493 13494 0
-1213 -13493 0
-1381 13495 0
-13494 13495 0
-1381 -13494 0
-1437 13496 0
-13495 13496 0
-1437 -13495 0
-1605 13497 0
-13496 13497 0
-1605 -13496 0
-1661 13498 0
-13497 13498 0
-1661 -13497 0
-1821 13499 0
-13498 13499 0
-1821 -13498 0
-1869 13500 0
-13499 13500 0
-1869 -13499 0
-2013 13501 0
-13500 13501 0
-2013 -13500 0
-2061 13502 0
-13501 13502 0
-2061 -13501 0
-2205 13503 0
-13502 13503 0
-2205 -13502 0
-2253 13504 0
-13503 13504 0
-2253 -13503 0
-2397 13505 0
-13504 13505 0
-2397 -13504 0
-2445 13506 0
-13505 13506 0
-2445 -13505 0
-2589 13507 0
-13506 13507 0
-2589 -13506 0
-2637 13508 0
-13507 13508 0
-2637 -13507 0
-2781 13509 0
-13508 13509 0
-2781 -13508 0
-2829 13510 0
-13509 13510 0
-2829 -13509 0
-2973 13511 0
-13510 13511 0
-2973 -13510 0
-3021 13512 0
-13511 13512 0
-3021 -13511 0
-3165 13513 0
-13512 13513 0
-3165 -13512 0
-3213 13514 0
-13513 13514 0
-3213 -13513 0
-3341 13515 0
-13514 13515 0
-3341 -13514 0
-3405 13516 0
-13515 13516 0
-3405 -13515 0
-3501 13517 0
-13516 13517 0
-3501 -13516 0
-3533 13518 0
-13517 13518 0
-3533 -13517 0
-3629 13519 0
-13518 13519 0
-3629 -13518 0
-3661 13520 0
-13519 13520 0
-3661 -13519 0
-3757 13521 0
-13520 13521 0
-3757 -13520 0
-3789 13522 0
-13521 13522 0
-3789 -13521 0
-3885 13523 0
-13522 13523 0
-3885 -13522 0
-3917 13524 0
-13523 13524 0
-3917 -13523 0
-4013 13525 0
-13524 13525 0
-4013 -13524 0
-4045 13526 0
-13525 13526 0
-4045 -13525 0
-4141 13527 0
-13526 13527 0
-4141 -13526 0
-4173 13528 0
-13527 13528 0
-4173 -13527 0
-4269 13529 0
-13528 13529 0
-4269 -13528 0
-4301 13530 0
-13529 13530 0
-4301 -13529 0
-4397 13531 0
-13530 13531 0
-4397 -13530 0
-4429 13532 0
-13531 13532 0
-4429 -13531 0
-4525 13533 0
-13532 13533 0
-4525 -13532 0
-4557 13534 0
-13533 13534 0
-4557 -13533 0
-4653 13535 0
-13534 13535 0
-4653 -13534 0
-4685 13536 0
-13535 13536 0
-4685 -13535 0
-4781 13537 0
-13536 13537 0
-4781 -13536 0
-4813 13538 0
-13537 13538 0
-4813 -13537 0
-4909 13539 0
-13538 13539 0
-4909 -13538 0
-4941 13540 0
-13539 13540 0
-4941 -13539 0
-5037 13541 0
-13540 13541 0
-5037 -13540 0
-5069 13542 0
-13541 13542 0
-5069 -13541 0
-5165 13543 0
-13542 13543 0
-5165 -13542 0
-5197 13544 0
-13543 13544 0
-5197 -13543 0
-5293 13545 0
-13544 13545 0
-5293 -13544 0
-5325 -13545 0
95 220 343 466 585 706 825 934 1045 1158 1269 1382 1493 1606 1717 1822 1917 2014 2109 2206 2301 2398 2493 2590 2685 2782 2877 2974 3069 3166 3261 3342 3437 3502 3565 3630 3693 3758 3821 3886 3949 4014 4077 4142 4205 4270 4333 4398 4461 4526 4589 4654 4717 4782 4845 4910 4973 5038 5101 5166 5229 5294 5357 0
-95 13546 0
-220 13547 0
-13546 13547 0
-220 -13546 0
-343 13548 0
-13547 13548 0
-343 -13547 0
-466 13549 0
-13548 13549 0
-466 -13548 0
-585 13550 0
-13549 13550 0
-585 -13549 0
-706 13551 0
-13550 13551 0
-706 -13550 0
-825 13552 0
-13551 13552 0
-825 -13551 0
-934 13553 0
-13552 13553 0
-934 -13552 0
-1045 13554 0
-13553 13554 0
-1045 -13553 0
-1158 13555 0
-13554 13555 0
-1158 -13554 0
-1269 13556 0
-13555 13556 0
-1269 -13555 0
-1382 13557 0
-13556 13557 0
-1382 -13556 0
-1493 13558 0
-13557 13558 0
-1493 -13557 0
-1606 13559 0
-13558 13559 0
-1606 -13558 0
-1717 13560 0
-13559 13560 0
-1717 -13559 0
-1822 13561 0
-13560 13561 0
-1822 -13560 0
-1917 13562 0
-13561 13562 0
-1917 -13561 0
-2014 13563 0
-13562 13563 0
-2014 -13562 0
-2109 13564 0
-13563 13564 0
-2109 -13563 0
-2206 13565 0
-13564 13565 0
-2206 -13564 0
-2301 13566 0
-13565 13566 0
-2301 -13565 0
-2398 13567 0
-13566 13567 0
-2398 -13566 0
-2493 13568 0
-13567 13568 0
-2493 -13567 0
-2590 13569 0
-13568 13569 0
-2590 -13568 0
-2685 13570 0
-13569 13570 0
-2685 -13569 0
-2782 13571 0
-13570 13571 0
-2782 -13570 0
-2877 13572 0
-13571 13572 0
-2877 -13571 0
-2974 13573 0
-13572 13573 0
-2974 -13572 0
-3069 13574 0
-13573 13574 0
-3069 -13573 0
-3166 13575 0
-13574 13575 0
-3166 -13574 0
-3261 13576 0
-13575 13576 0
-3261 -13575 0
-3342 13577 0
-13576 13577 0
-3342 -13576 0
-3437 13578 0
-13577 13578 0
-3437 -13577 0
-3502 13579 0
-13578 13579 0
-3502 -13578 0
-3565 13580 0
-13579 13580 0
-3565 -13579 0
-3630 13581 0
-13580 13581 0
-3630 -13580 0
-3693 13582 0
-13581 13582 0
-3693 -13581 0
-3758 13583 0
-13582 13583 0
-3758 -13582 0
-3821 13584 0
-13583 13584 0
-3821 -13583 0
-3886 13585 0
-13584 13585 0
-3886 -13584 0
-3949 13586 0
-13585 13586 0
-3949 -13585 0
-4014 13587 0
-13586 13587 0
-4014 -13586 0
-4077 13588 0
-13587 13588 0
-4077 -13587 0
-4142 13589 0
-13588 13589 0
-4142 -13588 0
-4205 13590 0
-13589 13590 0
-4205 -13589 0
-4270 13591 0
-13590 13591 0
-4270 -13590 0
-4333 13592 0
-13591 13592 0
-4333 -13591 0
-4398 13593 0
-13592 13593 0
-4398 -13592 0
-4461 13594 0
-13593 13594 0
-4461 -13593 0
-4526 13595 0
-13594 13595 0
-4526 -13594 0
-4589 13596 0
-13595 13596 0
-4589 -13595 0
-4654 13597 0
-13596 13597 0
-4654 -13596 0
-4717 13598 0
-13597 13598 0
-4717 -13597 0
-4782 13599 0
-13598 13599 0
-4782 -13598 0
-4845 13600 0
-13599 13600 0
-4845 -13599 0
-4910 13601 0
-13600 13601 0
-4910 -13600 0
-4973 13602 0
-13601 13602 0
-4973 -13601 0
-5038 13603 0
-13602 13603 0
-5038 -13602 0
-5101 13604 0
-13603 13604 0
-5101 -13603 0
-5166 13605 0
-13604 13605 0
-5166 -13604 0
-5229 13606 0
-13605 13606 0
-5229 -13605 0
-5294 13607 0
-13606 13607 0
-5294 -13606 0
-5357 -13607 0
158 221 405 467 645 707 885 935 1101 1159 1325 1383 1549 1607 1773 1823 1965 2015 2157 2207 2349 2399 2541 2591 2733 2783 2925 2975 3117 3167 3309 3343 3469 3503 3597 3631 3725 3759 3853 3887 3981 4015 4109 4143 4237 4271 4365 4399 4493 4527 4621 4655 4749 4783 4877 4911 5005 5039 5133 5167 5261 5295 5389 0
-158 13608 0
-221 13609 0
-13608 13609 0
-221 -13608 0
-405 13610 0
-13609 13610 0
-405 -13609 0
-467 13611 0
-13610 13611 0
-467 -13610 0
-645 13612 0
-13611 13612 0
-645 -13611 0
-707 13613 0
-13612 13613 0
-707 -13612 0
-885 13614 0
-13613 13614 0
-885 -13613 0
-935 13615 0
-13614 13615 0
-935 -13614 0
-1101 13616 0
-13615 13616 0
-1101 -13615 0
-1159 13617 0
-13616 13617 0
-1159 -13616 0
-1325 13618 0
-13617 13618 0
-1325 -13617 0
-1383 13619 0
-13618 13619 0
-1383 -13618 0
-1549 13620 0
-13619 13620 0
-1549 -13619 0
-1607 13621 0
-13620 13621 0
-1607 -13620 0
-1773 13622 0
-13621 13622 0
-1773 -13621 0
-1823 13623 0
-13622 13623 0
-1823 -13622 0
-1965 13624 0
-13623 13624 0
-1965 -13623 0
-2015 13625 0
-13624 13625 0
-2015 -13624 0
-2157 13626 0
-13625 13626 0
-2157 -13625 0
-2207 13627 0
-13626 13627 0
-2207 -13626 0
-2349 13628 0
-13627 13628 0
-2349 -13627 0
-2399 13629 0
-13628 13629 0
-2399 -13628 0
-2541 13630 0
-13629 13630 0
-2541 -13629 0
-2591 13631 0
-13630 13631 0
-2591 -13630 0
-2733 13632 0
-13631 13632 0
-2733 -13631 0
-2783 13633 0
-13632 13633 0
-2783 -13632 0
-2925 13634 0
-13633 13634 0
-2925 -13633 0
-2975 13635 0
-13634 13635 0
-2975 -13634 0
-3117 13636 0
-13635 13636 0
-3117 -13635 0
-3167 13637 0
-13636 13637 0
-3167 -13636 0
-3309 13638 0
-13637 13638 0
-3309 -13637 0
-3343 13639 0
-13638 13639 0
-3343 -13638 0
-3469 13640 0
-13639 13640 0
-3469 -13639 0
-3503 13641 0
-13640 13641 0
-3503 -13640 0
-3597 13642 0
-13641 13642 0
-3597 -13641 0
-3631 13643 0
-13642 13643 0
-3631 -13642 0
-3725 13644 0
-13643 13644 0
-3725 -13643 0
-3759 13645 0
-13644 13645 0
-3759 -13644 0
-3853 13646 0
-13645 13646 0
-3853 -13645 0
-3887 13647 0
-13646 13647 0
-3887 -13646 0
-3981 13648 0
-13647 13648 0
-3981 -13647 0
-4015 13649 0
-13648 13649 0
-4015 -13648 0
-4109 13650 0
-13649 13650 0
-4109 -13649 0
-4143 13651 0
-13650 13651 0
-4143 -13650 0
-4237 13652 0
-13651 13652 0
-4237 -13651 0
-4271 13653 0
-13652 13653 0
-4271 -13652 0
-4365 13654 0
-13653 13654 0
-4365 -13653 0
-4399 13655 0
-13654 13655 0
-4399 -13654 0
-4493 13656 0
-13655 13656 0
-4493 -13655 0
-4527 13657 0
-13656 13657 0
-4527 -13656 0
-4621 13658 0
-13657 13658 0
-4621 -13657 0
-4655 13659 0
-13658 13659 0
-4655 -13658 0
-4749 13660 0
-13659 13660 0
-4749 -13659 0
-4783 13661 0
-13660 13661 0
-4783 -13660 0
-4877 13662 0
-13661 13662 0
-4877 -13661 0
-4911 13663 0
-13662 13663 0
-4911 -13662 0
-5005 13664 0
-13663 13664 0
-5005 -13663 0
-5039 13665 0
-13664 13665 0
-5039 -13664 0
-5133 13666 0
-13665 13666 0
-5133 -13665 0
-5167 13667 0
-13666 13667 0
-5167 -13666 0
-5261 13668 0
-13667 13668 0
-5261 -13667 0
-5295 13669 0
-13668 13669 0
-5295 -13668 0
-5389 -13669 0
33 96 159 218 281 343 405 936 990 1046 1102 1160 1214 1270 1326 1824 1870 1918 1966 2016 2062 2110 2158 2592 2638 2686 2734 2784 2830 2878 2926 3344 3406 3438 3470 3504 3534 3566 3598 3888 3918 3950 3982 4016 4046 4078 4110 4400 4430 4462 4494 4528 4558 4590 4622 4912 4942 4974 5006 5040 5070 5102 5134 0
-33 13670 0
-96 13671 0
-13670 13671 0
-96 -13670 0
-159 13672 0
-13671 13672 0
-159 -13671 0
-218 13673 0
-13672 13673 0
-218 -13672 0
-281 13674 0
-13673 13674 0
-281 -13673 0
-343 13675 0
-13674 13675 0
-343 -13674 0
-405 13676 0
-13675 13676 0
-405 -13675 0
-936 13677 0
-13676 13677 0
-936 -13676 0
-990 13678 0
-13677 13678 0
-990 -13677 0
-1046 13679 0
-13678 13679 0
-1046 -13678 0
-1102 13680 0
-13679 13680 0
-1102 -13679 0
-1160 13681 0
-13680 13681 0
-1160 -13680 0
-1214 13682 0
-13681 13682 0
-1214 -13681 0
-1270 13683 0
-13682 13683 0
-1270 -13682 0
-1326 13684 0
-13683 13684 0
-1326 -13683 0
-1824 13685 0
-13684 13685 0
-1824 -13684 0
-1870 13686 0
-13685 13686 0
-1870 -13685 0
-1918 13687 0
-13686 13687 0
-1918 -13686 0
-1966 13688 0
-13687 13688 0
-1966 -13687 0
-2016 13689 0
-13688 13689 0
-2016 -13688 0
-2062 13690 0
-13689 13690 0
-2062 -13689 0
-2110 13691 0
-13690 13691 0
-2110 -13690 0
-2158 13692 0
-13691 13692 0
-2158 -13691 0
-2592 13693 0
-13692 13693 0
-2592 -13692 0
-2638 13694 0
-13693 13694 0
-2638 -13693 0
-2686 13695 0
-13694 13695 0
-2686 -13694 0
-2734 13696 0
-13695 13696 0
-2734 -13695 0
-2784 13697 0
-13696 13697 0
-2784 -13696 0
-2830 13698 0
-13697 13698 0
-2830 -13697 0
-2878 13699 0
-13698 13699 0
-2878 -13698 0
-2926 13700 0
-13699 13700 0
-2926 -13699 0
-3344 13701 0
-13700 13701 0
-3344 -13700 0
-3406 13702 0
-13701 13702 0
-3406 -13701 0
-3438 13703 0
-13702 13703 0
-3438 -13702 0
-3470 13704 0
-13703 13704 0
-3470 -13703 0
-3504 13705 0
-13704 13705 0
-3504 -13704 0
-3534 13706 0
-13705 13706 0
-3534 -13705 0
-3566 13707 0
-13706 13707 0
-3566 -13706 0
-3598 13708 0
-13707 13708 0
-3598 -13707 0
-3888 13709 0
-13708 13709 0
-3888 -13708 0
-3918 13710 0
-13709 13710 0
-3918 -13709 0
-3950 13711 0
-13710 13711 0
-3950 -13710 0
-3982 13712 0
-13711 13712 0
-3982 -13711 0
-4016 13713 0
-13712 13713 0
-4016 -13712 0
-4046 13714 0
-13713 13714 0
-4046 -13713 0
-4078 13715 0
-13714 13715 0
-4078 -13714 0
-4110 13716 0
-13715 13716 0
-4110 -13715 0
-4400 13717 0
-13716 13717 0
-4400 -13716 0
-4430 13718 0
-13717 13718 0
-4430 -13717 0
-4462 13719 0
-13718 13719 0
-4462 -13718 0
-4494 13720 0
-13719 13720 0
-4494 -13719 0
-4528 13721 0
-13720 13721 0
-4528 -13720 0
-4558 13722 0
-13721 13722 0
-4558 -13721 0
-4590 13723 0
-13722 13723 0
-4590 -13722 0
-4622 13724 0
-13723 13724 0
-4622 -13723 0
-4912 13725 0
-13724 13725 0
-4912 -13724 0
-4942 13726 0
-13725 13726 0
-4942 -13725 0
-4974 13727 0
-13726 13727 0
-4974 -13726 0
-5006 13728 0
-13727 13728 0
-5006 -13727 0
-5040 13729 0
-13728 13729 0
-5040 -13728 0
-5070 13730 0
-13729 13730 0
-5070 -13729 0
-5102 13731 0
-13730 13731 0
-5102 -13730 0
-5134 -13731 0
33 219 280 586 646 826 886 937 991 1161 1215 1494 1550 1718 1774 1825 1871 2017 2063 2302 2350 2494 2542 2593 2639 2785 2831 3070 3118 3262 3310 3345 3407 3505 3535 3694 3726 3822 3854 3889 3919 4017 4047 4206 4238 4334 4366 4401 4431 4529 4559 4718 4750 4846 4878 4913 4943 5041 5071 5230 5262 5358 5390 0
-33 13732 0
-219 13733 0
-13732 13733 0
-219 -13732 0
-280 13734 0
-13733 13734 0
-280 -13733 0
-586 13735 0
-13734 13735 0
-586 -13734 0
-646 13736 0
-13735 13736 0
-646 -13735 0
-826 13737 0
-13736 13737 0
-826 -13736 0
-886 13738 0
-13737 13738 0
-886 -13737 0
-937 13739 0
-13738 13739 0
-937 -13738 0
-991 13740 0
-13739 13740 0
-991 -13739 0
-1161 13741 0
-13740 13741 0
-1161 -13740 0
-1215 13742 0
-13741 13742 0
-1215 -13741 0
-1494 13743 0
-13742 13743 0
-1494 -13742 0
-1550 13744 0
-13743 13744 0
-1550 -13743 0
-1718 13745 0
-13744 13745 0
-1718 -13744 0
-1774 13746 0
-13745 13746 0
-1774 -13745 0
-1825 13747 0
-13746 13747 0
-1825 -13746 0
-1871 13748 0
-13747 13748 0
-1871 -13747 0
-2017 13749 0
-13748 13749 0
-2017 -13748 0
-2063 13750 0
-13749 13750 0
-2063 -13749 0
-2302 13751 0
-13750 13751 0
-2302 -13750 0
-2350 13752 0
-13751 13752 0
-2350 -13751 0
-2494 13753 0
-13752 13753 0
-2494 -13752 0
-2542 13754 0
-13753 13754 0
-2542 -13753 0
-2593 13755 0
-13754 13755 0
-2593 -13754 0
-2639 13756 0
-13755 13756 0
-2639 -13755 0
-2785 13757 0
-13756 13757 0
-2785 -13756 0
-2831 13758 0
-13757 13758 0
-2831 -13757 0
-3070 13759 0
-13758 13759 0
-3070 -13758 0
-3118 13760 0
-13759 13760 0
-3118 -13759 0
-3262 13761 0
-13760 13761 0
-3262 -13760 0
-3310 13762 0
-13761 13762 0
-3310 -13761 0
-3345 13763 0
-13762 13763 0
-3345 -13762 0
-3407 13764 0
-13763 13764 0
-3407 -13763 0
-3505 13765 0
-13764 13765 0
-3505 -13764 0
-3535 13766 0
-13765 13766 0
-3535 -13765 0
-3694 13767 0
-13766 13767 0
-3694 -13766 0
-3726 13768 0
-13767 13768 0
-3726 -13767 0
-3822 13769 0
-13768 13769 0
-3822 -13768 0
-3854 13770 0
-13769 13770 0
-3854 -13769 0
-3889 13771 0
-13770 13771 0
-3889 -13770 0
-3919 13772 0
-13771 13772 0
-3919 -13771 0
-4017 13773 0
-13772 13773 0
-4017 -13772 0
-4047 13774 0
-13773 13774 0
-4047 -13773 0
-4206 13775 0
-13774 13775 0
-4206 -13774 0
-4238 13776 0
-13775 13776 0
-4238 -13775 0
-4334 13777 0
-13776 13777 0
-4334 -13776 0
-4366 13778 0
-13777 13778 0
-4366 -13777 0
-4401 13779 0
-13778 13779 0
-4401 -13778 0
-4431 13780 0
-13779 13780 0
-4431 -13779 0
-4529 13781 0
-13780 13781 0
-4529 -13780 0
-4559 13782 0
-13781 13782 0
-4559 -13781 0
-4718 13783 0
-13782 13783 0
-4718 -13782 0
-4750 13784 0
-13783 13784 0
-4750 -13783 0
-4846 13785 0
-13784 13785 0
-4846 -13784 0
-4878 13786 0
-13785 13786 0
-4878 -13785 0
-4913 13787 0
-13786 13787 0
-4913 -13786 0
-4943 13788 0
-13787 13788 0
-4943 -13787 0
-5041 13789 0
-13788 13789 0
-5041 -13788 0
-5071 13790 0
-13789 13790 0
-5071 -13789 0
-5230 13791 0
-13790 13791 0
-5230 -13790 0
-5262 13792 0
-13791 13792 0
-5262 -13791 0
-5358 13793 0
-13792 13793 0
-5358 -13792 0
-5390 -13793 0
96 220 342 526 647 766 887 938 1047 1162 1271 1438 1551 1662 1775 1826 1919 2018 2111 2254 2351 2446 2543 2594 2687 2786 2879 3022 3119 3214 3311 3346 3439 3506 3567 3662 3727 3790 3855 3890 3951 4018 4079 4174 4239 4302 4367 4402 4463 4530 4591 4686 4751 4814 4879 4914 4975 5042 5103 5198 5263 5326 5391 0
-96 13794 0
-220 13795 0
-13794 13795 0
-220 -13794 0
-342 13796 0
-13795 13796 0
-342 -13795 0
-526 13797 0
-13796 13797 0
-526 -13796 0
-647 13798 0
-13797 13798 0
-647 -13797 0
-766 13799 0
-13798 13799 0
-766 -13798 0
-887 13800 0
-13799 13800 0
-887 -13799 0
-938 13801 0
-13800 13801 0
-938 -13800 0
-1047 13802 0
-13801 13802 0
-1047 -13801 0
-1162 13803 0
-13802 13803 0
-1162 -13802 0
-1271 13804 0
-13803 13804 0
-1271 -13803 0
-1438 13805 0
-13804 13805 0
-1438 -13804 0
-1551 13806 0
-13805 13806 0
-1551 -13805 0
-1662 13807 0
-13806 13807 0
-1662 -13806 0
-1775 13808 0
-13807 13808 0
-1775 -13807 0
-1826 13809 0
-13808 13809 0
-1826 -13808 0
-1919 13810 0
-13809 13810 0
-1919 -13809 0
-2018 13811 0
-13810 13811 0
-2018 -13810 0
-2111 13812 0
-13811 13812 0
-2111 -13811 0
-2254 13813 0
-13812 13813 0
-2254 -13812 0
-2351 13814 0
-13813 13814 0
-2351 -13813 0
-2446 13815 0
-13814 13815 0
-2446 -13814 0
-2543 13816 0
-13815 13816 0
-2543 -13815 0
-2594 13817 0
-13816 13817 0
-2594 -13816 0
-2687 13818 0
-13817 13818 0
-2687 -13817 0
-2786 13819 0
-13818 13819 0
-2786 -13818 0
-2879 13820 0
-13819 13820 0
-2879 -13819 0
-3022 13821 0
-13820 13821 0
-3022 -13820 0
-3119 13822 0
-13821 13822 0
-3119 -13821 0
-3214 13823 0
-13822 13823 0
-3214 -13822 0
-3311 13824 0
-13823 13824 0
-3311 -13823 0
-3346 13825 0
-13824 13825 0
-3346 -13824 0
-3439 13826 0
-13825 13826 0
-3439 -13825 0
-3506 13827 0
-13826 13827 0
-3506 -13826 0
-3567 13828 0
-13827 13828 0
-3567 -13827 0
-3662 13829 0
-13828 13829 0
-3662 -13828 0
-3727 13830 0
-13829 13830 0
-3727 -13829 0
-3790 13831 0
-13830 13831 0
-3790 -13830 0
-3855 13832 0
-13831 13832 0
-3855 -13831 0
-3890 13833 0
-13832 13833 0
-3890 -13832 0
-3951 13834 0
-13833 13834 0
-3951 -13833 0
-4018 13835 0
-13834 13835 0
-4018 -13834 0
-4079 13836 0
-13835 13836 0
-4079 -13835 0
-4174 13837 0
-13836 13837 0
-4174 -13836 0
-4239 13838 0
-13837 13838 0
-4239 -13837 0
-4302 13839 0
-13838 13839 0
-4302 -13838 0
-4367 13840 0
-13839 13840 0
-4367 -13839 0
-4402 13841 0
-13840 13841 0
-4402 -13840 0
-4463 13842 0
-13841 13842 0
-4463 -13841 0
-4530 13843 0
-13842 13843 0
-4530 -13842 0
-4591 13844 0
-13843 13844 0
-4591 -13843 0
-4686 13845 0
-13844 13845 0
-4686 -13844 0
-4751 13846 0
-13845 13846 0
-4751 -13845 0
-4814 13847 0
-13846 13847 0
-4814 -13846 0
-4879 13848 0
-13847 13848 0
-4879 -13847 0
-4914 13849 0
-13848 13849 0
-4914 -13848 0
-4975 13850 0
-13849 13850 0
-4975 -13849 0
-5042 13851 0
-13850 13851 0
-5042 -13850 0
-5103 13852 0
-13851 13852 0
-5103 -13851 0
-5198 13853 0
-13852 13853 0
-5198 -13852 0
-5263 13854 0
-13853 13854 0
-5263 -13853 0
-5326 13855 0
-13854 13855 0
-5326 -13854 0
-5391 -13855 0
159 221 404 527 587 767 827 939 1103 1163 1327 1439 1495 1663 1719 1827 1967 2019 2159 2255 2303 2447 2495 2595 2735 2787 2927 3023 3071 3215 3263 3347 3471 3507 3599 3663 3695 3791 3823 3891 3983 4019 4111 4175 4207 4303 4335 4403 4495 4531 4623 4687 4719 4815 4847 4915 5007 5043 5135 5199 5231 5327 5359 0
-159 13856 0
-221 13857 0
-13856 13857 0
-221 -13856 0
-404 13858 0
-13857 13858 0
-404 -13857 0
-527 13859 0
-13858 13859 0
-527 -13858 0
-587 13860 0
-13859 13860 0
-587 -13859 0
-767 13861 0
-13860 13861 0
-767 -13860 0
-827 13862 0
-13861 13862 0
-827 -13861 0
-939 13863 0
-13862 13863 0
-939 -13862 0
-1103 13864 0
-13863 13864 0
-1103 -13863 0
-1163 13865 0
-13864 13865 0
-1163 -13864 0
-1327 13866 0
-13865 13866 0
-1327 -13865 0
-1439 13867 0
-13866 13867 0
-1439 -13866 0
-1495 13868 0
-13867 13868 0
-1495 -13867 0
-1663 13869 0
-13868 13869 0
-1663 -13868 0
-1719 13870 0
-13869 13870 0
-1719 -13869 0
-1827 13871 0
-13870 13871 0
-1827 -13870 0
-1967 13872 0
-13871 13872 0
-1967 -13871 0
-2019 13873 0
-13872 13873 0
-2019 -13872 0
-2159 13874 0
-13873 13874 0
-2159 -13873 0
-2255 13875 0
-13874 13875 0
-2255 -13874 0
-2303 13876 0
-13875 13876 0
-2303 -13875 0
-2447 13877 0
-13876 13877 0
-2447 -13876 0
-2495 13878 0
-13877 13878 0
-2495 -13877 0
-2595 13879 0
-13878 13879 0
-2595 -13878 0
-2735 13880 0
-13879 13880 0
-2735 -13879 0
-2787 13881 0
-13880 13881 0
-2787 -13880 0
-2927 13882 0
-13881 13882 0
-2927 -13881 0
-3023 13883 0
-13882 13883 0
-3023 -13882 0
-3071 13884 0
-13883 13884 0
-3071 -13883 0
-3215 13885 0
-13884 13885 0
-3215 -13884 0
-3263 13886 0
-13885 13886 0
-3263 -13885 0
-3347 13887 0
-13886 13887 0
-3347 -13886 0
-3471 13888 0
-13887 13888 0
-3471 -13887 0
-3507 13889 0
-13888 13889 0
-3507 -13888 0
-3599 13890 0
-13889 13890 0
-3599 -13889 0
-3663 13891 0
-13890 13891 0
-3663 -13890 0
-3695 13892 0
-13891 13892 0
-3695 -13891 0
-3791 13893 0
-13892 13893 0
-3791 -13892 0
-3823 13894 0
-13893 13894 0
-3823 -13893 0
-3891 13895 0
-13894 13895 0
-3891 -13894 0
-3983 13896 0
-13895 13896 0
-3983 -13895 0
-4019 13897 0
-13896 13897 0
-4019 -13896 0
-4111 13898 0
-13897 13898 0
-4111 -13897 0
-4175 13899 0
-13898 13899 0
-4175 -13898 0
-4207 13900 0
-13899 13900 0
-4207 -13899 0
-4303 13901 0
-13900 13901 0
-4303 -13900 0
-4335 13902 0
-13901 13902 0
-4335 -13901 0
-4403 13903 0
-13902 13903 0
-4403 -13902 0
-4495 13904 0
-13903 13904 0
-4495 -13903 0
-4531 13905 0
-13904 13905 0
-4531 -13904 0
-4623 13906 0
-13905 13906 0
-4623 -13905 0
-4687 13907 0
-13906 13907 0
-4687 -13906 0
-4719 13908 0
-13907 13908 0
-4719 -13907 0
-4815 13909 0
-13908 13909 0
-4815 -13908 0
-4847 13910 0
-13909 13910 0
-4847 -13909 0
-4915 13911 0
-13910 13911 0
-4915 -13910 0
-5007 13912 0
-13911 13912 0
-5007 -13911 0
-5043 13913 0
-13912 13913 0
-5043 -13912 0
-5135 13914 0
-13913 13914 0
-5135 -13913 0
-5199 13915 0
-13914 13915 0
-5199 -13914 0
-5231 13916 0
-13915 13916 0
-5231 -13915 0
-5327 13917 0
-13916 13917 0
-5327 -13916 0
-5359 -13917 0
34 97 160 464 525 585 645 940 992 1048 1104 1384 1440 1496 1552 1828 1872 1920 1968 2208 2256 2304 2352 2596 2640 2688 2736 2976 3024 3072 3120 3348 3408 3440 3472 3632 3664 3696 3728 3892 3920 3952 3984 4144 4176 4208 4240 4404 4432 4464 4496 4656 4688 4720 4752 4916 4944 4976 5008 5168 5200 5232 5264 0
-34 13918 0
-97 13919 0
-13918 13919 0
-97 -13918 0
-160 13920 0
-13919 13920 0
-160 -13919 0
-464 13921 0
-13920 13921 0
-464 -13920 0
-525 13922 0
-13921 13922 0
-525 -13921 0
-585 13923 0
-13922 13923 0
-585 -13922 0
-645 13924 0
-13923 13924 0
-645 -13923 0
-940 13925 0
-13924 13925 0
-940 -13924 0
-992 13926 0
-13925 13926 0
-992 -13925 0
-1048 13927 0
-13926 13927 0
-1048 -13926 0
-1104 13928 0
-13927 13928 0
-1104 -13927 0
-1384 13929 0
-13928 13929 0
-1384 -13928 0
-1440 13930 0
-13929 13930 0
-1440 -13929 0
-1496 13931 0
-13930 13931 0
-1496 -13930 0
-1552 13932 0
-13931 13932 0
-1552 -13931 0
-1828 13933 0
-13932 13933 0
-1828 -13932 0
-1872 13934 0
-13933 13934 0
-1872 -13933 0
-1920 13935 0
-13934 13935 0
-1920 -13934 0
-1968 13936 0
-13935 13936 0
-1968 -13935 0
-2208 13937 0
-13936 13937 0
-2208 -13936 0
-2256 13938 0
-13937 13938 0
-2256 -13937 0
-2304 13939 0
-13938 13939 0
-2304 -13938 0
-2352 13940 0
-13939 13940 0
-2352 -13939 0
-2596 13941 0
-13940 13941 0
-2596 -13940 0
-2640 13942 0
-13941 13942 0
-2640 -13941 0
-2688 13943 0
-13942 13943 0
-2688 -13942 0
-2736 13944 0
-13943 13944 0
-2736 -13943 0
-2976 13945 0
-13944 13945 0
-2976 -13944 0
-3024 13946 0
-13945 13946 0
-3024 -13945 0
-3072 13947 0
-13946 13947 0
-3072 -13946 0
-3120 13948 0
-13947 13948 0
-3120 -13947 0
-3348 13949 0
-13948 13949 0
-3348 -13948 0
-3408 13950 0
-13949 13950 0
-3408 -13949 0
-3440 13951 0
-13950 13951 0
-3440 -13950 0
-3472 13952 0
-13951 13952 0
-3472 -13951 0
-3632 13953 0
-13952 13953 0
-3632 -13952 0
-3664 13954 0
-13953 13954 0
-3664 -13953 0
-3696 13955 0
-13954 13955 0
-3696 -13954 0
-3728 13956 0
-13955 13956 0
-3728 -13955 0
-3892 13957 0
-13956 13957 0
-3892 -13956 0
-3920 13958 0
-13957 13958 0
-3920 -13957 0
-3952 13959 0
-13958 13959 0
-3952 -13958 0
-3984 13960 0
-13959 13960 0
-3984 -13959 0
-4144 13961 0
-13960 13961 0
-4144 -13960 0
-4176 13962 0
-13961 13962 0
-4176 -13961 0
-4208 13963 0
-13962 13963 0
-4208 -13962 0
-4240 13964 0
-13963 13964 0
-4240 -13963 0
-4404 13965 0
-13964 13965 0
-4404 -13964 0
-4432 13966 0
-13965 13966 0
-4432 -13965 0
-4464 13967 0
-13966 13967 0
-4464 -13966 0
-4496 13968 0
-13967 13968 0
-4496 -13967 0
-4656 13969 0
-13968 13969 0
-4656 -13968 0
-4688 13970 0
-13969 13970 0
-4688 -13969 0
-4720 13971 0
-13970 13971 0
-4720 -13970 0
-4752 13972 0
-13971 13972 0
-4752 -13971 0
-4916 13973 0
-13972 13973 0
-4916 -13972 0
-4944 13974 0
-13973 13974 0
-4944 -13973 0
-4976 13975 0
-13974 13975 0
-4976 -13974 0
-5008 13976 0
-13975 13976 0
-5008 -13975 0
-5168 13977 0
-13976 13977 0
-5168 -13976 0
-5200 13978 0
-13977 13978 0
-5200 -13977 0
-5232 13979 0
-13978 13979 0
-5232 -13978 0
-5264 -13979 0
34 344 406 465 524 827 887 941 993 1272 1328 1385 1441 1720 1776 1829 1873 2112 2160 2209 2257 2496 2544 2597 2641 2880 2928 2977 3025 3264 3312 3349 3409 3568 3600 3633 3665 3824 3856 3893 3921 4080 4112 4145 4177 4336 4368 4405 4433 4592 4624 4657 4689 4848 4880 4917 4945 5104 5136 5169 5201 5360 5392 0
-34 13980 0
-344 13981 0
-13980 13981 0
-344 -13980 0
-406 13982 0
-13981 13982 0
-406 -13981 0
-465 13983 0
-13982 13983 0
-465 -13982 0
-524 13984 0
-13983 13984 0
-524 -13983 0
-827 13985 0
-13984 13985 0
-827 -13984 0
-887 13986 0
-13985 13986 0
-887 -13985 0
-941 13987 0
-13986 13987 0
-941 -13986 0
-993 13988 0
-13987 13988 0
-993 -13987 0
-1272 13989 0
-13988 13989 0
-1272 -13988 0
-1328 13990 0
-13989 13990 0
-1328 -13989 0
-1385 13991 0
-13990 13991 0
-1385 -13990 0
-1441 13992 0
-13991 13992 0
-1441 -13991 0
-1720 13993 0
-13992 13993 0
-1720 -13992 0
-1776 13994 0
-13993 13994 0
-1776 -13993 0
-1829 13995 0
-13994 13995 0
-1829 -13994 0
-1873 13996 0
-13995 13996 0
-1873 -13995 0
-2112 13997 0
-13996 13997 0
-2112 -13996 0
-2160 13998 0
-13997 13998 0
-2160 -13997 0
-2209 13999 0
-13998 13999 0
-2209 -13998 0
-2257 14000 0
-13999 14000 0
-2257 -13999 0
-2496 14001 0
-14000 14001 0
-2496 -14000 0
-2544 14002 0
-14001 14002 0
-2544 -14001 0
-2597 14003 0
-14002 14003 0
-2597 -14002 0
-2641 14004 0
-14003 14004 0
-2641 -14003 0
-2880 14005 0
-14004 14005 0
-2880 -14004 0
-2928 14006 0
-14005 14006 0
-2928 -14005 0
-2977 14007 0
-14006 14007 0
-2977 -14006 0
-3025 14008 0
-14007 14008 0
-3025 -14007 0
-3264 14009 0
-14008 14009 0
-3264 -14008 0
-3312 14010 0
-14009 14010 0
-3312 -14009 0
-3349 14011 0
-14010 14011 0
-3349 -14010 0
-3409 14012 0
-14011 14012 0
-3409 -14011 0
-3568 14013 0
-14012 14013 0
-3568 -14012 0
-3600 14014 0
-14013 14014 0
-3600 -14013 0
-3633 14015 0
-14014 14015 0
-3633 -14014 0
-3665 14016 0
-14015 14016 0
-3665 -14015 0
-3824 14017 0
-14016 14017 0
-3824 -14016 0
-3856 14018 0
-14017 14018 0
-3856 -14017 0
-3893 14019 0
-14018 14019 0
-3893 -14018 0
-3921 14020 0
-14019 14020 0
-3921 -14019 0
-4080 14021 0
-14020 14021 0
-4080 -14020 0
-4112 14022 0
-14021 14022 0
-4112 -14021 0
-4145 14023 0
-14022 14023 0
-4145 -14022 0
-4177 14024 0
-14023 14024 0
-4177 -14023 0
-4336 14025 0
-14024 14025 0
-4336 -14024 0
-4368 14026 0
-14025 14026 0
-4368 -14025 0
-4405 14027 0
-14026 14027 0
-4405 -14026 0
-4433 14028 0
-14027 14028 0
-4433 -14027 0
-4592 14029 0
-14028 14029 0
-4592 -14028 0
-4624 14030 0
-14029 14030 0
-4624 -14029 0
-4657 14031 0
-14030 14031 0
-4657 -14030 0
-4689 14032 0
-14031 14032 0
-4689 -14031 0
-4848 14033 0
-14032 14033 0
-4848 -14032 0
-4880 14034 0
-14033 14034 0
-4880 -14033 0
-4917 14035 0
-14034 14035 0
-4917 -14034 0
-4945 14036 0
-14035 14036 0
-4945 -14035 0
-5104 14037 0
-14036 14037 0
-5104 -14036 0
-5136 14038 0
-14037 14038 0
-5136 -14037 0
-5169 14039 0
-14038 14039 0
-5169 -14038 0
-5201 14040 0
-14039 14040 0
-5201 -14039 0
-5360 14041 0
-14040 14041 0
-5360 -14040 0
-5392 -14041 0
97 282 407 466 584 767 886 942 1049 1216 1329 1386 1497 1664 1777 1830 1921 2064 2161 2210 2305 2448 2545 2598 2689 2832 2929 2978 3073 3216 3313 3350 3441 3536 3601 3634 3697 3792 3857 3894 3953 4048 4113 4146 4209 4304 4369 4406 4465 4560 4625 4658 4721 4816 4881 4918 4977 5072 5137 5170 5233 5328 5393 0
-97 14042 0
-282 14043 0
-14042 14043 0
-282 -14042 0
-407 14044 0
-14043 14044 0
-407 -14043 0
-466 14045 0
-14044 14045 0
-466 -14044 0
-584 14046 0
-14045 14046 0
-584 -14045 0
-767 14047 0
-14046 14047 0
-767 -14046 0
-886 14048 0
-14047 14048 0
-886 -14047 0
-942 14049 0
-14048 14049 0
-942 -14048 0
-1049 14050 0
-14049 14050 0
-1049 -14049 0
-1216 14051 0
-14050 14051 0
-1216 -14050 0
-1329 14052 0
-14051 14052 0
-1329 -14051 0
-1386 14053 0
-14052 14053 0
-1386 -14052 0
-1497 14054 0
-14053 14054 0
-1497 -14053 0
-1664 14055 0
-14054 14055 0
-1664 -14054 0
-1777 14056 0
-14055 14056 0
-1777 -14055 0
-1830 14057 0
-14056 14057 0
-1830 -14056 0
-1921 14058 0
-14057 14058 0
-1921 -14057 0
-2064 14059 0
-14058 14059 0
-2064 -14058 0
-2161 14060 0
-14059 14060 0
-2161 -14059 0
-2210 14061 0
-14060 14061 0
-2210 -14060 0
-2305 14062 0
-14061 14062 0
-2305 -14061 0
-2448 14063 0
-14062 14063 0
-2448 -14062 0
-2545 14064 0
-14063 14064 0
-2545 -14063 0
-2598 14065 0
-14064 14065 0
-2598 -14064 0
-2689 14066 0
-14065 14066 0
-2689 -14065 0
-2832 14067 0
-14066 14067 0
-2832 -14066 0
-2929 14068 0
-14067 14068 0
-2929 -14067 0
-2978 14069 0
-14068 14069 0
-2978 -14068 0
-3073 14070 0
-14069 14070 0
-3073 -14069 0
-3216 14071 0
-14070 14071 0
-3216 -14070 0
-3313 14072 0
-14071 14072 0
-3313 -14071 0
-3350 14073 0
-14072 14073 0
-3350 -14072 0
-3441 14074 0
-14073 14074 0
-3441 -14073 0
-3536 14075 0
-14074 14075 0
-3536 -14074 0
-3601 14076 0
-14075 14076 0
-3601 -14075 0
-3634 14077 0
-14076 14077 0
-3634 -14076 0
-3697 14078 0
-14077 14078 0
-3697 -14077 0
-3792 14079 0
-14078 14079 0
-3792 -14078 0
-3857 14080 0
-14079 14080 0
-3857 -14079 0
-3894 14081 0
-14080 14081 0
-3894 -14080 0
-3953 14082 0
-14081 14082 0
-3953 -14081 0
-4048 14083 0
-14082 14083 0
-4048 -14082 0
-4113 14084 0
-14083 14084 0
-4113 -14083 0
-4146 14085 0
-14084 14085 0
-4146 -14084 0
-4209 14086 0
-14085 14086 0
-4209 -14085 0
-4304 14087 0
-14086 14087 0
-4304 -14086 0
-4369 14088 0
-14087 14088 0
-4369 -14087 0
-4406 14089 0
-14088 14089 0
-4406 -14088 0
-4465 14090 0
-14089 14090 0
-4465 -14089 0
-4560 14091 0
-14090 14091 0
-4560 -14090 0
-4625 14092 0
-14091 14092 0
-4625 -14091 0
-4658 14093 0
-14092 14093 0
-4658 -14092 0
-4721 14094 0
-14093 14094 0
-4721 -14093 0
-4816 14095 0
-14094 14095 0
-4816 -14094 0
-4881 14096 0
-14095 14096 0
-4881 -14095 0
-4918 14097 0
-14096 14097 0
-4918 -14096 0
-4977 14098 0
-14097 14098 0
-4977 -14097 0
-5072 14099 0
-14098 14099 0
-5072 -14098 0
-5137 14100 0
-14099 14100 0
-5137 -14099 0
-5170 14101 0
-14100 14101 0
-5170 -14100 0
-5233 14102 0
-14101 14102 0
-5233 -14101 0
-5328 14103 0
-14102 14103 0
-5328 -14102 0
-5393 -14103 0
160 283 345 467 644 766 826 943 1105 1217 1273 1387 1553 1665 1721 1831 1969 2065 2113 2211 2353 2449 2497 2599 2737 2833 2881 2979 3121 3217 3265 3351 3473 3537 3569 3635 3729 3793 3825 3895 3985 4049 4081 4147 4241 4305 4337 4407 4497 4561 4593 4659 4753 4817 4849 4919 5009 5073 5105 5171 5265 5329 5361 0
-160 14104 0
-283 14105 0
-14104 14105 0
-283 -14104 0
-345 14106 0
-14105 14106 0
-345 -14105 0
-467 14107 0
-14106 14107 0
-467 -14106 0
-644 14108 0
-14107 14108 0
-644 -14107 0
-766 14109 0
-14108 14109 0
-766 -14108 0
-826 14110 0
-14109 14110 0
-826 -14109 0
-943 14111 0
-14110 14111 0
-943 -14110 0
-1105 14112 0
-14111 14112 0
-1105 -14111 0
-1217 14113 0
-14112 14113 0
-1217 -14112 0
-1273 14114 0
-14113 14114 0
-1273 -14113 0
-1387 14115 0
-14114 14115 0
-1387 -14114 0
-1553 14116 0
-14115 14116 0
-1553 -14115 0
-1665 14117 0
-14116 14117 0
-1665 -14116 0
-1721 14118 0
-14117 14118 0
-1721 -14117 0
-1831 14119 0
-14118 14119 0
-1831 -14118 0
-1969 14120 0
-14119 14120 0
-1969 -14119 0
-2065 14121 0
-14120 14121 0
-2065 -14120 0
-2113 14122 0
-14121 14122 0
-2113 -14121 0
-2211 14123 0
-14122 14123 0
-2211 -14122 0
-2353 14124 0
-14123 14124 0
-2353 -14123 0
-2449 14125 0
-14124 14125 0
-2449 -14124 0
-2497 14126 0
-14125 14126 0
-2497 -14125 0
-2599 14127 0
-14126 14127 0
-2599 -14126 0
-2737 14128 0
-14127 14128 0
-2737 -14127 0
-2833 14129 0
-14128 14129 0
-2833 -14128 0
-2881 14130 0
-14129 14130 0
-2881 -14129 0
-2979 14131 0
-14130 14131 0
-2979 -14130 0
-3121 14132 0
-14131 14132 0
-3121 -14131 0
-3217 14133 0
-14132 14133 0
-3217 -14132 0
-3265 14134 0
-14133 14134 0
-3265 -14133 0
-3351 14135 0
-14134 14135 0
-3351 -14134 0
-3473 14136 0
-14135 14136 0
-3473 -14135 0
-3537 14137 0
-14136 14137 0
-3537 -14136 0
-3569 14138 0
-14137 14138 0
-3569 -14137 0
-3635 14139 0
-14138 14139 0
-3635 -14138 0
-3729 14140 0
-14139 14140 0
-3729 -14139 0
-3793 14141 0
-14140 14141 0
-3793 -14140 0
-3825 14142 0
-14141 14142 0
-3825 -14141 0
-3895 14143 0
-14142 14143 0
-3895 -14142 0
-3985 14144 0
-14143 14144 0
-3985 -14143 0
-4049 14145 0
-14144 14145 0
-4049 -14144 0
-4081 14146 0
-14145 14146 0
-4081 -14145 0
-4147 14147 0
-14146 14147 0
-4147 -14146 0
-4241 14148 0
-14147 14148 0
-4241 -14147 0
-4305 14149 0
-14148 14149 0
-4305 -14148 0
-4337 14150 0
-14149 14150 0
-4337 -14149 0
-4407 14151 0
-14150 14151 0
-4407 -14150 0
-4497 14152 0
-14151 14152 0
-4497 -14151 0
-4561 14153 0
-14152 14153 0
-4561 -14152 0
-4593 14154 0
-14153 14154 0
-4593 -14153 0
-4659 14155 0
-14154 14155 0
-4659 -14154 0
-4753 14156 0
-14155 14156 0
-4753 -14155 0
-4817 14157 0
-14156 14157 0
-4817 -14156 0
-4849 14158 0
-14157 14158 0
-4849 -14157 0
-4919 14159 0
-14158 14159 0
-4919 -14158 0
-5009 14160 0
-14159 14160 0
-5009 -14159 0
-5073 14161 0
-14160 14161 0
-5073 -14160 0
-5105 14162 0
-14161 14162 0
-5105 -14161 0
-5171 14163 0
-14162 14163 0
-5171 -14162 0
-5265 14164 0
-14163 14164 0
-5265 -14163 0
-5329 14165 0
-14164 14165 0
-5329 -14164 0
-5361 -14165 0
35 98 161 704 765 825 885 944 994 1050 1106 1608 1666 1722 1778 1832 1874 1922 1970 2400 2450 2498 2546 2600 2642 2690 2738 3168 3218 3266 3314 3352 3410 3442 3474 3760 3794 3826 3858 3896 3922 3954 3986 4272 4306 4338 4370 4408 4434 4466 4498 4784 4818 4850 4882 4920 4946 4978 5010 5296 5330 5362 5394 0
-35 14166 0
-98 14167 0
-14166 14167 0
-98 -14166 0
-161 14168 0
-14167 14168 0
-161 -14167 0
-704 14169 0
-14168 14169 0
-704 -14168 0
-765 14170 0
-14169 14170 0
-765 -14169 0
-825 14171 0
-14170 14171 0
-825 -14170 0
-885 14172 0
-14171 14172 0
-885 -14171 0
-944 14173 0
-14172 14173 0
-944 -14172 0
-994 14174 0
-14173 14174 0
-994 -14173 0
-1050 14175 0
-14174 14175 0
-1050 -14174 0
-1106 14176 0
-14175 14176 0
-1106 -14175 0
-1608 14177 0
-14176 14177 0
-1608 -14176 0
-1666 14178 0
-14177 14178 0
-1666 -14177 0
-1722 14179 0
-14178 14179 0
-1722 -14178 0
-1778 14180 0
-14179 14180 0
-1778 -14179 0
-1832 14181 0
-14180 14181 0
-1832 -14180 0
-1874 14182 0
-14181 14182 0
-1874 -14181 0
-1922 14183 0
-14182 14183 0
-1922 -14182 0
-1970 14184 0
-14183 14184 0
-1970 -14183 0
-2400 14185 0
-14184 14185 0
-2400 -14184 0
-2450 14186 0
-14185 14186 0
-2450 -14185 0
-2498 14187 0
-14186 14187 0
-2498 -14186 0
-2546 14188 0
-14187 14188 0
-2546 -14187 0
-2600 14189 0
-14188 14189 0
-2600 -14188 0
-2642 14190 0
-14189 14190 0
-2642 -14189 0
-2690 14191 0
-14190 14191 0
-2690 -14190 0
-2738 14192 0
-14191 14192 0
-2738 -14191 0
-3168 14193 0
-14192 14193 0
-3168 -14192 0
-3218 14194 0
-14193 14194 0
-3218 -14193 0
-3266 14195 0
-14194 14195 0
-3266 -14194 0
-3314 14196 0
-14195 14196 0
-3314 -14195 0
-3352 14197 0
-14196 14197 0
-3352 -14196 0
-3410 14198 0
-14197 14198 0
-3410 -14197 0
-3442 14199 0
-14198 14199 0
-3442 -14198 0
-3474 14200 0
-14199 14200 0
-3474 -14199 0
-3760 14201 0
-14200 14201 0
-3760 -14200 0
-3794 14202 0
-14201 14202 0
-3794 -14201 0
-3826 14203 0
-14202 14203 0
-3826 -14202 0
-3858 14204 0
-14203 14204 0
-3858 -14203 0
-3896 14205 0
-14204 14205 0
-3896 -14204 0
-3922 14206 0
-14205 14206 0
-3922 -14205 0
-3954 14207 0
-14206 14207 0
-3954 -14206 0
-3986 14208 0
-14207 14208 0
-3986 -14207 0
-4272 14209 0
-14208 14209 0
-4272 -14208 0
-4306 14210 0
-14209 14210 0
-4306 -14209 0
-4338 14211 0
-14210 14211 0
-4338 -14210 0
-4370 14212 0
-14211 14212 0
-4370 -14211 0
-4408 14213 0
-14212 14213 0
-4408 -14212 0
-4434 14214 0
-14213 14214 0
-4434 -14213 0
-4466 14215 0
-14214 14215 0
-4466 -14214 0
-4498 14216 0
-14215 14216 0
-4498 -14215 0
-4784 14217 0
-14216 14217 0
-4784 -14216 0
-4818 14218 0
-14217 14218 0
-4818 -14217 0
-4850 14219 0
-14218 14219 0
-4850 -14218 0
-4882 14220 0
-14219 14220 0
-4882 -14219 0
-4920 14221 0
-14220 14221 0
-4920 -14220 0
-4946 14222 0
-14221 14222 0
-4946 -14221 0
-4978 14223 0
-14222 14223 0
-4978 -14222 0
-5010 14224 0
-14223 14224 0
-5010 -14223 0
-5296 14225 0
-14224 14225 0
-5296 -14224 0
-5330 14226 0
-14225 14226 0
-5330 -14225 0
-5362 14227 0
-14226 14227 0
-5362 -14226 0
-5394 -14227 0
35 345 407 587 647 705 764 945 995 1274 1330 1498 1554 1609 1667 1833 1875 2114 2162 2306 2354 2401 2451 2601 2643 2882 2930 3074 3122 3169 3219 3353 3411 3570 3602 3698 3730 3761 3795 3897 3923 4082 4114 4210 4242 4273 4307 4409 4435 4594 4626 4722 4754 4785 4819 4921 4947 5106 5138 5234 5266 5297 5331 0
-35 14228 0
-345 14229 0
-14228 14229 0
-345 -14228 0
-407 14230 0
-14229 14230 0
-407 -14229 0
-587 14231 0
-14230 14231 0
-587 -14230 0
-647 14232 0
-14231 14232 0
-647 -14231 0
-705 14233 0
-14232 14233 0
-705 -14232 0
-764 14234 0
-14233 14234 0
-764 -14233 0
-945 14235 0
-14234 14235 0
-945 -14234 0
-995 14236 0
-14235 14236 0
-995 -14235 0
-1274 14237 0
-14236 14237 0
-1274 -14236 0
-1330 14238 0
-14237 14238 0
-1330 -14237 0
-1498 14239 0
-14238 14239 0
-1498 -14238 0
-1554 14240 0
-14239 14240 0
-1554 -14239 0
-1609 14241 0
-14240 14241 0
-1609 -14240 0
-1667 14242 0
-14241 14242 0
-1667 -14241 0
-1833 14243 0
-14242 14243 0
-1833 -14242 0
-1875 14244 0
-14243 14244 0
-1875 -14243 0
-2114 14245 0
-14244 14245 0
-2114 -14244 0
-2162 14246 0
-14245 14246 0
-2162 -14245 0
-2306 14247 0
-14246 14247 0
-2306 -14246 0
-2354 14248 0
-14247 14248 0
-2354 -14247 0
-2401 14249 0
-14248 14249 0
-2401 -14248 0
-2451 14250 0
-14249 14250 0
-2451 -14249 0
-2601 14251 0
-14250 14251 0
-2601 -14250 0
-2643 14252 0
-14251 14252 0
-2643 -14251 0
-2882 14253 0
-14252 14253 0
-2882 -14252 0
-2930 14254 0
-14253 14254 0
-2930 -14253 0
-3074 14255 0
-14254 14255 0
-3074 -14254 0
-3122 14256 0
-14255 14256 0
-3122 -14255 0
-3169 14257 0
-14256 14257 0
-3169 -14256 0
-3219 14258 0
-14257 14258 0
-3219 -14257 0
-3353 14259 0
-14258 14259 0
-3353 -14258 0
-3411 14260 0
-14259 14260 0
-3411 -14259 0
-3570 14261 0
-14260 14261 0
-3570 -14260 0
-3602 14262 0
-14261 14262 0
-3602 -14261 0
-3698 14263 0
-14262 14263 0
-3698 -14262 0
-3730 14264 0
-14263 14264 0
-3730 -14263 0
-3761 14265 0
-14264 14265 0
-3761 -14264 0
-3795 14266 0
-14265 14266 0
-3795 -14265 0
-3897 14267 0
-14266 14267 0
-3897 -14266 0
-3923 14268 0
-14267 14268 0
-3923 -14267 0
-4082 14269 0
-14268 14269 0
-4082 -14268 0
-4114 14270 0
-14269 14270 0
-4114 -14269 0
-4210 14271 0
-14270 14271 0
-4210 -14270 0
-4242 14272 0
-14271 14272 0
-4242 -14271 0
-4273 14273 0
-14272 14273 0
-4273 -14272 0
-4307 14274 0
-14273 14274 0
-4307 -14273 0
-4409 14275 0
-14274 14275 0
-4409 -14274 0
-4435 14276 0
-14275 14276 0
-4435 -14275 0
-4594 14277 0
-14276 14277 0
-4594 -14276 0
-4626 14278 0
-14277 14278 0
-4626 -14277 0
-4722 14279 0
-14278 14279 0
-4722 -14278 0
-4754 14280 0
-14279 14280 0
-4754 -14279 0
-4785 14281 0
-14280 14281 0
-4785 -14280 0
-4819 14282 0
-14281 14282 0
-4819 -14281 0
-4921 14283 0
-14282 14283 0
-4921 -14282 0
-4947 14284 0
-14283 14284 0
-4947 -14283 0
-5106 14285 0
-14284 14285 0
-5106 -14284 0
-5138 14286 0
-14285 14286 0
-5138 -14285 0
-5234 14287 0
-14286 14287 0
-5234 -14286 0
-5266 14288 0
-14287 14288 0
-5266 -14287 0
-5297 14289 0
-14288 14289 0
-5297 -14288 0
-5331 -14289 0
98 283 406 527 646 706 824 946 1051 1218 1331 1442 1555 1610 1723 1834 1923 2066 2163 2258 2355 2402 2499 2602 2691 2834 2931 3026 3123 3170 3267 3354 3443 3538 3603 3666 3731 3762 3827 3898 3955 4050 4115 4178 4243 4274 4339 4410 4467 4562 4627 4690 4755 4786 4851 4922 4979 5074 5139 5202 5267 5298 5363 0
-98 14290 0
-283 14291 0
-14290 14291 0
-283 -14290 0
-406 14292 0
-14291 14292 0
-406 -14291 0
-527 14293 0
-14292 14293 0
-527 -14292 0
-646 14294 0
-14293 14294 0
-646 -14293 0
-706 14295 0
-14294 14295 0
-706 -14294 0
-824 14296 0
-14295 14296 0
-824 -14295 0
-946 14297 0
-14296 14297 0
-946 -14296 0
-1051 14298 0
-14297 14298 0
-1051 -14297 0
-1218 14299 0
-14298 14299 0
-1218 -14298 0
-1331 14300 0
-14299 14300 0
-1331 -14299 0
-1442 14301 0
-14300 14301 0
-1442 -14300 0
-1555 14302 0
-14301 14302 0
-1555 -14301 0
-1610 14303 0
-14302 14303 0
-1610 -14302 0
-1723 14304 0
-14303 14304 0
-1723 -14303 0
-1834 14305 0
-14304 14305 0
-1834 -14304 0
-1923 14306 0
-14305 14306 0
-1923 -14305 0
-2066 14307 0
-14306 14307 0
-2066 -14306 0
-2163 14308 0
-14307 14308 0
-2163 -14307 0
-2258 14309 0
-14308 14309 0
-2258 -14308 0
-2355 14310 0
-14309 14310 0
-2355 -14309 0
-2402 14311 0
-14310 14311 0
-2402 -14310 0
-2499 14312 0
-14311 14312 0
-2499 -14311 0
-2602 14313 0
-14312 14313 0
-2602 -14312 0
-2691 14314 0
-14313 14314 0
-2691 -14313 0
-2834 14315 0
-14314 14315 0
-2834 -14314 0
-2931 14316 0
-14315 14316 0
-2931 -14315 0
-3026 14317 0
-14316 14317 0
-3026 -14316 0
-3123 14318 0
-14317 14318 0
-3123 -14317 0
-3170 14319 0
-14318 14319 0
-3170 -14318 0
-3267 14320 0
-14319 14320 0
-3267 -14319 0
-3354 14321 0
-14320 14321 0
-3354 -14320 0
-3443 14322 0
-14321 14322 0
-3443 -14321 0
-3538 14323 0
-14322 14323 0
-3538 -14322 0
-3603 14324 0
-14323 14324 0
-3603 -14323 0
-3666 14325 0
-14324 14325 0
-3666 -14324 0
-3731 14326 0
-14325 14326 0
-3731 -14325 0
-3762 14327 0
-14326 14327 0
-3762 -14326 0
-3827 14328 0
-14327 14328 0
-3827 -14327 0
-3898 14329 0
-14328 14329 0
-3898 -14328 0
-3955 14330 0
-14329 14330 0
-3955 -14329 0
-4050 14331 0
-14330 14331 0
-4050 -14330 0
-4115 14332 0
-14331 14332 0
-4115 -14331 0
-4178 14333 0
-14332 14333 0
-4178 -14332 0
-4243 14334 0
-14333 14334 0
-4243 -14333 0
-4274 14335 0
-14334 14335 0
-4274 -14334 0
-4339 14336 0
-14335 14336 0
-4339 -14335 0
-4410 14337 0
-14336 14337 0
-4410 -14336 0
-4467 14338 0
-14337 14338 0
-4467 -14337 0
-4562 14339 0
-14338 14339 0
-4562 -14338 0
-4627 14340 0
-14339 14340 0
-4627 -14339 0
-4690 14341 0
-14340 14341 0
-4690 -14340 0
-4755 14342 0
-14341 14342 0
-4755 -14341 0
-4786 14343 0
-14342 14343 0
-4786 -14342 0
-4851 14344 0
-14343 14344 0
-4851 -14343 0
-4922 14345 0
-14344 14345 0
-4922 -14344 0
-4979 14346 0
-14345 14346 0
-4979 -14345 0
-5074 14347 0
-14346 14347 0
-5074 -14346 0
-5139 14348 0
-14347 14348 0
-5139 -14347 0
-5202 14349 0
-14348 14349 0
-5202 -14348 0
-5267 14350 0
-14349 14350 0
-5267 -14349 0
-5298 14351 0
-14350 14351 0
-5298 -14350 0
-5363 -14351 0
161 282 344 526 586 707 884 947 1107 1219 1275 1443 1499 1611 1779 1835 1971 2067 2115 2259 2307 2403 2547 2603 2739 2835 2883 3027 3075 3171 3315 3355 3475 3539 3571 3667 3699 3763 3859 3899 3987 4051 4083 4179 4211 4275 4371 4411 4499 4563 4595 4691 4723 4787 4883 4923 5011 5075 5107 5203 5235 5299 5395 0
-161 14352 0
-282 14353 0
-14352 14353 0
-282 -14352 0
-344 14354 0
-14353 14354 0
-344 -14353 0
-526 14355 0
-14354 14355 0
-526 -14354 0
-586 14356 0
-14355 14356 0
-586 -14355 0
-707 14357 0
-14356 14357 0
-707 -14356 0
-884 14358 0
-14357 14358 0
-884 -14357 0
-947 14359 0
-14358 14359 0
-947 -14358 0
-1107 14360 0
-14359 14360 0
-1107 -14359 0
-1219 14361 0
-14360 14361 0
-1219 -14360 0
-1275 14362 0
-14361 14362 0
-1275 -14361 0
-1443 14363 0
-14362 14363 0
-1443 -14362 0
-1499 14364 0
-14363 14364 0
-1499 -14363 0
-1611 14365 0
-14364 14365 0
-1611 -14364 0
-1779 14366 0
-14365 14366 0
-1779 -14365 0
-1835 14367 0
-14366 14367 0
-1835 -14366 0
-1971 14368 0
-14367 14368 0
-1971 -14367 0
-2067 14369 0
-14368 14369 0
-2067 -14368 0
-2115 14370 0
-14369 14370 0
-2115 -14369 0
-2259 14371 0
-14370 14371 0
-2259 -14370 0
-2307 14372 0
-14371 14372 0
-2307 -14371 0
-2403 14373 0
-14372 14373 0
-2403 -14372 0
-2547 14374 0
-14373 14374 0
-2547 -14373 0
-2603 14375 0
-14374 14375 0
-2603 -14374 0
-2739 14376 0
-14375 14376 0
-2739 -14375 0
-2835 14377 0
-14376 14377 0
-2835 -14376 0
-2883 14378 0
-14377 14378 0
-2883 -14377 0
-3027 14379 0
-14378 14379 0
-3027 -14378 0
-3075 14380 0
-14379 14380 0
-3075 -14379 0
-3171 14381 0
-14380 14381 0
-3171 -14380 0
-3315 14382 0
-14381 14382 0
-3315 -14381 0
-3355 14383 0
-14382 14383 0
-3355 -14382 0
-3475 14384 0
-14383 14384 0
-3475 -14383 0
-3539 14385 0
-14384 14385 0
-3539 -14384 0
-3571 14386 0
-14385 14386 0
-3571 -14385 0
-3667 14387 0
-14386 14387 0
-3667 -14386 0
-3699 14388 0
-14387 14388 0
-3699 -14387 0
-3763 14389 0
-14388 14389 0
-3763 -14388 0
-3859 14390 0
-14389 14390 0
-3859 -14389 0
-3899 14391 0
-14390 14391 0
-3899 -14390 0
-3987 14392 0
-14391 14392 0
-3987 -14391 0
-4051 14393 0
-14392 14393 0
-4051 -14392 0
-4083 14394 0
-14393 14394 0
-4083 -14393 0
-4179 14395 0
-14394 14395 0
-4179 -14394 0
-4211 14396 0
-14395 14396 0
-4211 -14395 0
-4275 14397 0
-14396 14397 0
-4275 -14396 0
-4371 14398 0
-14397 14398 0
-4371 -14397 0
-4411 14399 0
-14398 14399 0
-4411 -14398 0
-4499 14400 0
-14399 14400 0
-4499 -14399 0
-4563 14401 0
-14400 14401 0
-4563 -14400 0
-4595 14402 0
-14401 14402 0
-4595 -14401 0
-4691 14403 0
-14402 14403 0
-4691 -14402 0
-4723 14404 0
-14403 14404 0
-4723 -14403 0
-4787 14405 0
-14404 14405 0
-4787 -14404 0
-4883 14406 0
-14405 14406 0
-4883 -14405 0
-4923 14407 0
-14406 14407 0
-4923 -14406 0
-5011 14408 0
-14407 14408 0
-5011 -14407 0
-5075 14409 0
-14408 14409 0
-5075 -14408 0
-5107 14410 0
-14409 14410 0
-5107 -14409 0
-5203 14411 0
-14410 14411 0
-5203 -14410 0
-5235 14412 0
-14411 14412 0
-5235 -14411 0
-5299 14413 0
-14412 14413 0
-5299 -14412 0
-5395 -14413 0
36 99 162 222 284 346 408 468 528 588 648 708 768 828 888 932 989 1045 1101 1160 1215 1271 1327 1384 1441 1497 1553 1608 1667 1723 1779 3356 3412 3444 3476 3508 3540 3572 3604 3636 3668 3700 3732 3764 3796 3828 3860 3900 3924 3956 3988 4020 4052 4084 4116 4148 4180 4212 4244 4276 4308 4340 4372 0
-36 14414 0
-99 14415 0
-14414 14415 0
-99 -14414 0
-162 14416 0
-14415 14416 0
-162 -14415 0
-222 14417 0
-14416 14417 0
-222 -14416 0
-284 14418 0
-14417 14418 0
-284 -14417 0
-346 14419 0
-14418 14419 0
-346 -14418 0
-408 14420 0
-14419 14420 0
-408 -14419 0
-468 14421 0
-14420 14421 0
-468 -14420 0
-528 14422 0
-14421 14422 0
-528 -14421 0
-588 14423 0
-14422 14423 0
-588 -14422 0
-648 14424 0
-14423 14424 0
-648 -14423 0
-708 14425 0
-14424 14425 0
-708 -14424 0
-768 14426 0
-14425 14426 0
-768 -14425 0
-828 14427 0
-14426 14427 0
-828 -14426 0
-888 14428 0
-14427 14428 0
-888 -14427 0
-932 14429 0
-14428 14429 0
-932 -14428 0
-989 14430 0
-14429 14430 0
-989 -14429 0
-1045 14431 0
-14430 14431 0
-1045 -14430 0
-1101 14432 0
-14431 14432 0
-1101 -14431 0
-1160 14433 0
-14432 14433 0
-1160 -14432 0
-1215 14434 0
-14433 14434 0
-1215 -14433 0
-1271 14435 0
-14434 14435 0
-1271 -14434 0
-1327 14436 0
-14435 14436 0
-1327 -14435 0
-1384 14437 0
-14436 14437 0
-1384 -14436 0
-1441 14438 0
-14437 14438 0
-1441 -14437 0
-1497 14439 0
-14438 14439 0
-1497 -14438 0
-1553 14440 0
-14439 14440 0
-1553 -14439 0
-1608 14441 0
-14440 14441 0
-1608 -14440 0
-1667 14442 0
-14441 14442 0
-1667 -14441 0
-1723 14443 0
-14442 14443 0
-1723 -14442 0
-1779 14444 0
-14443 14444 0
-1779 -14443 0
-3356 14445 0
-14444 14445 0
-3356 -14444 0
-3412 14446 0
-14445 14446 0
-3412 -14445 0
-3444 14447 0
-14446 14447 0
-3444 -14446 0
-3476 14448 0
-14447 14448 0
-3476 -14447 0
-3508 14449 0
-14448 14449 0
-3508 -14448 0
-3540 14450 0
-14449 14450 0
-3540 -14449 0
-3572 14451 0
-14450 14451 0
-3572 -14450 0
-3604 14452 0
-14451 14452 0
-3604 -14451 0
-3636 14453 0
-14452 14453 0
-3636 -14452 0
-3668 14454 0
-14453 14454 0
-3668 -14453 0
-3700 14455 0
-14454 14455 0
-3700 -14454 0
-3732 14456 0
-14455 14456 0
-3732 -14455 0
-3764 14457 0
-14456 14457 0
-3764 -14456 0
-3796 14458 0
-14457 14458 0
-3796 -14457 0
-3828 14459 0
-14458 14459 0
-3828 -14458 0
-3860 14460 0
-14459 14460 0
-3860 -14459 0
-3900 14461 0
-14460 14461 0
-3900 -14460 0
-3924 14462 0
-14461 14462 0
-3924 -14461 0
-3956 14463 0
-14462 14463 0
-3956 -14462 0
-3988 14464 0
-14463 14464 0
-3988 -14463 0
-4020 14465 0
-14464 14465 0
-4020 -14464 0
-4052 14466 0
-14465 14466 0
-4052 -14465 0
-4084 14467 0
-14466 14467 0
-4084 -14466 0
-4116 14468 0
-14467 14468 0
-4116 -14467 0
-4148 14469 0
-14468 14469 0
-4148 -14468 0
-4180 14470 0
-14469 14470 0
-4180 -14469 0
-4212 14471 0
-14470 14471 0
-4212 -14470 0
-4244 14472 0
-14471 14472 0
-4244 -14471 0
-4276 14473 0
-14472 14473 0
-4276 -14472 0
-4308 14474 0
-14473 14474 0
-4308 -14473 0
-4340 14475 0
-14474 14475 0
-4340 -14474 0
-4372 -14475 0
36 223 285 469 529 709 769 933 988 1161 1214 1385 1440 1609 1666 1924 1972 2116 2164 2308 2356 2500 2548 2692 2740 2884 2932 3076 3124 3268 3316 3357 3413 3509 3541 3637 3669 3765 3797 3901 3925 4021 4053 4149 4181 4277 4309 4468 4500 4596 4628 4724 4756 4852 4884 4980 5012 5108 5140 5236 5268 5364 5396 0
-36 14476 0
-223 14477 0
-14476 14477 0
-223 -14476 0
-285 14478 0
-14477 14478 0
-285 -14477 0
-469 14479 0
-14478 14479 0
-469 -14478 0
-529 14480 0
-14479 14480 0
-529 -14479 0
-709 14481 0
-14480 14481 0
-709 -14480 0
-769 14482 0
-14481 14482 0
-769 -14481 0
-933 14483 0
-14482 14483 0
-933 -14482 0
-988 14484 0
-14483 14484 0
-988 -14483 0
-1161 14485 0
-14484 14485 0
-1161 -14484 0
-1214 14486 0
-14485 14486 0
-1214 -14485 0
-1385 14487 0
-14486 14487 0
-1385 -14486 0
-1440 14488 0
-14487 14488 0
-1440 -14487 0
-1609 14489 0
-14488 14489 0
-1609 -14488 0
-1666 14490 0
-14489 14490 0
-1666 -14489 0
-1924 14491 0
-14490 14491 0
-1924 -14490 0
-1972 14492 0
-14491 14492 0
-1972 -14491 0
-2116 14493 0
-14492 14493 0
-2116 -14492 0
-2164 14494 0
-14493 14494 0
-2164 -14493 0
-2308 14495 0
-14494 14495 0
-2308 -14494 0
-2356 14496 0
-14495 14496 0
-2356 -14495 0
-2500 14497 0
-14496 14497 0
-2500 -14496 0
-2548 14498 0
-14497 14498 0
-2548 -14497 0
-2692 14499 0
-14498 14499 0
-2692 -14498 0
-2740 14500 0
-14499 14500 0
-2740 -14499 0
-2884 14501 0
-14500 14501 0
-2884 -14500 0
-2932 14502 0
-14501 14502 0
-2932 -14501 0
-3076 14503 0
-14502 14503 0
-3076 -14502 0
-3124 14504 0
-14503 14504 0
-3124 -14503 0
-3268 14505 0
-14504 14505 0
-3268 -14504 0
-3316 14506 0
-14505 14506 0
-3316 -14505 0
-3357 14507 0
-14506 14507 0
-3357 -14506 0
-3413 14508 0
-14507 14508 0
-3413 -14507 0
-3509 14509 0
-14508 14509 0
-3509 -14508 0
-3541 14510 0
-14509 14510 0
-3541 -14509 0
-3637 14511 0
-14510 14511 0
-3637 -14510 0
-3669 14512 0
-14511 14512 0
-3669 -14511 0
-3765 14513 0
-14512 14513 0
-3765 -14512 0
-3797 14514 0
-14513 14514 0
-3797 -14513 0
-3901 14515 0
-14514 14515 0
-3901 -14514 0
-3925 14516 0
-14515 14516 0
-3925 -14515 0
-4021 14517 0
-14516 14517 0
-4021 -14516 0
-4053 14518 0
-14517 14518 0
-4053 -14517 0
-4149 14519 0
-14518 14519 0
-4149 -14518 0
-4181 14520 0
-14519 14520 0
-4181 -14519 0
-4277 14521 0
-14520 14521 0
-4277 -14520 0
-4309 14522 0
-14521 14522 0
-4309 -14521 0
-4468 14523 0
-14522 14523 0
-4468 -14522 0
-4500 14524 0
-14523 14524 0
-4500 -14523 0
-4596 14525 0
-14524 14525 0
-4596 -14524 0
-4628 14526 0
-14525 14526 0
-4628 -14525 0
-4724 14527 0
-14526 14527 0
-4724 -14526 0
-4756 14528 0
-14527 14528 0
-4756 -14527 0
-4852 14529 0
-14528 14529 0
-4852 -14528 0
-4884 14530 0
-14529 14530 0
-4884 -14529 0
-4980 14531 0
-14530 14531 0
-4980 -14530 0
-5012 14532 0
-14531 14532 0
-5012 -14531 0
-5108 14533 0
-14532 14533 0
-5108 -14532 0
-5140 14534 0
-14533 14534 0
-5140 -14533 0
-5236 14535 0
-14534 14535 0
-5236 -14534 0
-5268 14536 0
-14535 14536 0
-5268 -14535 0
-5364 14537 0
-14536 14537 0
-5364 -14536 0
-5396 -14537 0
99 224 347 470 589 710 829 934 1044 1162 1270 1386 1496 1610 1722 1876 1973 2068 2165 2260 2357 2452 2549 2644 2741 2836 2933 3028 3125 3220 3317 3358 3445 3510 3573 3638 3701 3766 3829 3902 3957 4022 4085 4150 4213 4278 4341 4436 4501 4564 4629 4692 4757 4820 4885 4948 5013 5076 5141 5204 5269 5332 5397 0
-99 14538 0
-224 14539 0
-14538 14539 0
-224 -14538 0
-347 14540 0
-14539 14540 0
-347 -14539 0
-470 14541 0
-14540 14541 0
-470 -14540 0
-589 14542 0
-14541 14542 0
-589 -14541 0
-710 14543 0
-14542 14543 0
-710 -14542 0
-829 14544 0
-14543 14544 0
-829 -14543 0
-934 14545 0
-14544 14545 0
-934 -14544 0
-1044 14546 0
-14545 14546 0
-1044 -14545 0
-1162 14547 0
-14546 14547 0
-1162 -14546 0
-1270 14548 0
-14547 14548 0
-1270 -14547 0
-1386 14549 0
-14548 14549 0
-1386 -14548 0
-1496 14550 0
-14549 14550 0
-1496 -14549 0
-1610 14551 0
-14550 14551 0
-1610 -14550 0
-1722 14552 0
-14551 14552 0
-1722 -14551 0
-1876 14553 0
-14552 14553 0
-1876 -14552 0
-1973 14554 0
-14553 14554 0
-1973 -14553 0
-2068 14555 0
-14554 14555 0
-2068 -14554 0
-2165 14556 0
-14555 14556 0
-2165 -14555 0
-2260 14557 0
-14556 14557 0
-2260 -14556 0
-2357 14558 0
-14557 14558 0
-2357 -14557 0
-2452 14559 0
-14558 14559 0
-2452 -14558 0
-2549 14560 0
-14559 14560 0
-2549 -14559 0
-2644 14561 0
-14560 14561 0
-2644 -14560 0
-2741 14562 0
-14561 14562 0
-2741 -14561 0
-2836 14563 0
-14562 14563 0
-2836 -14562 0
-2933 14564 0
-14563 14564 0
-2933 -14563 0
-3028 14565 0
-14564 14565 0
-3028 -14564 0
-3125 14566 0
-14565 14566 0
-3125 -14565 0
-3220 14567 0
-14566 14567 0
-3220 -14566 0
-3317 14568 0
-14567 14568 0
-3317 -14567 0
-3358 14569 0
-14568 14569 0
-3358 -14568 0
-3445 14570 0
-14569 14570 0
-3445 -14569 0
-3510 14571 0
-14570 14571 0
-3510 -14570 0
-3573 14572 0
-14571 14572 0
-3573 -14571 0
-3638 14573 0
-14572 14573 0
-3638 -14572 0
-3701 14574 0
-14573 14574 0
-3701 -14573 0
-3766 14575 0
-14574 14575 0
-3766 -14574 0
-3829 14576 0
-14575 14576 0
-3829 -14575 0
-3902 14577 0
-14576 14577 0
-3902 -14576 0
-3957 14578 0
-14577 14578 0
-3957 -14577 0
-4022 14579 0
-14578 14579 0
-4022 -14578 0
-4085 14580 0
-14579 14580 0
-4085 -14579 0
-4150 14581 0
-14580 14581 0
-4150 -14580 0
-4213 14582 0
-14581 14582 0
-4213 -14581 0
-4278 14583 0
-14582 14583 0
-4278 -14582 0
-4341 14584 0
-14583 14584 0
-4341 -14583 0
-4436 14585 0
-14584 14585 0
-4436 -14584 0
-4501 14586 0
-14585 14586 0
-4501 -14585 0
-4564 14587 0
-14586 14587 0
-4564 -14586 0
-4629 14588 0
-14587 14588 0
-4629 -14587 0
-4692 14589 0
-14588 14589 0
-4692 -14588 0
-4757 14590 0
-14589 14590 0
-4757 -14589 0
-4820 14591 0
-14590 14591 0
-4820 -14590 0
-4885 14592 0
-14591 14592 0
-4885 -14591 0
-4948 14593 0
-14592 14593 0
-4948 -14592 0
-5013 14594 0
-14593 14594 0
-5013 -14593 0
-5076 14595 0
-14594 14595 0
-5076 -14594 0
-5141 14596 0
-14595 14596 0
-5141 -14595 0
-5204 14597 0
-14596 14597 0
-5204 -14596 0
-5269 14598 0
-14597 14598 0
-5269 -14597 0
-5332 14599 0
-14598 14599 0
-5332 -14598 0
-5397 -14599 0
162 225 409 471 649 711 889 935 1100 1163 1326 1387 1552 1611 1778 1877 1925 2069 2117 2261 2309 2453 2501 2645 2693 2837 2885 3029 3077 3221 3269 3359 3477 3511 3605 3639 3733 3767 3861 3903 3989 4023 4117 4151 4245 4279 4373 4437 4469 4565 4597 4693 4725 4821 4853 4949 4981 5077 5109 5205 5237 5333 5365 0
-162 14600 0
-225 14601 0
-14600 14601 0
-225 -14600 0
-409 14602 0
-14601 14602 0
-409 -14601 0
-471 14603 0
-14602 14603 0
-471 -14602 0
-649 14604 0
-14603 14604 0
-649 -14603 0
-711 14605 0
-14604 14605 0
-711 -14604 0
-889 14606 0
-14605 14606 0
-889 -14605 0
-935 14607 0
-14606 14607 0
-935 -14606 0
-1100 14608 0
-14607 14608 0
-1100 -14607 0
-1163 14609 0
-14608 14609 0
-1163 -14608 0
-1326 14610 0
-14609 14610 0
-1326 -14609 0
-1387 14611 0
-14610 14611 0
-1387 -14610 0
-1552 14612 0
-14611 14612 0
-1552 -14611 0
-1611 14613 0
-14612 14613 0
-1611 -14612 0
-1778 14614 0
-14613 14614 0
-1778 -14613 0
-1877 14615 0
-14614 14615 0
-1877 -14614 0
-1925 14616 0
-14615 14616 0
-1925 -14615 0
-2069 14617 0
-14616 14617 0
-2069 -14616 0
-2117 14618 0
-14617 14618 0
-2117 -14617 0
-2261 14619 0
-14618 14619 0
-2261 -14618 0
-2309 14620 0
-14619 14620 0
-2309 -14619 0
-2453 14621 0
-14620 14621 0
-2453 -14620 0
-2501 14622 0
-14621 14622 0
-2501 -14621 0
-2645 14623 0
-14622 14623 0
-2645 -14622 0
-2693 14624 0
-14623 14624 0
-2693 -14623 0
-2837 14625 0
-14624 14625 0
-2837 -14624 0
-2885 14626 0
-14625 14626 0
-2885 -14625 0
-3029 14627 0
-14626 14627 0
-3029 -14626 0
-3077 14628 0
-14627 14628 0
-3077 -14627 0
-3221 14629 0
-14628 14629 0
-3221 -14628 0
-3269 14630 0
-14629 14630 0
-3269 -14629 0
-3359 14631 0
-14630 14631 0
-3359 -14630 0
-3477 14632 0
-14631 14632 0
-3477 -14631 0
-3511 14633 0
-14632 14633 0
-3511 -14632 0
-3605 14634 0
-14633 14634 0
-3605 -14633 0
-3639 14635 0
-14634 14635 0
-3639 -14634 0
-3733 14636 0
-14635 14636 0
-3733 -14635 0
-3767 14637 0
-14636 14637 0
-3767 -14636 0
-3861 14638 0
-14637 14638 0
-3861 -14637 0
-3903 14639 0
-14638 14639 0
-3903 -14638 0
-3989 14640 0
-14639 14640 0
-3989 -14639 0
-4023 14641 0
-14640 14641 0
-4023 -14640 0
-4117 14642 0
-14641 14642 0
-4117 -14641 0
-4151 14643 0
-14642 14643 0
-4151 -14642 0
-4245 14644 0
-14643 14644 0
-4245 -14643 0
-4279 14645 0
-14644 14645 0
-4279 -14644 0
-4373 14646 0
-14645 14646 0
-4373 -14645 0
-4437 14647 0
-14646 14647 0
-4437 -14646 0
-4469 14648 0
-14647 14648 0
-4469 -14647 0
-4565 14649 0
-14648 14649 0
-4565 -14648 0
-4597 14650 0
-14649 14650 0
-4597 -14649 0
-4693 14651 0
-14650 14651 0
-4693 -14650 0
-4725 14652 0
-14651 14652 0
-4725 -14651 0
-4821 14653 0
-14652 14653 0
-4821 -14652 0
-4853 14654 0
-14653 14654 0
-4853 -14653 0
-4949 14655 0
-14654 14655 0
-4949 -14654 0
-4981 14656 0
-14655 14656 0
-4981 -14655 0
-5077 14657 0
-14656 14657 0
-5077 -14656 0
-5109 14658 0
-14657 14658 0
-5109 -14657 0
-5205 14659 0
-14658 14659 0
-5205 -14658 0
-5237 14660 0
-14659 14660 0
-5237 -14659 0
-5333 14661 0
-14660 14661 0
-5333 -14660 0
-5365 -14661 0
37 100 163 222 285 347 409 936 991 1047 1103 1156 1213 1269 1325 2212 2262 2310 2358 2404 2454 2502 2550 2980 3030 3078 3126 3172 3222 3270 3318 3360 3414 3446 3478 3512 3542 3574 3606 3904 3926 3958 3990 4024 4054 4086 4118 4660 4694 4726 4758 4788 4822 4854 4886 5172 5206 5238 5270 5300 5334 5366 5398 0
-37 14662 0
-100 14663 0
-14662 14663 0
-100 -14662 0
-163 14664 0
-14663 14664 0
-163 -14663 0
-222 14665 0
-14664 14665 0
-222 -14664 0
-285 14666 0
-14665 14666 0
-285 -14665 0
-347 14667 0
-14666 14667 0
-347 -14666 0
-409 14668 0
-14667 14668 0
-409 -14667 0
-936 14669 0
-14668 14669 0
-936 -14668 0
-991 14670 0
-14669 14670 0
-991 -14669 0
-1047 14671 0
-14670 14671 0
-1047 -14670 0
-1103 14672 0
-14671 14672 0
-1103 -14671 0
-1156 14673 0
-14672 14673 0
-1156 -14672 0
-1213 14674 0
-14673 14674 0
-1213 -14673 0
-1269 14675 0
-14674 14675 0
-1269 -14674 0
-1325 14676 0
-14675 14676 0
-1325 -14675 0
-2212 14677 0
-14676 14677 0
-2212 -14676 0
-2262 14678 0
-14677 14678 0
-2262 -14677 0
-2310 14679 0
-14678 14679 0
-2310 -14678 0
-2358 14680 0
-14679 14680 0
-2358 -14679 0
-2404 14681 0
-14680 14681 0
-2404 -14680 0
-2454 14682 0
-14681 14682 0
-2454 -14681 0
-2502 14683 0
-14682 14683 0
-2502 -14682 0
-2550 14684 0
-14683 14684 0
-2550 -14683 0
-2980 14685 0
-14684 14685 0
-2980 -14684 0
-3030 14686 0
-14685 14686 0
-3030 -14685 0
-3078 14687 0
-14686 14687 0
-3078 -14686 0
-3126 14688 0
-14687 14688 0
-3126 -14687 0
-3172 14689 0
-14688 14689 0
-3172 -14688 0
-3222 14690 0
-14689 14690 0
-3222 -14689 0
-3270 14691 0
-14690 14691 0
-3270 -14690 0
-3318 14692 0
-14691 14692 0
-3318 -14691 0
-3360 14693 0
-14692 14693 0
-3360 -14692 0
-3414 14694 0
-14693 14694 0
-3414 -14693 0
-3446 14695 0
-14694 14695 0
-3446 -14694 0
-3478 14696 0
-14695 14696 0
-3478 -14695 0
-3512 14697 0
-14696 14697 0
-3512 -14696 0
-3542 14698 0
-14697 14698 0
-3542 -14697 0
-3574 14699 0
-14698 14699 0
-3574 -14698 0
-3606 14700 0
-14699 14700 0
-3606 -14699 0
-3904 14701 0
-14700 14701 0
-3904 -14700 0
-3926 14702 0
-14701 14702 0
-3926 -14701 0
-3958 14703 0
-14702 14703 0
-3958 -14702 0
-3990 14704 0
-14703 14704 0
-3990 -14703 0
-4024 14705 0
-14704 14705 0
-4024 -14704 0
-4054 14706 0
-14705 14706 0
-4054 -14705 0
-4086 14707 0
-14706 14707 0
-4086 -14706 0
-4118 14708 0
-14707 14708 0
-4118 -14707 0
-4660 14709 0
-14708 14709 0
-4660 -14708 0
-4694 14710 0
-14709 14710 0
-4694 -14709 0
-4726 14711 0
-14710 14711 0
-4726 -14710 0
-4758 14712 0
-14711 14712 0
-4758 -14711 0
-4788 14713 0
-14712 14713 0
-4788 -14712 0
-4822 14714 0
-14713 14714 0
-4822 -14713 0
-4854 14715 0
-14714 14715 0
-4854 -14714 0
-4886 14716 0
-14715 14716 0
-4886 -14715 0
-5172 14717 0
-14716 14717 0
-5172 -14716 0
-5206 14718 0
-14717 14718 0
-5206 -14717 0
-5238 14719 0
-14718 14719 0
-5238 -14718 0
-5270 14720 0
-14719 14720 0
-5270 -14719 0
-5300 14721 0
-14720 14721 0
-5300 -14720 0
-5334 14722 0
-14721 14722 0
-5334 -14721 0
-5366 14723 0
-14722 14723 0
-5366 -14722 0
-5398 -14723 0
37 223 284 590 650 830 890 937 990 1157 1212 1499 1555 1721 1777 1926 1974 2118 2166 2213 2263 2405 2455 2694 2742 2886 2934 2981 3031 3173 3223 3361 3415 3513 3543 3702 3734 3830 3862 3905 3927 4025 4055 4214 4246 4342 4374 4470 4502 4598 4630 4661 4695 4789 4823 4982 5014 5110 5142 5173 5207 5301 5335 0
-37 14724 0
-223 14725 0
-14724 14725 0
-223 -14724 0
-284 14726 0
-14725 14726 0
-284 -14725 0
-590 14727 0
-14726 14727 0
-590 -14726 0
-650 14728 0
-14727 14728 0
-650 -14727 0
-830 14729 0
-14728 14729 0
-830 -14728 0
-890 14730 0
-14729 14730 0
-890 -14729 0
-937 14731 0
-14730 14731 0
-937 -14730 0
-990 14732 0
-14731 14732 0
-990 -14731 0
-1157 14733 0
-14732 14733 0
-1157 -14732 0
-1212 14734 0
-14733 14734 0
-1212 -14733 0
-1499 14735 0
-14734 14735 0
-1499 -14734 0
-1555 14736 0
-14735 14736 0
-1555 -14735 0
-1721 14737 0
-14736 14737 0
-1721 -14736 0
-1777 14738 0
-14737 14738 0
-1777 -14737 0
-1926 14739 0
-14738 14739 0
-1926 -14738 0
-1974 14740 0
-14739 14740 0
-1974 -14739 0
-2118 14741 0
-14740 14741 0
-2118 -14740 0
-2166 14742 0
-14741 14742 0
-2166 -14741 0
-2213 14743 0
-14742 14743 0
-2213 -14742 0
-2263 14744 0
-14743 14744 0
-2263 -14743 0
-2405 14745 0
-14744 14745 0
-2405 -14744 0
-2455 14746 0
-14745 14746 0
-2455 -14745 0
-2694 14747 0
-14746 14747 0
-2694 -14746 0
-2742 14748 0
-14747 14748 0
-2742 -14747 0
-2886 14749 0
-14748 14749 0
-2886 -14748 0
-2934 14750 0
-14749 14750 0
-2934 -14749 0
-2981 14751 0
-14750 14751 0
-2981 -14750 0
-3031 14752 0
-14751 14752 0
-3031 -14751 0
-3173 14753 0
-14752 14753 0
-3173 -14752 0
-3223 14754 0
-14753 14754 0
-3223 -14753 0
-3361 14755 0
-14754 14755 0
-3361 -14754 0
-3415 14756 0
-14755 14756 0
-3415 -14755 0
-3513 14757 0
-14756 14757 0
-3513 -14756 0
-3543 14758 0
-14757 14758 0
-3543 -14757 0
-3702 14759 0
-14758 14759 0
-3702 -14758 0
-3734 14760 0
-14759 14760 0
-3734 -14759 0
-3830 14761 0
-14760 14761 0
-3830 -14760 0
-3862 14762 0
-14761 14762 0
-3862 -14761 0
-3905 14763 0
-14762 14763 0
-3905 -14762 0
-3927 14764 0
-14763 14764 0
-3927 -14763 0
-4025 14765 0
-14764 14765 0
-4025 -14764 0
-4055 14766 0
-14765 14766 0
-4055 -14765 0
-4214 14767 0
-14766 14767 0
-4214 -14766 0
-4246 14768 0
-14767 14768 0
-4246 -14767 0
-4342 14769 0
-14768 14769 0
-4342 -14768 0
-4374 14770 0
-14769 14770 0
-4374 -14769 0
-4470 14771 0
-14770 14771 0
-4470 -14770 0
-4502 14772 0
-14771 14772 0
-4502 -14771 0
-4598 14773 0
-14772 14773 0
-4598 -14772 0
-4630 14774 0
-14773 14774 0
-4630 -14773 0
-4661 14775 0
-14774 14775 0
-4661 -14774 0
-4695 14776 0
-14775 14776 0
-4695 -14775 0
-4789 14777 0
-14776 14777 0
-4789 -14776 0
-4823 14778 0
-14777 14778 0
-4823 -14777 0
-4982 14779 0
-14778 14779 0
-4982 -14778 0
-5014 14780 0
-14779 14780 0
-5014 -14779 0
-5110 14781 0
-14780 14781 0
-5110 -14780 0
-5142 14782 0
-14781 14782 0
-5142 -14781 0
-5173 14783 0
-14782 14783 0
-5173 -14782 0
-5207 14784 0
-14783 14784 0
-5207 -14783 0
-5301 14785 0
-14784 14785 0
-5301 -14784 0
-5335 -14785 0
100 224 346 530 651 770 891 938 1046 1158 1268 1443 1554 1665 1776 1878 1975 2070 2167 2214 2311 2406 2503 2646 2743 2838 2935 2982 3079 3174 3271 3362 3447 3514 3575 3670 3735 3798 3863 3906 3959 4026 4087 4182 4247 4310 4375 4438 4503 4566 4631 4662 4727 4790 4855 4950 5015 5078 5143 5174 5239 5302 5367 0
-100 14786 0
-224 14787 0
-14786 14787 0
-224 -14786 0
-346 14788 0
-14787 14788 0
-346 -14787 0
-530 14789 0
-14788 14789 0
-530 -14788 0
-651 14790 0
-14789 14790 0
-651 -14789 0
-770 14791 0
-14790 14791 0
-770 -14790 0
-891 14792 0
-14791 14792 0
-891 -14791 0
-938 14793 0
-14792 14793 0
-938 -14792 0
-1046 14794 0
-14793 14794 0
-1046 -14793 0
-1158 14795 0
-14794 14795 0
-1158 -14794 0
-1268 14796 0
-14795 14796 0
-1268 -14795 0
-1443 14797 0
-14796 14797 0
-1443 -14796 0
-1554 14798 0
-14797 14798 0
-1554 -14797 0
-1665 14799 0
-14798 14799 0
-1665 -14798 0
-1776 14800 0
-14799 14800 0
-1776 -14799 0
-1878 14801 0
-14800 14801 0
-1878 -14800 0
-1975 14802 0
-14801 14802 0
-1975 -14801 0
-2070 14803 0
-14802 14803 0
-2070 -14802 0
-2167 14804 0
-14803 14804 0
-2167 -14803 0
-2214 14805 0
-14804 14805 0
-2214 -14804 0
-2311 14806 0
-14805 14806 0
-2311 -14805 0
-2406 14807 0
-14806 14807 0
-2406 -14806 0
-2503 14808 0
-14807 14808 0
-2503 -14807 0
-2646 14809 0
-14808 14809 0
-2646 -14808 0
-2743 14810 0
-14809 14810 0
-2743 -14809 0
-2838 14811 0
-14810 14811 0
-2838 -14810 0
-2935 14812 0
-14811 14812 0
-2935 -14811 0
-2982 14813 0
-14812 14813 0
-2982 -14812 0
-3079 14814 0
-14813 14814 0
-3079 -14813 0
-3174 14815 0
-14814 14815 0
-3174 -14814 0
-3271 14816 0
-14815 14816 0
-3271 -14815 0
-3362 14817 0
-14816 14817 0
-3362 -14816 0
-3447 14818 0
-14817 14818 0
-3447 -14817 0
-3514 14819 0
-14818 14819 0
-3514 -14818 0
-3575 14820 0
-14819 14820 0
-3575 -14819 0
-3670 14821 0
-14820 14821 0
-3670 -14820 0
-3735 14822 0
-14821 14822 0
-3735 -14821 0
-3798 14823 0
-14822 14823 0
-3798 -14822 0
-3863 14824 0
-14823 14824 0
-3863 -14823 0
-3906 14825 0
-14824 14825 0
-3906 -14824 0
-3959 14826 0
-14825 14826 0
-3959 -14825 0
-4026 14827 0
-14826 14827 0
-4026 -14826 0
-4087 14828 0
-14827 14828 0
-4087 -14827 0
-4182 14829 0
-14828 14829 0
-4182 -14828 0
-4247 14830 0
-14829 14830 0
-4247 -14829 0
-4310 14831 0
-14830 14831 0
-4310 -14830 0
-4375 14832 0
-14831 14832 0
-4375 -14831 0
-4438 14833 0
-14832 14833 0
-4438 -14832 0
-4503 14834 0
-14833 14834 0
-4503 -14833 0
-4566 14835 0
-14834 14835 0
-4566 -14834 0
-4631 14836 0
-14835 14836 0
-4631 -14835 0
-4662 14837 0
-14836 14837 0
-4662 -14836 0
-4727 14838 0
-14837 14838 0
-4727 -14837 0
-4790 14839 0
-14838 14839 0
-4790 -14838 0
-4855 14840 0
-14839 14840 0
-4855 -14839 0
-4950 14841 0
-14840 14841 0
-4950 -14840 0
-5015 14842 0
-14841 14842 0
-5015 -14841 0
-5078 14843 0
-14842 14843 0
-5078 -14842 0
-5143 14844 0
-14843 14844 0
-5143 -14843 0
-5174 14845 0
-14844 14845 0
-5174 -14844 0
-5239 14846 0
-14845 14846 0
-5239 -14845 0
-5302 14847 0
-14846 14847 0
-5302 -14846 0
-5367 -14847 0
163 225 408 531 591 771 831 939 1102 1159 1324 1442 1498 1664 1720 1879 1927 2071 2119 2215 2359 2407 2551 2647 2695 2839 2887 2983 3127 3175 3319 3363 3479 3515 3607 3671 3703 3799 3831 3907 3991 4027 4119 4183 4215 4311 4343 4439 4471 4567 4599 4663 4759 4791 4887 4951 4983 5079 5111 5175 5271 5303 5399 0
-163 14848 0
-225 14849 0
-14848 14849 0
-225 -14848 0
-408 14850 0
-14849 14850 0
-408 -14849 0
-531 14851 0
-14850 14851 0
-531 -14850 0
-591 14852 0
-14851 14852 0
-591 -14851 0
-771 14853 0
-14852 14853 0
-771 -14852 0
-831 14854 0
-14853 14854 0
-831 -14853 0
-939 14855 0
-14854 14855 0
-939 -14854 0
-1102 14856 0
-14855 14856 0
-1102 -14855 0
-1159 14857 0
-14856 14857 0
-1159 -14856 0
-1324 14858 0
-14857 14858 0
-1324 -14857 0
-1442 14859 0
-14858 14859 0
-1442 -14858 0
-1498 14860 0
-14859 14860 0
-1498 -14859 0
-1664 14861 0
-14860 14861 0
-1664 -14860 0
-1720 14862 0
-14861 14862 0
-1720 -14861 0
-1879 14863 0
-14862 14863 0
-1879 -14862 0
-1927 14864 0
-14863 14864 0
-1927 -14863 0
-2071 14865 0
-14864 14865 0
-2071 -14864 0
-2119 14866 0
-14865 14866 0
-2119 -14865 0
-2215 14867 0
-14866 14867 0
-2215 -14866 0
-2359 14868 0
-14867 14868 0
-2359 -14867 0
-2407 14869 0
-14868 14869 0
-2407 -14868 0
-2551 14870 0
-14869 14870 0
-2551 -14869 0
-2647 14871 0
-14870 14871 0
-2647 -14870 0
-2695 14872 0
-14871 14872 0
-2695 -14871 0
-2839 14873 0
-14872 14873 0
-2839 -14872 0
-2887 14874 0
-14873 14874 0
-2887 -14873 0
-2983 14875 0
-14874 14875 0
-2983 -14874 0
-3127 14876 0
-14875 14876 0
-3127 -14875 0
-3175 14877 0
-14876 14877 0
-3175 -14876 0
-3319 14878 0
-14877 14878 0
-3319 -14877 0
-3363 14879 0
-14878 14879 0
-3363 -14878 0
-3479 14880 0
-14879 14880 0
-3479 -14879 0
-3515 14881 0
-14880 14881 0
-3515 -14880 0
-3607 14882 0
-14881 14882 0
-3607 -14881 0
-3671 14883 0
-14882 14883 0
-3671 -14882 0
-3703 14884 0
-14883 14884 0
-3703 -14883 0
-3799 14885 0
-14884 14885 0
-3799 -14884 0
-3831 14886 0
-14885 14886 0
-3831 -14885 0
-3907 14887 0
-14886 14887 0
-3907 -14886 0
-3991 14888 0
-14887 14888 0
-3991 -14887 0
-4027 14889 0
-14888 14889 0
-4027 -14888 0
-4119 14890 0
-14889 14890 0
-4119 -14889 0
-4183 14891 0
-14890 14891 0
-4183 -14890 0
-4215 14892 0
-14891 14892 0
-4215 -14891 0
-4311 14893 0
-14892 14893 0
-4311 -14892 0
-4343 14894 0
-14893 14894 0
-4343 -14893 0
-4439 14895 0
-14894 14895 0
-4439 -14894 0
-4471 14896 0
-14895 14896 0
-4471 -14895 0
-4567 14897 0
-14896 14897 0
-4567 -14896 0
-4599 14898 0
-14897 14898 0
-4599 -14897 0
-4663 14899 0
-14898 14899 0
-4663 -14898 0
-4759 14900 0
-14899 14900 0
-4759 -14899 0
-4791 14901 0
-14900 14901 0
-4791 -14900 0
-4887 14902 0
-14901 14902 0
-4887 -14901 0
-4951 14903 0
-14902 14903 0
-4951 -14902 0
-4983 14904 0
-14903 14904 0
-4983 -14903 0
-5079 14905 0
-14904 14905 0
-5079 -14904 0
-5111 14906 0
-14905 14906 0
-5111 -14905 0
-5175 14907 0
-14906 14907 0
-5175 -14906 0
-5271 14908 0
-14907 14908 0
-5271 -14907 0
-5303 14909 0
-14908 14909 0
-5303 -14908 0
-5399 -14909 0
38 101 164 468 529 589 649 940 993 1049 1105 1380 1437 1493 1549 2020 2072 2120 2168 2408 2456 2504 2552 2788 2840 2888 2936 3176 3224 3272 3320 3364 3416 3448 3480 3640 3672 3704 3736 3908 3928 3960 3992 4152 4184 4216 4248 4532 4568 4600 4632 4792 4824 4856 4888 5044 5080 5112 5144 5304 5336 5368 5400 0
-38 14910 0
-101 14911 0
-14910 14911 0
-101 -14910 0
-164 14912 0
-14911 14912 0
-164 -14911 0
-468 14913 0
-14912 14913 0
-468 -14912 0
-529 14914 0
-14913 14914 0
-529 -14913 0
-589 14915 0
-14914 14915 0
-589 -14914 0
-649 14916 0
-14915 14916 0
-649 -14915 0
-940 14917 0
-14916 14917 0
-940 -14916 0
-993 14918 0
-14917 14918 0
-993 -14917 0
-1049 14919 0
-14918 14919 0
-1049 -14918 0
-1105 14920 0
-14919 14920 0
-1105 -14919 0
-1380 14921 0
-14920 14921 0
-1380 -14920 0
-1437 14922 0
-14921 14922 0
-1437 -14921 0
-1493 14923 0
-14922 14923 0
-1493 -14922 0
-1549 14924 0
-14923 14924 0
-1549 -14923 0
-2020 14925 0
-14924 14925 0
-2020 -14924 0
-2072 14926 0
-14925 14926 0
-2072 -14925 0
-2120 14927 0
-14926 14927 0
-2120 -14926 0
-2168 14928 0
-14927 14928 0
-2168 -14927 0
-2408 14929 0
-14928 14929 0
-2408 -14928 0
-2456 14930 0
-14929 14930 0
-2456 -14929 0
-2504 14931 0
-14930 14931 0
-2504 -14930 0
-2552 14932 0
-14931 14932 0
-2552 -14931 0
-2788 14933 0
-14932 14933 0
-2788 -14932 0
-2840 14934 0
-14933 14934 0
-2840 -14933 0
-2888 14935 0
-14934 14935 0
-2888 -14934 0
-2936 14936 0
-14935 14936 0
-2936 -14935 0
-3176 14937 0
-14936 14937 0
-3176 -14936 0
-3224 14938 0
-14937 14938 0
-3224 -14937 0
-3272 14939 0
-14938 14939 0
-3272 -14938 0
-3320 14940 0
-14939 14940 0
-3320 -14939 0
-3364 14941 0
-14940 14941 0
-3364 -14940 0
-3416 14942 0
-14941 14942 0
-3416 -14941 0
-3448 14943 0
-14942 14943 0
-3448 -14942 0
-3480 14944 0
-14943 14944 0
-3480 -14943 0
-3640 14945 0
-14944 14945 0
-3640 -14944 0
-3672 14946 0
-14945 14946 0
-3672 -14945 0
-3704 14947 0
-14946 14947 0
-3704 -14946 0
-3736 14948 0
-14947 14948 0
-3736 -14947 0
-3908 14949 0
-14948 14949 0
-3908 -14948 0
-3928 14950 0
-14949 14950 0
-3928 -14949 0
-3960 14951 0
-14950 14951 0
-3960 -14950 0
-3992 14952 0
-14951 14952 0
-3992 -14951 0
-4152 14953 0
-14952 14953 0
-4152 -14952 0
-4184 14954 0
-14953 14954 0
-4184 -14953 0
-4216 14955 0
-14954 14955 0
-4216 -14954 0
-4248 14956 0
-14955 14956 0
-4248 -14955 0
-4532 14957 0
-14956 14957 0
-4532 -14956 0
-4568 14958 0
-14957 14958 0
-4568 -14957 0
-4600 14959 0
-14958 14959 0
-4600 -14958 0
-4632 14960 0
-14959 14960 0
-4632 -14959 0
-4792 14961 0
-14960 14961 0
-4792 -14960 0
-4824 14962 0
-14961 14962 0
-4824 -14961 0
-4856 14963 0
-14962 14963 0
-4856 -14962 0
-4888 14964 0
-14963 14964 0
-4888 -14963 0
-5044 14965 0
-14964 14965 0
-5044 -14964 0
-5080 14966 0
-14965 14966 0
-5080 -14965 0
-5112 14967 0
-14966 14967 0
-5112 -14966 0
-5144 14968 0
-14967 14968 0
-5144 -14967 0
-5304 14969 0
-14968 14969 0
-5304 -14968 0
-5336 14970 0
-14969 14970 0
-5336 -14969 0
-5368 14971 0
-14970 14971 0
-5368 -14970 0
-5400 -14971 0
38 348 410 469 528 831 891 941 992 1275 1331 1381 1436 1719 1775 1928 1976 2021 2073 2312 2360 2409 2457 2696 2744 2789 2841 3080 3128 3177 3225 3365 3417 3576 3608 3641 3673 3832 3864 3909 3929 4088 4120 4153 4185 4344 4376 4472 4504 4533 4569 4728 4760 4793 4825 4984 5016 5045 5081 5240 5272 5305 5337 0
-38 14972 0
-348 14973 0
-14972 14973 0
-348 -14972 0
-410 14974 0
-14973 14974 0
-410 -14973 0
-469 14975 0
-14974 14975 0
-469 -14974 0
-528 14976 0
-14975 14976 0
-528 -14975 0
-831 14977 0
-14976 14977 0
-831 -14976 0
-891 14978 0
-14977 14978 0
-891 -14977 0
-941 14979 0
-14978 14979 0
-941 -14978 0
-992 14980 0
-14979 14980 0
-992 -14979 0
-1275 14981 0
-14980 14981 0
-1275 -14980 0
-1331 14982 0
-14981 14982 0
-1331 -14981 0
-1381 14983 0
-14982 14983 0
-1381 -14982 0
-1436 14984 0
-14983 14984 0
-1436 -14983 0
-1719 14985 0
-14984 14985 0
-1719 -14984 0
-1775 14986 0
-14985 14986 0
-1775 -14985 0
-1928 14987 0
-14986 14987 0
-1928 -14986 0
-1976 14988 0
-14987 14988 0
-1976 -14987 0
-2021 14989 0
-14988 14989 0
-2021 -14988 0
-2073 14990 0
-14989 14990 0
-2073 -14989 0
-2312 14991 0
-14990 14991 0
-2312 -14990 0
-2360 14992 0
-14991 14992 0
-2360 -14991 0
-2409 14993 0
-14992 14993 0
-2409 -14992 0
-2457 14994 0
-14993 14994 0
-2457 -14993 0
-2696 14995 0
-14994 14995 0
-2696 -14994 0
-2744 14996 0
-14995 14996 0
-2744 -14995 0
-2789 14997 0
-14996 14997 0
-2789 -14996 0
-2841 14998 0
-14997 14998 0
-2841 -14997 0
-3080 14999 0
-14998 14999 0
-3080 -14998 0
-3128 15000 0
-14999 15000 0
-3128 -14999 0
-3177 15001 0
-15000 15001 0
-3177 -15000 0
-3225 15002 0
-15001 15002 0
-3225 -15001 0
-3365 15003 0
-15002 15003 0
-3365 -15002 0
-3417 15004 0
-15003 15004 0
-3417 -15003 0
-3576 15005 0
-15004 15005 0
-3576 -15004 0
-3608 15006 0
-15005 15006 0
-3608 -15005 0
-3641 15007 0
-15006 15007 0
-3641 -15006 0
-3673 15008 0
-15007 15008 0
-3673 -15007 0
-3832 15009 0
-15008 15009 0
-3832 -15008 0
-3864 15010 0
-15009 15010 0
-3864 -15009 0
-3909 15011 0
-15010 15011 0
-3909 -15010 0
-3929 15012 0
-15011 15012 0
-3929 -15011 0
-4088 15013 0
-15012 15013 0
-4088 -15012 0
-4120 15014 0
-15013 15014 0
-4120 -15013 0
-4153 15015 0
-15014 15015 0
-4153 -15014 0
-4185 15016 0
-15015 15016 0
-4185 -15015 0
-4344 15017 0
-15016 15017 0
-4344 -15016 0
-4376 15018 0
-15017 15018 0
-4376 -15017 0
-4472 15019 0
-15018 15019 0
-4472 -15018 0
-4504 15020 0
-15019 15020 0
-4504 -15019 0
-4533 15021 0
-15020 15021 0
-4533 -15020 0
-4569 15022 0
-15021 15022 0
-4569 -15021 0
-4728 15023 0
-15022 15023 0
-4728 -15022 0
-4760 15024 0
-15023 15024 0
-4760 -15023 0
-4793 15025 0
-15024 15025 0
-4793 -15024 0
-4825 15026 0
-15025 15026 0
-4825 -15025 0
-4984 15027 0
-15026 15027 0
-4984 -15026 0
-5016 15028 0
-15027 15028 0
-5016 -15027 0
-5045 15029 0
-15028 15029 0
-5045 -15028 0
-5081 15030 0
-15029 15030 0
-5081 -15029 0
-5240 15031 0
-15030 15031 0
-5240 -15030 0
-5272 15032 0
-15031 15032 0
-5272 -15031 0
-5305 15033 0
-15032 15033 0
-5305 -15032 0
-5337 -15033 0
101 286 411 470 588 771 890 942 1048 1219 1330 1382 1492 1663 1774 1880 1977 2022 2121 2264 2361 2410 2505 2648 2745 2790 2889 3032 3129 3178 3273 3366 3449 3544 3609 3642 3705 3800 3865 3910 3961 4056 4121 4154 4217 4312 4377 4440 4505 4534 4601 4696 4761 4794 4857 4952 5017 5046 5113 5208 5273 5306 5369 0
-101 15034 0
-286 15035 0
-15034 15035 0
-286 -15034 0
-411 15036 0
-15035 15036 0
-411 -15035 0
-470 15037 0
-15036 15037 0
-470 -15036 0
-588 15038 0
-15037 15038 0
-588 -15037 0
-771 15039 0
-15038 15039 0
-771 -15038 0
-890 15040 0
-15039 15040 0
-890 -15039 0
-942 15041 0
-15040 15041 0
-942 -15040 0
-1048 15042 0
-15041 15042 0
-1048 -15041 0
-1219 15043 0
-15042 15043 0
-1219 -15042 0
-1330 15044 0
-15043 15044 0
-1330 -15043 0
-1382 15045 0
-15044 15045 0
-1382 -15044 0
-1492 15046 0
-15045 15046 0
-1492 -15045 0
-1663 15047 0
-15046 15047 0
-1663 -15046 0
-1774 15048 0
-15047 15048 0
-1774 -15047 0
-1880 15049 0
-15048 15049 0
-1880 -15048 0
-1977 15050 0
-15049 15050 0
-1977 -15049 0
-2022 15051 0
-15050 15051 0
-2022 -15050 0
-2121 15052 0
-15051 15052 0
-2121 -15051 0
-2264 15053 0
-15052 15053 0
-2264 -15052 0
-2361 15054 0
-15053 15054 0
-2361 -15053 0
-2410 15055 0
-15054 15055 0
-2410 -15054 0
-2505 15056 0
-15055 15056 0
-2505 -15055 0
-2648 15057 0
-15056 15057 0
-2648 -15056 0
-2745 15058 0
-15057 15058 0
-2745 -15057 0
-2790 15059 0
-15058 15059 0
-2790 -15058 0
-2889 15060 0
-15059 15060 0
-2889 -15059 0
-3032 15061 0
-15060 15061 0
-3032 -15060 0
-3129 15062 0
-15061 15062 0
-3129 -15061 0
-3178 15063 0
-15062 15063 0
-3178 -15062 0
-3273 15064 0
-15063 15064 0
-3273 -15063 0
-3366 15065 0
-15064 15065 0
-3366 -15064 0
-3449 15066 0
-15065 15066 0
-3449 -15065 0
-3544 15067 0
-15066 15067 0
-3544 -15066 0
-3609 15068 0
-15067 15068 0
-3609 -15067 0
-3642 15069 0
-15068 15069 0
-3642 -15068 0
-3705 15070 0
-15069 15070 0
-3705 -15069 0
-3800 15071 0
-15070 15071 0
-3800 -15070 0
-3865 15072 0
-15071 15072 0
-3865 -15071 0
-3910 15073 0
-15072 15073 0
-3910 -15072 0
-3961 15074 0
-15073 15074 0
-3961 -15073 0
-4056 15075 0
-15074 15075 0
-4056 -15074 0
-4121 15076 0
-15075 15076 0
-4121 -15075 0
-4154 15077 0
-15076 15077 0
-4154 -15076 0
-4217 15078 0
-15077 15078 0
-4217 -15077 0
-4312 15079 0
-15078 15079 0
-4312 -15078 0
-4377 15080 0
-15079 15080 0
-4377 -15079 0
-4440 15081 0
-15080 15081 0
-4440 -15080 0
-4505 15082 0
-15081 15082 0
-4505 -15081 0
-4534 15083 0
-15082 15083 0
-4534 -15082 0
-4601 15084 0
-15083 15084 0
-4601 -15083 0
-4696 15085 0
-15084 15085 0
-4696 -15084 0
-4761 15086 0
-15085 15086 0
-4761 -15085 0
-4794 15087 0
-15086 15087 0
-4794 -15086 0
-4857 15088 0
-15087 15088 0
-4857 -15087 0
-4952 15089 0
-15088 15089 0
-4952 -15088 0
-5017 15090 0
-15089 15090 0
-5017 -15089 0
-5046 15091 0
-15090 15091 0
-5046 -15090 0
-5113 15092 0
-15091 15092 0
-5113 -15091 0
-5208 15093 0
-15092 15093 0
-5208 -15092 0
-5273 15094 0
-15093 15094 0
-5273 -15093 0
-5306 15095 0
-15094 15095 0
-5306 -15094 0
-5369 -15095 0
164 287 349 471 648 770 830 943 1104 1218 1274 1383 1548 1662 1718 1881 1929 2023 2169 2265 2313 2411 2553 2649 2697 2791 2937 3033 3081 3179 3321 3367 3481 3545 3577 3643 3737 3801 3833 3911 3993 4057 4089 4155 4249 4313 4345 4441 4473 4535 4633 4697 4729 4795 4889 4953 4985 5047 5145 5209 5241 5307 5401 0
-164 15096 0
-287 15097 0
-15096 15097 0
-287 -15096 0
-349 15098 0
-15097 15098 0
-349 -15097 0
-471 15099 0
-15098 15099 0
-471 -15098 0
-648 15100 0
-15099 15100 0
-648 -15099 0
-770 15101 0
-15100 15101 0
-770 -15100 0
-830 15102 0
-15101 15102 0
-830 -15101 0
-943 15103 0
-15102 15103 0
-943 -15102 0
-1104 15104 0
-15103 15104 0
-1104 -15103 0
-1218 15105 0
-15104 15105 0
-1218 -15104 0
-1274 15106 0
-15105 15106 0
-1274 -15105 0
-1383 15107 0
-15106 15107 0
-1383 -15106 0
-1548 15108 0
-15107 15108 0
-1548 -15107 0
-1662 15109 0
-15108 15109 0
-1662 -15108 0
-1718 15110 0
-15109 15110 0
-1718 -15109 0
-1881 15111 0
-15110 15111 0
-1881 -15110 0
-1929 15112 0
-15111 15112 0
-1929 -15111 0
-2023 15113 0
-15112 15113 0
-2023 -15112 0
-2169 15114 0
-15113 15114 0
-2169 -15113 0
-2265 15115 0
-15114 15115 0
-2265 -15114 0
-2313 15116 0
-15115 15116 0
-2313 -15115 0
-2411 15117 0
-15116 15117 0
-2411 -15116 0
-2553 15118 0
-15117 15118 0
-2553 -15117 0
-2649 15119 0
-15118 15119 0
-2649 -15118 0
-2697 15120 0
-15119 15120 0
-2697 -15119 0
-2791 15121 0
-15120 15121 0
-2791 -15120 0
-2937 15122 0
-15121 15122 0
-2937 -15121 0
-3033 15123 0
-15122 15123 0
-3033 -15122 0
-3081 15124 0
-15123 15124 0
-3081 -15123 0
-3179 15125 0
-15124 15125 0
-3179 -15124 0
-3321 15126 0
-15125 15126 0
-3321 -15125 0
-3367 15127 0
-15126 15127 0
-3367 -15126 0
-3481 15128 0
-15127 15128 0
-3481 -15127 0
-3545 15129 0
-15128 15129 0
-3545 -15128 0
-3577 15130 0
-15129 15130 0
-3577 -15129 0
-3643 15131 0
-15130 15131 0
-3643 -15130 0
-3737 15132 0
-15131 15132 0
-3737 -15131 0
-3801 15133 0
-15132 15133 0
-3801 -15132 0
-3833 15134 0
-15133 15134 0
-3833 -15133 0
-3911 15135 0
-15134 15135 0
-3911 -15134 0
-3993 15136 0
-15135 15136 0
-3993 -15135 0
-4057 15137 0
-15136 15137 0
-4057 -15136 0
-4089 15138 0
-15137 15138 0
-4089 -15137 0
-4155 15139 0
-15138 15139 0
-4155 -15138 0
-4249 15140 0
-15139 15140 0
-4249 -15139 0
-4313 15141 0
-15140 15141 0
-4313 -15140 0
-4345 15142 0
-15141 15142 0
-4345 -15141 0
-4441 15143 0
-15142 15143 0
-4441 -15142 0
-4473 15144 0
-15143 15144 0
-4473 -15143 0
-4535 15145 0
-15144 15145 0
-4535 -15144 0
-4633 15146 0
-15145 15146 0
-4633 -15145 0
-4697 15147 0
-15146 15147 0
-4697 -15146 0
-4729 15148 0
-15147 15148 0
-4729 -15147 0
-4795 15149 0
-15148 15149 0
-4795 -15148 0
-4889 15150 0
-15149 15150 0
-4889 -15149 0
-4953 15151 0
-15150 15151 0
-4953 -15150 0
-4985 15152 0
-15151 15152 0
-4985 -15151 0
-5047 15153 0
-15152 15153 0
-5047 -15152 0
-5145 15154 0
-15153 15154 0
-5145 -15153 0
-5209 15155 0
-15154 15155 0
-5209 -15154 0
-5241 15156 0
-15155 15156 0
-5241 -15155 0
-5307 15157 0
-15156 15157 0
-5307 -15156 0
-5401 -15157 0
39 102 165 708 769 829 889 944 995 1051 1107 1604 1661 1717 1773 2024 2074 2122 2170 2216 2266 2314 2362 2792 2842 2890 2938 2984 3034 3082 3130 3368 3418 3450 3482 3768 3802 3834 3866 3912 3930 3962 3994 4280 4314 4346 4378 4536 4570 4602 4634 4664 4698 4730 4762 5048 5082 5114 5146 5176 5210 5242 5274 0
-39 15158 0
-102 15159 0
-15158 15159 0
-102 -15158 0
-165 15160 0
-15159 15160 0
-165 -15159 0
-708 15161 0
-15160 15161 0
-708 -15160 0
-769 15162 0
-15161 15162 0
-769 -15161 0
-829 15163 0
-15162 15163 0
-829 -15162 0
-889 15164 0
-15163 15164 0
-889 -15163 0
-944 15165 0
-15164 15165 0
-944 -15164 0
-995 15166 0
-15165 15166 0
-995 -15165 0
-1051 15167 0
-15166 15167 0
-1051 -15166 0
-1107 15168 0
-15167 15168 0
-1107 -15167 0
-1604 15169 0
-15168 15169 0
-1604 -15168 0
-1661 15170 0
-15169 15170 0
-1661 -15169 0
-1717 15171 0
-15170 15171 0
-1717 -15170 0
-1773 15172 0
-15171 15172 0
-1773 -15171 0
-2024 15173 0
-15172 15173 0
-2024 -15172 0
-2074 15174 0
-15173 15174 0
-2074 -15173 0
-2122 15175 0
-15174 15175 0
-2122 -15174 0
-2170 15176 0
-15175 15176 0
-2170 -15175 0
-2216 15177 0
-15176 15177 0
-2216 -15176 0
-2266 15178 0
-15177 15178 0
-2266 -15177 0
-2314 15179 0
-15178 15179 0
-2314 -15178 0
-2362 15180 0
-15179 15180 0
-2362 -15179 0
-2792 15181 0
-15180 15181 0
-2792 -15180 0
-2842 15182 0
-15181 15182 0
-2842 -15181 0
-2890 15183 0
-15182 15183 0
-2890 -15182 0
-2938 15184 0
-15183 15184 0
-2938 -15183 0
-2984 15185 0
-15184 15185 0
-2984 -15184 0
-3034 15186 0
-15185 15186 0
-3034 -15185 0
-3082 15187 0
-15186 15187 0
-3082 -15186 0
-3130 15188 0
-15187 15188 0
-3130 -15187 0
-3368 15189 0
-15188 15189 0
-3368 -15188 0
-3418 15190 0
-15189 15190 0
-3418 -15189 0
-3450 15191 0
-15190 15191 0
-3450 -15190 0
-3482 15192 0
-15191 15192 0
-3482 -15191 0
-3768 15193 0
-15192 15193 0
-3768 -15192 0
-3802 15194 0
-15193 15194 0
-3802 -15193 0
-3834 15195 0
-15194 15195 0
-3834 -15194 0
-3866 15196 0
-15195 15196 0
-3866 -15195 0
-3912 15197 0
-15196 15197 0
-3912 -15196 0
-3930 15198 0
-15197 15198 0
-3930 -15197 0
-3962 15199 0
-15198 15199 0
-3962 -15198 0
-3994 15200 0
-15199 15200 0
-3994 -15199 0
-4280 15201 0
-15200 15201 0
-4280 -15200 0
-4314 15202 0
-15201 15202 0
-4314 -15201 0
-4346 15203 0
-15202 15203 0
-4346 -15202 0
-4378 15204 0
-15203 15204 0
-4378 -15203 0
-4536 15205 0
-15204 15205 0
-4536 -15204 0
-4570 15206 0
-15205 15206 0
-4570 -15205 0
-4602 15207 0
-15206 15207 0
-4602 -15206 0
-4634 15208 0
-15207 15208 0
-4634 -15207 0
-4664 15209 0
-15208 15209 0
-4664 -15208 0
-4698 15210 0
-15209 15210 0
-4698 -15209 0
-4730 15211 0
-15210 15211 0
-4730 -15210 0
-4762 15212 0
-15211 15212 0
-4762 -15211 0
-5048 15213 0
-15212 15213 0
-5048 -15212 0
-5082 15214 0
-15213 15214 0
-5082 -15213 0
-5114 15215 0
-15214 15215 0
-5114 -15214 0
-5146 15216 0
-15215 15216 0
-5146 -15215 0
-5176 15217 0
-15216 15217 0
-5176 -15216 0
-5210 15218 0
-15217 15218 0
-5210 -15217 0
-5242 15219 0
-15218 15219 0
-5242 -15218 0
-5274 -15219 0
39 349 411 591 651 709 768 945 994 1273 1329 1495 1551 1605 1660 1930 1978 2025 2075 2217 2267 2506 2554 2698 2746 2793 2843 2985 3035 3274 3322 3369 3419 3578 3610 3706 3738 3769 3803 3913 3931 4090 4122 4218 4250 4281 4315 4474 4506 4537 4571 4665 4699 4858 4890 4986 5018 5049 5083 5177 5211 5370 5402 0
-39 15220 0
-349 15221 0
-15220 15221 0
-349 -15220 0
-411 15222 0
-15221 15222 0
-411 -15221 0
-591 15223 0
-15222 15223 0
-591 -15222 0
-651 15224 0
-15223 15224 0
-651 -15223 0
-709 15225 0
-15224 15225 0
-709 -15224 0
-768 15226 0
-15225 15226 0
-768 -15225 0
-945 15227 0
-15226 15227 0
-945 -15226 0
-994 15228 0
-15227 15228 0
-994 -15227 0
-1273 15229 0
-15228 15229 0
-1273 -15228 0
-1329 15230 0
-15229 15230 0
-1329 -15229 0
-1495 15231 0
-15230 15231 0
-1495 -15230 0
-1551 15232 0
-15231 15232 0
-1551 -15231 0
-1605 15233 0
-15232 15233 0
-1605 -15232 0
-1660 15234 0
-15233 15234 0
-1660 -15233 0
-1930 15235 0
-15234 15235 0
-1930 -15234 0
-1978 15236 0
-15235 15236 0
-1978 -15235 0
-2025 15237 0
-15236 15237 0
-2025 -15236 0
-2075 15238 0
-15237 15238 0
-2075 -15237 0
-2217 15239 0
-15238 15239 0
-2217 -15238 0
-2267 15240 0
-15239 15240 0
-2267 -15239 0
-2506 15241 0
-15240 15241 0
-2506 -15240 0
-2554 15242 0
-15241 15242 0
-2554 -15241 0
-2698 15243 0
-15242 15243 0
-2698 -15242 0
-2746 15244 0
-15243 15244 0
-2746 -15243 0
-2793 15245 0
-15244 15245 0
-2793 -15244 0
-2843 15246 0
-15245 15246 0
-2843 -15245 0
-2985 15247 0
-15246 15247 0
-2985 -15246 0
-3035 15248 0
-15247 15248 0
-3035 -15247 0
-3274 15249 0
-15248 15249 0
-3274 -15248 0
-3322 15250 0
-15249 15250 0
-3322 -15249 0
-3369 15251 0
-15250 15251 0
-3369 -15250 0
-3419 15252 0
-15251 15252 0
-3419 -15251 0
-3578 15253 0
-15252 15253 0
-3578 -15252 0
-3610 15254 0
-15253 15254 0
-3610 -15253 0
-3706 15255 0
-15254 15255 0
-3706 -15254 0
-3738 15256 0
-15255 15256 0
-3738 -15255 0
-3769 15257 0
-15256 15257 0
-3769 -15256 0
-3803 15258 0
-15257 15258 0
-3803 -15257 0
-3913 15259 0
-15258 15259 0
-3913 -15258 0
-3931 15260 0
-15259 15260 0
-3931 -15259 0
-4090 15261 0
-15260 15261 0
-4090 -15260 0
-4122 15262 0
-15261 15262 0
-4122 -15261 0
-4218 15263 0
-15262 15263 0
-4218 -15262 0
-4250 15264 0
-15263 15264 0
-4250 -15263 0
-4281 15265 0
-15264 15265 0
-4281 -15264 0
-4315 15266 0
-15265 15266 0
-4315 -15265 0
-4474 15267 0
-15266 15267 0
-4474 -15266 0
-4506 15268 0
-15267 15268 0
-4506 -15267 0
-4537 15269 0
-15268 15269 0
-4537 -15268 0
-4571 15270 0
-15269 15270 0
-4571 -15269 0
-4665 15271 0
-15270 15271 0
-4665 -15270 0
-4699 15272 0
-15271 15272 0
-4699 -15271 0
-4858 15273 0
-15272 15273 0
-4858 -15272 0
-4890 15274 0
-15273 15274 0
-4890 -15273 0
-4986 15275 0
-15274 15275 0
-4986 -15274 0
-5018 15276 0
-15275 15276 0
-5018 -15275 0
-5049 15277 0
-15276 15277 0
-5049 -15276 0
-5083 15278 0
-15277 15278 0
-5083 -15277 0
-5177 15279 0
-15278 15279 0
-5177 -15278 0
-5211 15280 0
-15279 15280 0
-5211 -15279 0
-5370 15281 0
-15280 15281 0
-5370 -15280 0
-5402 -15281 0
102 287 410 531 650 710 828 946 1050 1217 1328 1439 1550 1606 1716 1882 1979 2026 2123 2218 2315 2458 2555 2650 2747 2794 2891 2986 3083 3226 3323 3370 3451 3546 3611 3674 3739 3770 3835 3914 3963 4058 4123 4186 4251 4282 4347 4442 4507 4538 4603 4666 4731 4826 4891 4954 5019 5050 5115 5178 5243 5338 5403 0
-102 15282 0
-287 15283 0
-15282 15283 0
-287 -15282 0
-410 15284 0
-15283 15284 0
-410 -15283 0
-531 15285 0
-15284 15285 0
-531 -15284 0
-650 15286 0
-15285 15286 0
-650 -15285 0
-710 15287 0
-15286 15287 0
-710 -15286 0
-828 15288 0
-15287 15288 0
-828 -15287 0
-946 15289 0
-15288 15289 0
-946 -15288 0
-1050 15290 0
-15289 15290 0
-1050 -15289 0
-1217 15291 0
-15290 15291 0
-1217 -15290 0
-1328 15292 0
-15291 15292 0
-1328 -15291 0
-1439 15293 0
-15292 15293 0
-1439 -15292 0
-1550 15294 0
-15293 15294 0
-1550 -15293 0
-1606 15295 0
-15294 15295 0
-1606 -15294 0
-1716 15296 0
-15295 15296 0
-1716 -15295 0
-1882 15297 0
-15296 15297 0
-1882 -15296 0
-1979 15298 0
-15297 15298 0
-1979 -15297 0
-2026 15299 0
-15298 15299 0
-2026 -15298 0
-2123 15300 0
-15299 15300 0
-2123 -15299 0
-2218 15301 0
-15300 15301 0
-2218 -15300 0
-2315 15302 0
-15301 15302 0
-2315 -15301 0
-2458 15303 0
-15302 15303 0
-2458 -15302 0
-2555 15304 0
-15303 15304 0
-2555 -15303 0
-2650 15305 0
-15304 15305 0
-2650 -15304 0
-2747 15306 0
-15305 15306 0
-2747 -15305 0
-2794 15307 0
-15306 15307 0
-2794 -15306 0
-2891 15308 0
-15307 15308 0
-2891 -15307 0
-2986 15309 0
-15308 15309 0
-2986 -15308 0
-3083 15310 0
-15309 15310 0
-3083 -15309 0
-3226 15311 0
-15310 15311 0
-3226 -15310 0
-3323 15312 0
-15311 15312 0
-3323 -15311 0
-3370 15313 0
-15312 15313 0
-3370 -15312 0
-3451 15314 0
-15313 15314 0
-3451 -15313 0
-3546 15315 0
-15314 15315 0
-3546 -15314 0
-3611 15316 0
-15315 15316 0
-3611 -15315 0
-3674 15317 0
-15316 15317 0
-3674 -15316 0
-3739 15318 0
-15317 15318 0
-3739 -15317 0
-3770 15319 0
-15318 15319 0
-3770 -15318 0
-3835 15320 0
-15319 15320 0
-3835 -15319 0
-3914 15321 0
-15320 15321 0
-3914 -15320 0
-3963 15322 0
-15321 15322 0
-3963 -15321 0
-4058 15323 0
-15322 15323 0
-4058 -15322 0
-4123 15324 0
-15323 15324 0
-4123 -15323 0
-4186 15325 0
-15324 15325 0
-4186 -15324 0
-4251 15326 0
-15325 15326 0
-4251 -15325 0
-4282 15327 0
-15326 15327 0
-4282 -15326 0
-4347 15328 0
-15327 15328 0
-4347 -15327 0
-4442 15329 0
-15328 15329 0
-4442 -15328 0
-4507 15330 0
-15329 15330 0
-4507 -15329 0
-4538 15331 0
-15330 15331 0
-4538 -15330 0
-4603 15332 0
-15331 15332 0
-4603 -15331 0
-4666 15333 0
-15332 15333 0
-4666 -15332 0
-4731 15334 0
-15333 15334 0
-4731 -15333 0
-4826 15335 0
-15334 15335 0
-4826 -15334 0
-4891 15336 0
-15335 15336 0
-4891 -15335 0
-4954 15337 0
-15336 15337 0
-4954 -15336 0
-5019 15338 0
-15337 15338 0
-5019 -15337 0
-5050 15339 0
-15338 15339 0
-5050 -15338 0
-5115 15340 0
-15339 15340 0
-5115 -15339 0
-5178 15341 0
-15340 15341 0
-5178 -15340 0
-5243 15342 0
-15341 15342 0
-5243 -15341 0
-5338 15343 0
-15342 15343 0
-5338 -15342 0
-5403 -15343 0
165 286 348 530 590 711 888 947 1106 1216 1272 1438 1494 1607 1772 1883 1931 2027 2171 2219 2363 2459 2507 2651 2699 2795 2939 2987 3131 3227 3275 3371 3483 3547 3579 3675 3707 3771 3867 3915 3995 4059 4091 4187 4219 4283 4379 4443 4475 4539 4635 4667 4763 4827 4859 4955 4987 5051 5147 5179 5275 5339 5371 0
-165 15344 0
-286 15345 0
-15344 15345 0
-286 -15344 0
-348 15346 0
-15345 15346 0
-348 -15345 0
-530 15347 0
-15346 15347 0
-530 -15346 0
-590 15348 0
-15347 15348 0
-590 -15347 0
-711 15349 0
-15348 15349 0
-711 -15348 0
-888 15350 0
-15349 15350 0
-888 -15349 0
-947 15351 0
-15350 15351 0
-947 -15350 0
-1106 15352 0
-15351 15352 0
-1106 -15351 0
-1216 15353 0
-15352 15353 0
-1216 -15352 0
-1272 15354 0
-15353 15354 0
-1272 -15353 0
-1438 15355 0
-15354 15355 0
-1438 -15354 0
-1494 15356 0
-15355 15356 0
-1494 -15355 0
-1607 15357 0
-15356 15357 0
-1607 -15356 0
-1772 15358 0
-15357 15358 0
-1772 -15357 0
-1883 15359 0
-15358 15359 0
-1883 -15358 0
-1931 15360 0
-15359 15360 0
-1931 -15359 0
-2027 15361 0
-15360 15361 0
-2027 -15360 0
-2171 15362 0
-15361 15362 0
-2171 -15361 0
-2219 15363 0
-15362 15363 0
-2219 -15362 0
-2363 15364 0
-15363 15364 0
-2363 -15363 0
-2459 15365 0
-15364 15365 0
-2459 -15364 0
-2507 15366 0
-15365 15366 0
-2507 -15365 0
-2651 15367 0
-15366 15367 0
-2651 -15366 0
-2699 15368 0
-15367 15368 0
-2699 -15367 0
-2795 15369 0
-15368 15369 0
-2795 -15368 0
-2939 15370 0
-15369 15370 0
-2939 -15369 0
-2987 15371 0
-15370 15371 0
-2987 -15370 0
-3131 15372 0
-15371 15372 0
-3131 -15371 0
-3227 15373 0
-15372 15373 0
-3227 -15372 0
-3275 15374 0
-15373 15374 0
-3275 -15373 0
-3371 15375 0
-15374 15375 0
-3371 -15374 0
-3483 15376 0
-15375 15376 0
-3483 -15375 0
-3547 15377 0
-15376 15377 0
-3547 -15376 0
-3579 15378 0
-15377 15378 0
-3579 -15377 0
-3675 15379 0
-15378 15379 0
-3675 -15378 0
-3707 15380 0
-15379 15380 0
-3707 -15379 0
-3771 15381 0
-15380 15381 0
-3771 -15380 0
-3867 15382 0
-15381 15382 0
-3867 -15381 0
-3915 15383 0
-15382 15383 0
-3915 -15382 0
-3995 15384 0
-15383 15384 0
-3995 -15383 0
-4059 15385 0
-15384 15385 0
-4059 -15384 0
-4091 15386 0
-15385 15386 0
-4091 -15385 0
-4187 15387 0
-15386 15387 0
-4187 -15386 0
-4219 15388 0
-15387 15388 0
-4219 -15387 0
-4283 15389 0
-15388 15389 0
-4283 -15388 0
-4379 15390 0
-15389 15390 0
-4379 -15389 0
-4443 15391 0
-15390 15391 0
-4443 -15390 0
-4475 15392 0
-15391 15392 0
-4475 -15391 0
-4539 15393 0
-15392 15393 0
-4539 -15392 0
-4635 15394 0
-15393 15394 0
-4635 -15393 0
-4667 15395 0
-15394 15395 0
-4667 -15394 0
-4763 15396 0
-15395 15396 0
-4763 -15395 0
-4827 15397 0
-15396 15397 0
-4827 -15396 0
-4859 15398 0
-15397 15398 0
-4859 -15397 0
-4955 15399 0
-15398 15399 0
-4955 -15398 0
-4987 15400 0
-15399 15400 0
-4987 -15399 0
-5051 15401 0
-15400 15401 0
-5051 -15400 0
-5147 15402 0
-15401 15402 0
-5147 -15401 0
-5179 15403 0
-15402 15403 0
-5179 -15402 0
-5275 15404 0
-15403 15404 0
-5275 -15403 0
-5339 15405 0
-15404 15405 0
-5339 -15404 0
-5371 -15405 0
40 103 166 226 288 350 412 472 532 592 652 712 772 832 892 1820 1869 1917 1965 2016 2063 2111 2159 2208 2257 2305 2353 2400 2451 2499 2547 3372 3420 3452 3484 3516 3548 3580 3612 3644 3676 3708 3740 3772 3804 3836 3868 4412 4444 4476 4508 4540 4572 4604 4636 4668 4700 4732 4764 4796 4828 4860 4892 0
-40 15406 0
-103 15407 0
-15406 15407 0
-103 -15406 0
-166 15408 0
-15407 15408 0
-166 -15407 0
-226 15409 0
-15408 15409 0
-226 -15408 0
-288 15410 0
-15409 15410 0
-288 -15409 0
-350 15411 0
-15410 15411 0
-350 -15410 0
-412 15412 0
-15411 15412 0
-412 -15411 0
-472 15413 0
-15412 15413 0
-472 -15412 0
-532 15414 0
-15413 15414 0
-532 -15413 0
-592 15415 0
-15414 15415 0
-592 -15414 0
-652 15416 0
-15415 15416 0
-652 -15415 0
-712 15417 0
-15416 15417 0
-712 -15416 0
-772 15418 0
-15417 15418 0
-772 -15417 0
-832 15419 0
-15418 15419 0
-832 -15418 0
-892 15420 0
-15419 15420 0
-892 -15419 0
-1820 15421 0
-15420 15421 0
-1820 -15420 0
-1869 15422 0
-15421 15422 0
-1869 -15421 0
-1917 15423 0
-15422 15423 0
-1917 -15422 0
-1965 15424 0
-15423 15424 0
-1965 -15423 0
-2016 15425 0
-15424 15425 0
-2016 -15424 0
-2063 15426 0
-15425 15426 0
-2063 -15425 0
-2111 15427 0
-15426 15427 0
-2111 -15426 0
-2159 15428 0
-15427 15428 0
-2159 -15427 0
-2208 15429 0
-15428 15429 0
-2208 -15428 0
-2257 15430 0
-15429 15430 0
-2257 -15429 0
-2305 15431 0
-15430 15431 0
-2305 -15430 0
-2353 15432 0
-15431 15432 0
-2353 -15431 0
-2400 15433 0
-15432 15433 0
-2400 -15432 0
-2451 15434 0
-15433 15434 0
-2451 -15433 0
-2499 15435 0
-15434 15435 0
-2499 -15434 0
-2547 15436 0
-15435 15436 0
-2547 -15435 0
-3372 15437 0
-15436 15437 0
-3372 -15436 0
-3420 15438 0
-15437 15438 0
-3420 -15437 0
-3452 15439 0
-15438 15439 0
-3452 -15438 0
-3484 15440 0
-15439 15440 0
-3484 -15439 0
-3516 15441 0
-15440 15441 0
-3516 -15440 0
-3548 15442 0
-15441 15442 0
-3548 -15441 0
-3580 15443 0
-15442 15443 0
-3580 -15442 0
-3612 15444 0
-15443 15444 0
-3612 -15443 0
-3644 15445 0
-15444 15445 0
-3644 -15444 0
-3676 15446 0
-15445 15446 0
-3676 -15445 0
-3708 15447 0
-15446 15447 0
-3708 -15446 0
-3740 15448 0
-15447 15448 0
-3740 -15447 0
-3772 15449 0
-15448 15449 0
-3772 -15448 0
-3804 15450 0
-15449 15450 0
-3804 -15449 0
-3836 15451 0
-15450 15451 0
-3836 -15450 0
-3868 15452 0
-15451 15452 0
-3868 -15451 0
-4412 15453 0
-15452 15453 0
-4412 -15452 0
-4444 15454 0
-15453 15454 0
-4444 -15453 0
-4476 15455 0
-15454 15455 0
-4476 -15454 0
-4508 15456 0
-15455 15456 0
-4508 -15455 0
-4540 15457 0
-15456 15457 0
-4540 -15456 0
-4572 15458 0
-15457 15458 0
-4572 -15457 0
-4604 15459 0
-15458 15459 0
-4604 -15458 0
-4636 15460 0
-15459 15460 0
-4636 -15459 0
-4668 15461 0
-15460 15461 0
-4668 -15460 0
-4700 15462 0
-15461 15462 0
-4700 -15461 0
-4732 15463 0
-15462 15463 0
-4732 -15462 0
-4764 15464 0
-15463 15464 0
-4764 -15463 0
-4796 15465 0
-15464 15465 0
-4796 -15464 0
-4828 15466 0
-15465 15466 0
-4828 -15465 0
-4860 15467 0
-15466 15467 0
-4860 -15466 0
-4892 -15467 0
40 227 289 473 533 713 773 1052 1108 1276 1332 1500 1556 1724 1780 1821 1868 2017 2062 2209 2256 2401 2450 2693 2741 2887 2935 3081 3129 3275 3323 3373 3421 3517 3549 3645 3677 3773 3805 3964 3996 4092 4124 4220 4252 4348 4380 4413 4445 4541 4573 4669 4701 4797 4829 4988 5020 5116 5148 5244 5276 5372 5404 0
-40 15468 0
-227 15469 0
-15468 15469 0
-227 -15468 0
-289 15470 0
-15469 15470 0
-289 -15469 0
-473 15471 0
-15470 15471 0
-473 -15470 0
-533 15472 0
-15471 15472 0
-533 -15471 0
-713 15473 0
-15472 15473 0
-713 -15472 0
-773 15474 0
-15473 15474 0
-773 -15473 0
-1052 15475 0
-15474 15475 0
-1052 -15474 0
-1108 15476 0
-15475 15476 0
-1108 -15475 0
-1276 15477 0
-15476 15477 0
-1276 -15476 0
-1332 15478 0
-15477 15478 0
-1332 -15477 0
-1500 15479 0
-15478 15479 0
-1500 -15478 0
-1556 15480 0
-15479 15480 0
-1556 -15479 0
-1724 15481 0
-15480 15481 0
-1724 -15480 0
-1780 15482 0
-15481 15482 0
-1780 -15481 0
-1821 15483 0
-15482 15483 0
-1821 -15482 0
-1868 15484 0
-15483 15484 0
-1868 -15483 0
-2017 15485 0
-15484 15485 0
-2017 -15484 0
-2062 15486 0
-15485 15486 0
-2062 -15485 0
-2209 15487 0
-15486 15487 0
-2209 -15486 0
-2256 15488 0
-15487 15488 0
-2256 -15487 0
-2401 15489 0
-15488 15489 0
-2401 -15488 0
-2450 15490 0
-15489 15490 0
-2450 -15489 0
-2693 15491 0
-15490 15491 0
-2693 -15490 0
-2741 15492 0
-15491 15492 0
-2741 -15491 0
-2887 15493 0
-15492 15493 0
-2887 -15492 0
-2935 15494 0
-15493 15494 0
-2935 -15493 0
-3081 15495 0
-15494 15495 0
-3081 -15494 0
-3129 15496 0
-15495 15496 0
-3129 -15495 0
-3275 15497 0
-15496 15497 0
-3275 -15496 0
-3323 15498 0
-15497 15498 0
-3323 -15497 0
-3373 15499 0
-15498 15499 0
-3373 -15498 0
-3421 15500 0
-15499 15500 0
-3421 -15499 0
-3517 15501 0
-15500 15501 0
-3517 -15500 0
-3549 15502 0
-15501 15502 0
-3549 -15501 0
-3645 15503 0
-15502 15503 0
-3645 -15502 0
-3677 15504 0
-15503 15504 0
-3677 -15503 0
-3773 15505 0
-15504 15505 0
-3773 -15504 0
-3805 15506 0
-15505 15506 0
-3805 -15505 0
-3964 15507 0
-15506 15507 0
-3964 -15506 0
-3996 15508 0
-15507 15508 0
-3996 -15507 0
-4092 15509 0
-15508 15509 0
-4092 -15508 0
-4124 15510 0
-15509 15510 0
-4124 -15509 0
-4220 15511 0
-15510 15511 0
-4220 -15510 0
-4252 15512 0
-15511 15512 0
-4252 -15511 0
-4348 15513 0
-15512 15513 0
-4348 -15512 0
-4380 15514 0
-15513 15514 0
-4380 -15513 0
-4413 15515 0
-15514 15515 0
-4413 -15514 0
-4445 15516 0
-15515 15516 0
-4445 -15515 0
-4541 15517 0
-15516 15517 0
-4541 -15516 0
-4573 15518 0
-15517 15518 0
-4573 -15517 0
-4669 15519 0
-15518 15519 0
-4669 -15518 0
-4701 15520 0
-15519 15520 0
-4701 -15519 0
-4797 15521 0
-15520 15521 0
-4797 -15520 0
-4829 15522 0
-15521 15522 0
-4829 -15521 0
-4988 15523 0
-15522 15523 0
-4988 -15522 0
-5020 15524 0
-15523 15524 0
-5020 -15523 0
-5116 15525 0
-15524 15525 0
-5116 -15524 0
-5148 15526 0
-15525 15526 0
-5148 -15525 0
-5244 15527 0
-15526 15527 0
-5244 -15526 0
-5276 15528 0
-15527 15528 0
-5276 -15527 0
-5372 15529 0
-15528 15529 0
-5372 -15528 0
-5404 -15529 0
103 228 351 474 593 714 833 996 1109 1220 1333 1444 1557 1668 1781 1822 1916 2018 2110 2210 2304 2402 2498 2645 2740 2839 2934 3033 3128 3227 3322 3374 3453 3518 3581 3646 3709 3774 3837 3932 3997 4060 4125 4188 4253 4316 4381 4414 4477 4542 4605 4670 4733 4798 4861 4956 5021 5084 5149 5212 5277 5340 5405 0
-103 15530 0
-228 15531 0
-15530 15531 0
-228 -15530 0
-351 15532 0
-15531 15532 0
-351 -15531 0
-474 15533 0
-15532 15533 0
-474 -15532 0
-593 15534 0
-15533 15534 0
-593 -15533 0
-714 15535 0
-15534 15535 0
-714 -15534 0
-833 15536 0
-15535 15536 0
-833 -15535 0
-996 15537 0
-15536 15537 0
-996 -15536 0
-1109 15538 0
-15537 15538 0
-1109 -15537 0
-1220 15539 0
-15538 15539 0
-1220 -15538 0
-1333 15540 0
-15539 15540 0
-1333 -15539 0
-1444 15541 0
-15540 15541 0
-1444 -15540 0
-1557 15542 0
-15541 15542 0
-1557 -15541 0
-1668 15543 0
-15542 15543 0
-1668 -15542 0
-1781 15544 0
-15543 15544 0
-1781 -15543 0
-1822 15545 0
-15544 15545 0
-1822 -15544 0
-1916 15546 0
-15545 15546 0
-1916 -15545 0
-2018 15547 0
-15546 15547 0
-2018 -15546 0
-2110 15548 0
-15547 15548 0
-2110 -15547 0
-2210 15549 0
-15548 15549 0
-2210 -15548 0
-2304 15550 0
-15549 15550 0
-2304 -15549 0
-2402 15551 0
-15550 15551 0
-2402 -15550 0
-2498 15552 0
-15551 15552 0
-2498 -15551 0
-2645 15553 0
-15552 15553 0
-2645 -15552 0
-2740 15554 0
-15553 15554 0
-2740 -15553 0
-2839 15555 0
-15554 15555 0
-2839 -15554 0
-2934 15556 0
-15555 15556 0
-2934 -15555 0
-3033 15557 0
-15556 15557 0
-3033 -15556 0
-3128 15558 0
-15557 15558 0
-3128 -15557 0
-3227 15559 0
-15558 15559 0
-3227 -15558 0
-3322 15560 0
-15559 15560 0
-3322 -15559 0
-3374 15561 0
-15560 15561 0
-3374 -15560 0
-3453 15562 0
-15561 15562 0
-3453 -15561 0
-3518 15563 0
-15562 15563 0
-3518 -15562 0
-3581 15564 0
-15563 15564 0
-3581 -15563 0
-3646 15565 0
-15564 15565 0
-3646 -15564 0
-3709 15566 0
-15565 15566 0
-3709 -15565 0
-3774 15567 0
-15566 15567 0
-3774 -15566 0
-3837 15568 0
-15567 15568 0
-3837 -15567 0
-3932 15569 0
-15568 15569 0
-3932 -15568 0
-3997 15570 0
-15569 15570 0
-3997 -15569 0
-4060 15571 0
-15570 15571 0
-4060 -15570 0
-4125 15572 0
-15571 15572 0
-4125 -15571 0
-4188 15573 0
-15572 15573 0
-4188 -15572 0
-4253 15574 0
-15573 15574 0
-4253 -15573 0
-4316 15575 0
-15574 15575 0
-4316 -15574 0
-4381 15576 0
-15575 15576 0
-4381 -15575 0
-4414 15577 0
-15576 15577 0
-4414 -15576 0
-4477 15578 0
-15577 15578 0
-4477 -15577 0
-4542 15579 0
-15578 15579 0
-4542 -15578 0
-4605 15580 0
-15579 15580 0
-4605 -15579 0
-4670 15581 0
-15580 15581 0
-4670 -15580 0
-4733 15582 0
-15581 15582 0
-4733 -15581 0
-4798 15583 0
-15582 15583 0
-4798 -15582 0
-4861 15584 0
-15583 15584 0
-4861 -15583 0
-4956 15585 0
-15584 15585 0
-4956 -15584 0
-5021 15586 0
-15585 15586 0
-5021 -15585 0
-5084 15587 0
-15586 15587 0
-5084 -15586 0
-5149 15588 0
-15587 15588 0
-5149 -15587 0
-5212 15589 0
-15588 15589 0
-5212 -15588 0
-5277 15590 0
-15589 15590 0
-5277 -15589 0
-5340 15591 0
-15590 15591 0
-5340 -15590 0
-5405 -15591 0
166 229 413 475 653 715 893 997 1053 1221 1277 1445 1501 1669 1725 1823 1964 2019 2158 2211 2352 2403 2546 2644 2692 2838 2886 3032 3080 3226 3274 3375 3485 3519 3613 3647 3741 3775 3869 3933 3965 4061 4093 4189 4221 4317 4349 4415 4509 4543 4637 4671 4765 4799 4893 4957 4989 5085 5117 5213 5245 5341 5373 0
-166 15592 0
-229 15593 0
-15592 15593 0
-229 -15592 0
-413 15594 0
-15593 15594 0
-413 -15593 0
-475 15595 0
-15594 15595 0
-475 -15594 0
-653 15596 0
-15595 15596 0
-653 -15595 0
-715 15597 0
-15596 15597 0
-715 -15596 0
-893 15598 0
-15597 15598 0
-893 -15597 0
-997 15599 0
-15598 15599 0
-997 -15598 0
-1053 15600 0
-15599 15600 0
-1053 -15599 0
-1221 15601 0
-15600 15601 0
-1221 -15600 0
-1277 15602 0
-15601 15602 0
-1277 -15601 0
-1445 15603 0
-15602 15603 0
-1445 -15602 0
-1501 15604 0
-15603 15604 0
-1501 -15603 0
-1669 15605 0
-15604 15605 0
-1669 -15604 0
-1725 15606 0
-15605 15606 0
-1725 -15605 0
-1823 15607 0
-15606 15607 0
-1823 -15606 0
-1964 15608 0
-15607 15608 0
-1964 -15607 0
-2019 15609 0
-15608 15609 0
-2019 -15608 0
-2158 15610 0
-15609 15610 0
-2158 -15609 0
-2211 15611 0
-15610 15611 0
-2211 -15610 0
-2352 15612 0
-15611 15612 0
-2352 -15611 0
-2403 15613 0
-15612 15613 0
-2403 -15612 0
-2546 15614 0
-15613 15614 0
-2546 -15613 0
-2644 15615 0
-15614 15615 0
-2644 -15614 0
-2692 15616 0
-15615 15616 0
-2692 -15615 0
-2838 15617 0
-15616 15617 0
-2838 -15616 0
-2886 15618 0
-15617 15618 0
-2886 -15617 0
-3032 15619 0
-15618 15619 0
-3032 -15618 0
-3080 15620 0
-15619 15620 0
-3080 -15619 0
-3226 15621 0
-15620 15621 0
-3226 -15620 0
-3274 15622 0
-15621 15622 0
-3274 -15621 0
-3375 15623 0
-15622 15623 0
-3375 -15622 0
-3485 15624 0
-15623 15624 0
-3485 -15623 0
-3519 15625 0
-15624 15625 0
-3519 -15624 0
-3613 15626 0
-15625 15626 0
-3613 -15625 0
-3647 15627 0
-15626 15627 0
-3647 -15626 0
-3741 15628 0
-15627 15628 0
-3741 -15627 0
-3775 15629 0
-15628 15629 0
-3775 -15628 0
-3869 15630 0
-15629 15630 0
-3869 -15629 0
-3933 15631 0
-15630 15631 0
-3933 -15630 0
-3965 15632 0
-15631 15632 0
-3965 -15631 0
-4061 15633 0
-15632 15633 0
-4061 -15632 0
-4093 15634 0
-15633 15634 0
-4093 -15633 0
-4189 15635 0
-15634 15635 0
-4189 -15634 0
-4221 15636 0
-15635 15636 0
-4221 -15635 0
-4317 15637 0
-15636 15637 0
-4317 -15636 0
-4349 15638 0
-15637 15638 0
-4349 -15637 0
-4415 15639 0
-15638 15639 0
-4415 -15638 0
-4509 15640 0
-15639 15640 0
-4509 -15639 0
-4543 15641 0
-15640 15641 0
-4543 -15640 0
-4637 15642 0
-15641 15642 0
-4637 -15641 0
-4671 15643 0
-15642 15643 0
-4671 -15642 0
-4765 15644 0
-15643 15644 0
-4765 -15643 0
-4799 15645 0
-15644 15645 0
-4799 -15644 0
-4893 15646 0
-15645 15646 0
-4893 -15645 0
-4957 15647 0
-15646 15647 0
-4957 -15646 0
-4989 15648 0
-15647 15648 0
-4989 -15647 0
-5085 15649 0
-15648 15649 0
-5085 -15648 0
-5117 15650 0
-15649 15650 0
-5117 -15649 0
-5213 15651 0
-15650 15651 0
-5213 -15650 0
-5245 15652 0
-15651 15652 0
-5245 -15651 0
-5341 15653 0
-15652 15653 0
-5341 -15652 0
-5373 -15653 0
41 104 167 226 289 351 413 1388 1446 1502 1558 1612 1670 1726 1782 1824 1871 1919 1967 2012 2061 2109 2157 2984 3035 3083 3131 3176 3225 3273 3321 3376 3422 3454 3486 3520 3550 3582 3614 4156 4190 4222 4254 4284 4318 4350 4382 4416 4446 4478 4510 4544 4574 4606 4638 5180 5214 5246 5278 5308 5342 5374 5406 0
-41 15654 0
-104 15655 0
-15654 15655 0
-104 -15654 0
-167 15656 0
-15655 15656 0
-167 -15655 0
-226 15657 0
-15656 15657 0
-226 -15656 0
-289 15658 0
-15657 15658 0
-289 -15657 0
-351 15659 0
-15658 15659 0
-351 -15658 0
-413 15660 0
-15659 15660 0
-413 -15659 0
-1388 15661 0
-15660 15661 0
-1388 -15660 0
-1446 15662 0
-15661 15662 0
-1446 -15661 0
-1502 15663 0
-15662 15663 0
-1502 -15662 0
-1558 15664 0
-15663 15664 0
-1558 -15663 0
-1612 15665 0
-15664 15665 0
-1612 -15664 0
-1670 15666 0
-15665 15666 0
-1670 -15665 0
-1726 15667 0
-15666 15667 0
-1726 -15666 0
-1782 15668 0
-15667 15668 0
-1782 -15667 0
-1824 15669 0
-15668 15669 0
-1824 -15668 0
-1871 15670 0
-15669 15670 0
-1871 -15669 0
-1919 15671 0
-15670 15671 0
-1919 -15670 0
-1967 15672 0
-15671 15672 0
-1967 -15671 0
-2012 15673 0
-15672 15673 0
-2012 -15672 0
-2061 15674 0
-15673 15674 0
-2061 -15673 0
-2109 15675 0
-15674 15675 0
-2109 -15674 0
-2157 15676 0
-15675 15676 0
-2157 -15675 0
-2984 15677 0
-15676 15677 0
-2984 -15676 0
-3035 15678 0
-15677 15678 0
-3035 -15677 0
-3083 15679 0
-15678 15679 0
-3083 -15678 0
-3131 15680 0
-15679 15680 0
-3131 -15679 0
-3176 15681 0
-15680 15681 0
-3176 -15680 0
-3225 15682 0
-15681 15682 0
-3225 -15681 0
-3273 15683 0
-15682 15683 0
-3273 -15682 0
-3321 15684 0
-15683 15684 0
-3321 -15683 0
-3376 15685 0
-15684 15685 0
-3376 -15684 0
-3422 15686 0
-15685 15686 0
-3422 -15685 0
-3454 15687 0
-15686 15687 0
-3454 -15686 0
-3486 15688 0
-15687 15688 0
-3486 -15687 0
-3520 15689 0
-15688 15689 0
-3520 -15688 0
-3550 15690 0
-15689 15690 0
-3550 -15689 0
-3582 15691 0
-15690 15691 0
-3582 -15690 0
-3614 15692 0
-15691 15692 0
-3614 -15691 0
-4156 15693 0
-15692 15693 0
-4156 -15692 0
-4190 15694 0
-15693 15694 0
-4190 -15693 0
-4222 15695 0
-15694 15695 0
-4222 -15694 0
-4254 15696 0
-15695 15696 0
-4254 -15695 0
-4284 15697 0
-15696 15697 0
-4284 -15696 0
-4318 15698 0
-15697 15698 0
-4318 -15697 0
-4350 15699 0
-15698 15699 0
-4350 -15698 0
-4382 15700 0
-15699 15700 0
-4382 -15699 0
-4416 15701 0
-15700 15701 0
-4416 -15700 0
-4446 15702 0
-15701 15702 0
-4446 -15701 0
-4478 15703 0
-15702 15703 0
-4478 -15702 0
-4510 15704 0
-15703 15704 0
-4510 -15703 0
-4544 15705 0
-15704 15705 0
-4544 -15704 0
-4574 15706 0
-15705 15706 0
-4574 -15705 0
-4606 15707 0
-15706 15707 0
-4606 -15706 0
-4638 15708 0
-15707 15708 0
-4638 -15707 0
-5180 15709 0
-15708 15709 0
-5180 -15708 0
-5214 15710 0
-15709 15710 0
-5214 -15709 0
-5246 15711 0
-15710 15711 0
-5246 -15710 0
-5278 15712 0
-15711 15712 0
-5278 -15711 0
-5308 15713 0
-15712 15713 0
-5308 -15712 0
-5342 15714 0
-15713 15714 0
-5342 -15713 0
-5374 15715 0
-15714 15715 0
-5374 -15714 0
-5406 -15715 0
41 227 288 594 654 834 894 1054 1110 1278 1334 1389 1447 1613 1671 1825 1870 2013 2060 2307 2355 2497 2545 2695 2743 2885 2933 2985 3034 3177 3224 3377 3423 3521 3551 3710 3742 3838 3870 3966 3998 4094 4126 4157 4191 4285 4319 4417 4447 4545 4575 4734 4766 4862 4894 4990 5022 5118 5150 5181 5215 5309 5343 0
-41 15716 0
-227 15717 0
-15716 15717 0
-227 -15716 0
-288 15718 0
-15717 15718 0
-288 -15717 0
-594 15719 0
-15718 15719 0
-594 -15718 0
-654 15720 0
-15719 15720 0
-654 -15719 0
-834 15721 0
-15720 15721 0
-834 -15720 0
-894 15722 0
-15721 15722 0
-894 -15721 0
-1054 15723 0
-15722 15723 0
-1054 -15722 0
-1110 15724 0
-15723 15724 0
-1110 -15723 0
-1278 15725 0
-15724 15725 0
-1278 -15724 0
-1334 15726 0
-15725 15726 0
-1334 -15725 0
-1389 15727 0
-15726 15727 0
-1389 -15726 0
-1447 15728 0
-15727 15728 0
-1447 -15727 0
-1613 15729 0
-15728 15729 0
-1613 -15728 0
-1671 15730 0
-15729 15730 0
-1671 -15729 0
-1825 15731 0
-15730 15731 0
-1825 -15730 0
-1870 15732 0
-15731 15732 0
-1870 -15731 0
-2013 15733 0
-15732 15733 0
-2013 -15732 0
-2060 15734 0
-15733 15734 0
-2060 -15733 0
-2307 15735 0
-15734 15735 0
-2307 -15734 0
-2355 15736 0
-15735 15736 0
-2355 -15735 0
-2497 15737 0
-15736 15737 0
-2497 -15736 0
-2545 15738 0
-15737 15738 0
-2545 -15737 0
-2695 15739 0
-15738 15739 0
-2695 -15738 0
-2743 15740 0
-15739 15740 0
-2743 -15739 0
-2885 15741 0
-15740 15741 0
-2885 -15740 0
-2933 15742 0
-15741 15742 0
-2933 -15741 0
-2985 15743 0
-15742 15743 0
-2985 -15742 0
-3034 15744 0
-15743 15744 0
-3034 -15743 0
-3177 15745 0
-15744 15745 0
-3177 -15744 0
-3224 15746 0
-15745 15746 0
-3224 -15745 0
-3377 15747 0
-15746 15747 0
-3377 -15746 0
-3423 15748 0
-15747 15748 0
-3423 -15747 0
-3521 15749 0
-15748 15749 0
-3521 -15748 0
-3551 15750 0
-15749 15750 0
-3551 -15749 0
-3710 15751 0
-15750 15751 0
-3710 -15750 0
-3742 15752 0
-15751 15752 0
-3742 -15751 0
-3838 15753 0
-15752 15753 0
-3838 -15752 0
-3870 15754 0
-15753 15754 0
-3870 -15753 0
-3966 15755 0
-15754 15755 0
-3966 -15754 0
-3998 15756 0
-15755 15756 0
-3998 -15755 0
-4094 15757 0
-15756 15757 0
-4094 -15756 0
-4126 15758 0
-15757 15758 0
-4126 -15757 0
-4157 15759 0
-15758 15759 0
-4157 -15758 0
-4191 15760 0
-15759 15760 0
-4191 -15759 0
-4285 15761 0
-15760 15761 0
-4285 -15760 0
-4319 15762 0
-15761 15762 0
-4319 -15761 0
-4417 15763 0
-15762 15763 0
-4417 -15762 0
-4447 15764 0
-15763 15764 0
-4447 -15763 0
-4545 15765 0
-15764 15765 0
-4545 -15764 0
-4575 15766 0
-15765 15766 0
-4575 -15765 0
-4734 15767 0
-15766 15767 0
-4734 -15766 0
-4766 15768 0
-15767 15768 0
-4766 -15767 0
-4862 15769 0
-15768 15769 0
-4862 -15768 0
-4894 15770 0
-15769 15770 0
-4894 -15769 0
-4990 15771 0
-15770 15771 0
-4990 -15770 0
-5022 15772 0
-15771 15772 0
-5022 -15771 0
-5118 15773 0
-15772 15773 0
-5118 -15772 0
-5150 15774 0
-15773 15774 0
-5150 -15773 0
-5181 15775 0
-15774 15775 0
-5181 -15774 0
-5215 15776 0
-15775 15776 0
-5215 -15775 0
-5309 15777 0
-15776 15777 0
-5309 -15776 0
-5343 -15777 0
104 228 350 534 655 774 895 998 1111 1222 1335 1390 1503 1614 1727 1826 1918 2014 2108 2259 2354 2449 2544 2647 2742 2837 2932 2986 3082 3178 3272 3378 3455 3522 3583 3678 3743 3806 3871 3934 3999 4062 4127 4158 4223 4286 4351 4418 4479 4546 4607 4702 4767 4830 4895 4958 5023 5086 5151 5182 5247 5310 5375 0
-104 15778 0
-228 15779 0
-15778 15779 0
-228 -15778 0
-350 15780 0
-15779 15780 0
-350 -15779 0
-534 15781 0
-15780 15781 0
-534 -15780 0
-655 15782 0
-15781 15782 0
-655 -15781 0
-774 15783 0
-15782 15783 0
-774 -15782 0
-895 15784 0
-15783 15784 0
-895 -15783 0
-998 15785 0
-15784 15785 0
-998 -15784 0
-1111 15786 0
-15785 15786 0
-1111 -15785 0
-1222 15787 0
-15786 15787 0
-1222 -15786 0
-1335 15788 0
-15787 15788 0
-1335 -15787 0
-1390 15789 0
-15788 15789 0
-1390 -15788 0
-1503 15790 0
-15789 15790 0
-1503 -15789 0
-1614 15791 0
-15790 15791 0
-1614 -15790 0
-1727 15792 0
-15791 15792 0
-1727 -15791 0
-1826 15793 0
-15792 15793 0
-1826 -15792 0
-1918 15794 0
-15793 15794 0
-1918 -15793 0
-2014 15795 0
-15794 15795 0
-2014 -15794 0
-2108 15796 0
-15795 15796 0
-2108 -15795 0
-2259 15797 0
-15796 15797 0
-2259 -15796 0
-2354 15798 0
-15797 15798 0
-2354 -15797 0
-2449 15799 0
-15798 15799 0
-2449 -15798 0
-2544 15800 0
-15799 15800 0
-2544 -15799 0
-2647 15801 0
-15800 15801 0
-2647 -15800 0
-2742 15802 0
-15801 15802 0
-2742 -15801 0
-2837 15803 0
-15802 15803 0
-2837 -15802 0
-2932 15804 0
-15803 15804 0
-2932 -15803 0
-2986 15805 0
-15804 15805 0
-2986 -15804 0
-3082 15806 0
-15805 15806 0
-3082 -15805 0
-3178 15807 0
-15806 15807 0
-3178 -15806 0
-3272 15808 0
-15807 15808 0
-3272 -15807 0
-3378 15809 0
-15808 15809 0
-3378 -15808 0
-3455 15810 0
-15809 15810 0
-3455 -15809 0
-3522 15811 0
-15810 15811 0
-3522 -15810 0
-3583 15812 0
-15811 15812 0
-3583 -15811 0
-3678 15813 0
-15812 15813 0
-3678 -15812 0
-3743 15814 0
-15813 15814 0
-3743 -15813 0
-3806 15815 0
-15814 15815 0
-3806 -15814 0
-3871 15816 0
-15815 15816 0
-3871 -15815 0
-3934 15817 0
-15816 15817 0
-3934 -15816 0
-3999 15818 0
-15817 15818 0
-3999 -15817 0
-4062 15819 0
-15818 15819 0
-4062 -15818 0
-4127 15820 0
-15819 15820 0
-4127 -15819 0
-4158 15821 0
-15820 15821 0
-4158 -15820 0
-4223 15822 0
-15821 15822 0
-4223 -15821 0
-4286 15823 0
-15822 15823 0
-4286 -15822 0
-4351 15824 0
-15823 15824 0
-4351 -15823 0
-4418 15825 0
-15824 15825 0
-4418 -15824 0
-4479 15826 0
-15825 15826 0
-4479 -15825 0
-4546 15827 0
-15826 15827 0
-4546 -15826 0
-4607 15828 0
-15827 15828 0
-4607 -15827 0
-4702 15829 0
-15828 15829 0
-4702 -15828 0
-4767 15830 0
-15829 15830 0
-4767 -15829 0
-4830 15831 0
-15830 15831 0
-4830 -15830 0
-4895 15832 0
-15831 15832 0
-4895 -15831 0
-4958 15833 0
-15832 15833 0
-4958 -15832 0
-5023 15834 0
-15833 15834 0
-5023 -15833 0
-5086 15835 0
-15834 15835 0
-5086 -15834 0
-5151 15836 0
-15835 15836 0
-5151 -15835 0
-5182 15837 0
-15836 15837 0
-5182 -15836 0
-5247 15838 0
-15837 15838 0
-5247 -15837 0
-5310 15839 0
-15838 15839 0
-5310 -15838 0
-5375 -15839 0
167 229 412 535 595 775 835 999 1055 1223 1279 1391 1559 1615 1783 1827 1966 2015 2156 2258 2306 2448 2496 2646 2694 2836 2884 2987 3130 3179 3320 3379 3487 3523 3615 3679 3711 3807 3839 3935 3967 4063 4095 4159 4255 4287 4383 4419 4511 4547 4639 4703 4735 4831 4863 4959 4991 5087 5119 5183 5279 5311 5407 0
-167 15840 0
-229 15841 0
-15840 15841 0
-229 -15840 0
-412 15842 0
-15841 15842 0
-412 -15841 0
-535 15843 0
-15842 15843 0
-535 -15842 0
-595 15844 0
-15843 15844 0
-595 -15843 0
-775 15845 0
-15844 15845 0
-775 -15844 0
-835 15846 0
-15845 15846 0
-835 -15845 0
-999 15847 0
-15846 15847 0
-999 -15846 0
-1055 15848 0
-15847 15848 0
-1055 -15847 0
-1223 15849 0
-15848 15849 0
-1223 -15848 0
-1279 15850 0
-15849 15850 0
-1279 -15849 0
-1391 15851 0
-15850 15851 0
-1391 -15850 0
-1559 15852 0
-15851 15852 0
-1559 -15851 0
-1615 15853 0
-15852 15853 0
-1615 -15852 0
-1783 15854 0
-15853 15854 0
-1783 -15853 0
-1827 15855 0
-15854 15855 0
-1827 -15854 0
-1966 15856 0
-15855 15856 0
-1966 -15855 0
-2015 15857 0
-15856 15857 0
-2015 -15856 0
-2156 15858 0
-15857 15858 0
-2156 -15857 0
-2258 15859 0
-15858 15859 0
-2258 -15858 0
-2306 15860 0
-15859 15860 0
-2306 -15859 0
-2448 15861 0
-15860 15861 0
-2448 -15860 0
-2496 15862 0
-15861 15862 0
-2496 -15861 0
-2646 15863 0
-15862 15863 0
-2646 -15862 0
-2694 15864 0
-15863 15864 0
-2694 -15863 0
-2836 15865 0
-15864 15865 0
-2836 -15864 0
-2884 15866 0
-15865 15866 0
-2884 -15865 0
-2987 15867 0
-15866 15867 0
-2987 -15866 0
-3130 15868 0
-15867 15868 0
-3130 -15867 0
-3179 15869 0
-15868 15869 0
-3179 -15868 0
-3320 15870 0
-15869 15870 0
-3320 -15869 0
-3379 15871 0
-15870 15871 0
-3379 -15870 0
-3487 15872 0
-15871 15872 0
-3487 -15871 0
-3523 15873 0
-15872 15873 0
-3523 -15872 0
-3615 15874 0
-15873 15874 0
-3615 -15873 0
-3679 15875 0
-15874 15875 0
-3679 -15874 0
-3711 15876 0
-15875 15876 0
-3711 -15875 0
-3807 15877 0
-15876 15877 0
-3807 -15876 0
-3839 15878 0
-15877 15878 0
-3839 -15877 0
-3935 15879 0
-15878 15879 0
-3935 -15878 0
-3967 15880 0
-15879 15880 0
-3967 -15879 0
-4063 15881 0
-15880 15881 0
-4063 -15880 0
-4095 15882 0
-15881 15882 0
-4095 -15881 0
-4159 15883 0
-15882 15883 0
-4159 -15882 0
-4255 15884 0
-15883 15884 0
-4255 -15883 0
-4287 15885 0
-15884 15885 0
-4287 -15884 0
-4383 15886 0
-15885 15886 0
-4383 -15885 0
-4419 15887 0
-15886 15887 0
-4419 -15886 0
-4511 15888 0
-15887 15888 0
-4511 -15887 0
-4547 15889 0
-15888 15889 0
-4547 -15888 0
-4639 15890 0
-15889 15890 0
-4639 -15889 0
-4703 15891 0
-15890 15891 0
-4703 -15890 0
-4735 15892 0
-15891 15892 0
-4735 -15891 0
-4831 15893 0
-15892 15893 0
-4831 -15892 0
-4863 15894 0
-15893 15894 0
-4863 -15893 0
-4959 15895 0
-15894 15895 0
-4959 -15894 0
-4991 15896 0
-15895 15896 0
-4991 -15895 0
-5087 15897 0
-15896 15897 0
-5087 -15896 0
-5119 15898 0
-15897 15898 0
-5119 -15897 0
-5183 15899 0
-15898 15899 0
-5183 -15898 0
-5279 15900 0
-15899 15900 0
-5279 -15899 0
-5311 15901 0
-15900 15901 0
-5311 -15900 0
-5407 -15901 0
42 105 168 472 533 593 653 1164 1224 1280 1336 1616 1672 1728 1784 1828 1873 1921 1969 2204 2253 2301 2349 2792 2843 2891 2939 3172 3223 3271 3319 3380 3424 3456 3488 3648 3680 3712 3744 4028 4064 4096 4128 4288 4320 4352 4384 4420 4448 4480 4512 4672 4704 4736 4768 5052 5088 5120 5152 5312 5344 5376 5408 0
-42 15902 0
-105 15903 0
-15902 15903 0
-105 -15902 0
-168 15904 0
-15903 15904 0
-168 -15903 0
-472 15905 0
-15904 15905 0
-472 -15904 0
-533 15906 0
-15905 15906 0
-533 -15905 0
-593 15907 0
-15906 15907 0
-593 -15906 0
-653 15908 0
-15907 15908 0
-653 -15907 0
-1164 15909 0
-15908 15909 0
-1164 -15908 0
-1224 15910 0
-15909 15910 0
-1224 -15909 0
-1280 15911 0
-15910 15911 0
-1280 -15910 0
-1336 15912 0
-15911 15912 0
-1336 -15911 0
-1616 15913 0
-15912 15913 0
-1616 -15912 0
-1672 15914 0
-15913 15914 0
-1672 -15913 0
-1728 15915 0
-15914 15915 0
-1728 -15914 0
-1784 15916 0
-15915 15916 0
-1784 -15915 0
-1828 15917 0
-15916 15917 0
-1828 -15916 0
-1873 15918 0
-15917 15918 0
-1873 -15917 0
-1921 15919 0
-15918 15919 0
-1921 -15918 0
-1969 15920 0
-15919 15920 0
-1969 -15919 0
-2204 15921 0
-15920 15921 0
-2204 -15920 0
-2253 15922 0
-15921 15922 0
-2253 -15921 0
-2301 15923 0
-15922 15923 0
-2301 -15922 0
-2349 15924 0
-15923 15924 0
-2349 -15923 0
-2792 15925 0
-15924 15925 0
-2792 -15924 0
-2843 15926 0
-15925 15926 0
-2843 -15925 0
-2891 15927 0
-15926 15927 0
-2891 -15926 0
-2939 15928 0
-15927 15928 0
-2939 -15927 0
-3172 15929 0
-15928 15929 0
-3172 -15928 0
-3223 15930 0
-15929 15930 0
-3223 -15929 0
-3271 15931 0
-15930 15931 0
-3271 -15930 0
-3319 15932 0
-15931 15932 0
-3319 -15931 0
-3380 15933 0
-15932 15933 0
-3380 -15932 0
-3424 15934 0
-15933 15934 0
-3424 -15933 0
-3456 15935 0
-15934 15935 0
-3456 -15934 0
-3488 15936 0
-15935 15936 0
-3488 -15935 0
-3648 15937 0
-15936 15937 0
-3648 -15936 0
-3680 15938 0
-15937 15938 0
-3680 -15937 0
-3712 15939 0
-15938 15939 0
-3712 -15938 0
-3744 15940 0
-15939 15940 0
-3744 -15939 0
-4028 15941 0
-15940 15941 0
-4028 -15940 0
-4064 15942 0
-15941 15942 0
-4064 -15941 0
-4096 15943 0
-15942 15943 0
-4096 -15942 0
-4128 15944 0
-15943 15944 0
-4128 -15943 0
-4288 15945 0
-15944 15945 0
-4288 -15944 0
-4320 15946 0
-15945 15946 0
-4320 -15945 0
-4352 15947 0
-15946 15947 0
-4352 -15946 0
-4384 15948 0
-15947 15948 0
-4384 -15947 0
-4420 15949 0
-15948 15949 0
-4420 -15948 0
-4448 15950 0
-15949 15950 0
-4448 -15949 0
-4480 15951 0
-15950 15951 0
-4480 -15950 0
-4512 15952 0
-15951 15952 0
-4512 -15951 0
-4672 15953 0
-15952 15953 0
-4672 -15952 0
-4704 15954 0
-15953 15954 0
-4704 -15953 0
-4736 15955 0
-15954 15955 0
-4736 -15954 0
-4768 15956 0
-15955 15956 0
-4768 -15955 0
-5052 15957 0
-15956 15957 0
-5052 -15956 0
-5088 15958 0
-15957 15958 0
-5088 -15957 0
-5120 15959 0
-15958 15959 0
-5120 -15958 0
-5152 15960 0
-15959 15960 0
-5152 -15959 0
-5312 15961 0
-15960 15961 0
-5312 -15960 0
-5344 15962 0
-15961 15962 0
-5344 -15961 0
-5376 15963 0
-15962 15963 0
-5376 -15962 0
-5408 -15963 0
42 352 414 473 532 835 895 1056 1112 1165 1225 1504 1560 1617 1673 1829 1872 2115 2163 2205 2252 2495 2543 2697 2745 2793 2842 3077 3125 3173 3222 3381 3425 3584 3616 3649 3681 3840 3872 3968 4000 4029 4065 4224 4256 4289 4321 4421 4449 4608 4640 4673 4705 4864 4896 4992 5024 5053 5089 5248 5280 5313 5345 0
-42 15964 0
-352 15965 0
-15964 15965 0
-352 -15964 0
-414 15966 0
-15965 15966 0
-414 -15965 0
-473 15967 0
-15966 15967 0
-473 -15966 0
-532 15968 0
-15967 15968 0
-532 -15967 0
-835 15969 0
-15968 15969 0
-835 -15968 0
-895 15970 0
-15969 15970 0
-895 -15969 0
-1056 15971 0
-15970 15971 0
-1056 -15970 0
-1112 15972 0
-15971 15972 0
-1112 -15971 0
-1165 15973 0
-15972 15973 0
-1165 -15972 0
-1225 15974 0
-15973 15974 0
-1225 -15973 0
-1504 15975 0
-15974 15975 0
-1504 -15974 0
-1560 15976 0
-15975 15976 0
-1560 -15975 0
-1617 15977 0
-15976 15977 0
-1617 -15976 0
-1673 15978 0
-15977 15978 0
-1673 -15977 0
-1829 15979 0
-15978 15979 0
-1829 -15978 0
-1872 15980 0
-15979 15980 0
-1872 -15979 0
-2115 15981 0
-15980 15981 0
-2115 -15980 0
-2163 15982 0
-15981 15982 0
-2163 -15981 0
-2205 15983 0
-15982 15983 0
-2205 -15982 0
-2252 15984 0
-15983 15984 0
-2252 -15983 0
-2495 15985 0
-15984 15985 0
-2495 -15984 0
-2543 15986 0
-15985 15986 0
-2543 -15985 0
-2697 15987 0
-15986 15987 0
-2697 -15986 0
-2745 15988 0
-15987 15988 0
-2745 -15987 0
-2793 15989 0
-15988 15989 0
-2793 -15988 0
-2842 15990 0
-15989 15990 0
-2842 -15989 0
-3077 15991 0
-15990 15991 0
-3077 -15990 0
-3125 15992 0
-15991 15992 0
-3125 -15991 0
-3173 15993 0
-15992 15993 0
-3173 -15992 0
-3222 15994 0
-15993 15994 0
-3222 -15993 0
-3381 15995 0
-15994 15995 0
-3381 -15994 0
-3425 15996 0
-15995 15996 0
-3425 -15995 0
-3584 15997 0
-15996 15997 0
-3584 -15996 0
-3616 15998 0
-15997 15998 0
-3616 -15997 0
-3649 15999 0
-15998 15999 0
-3649 -15998 0
-3681 16000 0
-15999 16000 0
-3681 -15999 0
-3840 16001 0
-16000 16001 0
-3840 -16000 0
-3872 16002 0
-16001 16002 0
-3872 -16001 0
-3968 16003 0
-16002 16003 0
-3968 -16002 0
-4000 16004 0
-16003 16004 0
-4000 -16003 0
-4029 16005 0
-16004 16005 0
-4029 -16004 0
-4065 16006 0
-16005 16006 0
-4065 -16005 0
-4224 16007 0
-16006 16007 0
-4224 -16006 0
-4256 16008 0
-16007 16008 0
-4256 -16007 0
-4289 16009 0
-16008 16009 0
-4289 -16008 0
-4321 16010 0
-16009 16010 0
-4321 -16009 0
-4421 16011 0
-16010 16011 0
-4421 -16010 0
-4449 16012 0
-16011 16012 0
-4449 -16011 0
-4608 16013 0
-16012 16013 0
-4608 -16012 0
-4640 16014 0
-16013 16014 0
-4640 -16013 0
-4673 16015 0
-16014 16015 0
-4673 -16014 0
-4705 16016 0
-16015 16016 0
-4705 -16015 0
-4864 16017 0
-16016 16017 0
-4864 -16016 0
-4896 16018 0
-16017 16018 0
-4896 -16017 0
-4992 16019 0
-16018 16019 0
-4992 -16018 0
-5024 16020 0
-16019 16020 0
-5024 -16019 0
-5053 16021 0
-16020 16021 0
-5053 -16020 0
-5089 16022 0
-16021 16022 0
-5089 -16021 0
-5248 16023 0
-16022 16023 0
-5248 -16022 0
-5280 16024 0
-16023 16024 0
-5280 -16023 0
-5313 16025 0
-16024 16025 0
-5313 -16024 0
-5345 -16025 0
105 290 415 474 592 775 894 1000 1113 1166 1281 1448 1561 1618 1729 1830 1920 2067 2162 2206 2300 2447 2542 2649 2744 2794 2890 3029 3124 3174 3270 3382 3457 3552 3617 3650 3713 3808 3873 3936 4001 4030 4097 4192 4257 4290 4353 4422 4481 4576 4641 4674 4737 4832 4897 4960 5025 5054 5121 5216 5281 5314 5377 0
-105 16026 0
-290 16027 0
-16026 16027 0
-290 -16026 0
-415 16028 0
-16027 16028 0
-415 -16027 0
-474 16029 0
-16028 16029 0
-474 -16028 0
-592 16030 0
-16029 16030 0
-592 -16029 0
-775 16031 0
-16030 16031 0
-775 -16030 0
-894 16032 0
-16031 16032 0
-894 -16031 0
-1000 16033 0
-16032 16033 0
-1000 -16032 0
-1113 16034 0
-16033 16034 0
-1113 -16033 0
-1166 16035 0
-16034 16035 0
-1166 -16034 0
-1281 16036 0
-16035 16036 0
-1281 -16035 0
-1448 16037 0
-16036 16037 0
-1448 -16036 0
-1561 16038 0
-16037 16038 0
-1561 -16037 0
-1618 16039 0
-16038 16039 0
-1618 -16038 0
-1729 16040 0
-16039 16040 0
-1729 -16039 0
-1830 16041 0
-16040 16041 0
-1830 -16040 0
-1920 16042 0
-16041 16042 0
-1920 -16041 0
-2067 16043 0
-16042 16043 0
-2067 -16042 0
-2162 16044 0
-16043 16044 0
-2162 -16043 0
-2206 16045 0
-16044 16045 0
-2206 -16044 0
-2300 16046 0
-16045 16046 0
-2300 -16045 0
-2447 16047 0
-16046 16047 0
-2447 -16046 0
-2542 16048 0
-16047 16048 0
-2542 -16047 0
-2649 16049 0
-16048 16049 0
-2649 -16048 0
-2744 16050 0
-16049 16050 0
-2744 -16049 0
-2794 16051 0
-16050 16051 0
-2794 -16050 0
-2890 16052 0
-16051 16052 0
-2890 -16051 0
-3029 16053 0
-16052 16053 0
-3029 -16052 0
-3124 16054 0
-16053 16054 0
-3124 -16053 0
-3174 16055 0
-16054 16055 0
-3174 -16054 0
-3270 16056 0
-16055 16056 0
-3270 -16055 0
-3382 16057 0
-16056 16057 0
-3382 -16056 0
-3457 16058 0
-16057 16058 0
-3457 -16057 0
-3552 16059 0
-16058 16059 0
-3552 -16058 0
-3617 16060 0
-16059 16060 0
-3617 -16059 0
-3650 16061 0
-16060 16061 0
-3650 -16060 0
-3713 16062 0
-16061 16062 0
-3713 -16061 0
-3808 16063 0
-16062 16063 0
-3808 -16062 0
-3873 16064 0
-16063 16064 0
-3873 -16063 0
-3936 16065 0
-16064 16065 0
-3936 -16064 0
-4001 16066 0
-16065 16066 0
-4001 -16065 0
-4030 16067 0
-16066 16067 0
-4030 -16066 0
-4097 16068 0
-16067 16068 0
-4097 -16067 0
-4192 16069 0
-16068 16069 0
-4192 -16068 0
-4257 16070 0
-16069 16070 0
-4257 -16069 0
-4290 16071 0
-16070 16071 0
-4290 -16070 0
-4353 16072 0
-16071 16072 0
-4353 -16071 0
-4422 16073 0
-16072 16073 0
-4422 -16072 0
-4481 16074 0
-16073 16074 0
-4481 -16073 0
-4576 16075 0
-16074 16075 0
-4576 -16074 0
-4641 16076 0
-16075 16076 0
-4641 -16075 0
-4674 16077 0
-16076 16077 0
-4674 -16076 0
-4737 16078 0
-16077 16078 0
-4737 -16077 0
-4832 16079 0
-16078 16079 0
-4832 -16078 0
-4897 16080 0
-16079 16080 0
-4897 -16079 0
-4960 16081 0
-16080 16081 0
-4960 -16080 0
-5025 16082 0
-16081 16082 0
-5025 -16081 0
-5054 16083 0
-16082 16083 0
-5054 -16082 0
-5121 16084 0
-16083 16084 0
-5121 -16083 0
-5216 16085 0
-16084 16085 0
-5216 -16084 0
-5281 16086 0
-16085 16086 0
-5281 -16085 0
-5314 16087 0
-16086 16087 0
-5314 -16086 0
-5377 -16087 0
168 291 353 475 652 774 834 1001 1057 1167 1337 1449 1505 1619 1785 1831 1968 2066 2114 2207 2348 2446 2494 2648 2696 2795 2938 3028 3076 3175 3318 3383 3489 3553 3585 3651 3745 3809 3841 3937 3969 4031 4129 4193 4225 4291 4385 4423 4513 4577 4609 4675 4769 4833 4865 4961 4993 5055 5153 5217 5249 5315 5409 0
-168 16088 0
-291 16089 0
-16088 16089 0
-291 -16088 0
-353 16090 0
-16089 16090 0
-353 -16089 0
-475 16091 0
-16090 16091 0
-475 -16090 0
-652 16092 0
-16091 16092 0
-652 -16091 0
-774 16093 0
-16092 16093 0
-774 -16092 0
-834 16094 0
-16093 16094 0
-834 -16093 0
-1001 16095 0
-16094 16095 0
-1001 -16094 0
-1057 16096 0
-16095 16096 0
-1057 -16095 0
-1167 16097 0
-16096 16097 0
-1167 -16096 0
-1337 16098 0
-16097 16098 0
-1337 -16097 0
-1449 16099 0
-16098 16099 0
-1449 -16098 0
-1505 16100 0
-16099 16100 0
-1505 -16099 0
-1619 16101 0
-16100 16101 0
-1619 -16100 0
-1785 16102 0
-16101 16102 0
-1785 -16101 0
-1831 16103 0
-16102 16103 0
-1831 -16102 0
-1968 16104 0
-16103 16104 0
-1968 -16103 0
-2066 16105 0
-16104 16105 0
-2066 -16104 0
-2114 16106 0
-16105 16106 0
-2114 -16105 0
-2207 16107 0
-16106 16107 0
-2207 -16106 0
-2348 16108 0
-16107 16108 0
-2348 -16107 0
-2446 16109 0
-16108 16109 0
-2446 -16108 0
-2494 16110 0
-16109 16110 0
-2494 -16109 0
-2648 16111 0
-16110 16111 0
-2648 -16110 0
-2696 16112 0
-16111 16112 0
-2696 -16111 0
-2795 16113 0
-16112 16113 0
-2795 -16112 0
-2938 16114 0
-16113 16114 0
-2938 -16113 0
-3028 16115 0
-16114 16115 0
-3028 -16114 0
-3076 16116 0
-16115 16116 0
-3076 -16115 0
-3175 16117 0
-16116 16117 0
-3175 -16116 0
-3318 16118 0
-16117 16118 0
-3318 -16117 0
-3383 16119 0
-16118 16119 0
-3383 -16118 0
-3489 16120 0
-16119 16120 0
-3489 -16119 0
-3553 16121 0
-16120 16121 0
-3553 -16120 0
-3585 16122 0
-16121 16122 0
-3585 -16121 0
-3651 16123 0
-16122 16123 0
-3651 -16122 0
-3745 16124 0
-16123 16124 0
-3745 -16123 0
-3809 16125 0
-16124 16125 0
-3809 -16124 0
-3841 16126 0
-16125 16126 0
-3841 -16125 0
-3937 16127 0
-16126 16127 0
-3937 -16126 0
-3969 16128 0
-16127 16128 0
-3969 -16127 0
-4031 16129 0
-16128 16129 0
-4031 -16128 0
-4129 16130 0
-16129 16130 0
-4129 -16129 0
-4193 16131 0
-16130 16131 0
-4193 -16130 0
-4225 16132 0
-16131 16132 0
-4225 -16131 0
-4291 16133 0
-16132 16133 0
-4291 -16132 0
-4385 16134 0
-16133 16134 0
-4385 -16133 0
-4423 16135 0
-16134 16135 0
-4423 -16134 0
-4513 16136 0
-16135 16136 0
-4513 -16135 0
-4577 16137 0
-16136 16137 0
-4577 -16136 0
-4609 16138 0
-16137 16138 0
-4609 -16137 0
-4675 16139 0
-16138 16139 0
-4675 -16138 0
-4769 16140 0
-16139 16140 0
-4769 -16139 0
-4833 16141 0
-16140 16141 0
-4833 -16140 0
-4865 16142 0
-16141 16142 0
-4865 -16141 0
-4961 16143 0
-16142 16143 0
-4961 -16142 0
-4993 16144 0
-16143 16144 0
-4993 -16143 0
-5055 16145 0
-16144 16145 0
-5055 -16144 0
-5153 16146 0
-16145 16146 0
-5153 -16145 0
-5217 16147 0
-16146 16147 0
-5217 -16146 0
-5249 16148 0
-16147 16148 0
-5249 -16147 0
-5315 16149 0
-16148 16149 0
-5315 -16148 0
-5409 -16149 0
43 106 169 712 773 833 893 1168 1226 1282 1338 1392 1450 1506 1562 1832 1875 1923 1971 2396 2445 2493 2541 2788 2841 2889 2937 2980 3031 3079 3127 3384 3426 3458 3490 3776 3810 3842 3874 4032 4066 4098 4130 4160 4194 4226 4258 4424 4450 4482 4514 4800 4834 4866 4898 5056 5090 5122 5154 5184 5218 5250 5282 0
-43 16150 0
-106 16151 0
-16150 16151 0
-106 -16150 0
-169 16152 0
-16151 16152 0
-169 -16151 0
-712 16153 0
-16152 16153 0
-712 -16152 0
-773 16154 0
-16153 16154 0
-773 -16153 0
-833 16155 0
-16154 16155 0
-833 -16154 0
-893 16156 0
-16155 16156 0
-893 -16155 0
-1168 16157 0
-16156 16157 0
-1168 -16156 0
-1226 16158 0
-16157 16158 0
-1226 -16157 0
-1282 16159 0
-16158 16159 0
-1282 -16158 0
-1338 16160 0
-16159 16160 0
-1338 -16159 0
-1392 16161 0
-16160 16161 0
-1392 -16160 0
-1450 16162 0
-16161 16162 0
-1450 -16161 0
-1506 16163 0
-16162 16163 0
-1506 -16162 0
-1562 16164 0
-16163 16164 0
-1562 -16163 0
-1832 16165 0
-16164 16165 0
-1832 -16164 0
-1875 16166 0
-16165 16166 0
-1875 -16165 0
-1923 16167 0
-16166 16167 0
-1923 -16166 0
-1971 16168 0
-16167 16168 0
-1971 -16167 0
-2396 16169 0
-16168 16169 0
-2396 -16168 0
-2445 16170 0
-16169 16170 0
-2445 -16169 0
-2493 16171 0
-16170 16171 0
-2493 -16170 0
-2541 16172 0
-16171 16172 0
-2541 -16171 0
-2788 16173 0
-16172 16173 0
-2788 -16172 0
-2841 16174 0
-16173 16174 0
-2841 -16173 0
-2889 16175 0
-16174 16175 0
-2889 -16174 0
-2937 16176 0
-16175 16176 0
-2937 -16175 0
-2980 16177 0
-16176 16177 0
-2980 -16176 0
-3031 16178 0
-16177 16178 0
-3031 -16177 0
-3079 16179 0
-16178 16179 0
-3079 -16178 0
-3127 16180 0
-16179 16180 0
-3127 -16179 0
-3384 16181 0
-16180 16181 0
-3384 -16180 0
-3426 16182 0
-16181 16182 0
-3426 -16181 0
-3458 16183 0
-16182 16183 0
-3458 -16182 0
-3490 16184 0
-16183 16184 0
-3490 -16183 0
-3776 16185 0
-16184 16185 0
-3776 -16184 0
-3810 16186 0
-16185 16186 0
-3810 -16185 0
-3842 16187 0
-16186 16187 0
-3842 -16186 0
-3874 16188 0
-16187 16188 0
-3874 -16187 0
-4032 16189 0
-16188 16189 0
-4032 -16188 0
-4066 16190 0
-16189 16190 0
-4066 -16189 0
-4098 16191 0
-16190 16191 0
-4098 -16190 0
-4130 16192 0
-16191 16192 0
-4130 -16191 0
-4160 16193 0
-16192 16193 0
-4160 -16192 0
-4194 16194 0
-16193 16194 0
-4194 -16193 0
-4226 16195 0
-16194 16195 0
-4226 -16194 0
-4258 16196 0
-16195 16196 0
-4258 -16195 0
-4424 16197 0
-16196 16197 0
-4424 -16196 0
-4450 16198 0
-16197 16198 0
-4450 -16197 0
-4482 16199 0
-16198 16199 0
-4482 -16198 0
-4514 16200 0
-16199 16200 0
-4514 -16199 0
-4800 16201 0
-16200 16201 0
-4800 -16200 0
-4834 16202 0
-16201 16202 0
-4834 -16201 0
-4866 16203 0
-16202 16203 0
-4866 -16202 0
-4898 16204 0
-16203 16204 0
-4898 -16203 0
-5056 16205 0
-16204 16205 0
-5056 -16204 0
-5090 16206 0
-16205 16206 0
-5090 -16205 0
-5122 16207 0
-16206 16207 0
-5122 -16206 0
-5154 16208 0
-16207 16208 0
-5154 -16207 0
-5184 16209 0
-16208 16209 0
-5184 -16208 0
-5218 16210 0
-16209 16210 0
-5218 -16209 0
-5250 16211 0
-16210 16211 0
-5250 -16210 0
-5282 -16211 0
43 353 415 595 655 713 772 1058 1114 1169 1227 1393 1451 1730 1786 1833 1874 2113 2161 2303 2351 2397 2444 2699 2747 2789 2840 2981 3030 3269 3317 3385 3427 3586 3618 3714 3746 3777 3811 3970 4002 4033 4067 4161 4195 4354 4386 4425 4451 4610 4642 4738 4770 4801 4835 4994 5026 5057 5091 5185 5219 5378 5410 0
-43 16212 0
-353 16213 0
-16212 16213 0
-353 -16212 0
-415 16214 0
-16213 16214 0
-415 -16213 0
-595 16215 0
-16214 16215 0
-595 -16214 0
-655 16216 0
-16215 16216 0
-655 -16215 0
-713 16217 0
-16216 16217 0
-713 -16216 0
-772 16218 0
-16217 16218 0
-772 -16217 0
-1058 16219 0
-16218 16219 0
-1058 -16218 0
-1114 16220 0
-16219 16220 0
-1114 -16219 0
-1169 16221 0
-16220 16221 0
-1169 -16220 0
-1227 16222 0
-16221 16222 0
-1227 -16221 0
-1393 16223 0
-16222 16223 0
-1393 -16222 0
-1451 16224 0
-16223 16224 0
-1451 -16223 0
-1730 16225 0
-16224 16225 0
-1730 -16224 0
-1786 16226 0
-16225 16226 0
-1786 -16225 0
-1833 16227 0
-16226 16227 0
-1833 -16226 0
-1874 16228 0
-16227 16228 0
-1874 -16227 0
-2113 16229 0
-16228 16229 0
-2113 -16228 0
-2161 16230 0
-16229 16230 0
-2161 -16229 0
-2303 16231 0
-16230 16231 0
-2303 -16230 0
-2351 16232 0
-16231 16232 0
-2351 -16231 0
-2397 16233 0
-16232 16233 0
-2397 -16232 0
-2444 16234 0
-16233 16234 0
-2444 -16233 0
-2699 16235 0
-16234 16235 0
-2699 -16234 0
-2747 16236 0
-16235 16236 0
-2747 -16235 0
-2789 16237 0
-16236 16237 0
-2789 -16236 0
-2840 16238 0
-16237 16238 0
-2840 -16237 0
-2981 16239 0
-16238 16239 0
-2981 -16238 0
-3030 16240 0
-16239 16240 0
-3030 -16239 0
-3269 16241 0
-16240 16241 0
-3269 -16240 0
-3317 16242 0
-16241 16242 0
-3317 -16241 0
-3385 16243 0
-16242 16243 0
-3385 -16242 0
-3427 16244 0
-16243 16244 0
-3427 -16243 0
-3586 16245 0
-16244 16245 0
-3586 -16244 0
-3618 16246 0
-16245 16246 0
-3618 -16245 0
-3714 16247 0
-16246 16247 0
-3714 -16246 0
-3746 16248 0
-16247 16248 0
-3746 -16247 0
-3777 16249 0
-16248 16249 0
-3777 -16248 0
-3811 16250 0
-16249 16250 0
-3811 -16249 0
-3970 16251 0
-16250 16251 0
-3970 -16250 0
-4002 16252 0
-16251 16252 0
-4002 -16251 0
-4033 16253 0
-16252 16253 0
-4033 -16252 0
-4067 16254 0
-16253 16254 0
-4067 -16253 0
-4161 16255 0
-16254 16255 0
-4161 -16254 0
-4195 16256 0
-16255 16256 0
-4195 -16255 0
-4354 16257 0
-16256 16257 0
-4354 -16256 0
-4386 16258 0
-16257 16258 0
-4386 -16257 0
-4425 16259 0
-16258 16259 0
-4425 -16258 0
-4451 16260 0
-16259 16260 0
-4451 -16259 0
-4610 16261 0
-16260 16261 0
-4610 -16260 0
-4642 16262 0
-16261 16262 0
-4642 -16261 0
-4738 16263 0
-16262 16263 0
-4738 -16262 0
-4770 16264 0
-16263 16264 0
-4770 -16263 0
-4801 16265 0
-16264 16265 0
-4801 -16264 0
-4835 16266 0
-16265 16266 0
-4835 -16265 0
-4994 16267 0
-16266 16267 0
-4994 -16266 0
-5026 16268 0
-16267 16268 0
-5026 -16267 0
-5057 16269 0
-16268 16269 0
-5057 -16268 0
-5091 16270 0
-16269 16270 0
-5091 -16269 0
-5185 16271 0
-16270 16271 0
-5185 -16270 0
-5219 16272 0
-16271 16272 0
-5219 -16271 0
-5378 16273 0
-16272 16273 0
-5378 -16272 0
-5410 -16273 0
106 291 414 535 654 714 832 1002 1115 1170 1283 1394 1507 1674 1787 1834 1922 2065 2160 2255 2350 2398 2492 2651 2746 2790 2888 2982 3078 3221 3316 3386 3459 3554 3619 3682 3747 3778 3843 3938 4003 4034 4099 4162 4227 4322 4387 4426 4483 4578 4643 4706 4771 4802 4867 4962 5027 5058 5123 5186 5251 5346 5411 0
-106 16274 0
-291 16275 0
-16274 16275 0
-291 -16274 0
-414 16276 0
-16275 16276 0
-414 -16275 0
-535 16277 0
-16276 16277 0
-535 -16276 0
-654 16278 0
-16277 16278 0
-654 -16277 0
-714 16279 0
-16278 16279 0
-714 -16278 0
-832 16280 0
-16279 16280 0
-832 -16279 0
-1002 16281 0
-16280 16281 0
-1002 -16280 0
-1115 16282 0
-16281 16282 0
-1115 -16281 0
-1170 16283 0
-16282 16283 0
-1170 -16282 0
-1283 16284 0
-16283 16284 0
-1283 -16283 0
-1394 16285 0
-16284 16285 0
-1394 -16284 0
-1507 16286 0
-16285 16286 0
-1507 -16285 0
-1674 16287 0
-16286 16287 0
-1674 -16286 0
-1787 16288 0
-16287 16288 0
-1787 -16287 0
-1834 16289 0
-16288 16289 0
-1834 -16288 0
-1922 16290 0
-16289 16290 0
-1922 -16289 0
-2065 16291 0
-16290 16291 0
-2065 -16290 0
-2160 16292 0
-16291 16292 0
-2160 -16291 0
-2255 16293 0
-16292 16293 0
-2255 -16292 0
-2350 16294 0
-16293 16294 0
-2350 -16293 0
-2398 16295 0
-16294 16295 0
-2398 -16294 0
-2492 16296 0
-16295 16296 0
-2492 -16295 0
-2651 16297 0
-16296 16297 0
-2651 -16296 0
-2746 16298 0
-16297 16298 0
-2746 -16297 0
-2790 16299 0
-16298 16299 0
-2790 -16298 0
-2888 16300 0
-16299 16300 0
-2888 -16299 0
-2982 16301 0
-16300 16301 0
-2982 -16300 0
-3078 16302 0
-16301 16302 0
-3078 -16301 0
-3221 16303 0
-16302 16303 0
-3221 -16302 0
-3316 16304 0
-16303 16304 0
-3316 -16303 0
-3386 16305 0
-16304 16305 0
-3386 -16304 0
-3459 16306 0
-16305 16306 0
-3459 -16305 0
-3554 16307 0
-16306 16307 0
-3554 -16306 0
-3619 16308 0
-16307 16308 0
-3619 -16307 0
-3682 16309 0
-16308 16309 0
-3682 -16308 0
-3747 16310 0
-16309 16310 0
-3747 -16309 0
-3778 16311 0
-16310 16311 0
-3778 -16310 0
-3843 16312 0
-16311 16312 0
-3843 -16311 0
-3938 16313 0
-16312 16313 0
-3938 -16312 0
-4003 16314 0
-16313 16314 0
-4003 -16313 0
-4034 16315 0
-16314 16315 0
-4034 -16314 0
-4099 16316 0
-16315 16316 0
-4099 -16315 0
-4162 16317 0
-16316 16317 0
-4162 -16316 0
-4227 16318 0
-16317 16318 0
-4227 -16317 0
-4322 16319 0
-16318 16319 0
-4322 -16318 0
-4387 16320 0
-16319 16320 0
-4387 -16319 0
-4426 16321 0
-16320 16321 0
-4426 -16320 0
-4483 16322 0
-16321 16322 0
-4483 -16321 0
-4578 16323 0
-16322 16323 0
-4578 -16322 0
-4643 16324 0
-16323 16324 0
-4643 -16323 0
-4706 16325 0
-16324 16325 0
-4706 -16324 0
-4771 16326 0
-16325 16326 0
-4771 -16325 0
-4802 16327 0
-16326 16327 0
-4802 -16326 0
-4867 16328 0
-16327 16328 0
-4867 -16327 0
-4962 16329 0
-16328 16329 0
-4962 -16328 0
-5027 16330 0
-16329 16330 0
-5027 -16329 0
-5058 16331 0
-16330 16331 0
-5058 -16330 0
-5123 16332 0
-16331 16332 0
-5123 -16331 0
-5186 16333 0
-16332 16333 0
-5186 -16332 0
-5251 16334 0
-16333 16334 0
-5251 -16333 0
-5346 16335 0
-16334 16335 0
-5346 -16334 0
-5411 -16335 0
169 290 352 534 594 715 892 1003 1059 1171 1339 1395 1563 1675 1731 1835 1970 2064 2112 2254 2302 2399 2540 2650 2698 2791 2936 2983 3126 3220 3268 3387 3491 3555 3587 3683 3715 3779 3875 3939 3971 4035 4131 4163 4259 4323 4355 4427 4515 4579 4611 4707 4739 4803 4899 4963 4995 5059 5155 5187 5283 5347 5379 0
-169 16336 0
-290 16337 0
-16336 16337 0
-290 -16336 0
-352 16338 0
-16337 16338 0
-352 -16337 0
-534 16339 0
-16338 16339 0
-534 -16338 0
-594 16340 0
-16339 16340 0
-594 -16339 0
-715 16341 0
-16340 16341 0
-715 -16340 0
-892 16342 0
-16341 16342 0
-892 -16341 0
-1003 16343 0
-16342 16343 0
-1003 -16342 0
-1059 16344 0
-16343 16344 0
-1059 -16343 0
-1171 16345 0
-16344 16345 0
-1171 -16344 0
-1339 16346 0
-16345 16346 0
-1339 -16345 0
-1395 16347 0
-16346 16347 0
-1395 -16346 0
-1563 16348 0
-16347 16348 0
-1563 -16347 0
-1675 16349 0
-16348 16349 0
-1675 -16348 0
-1731 16350 0
-16349 16350 0
-1731 -16349 0
-1835 16351 0
-16350 16351 0
-1835 -16350 0
-1970 16352 0
-16351 16352 0
-1970 -16351 0
-2064 16353 0
-16352 16353 0
-2064 -16352 0
-2112 16354 0
-16353 16354 0
-2112 -16353 0
-2254 16355 0
-16354 16355 0
-2254 -16354 0
-2302 16356 0
-16355 16356 0
-2302 -16355 0
-2399 16357 0
-16356 16357 0
-2399 -16356 0
-2540 16358 0
-16357 16358 0
-2540 -16357 0
-2650 16359 0
-16358 16359 0
-2650 -16358 0
-2698 16360 0
-16359 16360 0
-2698 -16359 0
-2791 16361 0
-16360 16361 0
-2791 -16360 0
-2936 16362 0
-16361 16362 0
-2936 -16361 0
-2983 16363 0
-16362 16363 0
-2983 -16362 0
-3126 16364 0
-16363 16364 0
-3126 -16363 0
-3220 16365 0
-16364 16365 0
-3220 -16364 0
-3268 16366 0
-16365 16366 0
-3268 -16365 0
-3387 16367 0
-16366 16367 0
-3387 -16366 0
-3491 16368 0
-16367 16368 0
-3491 -16367 0
-3555 16369 0
-16368 16369 0
-3555 -16368 0
-3587 16370 0
-16369 16370 0
-3587 -16369 0
-3683 16371 0
-16370 16371 0
-3683 -16370 0
-3715 16372 0
-16371 16372 0
-3715 -16371 0
-3779 16373 0
-16372 16373 0
-3779 -16372 0
-3875 16374 0
-16373 16374 0
-3875 -16373 0
-3939 16375 0
-16374 16375 0
-3939 -16374 0
-3971 16376 0
-16375 16376 0
-3971 -16375 0
-4035 16377 0
-16376 16377 0
-4035 -16376 0
-4131 16378 0
-16377 16378 0
-4131 -16377 0
-4163 16379 0
-16378 16379 0
-4163 -16378 0
-4259 16380 0
-16379 16380 0
-4259 -16379 0
-4323 16381 0
-16380 16381 0
-4323 -16380 0
-4355 16382 0
-16381 16382 0
-4355 -16381 0
-4427 16383 0
-16382 16383 0
-4427 -16382 0
-4515 16384 0
-16383 16384 0
-4515 -16383 0
-4579 16385 0
-16384 16385 0
-4579 -16384 0
-4611 16386 0
-16385 16386 0
-4611 -16385 0
-4707 16387 0
-16386 16387 0
-4707 -16386 0
-4739 16388 0
-16387 16388 0
-4739 -16387 0
-4803 16389 0
-16388 16389 0
-4803 -16388 0
-4899 16390 0
-16389 16390 0
-4899 -16389 0
-4963 16391 0
-16390 16391 0
-4963 -16390 0
-4995 16392 0
-16391 16392 0
-4995 -16391 0
-5059 16393 0
-16392 16393 0
-5059 -16392 0
-5155 16394 0
-16393 16394 0
-5155 -16393 0
-5187 16395 0
-16394 16395 0
-5187 -16394 0
-5283 16396 0
-16395 16396 0
-5283 -16395 0
-5347 16397 0
-16396 16397 0
-5347 -16396 0
-5379 -16397 0
44 107 170 230 292 354 416 476 536 596 656 716 776 836 896 2588 2637 2685 2733 2784 2831 2879 2927 2976 3025 3073 3121 3168 3219 3267 3315 3388 3428 3460 3492 3524 3556 3588 3620 3652 3684 3716 3748 3780 3812 3844 3876 4924 4964 4996 5028 5060 5092 5124 5156 5188 5220 5252 5284 5316 5348 5380 5412 0
-44 16398 0
-107 16399 0
-16398 16399 0
-107 -16398 0
-170 16400 0
-16399 16400 0
-170 -16399 0
-230 16401 0
-16400 16401 0
-230 -16400 0
-292 16402 0
-16401 16402 0
-292 -16401 0
-354 16403 0
-16402 16403 0
-354 -16402 0
-416 16404 0
-16403 16404 0
-416 -16403 0
-476 16405 0
-16404 16405 0
-476 -16404 0
-536 16406 0
-16405 16406 0
-536 -16405 0
-596 16407 0
-16406 16407 0
-596 -16406 0
-656 16408 0
-16407 16408 0
-656 -16407 0
-716 16409 0
-16408 16409 0
-716 -16408 0
-776 16410 0
-16409 16410 0
-776 -16409 0
-836 16411 0
-16410 16411 0
-836 -16410 0
-896 16412 0
-16411 16412 0
-896 -16411 0
-2588 16413 0
-16412 16413 0
-2588 -16412 0
-2637 16414 0
-16413 16414 0
-2637 -16413 0
-2685 16415 0
-16414 16415 0
-2685 -16414 0
-2733 16416 0
-16415 16416 0
-2733 -16415 0
-2784 16417 0
-16416 16417 0
-2784 -16416 0
-2831 16418 0
-16417 16418 0
-2831 -16417 0
-2879 16419 0
-16418 16419 0
-2879 -16418 0
-2927 16420 0
-16419 16420 0
-2927 -16419 0
-2976 16421 0
-16420 16421 0
-2976 -16420 0
-3025 16422 0
-16421 16422 0
-3025 -16421 0
-3073 16423 0
-16422 16423 0
-3073 -16422 0
-3121 16424 0
-16423 16424 0
-3121 -16423 0
-3168 16425 0
-16424 16425 0
-3168 -16424 0
-3219 16426 0
-16425 16426 0
-3219 -16425 0
-3267 16427 0
-16426 16427 0
-3267 -16426 0
-3315 16428 0
-16427 16428 0
-3315 -16427 0
-3388 16429 0
-16428 16429 0
-3388 -16428 0
-3428 16430 0
-16429 16430 0
-3428 -16429 0
-3460 16431 0
-16430 16431 0
-3460 -16430 0
-3492 16432 0
-16431 16432 0
-3492 -16431 0
-3524 16433 0
-16432 16433 0
-3524 -16432 0
-3556 16434 0
-16433 16434 0
-3556 -16433 0
-3588 16435 0
-16434 16435 0
-3588 -16434 0
-3620 16436 0
-16435 16436 0
-3620 -16435 0
-3652 16437 0
-16436 16437 0
-3652 -16436 0
-3684 16438 0
-16437 16438 0
-3684 -16437 0
-3716 16439 0
-16438 16439 0
-3716 -16438 0
-3748 16440 0
-16439 16440 0
-3748 -16439 0
-3780 16441 0
-16440 16441 0
-3780 -16440 0
-3812 16442 0
-16441 16442 0
-3812 -16441 0
-3844 16443 0
-16442 16443 0
-3844 -16442 0
-3876 16444 0
-16443 16444 0
-3876 -16443 0
-4924 16445 0
-16444 16445 0
-4924 -16444 0
-4964 16446 0
-16445 16446 0
-4964 -16445 0
-4996 16447 0
-16446 16447 0
-4996 -16446 0
-5028 16448 0
-16447 16448 0
-5028 -16447 0
-5060 16449 0
-16448 16449 0
-5060 -16448 0
-5092 16450 0
-16449 16450 0
-5092 -16449 0
-5124 16451 0
-16450 16451 0
-5124 -16450 0
-5156 16452 0
-16451 16452 0
-5156 -16451 0
-5188 16453 0
-16452 16453 0
-5188 -16452 0
-5220 16454 0
-16453 16454 0
-5220 -16453 0
-5252 16455 0
-16454 16455 0
-5252 -16454 0
-5284 16456 0
-16455 16456 0
-5284 -16455 0
-5316 16457 0
-16456 16457 0
-5316 -16456 0
-5348 16458 0
-16457 16458 0
-5348 -16457 0
-5380 16459 0
-16458 16459 0
-5380 -16458 0
-5412 -16459 0
44 231 293 477 537 717 777 1053 1109 1279 1335 1505 1561 1731 1787 1925 1973 2119 2167 2313 2361 2507 2555 2589 2636 2785 2830 2977 3024 3169 3218 3389 3429 3525 3557 3653 3685 3781 3813 3972 4004 4100 4132 4228 4260 4356 4388 4484 4516 4612 4644 4740 4772 4868 4900 4925 4965 5061 5093 5189 5221 5317 5349 0
-44 16460 0
-231 16461 0
-16460 16461 0
-231 -16460 0
-293 16462 0
-16461 16462 0
-293 -16461 0
-477 16463 0
-16462 16463 0
-477 -16462 0
-537 16464 0
-16463 16464 0
-537 -16463 0
-717 16465 0
-16464 16465 0
-717 -16464 0
-777 16466 0
-16465 16466 0
-777 -16465 0
-1053 16467 0
-16466 16467 0
-1053 -16466 0
-1109 16468 0
-16467 16468 0
-1109 -16467 0
-1279 16469 0
-16468 16469 0
-1279 -16468 0
-1335 16470 0
-16469 16470 0
-1335 -16469 0
-1505 16471 0
-16470 16471 0
-1505 -16470 0
-1561 16472 0
-16471 16472 0
-1561 -16471 0
-1731 16473 0
-16472 16473 0
-1731 -16472 0
-1787 16474 0
-16473 16474 0
-1787 -16473 0
-1925 16475 0
-16474 16475 0
-1925 -16474 0
-1973 16476 0
-16475 16476 0
-1973 -16475 0
-2119 16477 0
-16476 16477 0
-2119 -16476 0
-2167 16478 0
-16477 16478 0
-2167 -16477 0
-2313 16479 0
-16478 16479 0
-2313 -16478 0
-2361 16480 0
-16479 16480 0
-2361 -16479 0
-2507 16481 0
-16480 16481 0
-2507 -16480 0
-2555 16482 0
-16481 16482 0
-2555 -16481 0
-2589 16483 0
-16482 16483 0
-2589 -16482 0
-2636 16484 0
-16483 16484 0
-2636 -16483 0
-2785 16485 0
-16484 16485 0
-2785 -16484 0
-2830 16486 0
-16485 16486 0
-2830 -16485 0
-2977 16487 0
-16486 16487 0
-2977 -16486 0
-3024 16488 0
-16487 16488 0
-3024 -16487 0
-3169 16489 0
-16488 16489 0
-3169 -16488 0
-3218 16490 0
-16489 16490 0
-3218 -16489 0
-3389 16491 0
-16490 16491 0
-3389 -16490 0
-3429 16492 0
-16491 16492 0
-3429 -16491 0
-3525 16493 0
-16492 16493 0
-3525 -16492 0
-3557 16494 0
-16493 16494 0
-3557 -16493 0
-3653 16495 0
-16494 16495 0
-3653 -16494 0
-3685 16496 0
-16495 16496 0
-3685 -16495 0
-3781 16497 0
-16496 16497 0
-3781 -16496 0
-3813 16498 0
-16497 16498 0
-3813 -16497 0
-3972 16499 0
-16498 16499 0
-3972 -16498 0
-4004 16500 0
-16499 16500 0
-4004 -16499 0
-4100 16501 0
-16500 16501 0
-4100 -16500 0
-4132 16502 0
-16501 16502 0
-4132 -16501 0
-4228 16503 0
-16502 16503 0
-4228 -16502 0
-4260 16504 0
-16503 16504 0
-4260 -16503 0
-4356 16505 0
-16504 16505 0
-4356 -16504 0
-4388 16506 0
-16505 16506 0
-4388 -16505 0
-4484 16507 0
-16506 16507 0
-4484 -16506 0
-4516 16508 0
-16507 16508 0
-4516 -16507 0
-4612 16509 0
-16508 16509 0
-4612 -16508 0
-4644 16510 0
-16509 16510 0
-4644 -16509 0
-4740 16511 0
-16510 16511 0
-4740 -16510 0
-4772 16512 0
-16511 16512 0
-4772 -16511 0
-4868 16513 0
-16512 16513 0
-4868 -16512 0
-4900 16514 0
-16513 16514 0
-4900 -16513 0
-4925 16515 0
-16514 16515 0
-4925 -16514 0
-4965 16516 0
-16515 16516 0
-4965 -16515 0
-5061 16517 0
-16516 16517 0
-5061 -16516 0
-5093 16518 0
-16517 16518 0
-5093 -16517 0
-5189 16519 0
-16518 16519 0
-5189 -16518 0
-5221 16520 0
-16519 16520 0
-5221 -16519 0
-5317 16521 0
-16520 16521 0
-5317 -16520 0
-5349 -16521 0
107 232 355 478 597 718 837 997 1108 1223 1334 1449 1560 1675 1786 1877 1972 2071 2166 2265 2360 2459 2554 2590 2684 2786 2878 2978 3072 3170 3266 3390 3461 3526 3589 3654 3717 3782 3845 3940 4005 4068 4133 4196 4261 4324 4389 4452 4517 4580 4645 4708 4773 4836 4901 4926 4997 5062 5125 5190 5253 5318 5381 0
-107 16522 0
-232 16523 0
-16522 16523 0
-232 -16522 0
-355 16524 0
-16523 16524 0
-355 -16523 0
-478 16525 0
-16524 16525 0
-478 -16524 0
-597 16526 0
-16525 16526 0
-597 -16525 0
-718 16527 0
-16526 16527 0
-718 -16526 0
-837 16528 0
-16527 16528 0
-837 -16527 0
-997 16529 0
-16528 16529 0
-997 -16528 0
-1108 16530 0
-16529 16530 0
-1108 -16529 0
-1223 16531 0
-16530 16531 0
-1223 -16530 0
-1334 16532 0
-16531 16532 0
-1334 -16531 0
-1449 16533 0
-16532 16533 0
-1449 -16532 0
-1560 16534 0
-16533 16534 0
-1560 -16533 0
-1675 16535 0
-16534 16535 0
-1675 -16534 0
-1786 16536 0
-16535 16536 0
-1786 -16535 0
-1877 16537 0
-16536 16537 0
-1877 -16536 0
-1972 16538 0
-16537 16538 0
-1972 -16537 0
-2071 16539 0
-16538 16539 0
-2071 -16538 0
-2166 16540 0
-16539 16540 0
-2166 -16539 0
-2265 16541 0
-16540 16541 0
-2265 -16540 0
-2360 16542 0
-16541 16542 0
-2360 -16541 0
-2459 16543 0
-16542 16543 0
-2459 -16542 0
-2554 16544 0
-16543 16544 0
-2554 -16543 0
-2590 16545 0
-16544 16545 0
-2590 -16544 0
-2684 16546 0
-16545 16546 0
-2684 -16545 0
-2786 16547 0
-16546 16547 0
-2786 -16546 0
-2878 16548 0
-16547 16548 0
-2878 -16547 0
-2978 16549 0
-16548 16549 0
-2978 -16548 0
-3072 16550 0
-16549 16550 0
-3072 -16549 0
-3170 16551 0
-16550 16551 0
-3170 -16550 0
-3266 16552 0
-16551 16552 0
-3266 -16551 0
-3390 16553 0
-16552 16553 0
-3390 -16552 0
-3461 16554 0
-16553 16554 0
-3461 -16553 0
-3526 16555 0
-16554 16555 0
-3526 -16554 0
-3589 16556 0
-16555 16556 0
-3589 -16555 0
-3654 16557 0
-16556 16557 0
-3654 -16556 0
-3717 16558 0
-16557 16558 0
-3717 -16557 0
-3782 16559 0
-16558 16559 0
-3782 -16558 0
-3845 16560 0
-16559 16560 0
-3845 -16559 0
-3940 16561 0
-16560 16561 0
-3940 -16560 0
-4005 16562 0
-16561 16562 0
-4005 -16561 0
-4068 16563 0
-16562 16563 0
-4068 -16562 0
-4133 16564 0
-16563 16564 0
-4133 -16563 0
-4196 16565 0
-16564 16565 0
-4196 -16564 0
-4261 16566 0
-16565 16566 0
-4261 -16565 0
-4324 16567 0
-16566 16567 0
-4324 -16566 0
-4389 16568 0
-16567 16568 0
-4389 -16567 0
-4452 16569 0
-16568 16569 0
-4452 -16568 0
-4517 16570 0
-16569 16570 0
-4517 -16569 0
-4580 16571 0
-16570 16571 0
-4580 -16570 0
-4645 16572 0
-16571 16572 0
-4645 -16571 0
-4708 16573 0
-16572 16573 0
-4708 -16572 0
-4773 16574 0
-16573 16574 0
-4773 -16573 0
-4836 16575 0
-16574 16575 0
-4836 -16574 0
-4901 16576 0
-16575 16576 0
-4901 -16575 0
-4926 16577 0
-16576 16577 0
-4926 -16576 0
-4997 16578 0
-16577 16578 0
-4997 -16577 0
-5062 16579 0
-16578 16579 0
-5062 -16578 0
-5125 16580 0
-16579 16580 0
-5125 -16579 0
-5190 16581 0
-16580 16581 0
-5190 -16580 0
-5253 16582 0
-16581 16582 0
-5253 -16581 0
-5318 16583 0
-16582 16583 0
-5318 -16582 0
-5381 -16583 0
170 233 417 479 657 719 897 996 1052 1222 1278 1448 1504 1674 1730 1876 1924 2070 2118 2264 2312 2458 2506 2591 2732 2787 2926 2979 3120 3171 3314 3391 3493 3527 3621 3655 3749 3783 3877 3941 3973 4069 4101 4197 4229 4325 4357 4453 4485 4581 4613 4709 4741 4837 4869 4927 5029 5063 5157 5191 5285 5319 5413 0
-170 16584 0
-233 16585 0
-16584 16585 0
-233 -16584 0
-417 16586 0
-16585 16586 0
-417 -16585 0
-479 16587 0
-16586 16587 0
-479 -16586 0
-657 16588 0
-16587 16588 0
-657 -16587 0
-719 16589 0
-16588 16589 0
-719 -16588 0
-897 16590 0
-16589 16590 0
-897 -16589 0
-996 16591 0
-16590 16591 0
-996 -16590 0
-1052 16592 0
-16591 16592 0
-1052 -16591 0
-1222 16593 0
-16592 16593 0
-1222 -16592 0
-1278 16594 0
-16593 16594 0
-1278 -16593 0
-1448 16595 0
-16594 16595 0
-1448 -16594 0
-1504 16596 0
-16595 16596 0
-1504 -16595 0
-1674 16597 0
-16596 16597 0
-1674 -16596 0
-1730 16598 0
-16597 16598 0
-1730 -16597 0
-1876 16599 0
-16598 16599 0
-1876 -16598 0
-1924 16600 0
-16599 16600 0
-1924 -16599 0
-2070 16601 0
-16600 16601 0
-2070 -16600 0
-2118 16602 0
-16601 16602 0
-2118 -16601 0
-2264 16603 0
-16602 16603 0
-2264 -16602 0
-2312 16604 0
-16603 16604 0
-2312 -16603 0
-2458 16605 0
-16604 16605 0
-2458 -16604 0
-2506 16606 0
-16605 16606 0
-2506 -16605 0
-2591 16607 0
-16606 16607 0
-2591 -16606 0
-2732 16608 0
-16607 16608 0
-2732 -16607 0
-2787 16609 0
-16608 16609 0
-2787 -16608 0
-2926 16610 0
-16609 16610 0
-2926 -16609 0
-2979 16611 0
-16610 16611 0
-2979 -16610 0
-3120 16612 0
-16611 16612 0
-3120 -16611 0
-3171 16613 0
-16612 16613 0
-3171 -16612 0
-3314 16614 0
-16613 16614 0
-3314 -16613 0
-3391 16615 0
-16614 16615 0
-3391 -16614 0
-3493 16616 0
-16615 16616 0
-3493 -16615 0
-3527 16617 0
-16616 16617 0
-3527 -16616 0
-3621 16618 0
-16617 16618 0
-3621 -16617 0
-3655 16619 0
-16618 16619 0
-3655 -16618 0
-3749 16620 0
-16619 16620 0
-3749 -16619 0
-3783 16621 0
-16620 16621 0
-3783 -16620 0
-3877 16622 0
-16621 16622 0
-3877 -16621 0
-3941 16623 0
-16622 16623 0
-3941 -16622 0
-3973 16624 0
-16623 16624 0
-3973 -16623 0
-4069 16625 0
-16624 16625 0
-4069 -16624 0
-4101 16626 0
-16625 16626 0
-4101 -16625 0
-4197 16627 0
-16626 16627 0
-4197 -16626 0
-4229 16628 0
-16627 16628 0
-4229 -16627 0
-4325 16629 0
-16628 16629 0
-4325 -16628 0
-4357 16630 0
-16629 16630 0
-4357 -16629 0
-4453 16631 0
-16630 16631 0
-4453 -16630 0
-4485 16632 0
-16631 16632 0
-4485 -16631 0
-4581 16633 0
-16632 16633 0
-4581 -16632 0
-4613 16634 0
-16633 16634 0
-4613 -16633 0
-4709 16635 0
-16634 16635 0
-4709 -16634 0
-4741 16636 0
-16635 16636 0
-4741 -16635 0
-4837 16637 0
-16636 16637 0
-4837 -16636 0
-4869 16638 0
-16637 16638 0
-4869 -16637 0
-4927 16639 0
-16638 16639 0
-4927 -16638 0
-5029 16640 0
-16639 16640 0
-5029 -16639 0
-5063 16641 0
-16640 16641 0
-5063 -16640 0
-5157 16642 0
-16641 16642 0
-5157 -16641 0
-5191 16643 0
-16642 16643 0
-5191 -16642 0
-5285 16644 0
-16643 16644 0
-5285 -16643 0
-5319 16645 0
-16644 16645 0
-5319 -16644 0
-5413 -16645 0
45 108 171 230 293 355 417 1392 1451 1507 1563 1616 1673 1729 1785 2216 2267 2315 2363 2408 2457 2505 2553 2592 2639 2687 2735 2780 2829 2877 2925 3392 3430 3462 3494 3528 3558 3590 3622 4164 4198 4230 4262 4292 4326 4358 4390 4676 4710 4742 4774 4804 4838 4870 4902 4928 4966 4998 5030 5064 5094 5126 5158 0
-45 16646 0
-108 16647 0
-16646 16647 0
-108 -16646 0
-171 16648 0
-16647 16648 0
-171 -16647 0
-230 16649 0
-16648 16649 0
-230 -16648 0
-293 16650 0
-16649 16650 0
-293 -16649 0
-355 16651 0
-16650 16651 0
-355 -16650 0
-417 16652 0
-16651 16652 0
-417 -16651 0
-1392 16653 0
-16652 16653 0
-1392 -16652 0
-1451 16654 0
-16653 16654 0
-1451 -16653 0
-1507 16655 0
-16654 16655 0
-1507 -16654 0
-1563 16656 0
-16655 16656 0
-1563 -16655 0
-1616 16657 0
-16656 16657 0
-1616 -16656 0
-1673 16658 0
-16657 16658 0
-1673 -16657 0
-1729 16659 0
-16658 16659 0
-1729 -16658 0
-1785 16660 0
-16659 16660 0
-1785 -16659 0
-2216 16661 0
-16660 16661 0
-2216 -16660 0
-2267 16662 0
-16661 16662 0
-2267 -16661 0
-2315 16663 0
-16662 16663 0
-2315 -16662 0
-2363 16664 0
-16663 16664 0
-2363 -16663 0
-2408 16665 0
-16664 16665 0
-2408 -16664 0
-2457 16666 0
-16665 16666 0
-2457 -16665 0
-2505 16667 0
-16666 16667 0
-2505 -16666 0
-2553 16668 0
-16667 16668 0
-2553 -16667 0
-2592 16669 0
-16668 16669 0
-2592 -16668 0
-2639 16670 0
-16669 16670 0
-2639 -16669 0
-2687 16671 0
-16670 16671 0
-2687 -16670 0
-2735 16672 0
-16671 16672 0
-2735 -16671 0
-2780 16673 0
-16672 16673 0
-2780 -16672 0
-2829 16674 0
-16673 16674 0
-2829 -16673 0
-2877 16675 0
-16674 16675 0
-2877 -16674 0
-2925 16676 0
-16675 16676 0
-2925 -16675 0
-3392 16677 0
-16676 16677 0
-3392 -16676 0
-3430 16678 0
-16677 16678 0
-3430 -16677 0
-3462 16679 0
-16678 16679 0
-3462 -16678 0
-3494 16680 0
-16679 16680 0
-3494 -16679 0
-3528 16681 0
-16680 16681 0
-3528 -16680 0
-3558 16682 0
-16681 16682 0
-3558 -16681 0
-3590 16683 0
-16682 16683 0
-3590 -16682 0
-3622 16684 0
-16683 16684 0
-3622 -16683 0
-4164 16685 0
-16684 16685 0
-4164 -16684 0
-4198 16686 0
-16685 16686 0
-4198 -16685 0
-4230 16687 0
-16686 16687 0
-4230 -16686 0
-4262 16688 0
-16687 16688 0
-4262 -16687 0
-4292 16689 0
-16688 16689 0
-4292 -16688 0
-4326 16690 0
-16689 16690 0
-4326 -16689 0
-4358 16691 0
-16690 16691 0
-4358 -16690 0
-4390 16692 0
-16691 16692 0
-4390 -16691 0
-4676 16693 0
-16692 16693 0
-4676 -16692 0
-4710 16694 0
-16693 16694 0
-4710 -16693 0
-4742 16695 0
-16694 16695 0
-4742 -16694 0
-4774 16696 0
-16695 16696 0
-4774 -16695 0
-4804 16697 0
-16696 16697 0
-4804 -16696 0
-4838 16698 0
-16697 16698 0
-4838 -16697 0
-4870 16699 0
-16698 16699 0
-4870 -16698 0
-4902 16700 0
-16699 16700 0
-4902 -16699 0
-4928 16701 0
-16700 16701 0
-4928 -16700 0
-4966 16702 0
-16701 16702 0
-4966 -16701 0
-4998 16703 0
-16702 16703 0
-4998 -16702 0
-5030 16704 0
-16703 16704 0
-5030 -16703 0
-5064 16705 0
-16704 16705 0
-5064 -16704 0
-5094 16706 0
-16705 16706 0
-5094 -16705 0
-5126 16707 0
-16706 16707 0
-5126 -16706 0
-5158 -16707 0
45 231 292 598 658 838 898 1055 1111 1277 1333 1393 1450 1617 1672 1927 1975 2117 2165 2217 2266 2409 2456 2593 2638 2781 2828 3075 3123 3265 3313 3393 3431 3529 3559 3718 3750 3846 3878 3974 4006 4102 4134 4165 4199 4293 4327 4486 4518 4614 4646 4677 4711 4805 4839 4929 4967 5065 5095 5254 5286 5382 5414 0
-45 16708 0
-231 16709 0
-16708 16709 0
-231 -16708 0
-292 16710 0
-16709 16710 0
-292 -16709 0
-598 16711 0
-16710 16711 0
-598 -16710 0
-658 16712 0
-16711 16712 0
-658 -16711 0
-838 16713 0
-16712 16713 0
-838 -16712 0
-898 16714 0
-16713 16714 0
-898 -16713 0
-1055 16715 0
-16714 16715 0
-1055 -16714 0
-1111 16716 0
-16715 16716 0
-1111 -16715 0
-1277 16717 0
-16716 16717 0
-1277 -16716 0
-1333 16718 0
-16717 16718 0
-1333 -16717 0
-1393 16719 0
-16718 16719 0
-1393 -16718 0
-1450 16720 0
-16719 16720 0
-1450 -16719 0
-1617 16721 0
-16720 16721 0
-1617 -16720 0
-1672 16722 0
-16721 16722 0
-1672 -16721 0
-1927 16723 0
-16722 16723 0
-1927 -16722 0
-1975 16724 0
-16723 16724 0
-1975 -16723 0
-2117 16725 0
-16724 16725 0
-2117 -16724 0
-2165 16726 0
-16725 16726 0
-2165 -16725 0
-2217 16727 0
-16726 16727 0
-2217 -16726 0
-2266 16728 0
-16727 16728 0
-2266 -16727 0
-2409 16729 0
-16728 16729 0
-2409 -16728 0
-2456 16730 0
-16729 16730 0
-2456 -16729 0
-2593 16731 0
-16730 16731 0
-2593 -16730 0
-2638 16732 0
-16731 16732 0
-2638 -16731 0
-2781 16733 0
-16732 16733 0
-2781 -16732 0
-2828 16734 0
-16733 16734 0
-2828 -16733 0
-3075 16735 0
-16734 16735 0
-3075 -16734 0
-3123 16736 0
-16735 16736 0
-3123 -16735 0
-3265 16737 0
-16736 16737 0
-3265 -16736 0
-3313 16738 0
-16737 16738 0
-3313 -16737 0
-3393 16739 0
-16738 16739 0
-3393 -16738 0
-3431 16740 0
-16739 16740 0
-3431 -16739 0
-3529 16741 0
-16740 16741 0
-3529 -16740 0
-3559 16742 0
-16741 16742 0
-3559 -16741 0
-3718 16743 0
-16742 16743 0
-3718 -16742 0
-3750 16744 0
-16743 16744 0
-3750 -16743 0
-3846 16745 0
-16744 16745 0
-3846 -16744 0
-3878 16746 0
-16745 16746 0
-3878 -16745 0
-3974 16747 0
-16746 16747 0
-3974 -16746 0
-4006 16748 0
-16747 16748 0
-4006 -16747 0
-4102 16749 0
-16748 16749 0
-4102 -16748 0
-4134 16750 0
-16749 16750 0
-4134 -16749 0
-4165 16751 0
-16750 16751 0
-4165 -16750 0
-4199 16752 0
-16751 16752 0
-4199 -16751 0
-4293 16753 0
-16752 16753 0
-4293 -16752 0
-4327 16754 0
-16753 16754 0
-4327 -16753 0
-4486 16755 0
-16754 16755 0
-4486 -16754 0
-4518 16756 0
-16755 16756 0
-4518 -16755 0
-4614 16757 0
-16756 16757 0
-4614 -16756 0
-4646 16758 0
-16757 16758 0
-4646 -16757 0
-4677 16759 0
-16758 16759 0
-4677 -16758 0
-4711 16760 0
-16759 16760 0
-4711 -16759 0
-4805 16761 0
-16760 16761 0
-4805 -16760 0
-4839 16762 0
-16761 16762 0
-4839 -16761 0
-4929 16763 0
-16762 16763 0
-4929 -16762 0
-4967 16764 0
-16763 16764 0
-4967 -16763 0
-5065 16765 0
-16764 16765 0
-5065 -16764 0
-5095 16766 0
-16765 16766 0
-5095 -16765 0
-5254 16767 0
-16766 16767 0
-5254 -16766 0
-5286 16768 0
-16767 16768 0
-5286 -16767 0
-5382 16769 0
-16768 16769 0
-5382 -16768 0
-5414 -16769 0
108 232 354 538 659 778 899 999 1110 1221 1332 1394 1506 1618 1728 1879 1974 2069 2164 2218 2314 2410 2504 2594 2686 2782 2876 3027 3122 3217 3312 3394 3463 3530 3591 3686 3751 3814 3879 3942 4007 4070 4135 4166 4231 4294 4359 4454 4519 4582 4647 4678 4743 4806 4871 4930 4999 5066 5127 5222 5287 5350 5415 0
-108 16770 0
-232 16771 0
-16770 16771 0
-232 -16770 0
-354 16772 0
-16771 16772 0
-354 -16771 0
-538 16773 0
-16772 16773 0
-538 -16772 0
-659 16774 0
-16773 16774 0
-659 -16773 0
-778 16775 0
-16774 16775 0
-778 -16774 0
-899 16776 0
-16775 16776 0
-899 -16775 0
-999 16777 0
-16776 16777 0
-999 -16776 0
-1110 16778 0
-16777 16778 0
-1110 -16777 0
-1221 16779 0
-16778 16779 0
-1221 -16778 0
-1332 16780 0
-16779 16780 0
-1332 -16779 0
-1394 16781 0
-16780 16781 0
-1394 -16780 0
-1506 16782 0
-16781 16782 0
-1506 -16781 0
-1618 16783 0
-16782 16783 0
-1618 -16782 0
-1728 16784 0
-16783 16784 0
-1728 -16783 0
-1879 16785 0
-16784 16785 0
-1879 -16784 0
-1974 16786 0
-16785 16786 0
-1974 -16785 0
-2069 16787 0
-16786 16787 0
-2069 -16786 0
-2164 16788 0
-16787 16788 0
-2164 -16787 0
-2218 16789 0
-16788 16789 0
-2218 -16788 0
-2314 16790 0
-16789 16790 0
-2314 -16789 0
-2410 16791 0
-16790 16791 0
-2410 -16790 0
-2504 16792 0
-16791 16792 0
-2504 -16791 0
-2594 16793 0
-16792 16793 0
-2594 -16792 0
-2686 16794 0
-16793 16794 0
-2686 -16793 0
-2782 16795 0
-16794 16795 0
-2782 -16794 0
-2876 16796 0
-16795 16796 0
-2876 -16795 0
-3027 16797 0
-16796 16797 0
-3027 -16796 0
-3122 16798 0
-16797 16798 0
-3122 -16797 0
-3217 16799 0
-16798 16799 0
-3217 -16798 0
-3312 16800 0
-16799 16800 0
-3312 -16799 0
-3394 16801 0
-16800 16801 0
-3394 -16800 0
-3463 16802 0
-16801 16802 0
-3463 -16801 0
-3530 16803 0
-16802 16803 0
-3530 -16802 0
-3591 16804 0
-16803 16804 0
-3591 -16803 0
-3686 16805 0
-16804 16805 0
-3686 -16804 0
-3751 16806 0
-16805 16806 0
-3751 -16805 0
-3814 16807 0
-16806 16807 0
-3814 -16806 0
-3879 16808 0
-16807 16808 0
-3879 -16807 0
-3942 16809 0
-16808 16809 0
-3942 -16808 0
-4007 16810 0
-16809 16810 0
-4007 -16809 0
-4070 16811 0
-16810 16811 0
-4070 -16810 0
-4135 16812 0
-16811 16812 0
-4135 -16811 0
-4166 16813 0
-16812 16813 0
-4166 -16812 0
-4231 16814 0
-16813 16814 0
-4231 -16813 0
-4294 16815 0
-16814 16815 0
-4294 -16814 0
-4359 16816 0
-16815 16816 0
-4359 -16815 0
-4454 16817 0
-16816 16817 0
-4454 -16816 0
-4519 16818 0
-16817 16818 0
-4519 -16817 0
-4582 16819 0
-16818 16819 0
-4582 -16818 0
-4647 16820 0
-16819 16820 0
-4647 -16819 0
-4678 16821 0
-16820 16821 0
-4678 -16820 0
-4743 16822 0
-16821 16822 0
-4743 -16821 0
-4806 16823 0
-16822 16823 0
-4806 -16822 0
-4871 16824 0
-16823 16824 0
-4871 -16823 0
-4930 16825 0
-16824 16825 0
-4930 -16824 0
-4999 16826 0
-16825 16826 0
-4999 -16825 0
-5066 16827 0
-16826 16827 0
-5066 -16826 0
-5127 16828 0
-16827 16828 0
-5127 -16827 0
-5222 16829 0
-16828 16829 0
-5222 -16828 0
-5287 16830 0
-16829 16830 0
-5287 -16829 0
-5350 16831 0
-16830 16831 0
-5350 -16830 0
-5415 -16831 0
171 233 416 539 599 779 839 998 1054 1220 1276 1395 1562 1619 1784 1878 1926 2068 2116 2219 2362 2411 2552 2595 2734 2783 2924 3026 3074 3216 3264 3395 3495 3531 3623 3687 3719 3815 3847 3943 3975 4071 4103 4167 4263 4295 4391 4455 4487 4583 4615 4679 4775 4807 4903 4931 5031 5067 5159 5223 5255 5351 5383 0
-171 16832 0
-233 16833 0
-16832 16833 0
-233 -16832 0
-416 16834 0
-16833 16834 0
-416 -16833 0
-539 16835 0
-16834 16835 0
-539 -16834 0
-599 16836 0
-16835 16836 0
-599 -16835 0
-779 16837 0
-16836 16837 0
-779 -16836 0
-839 16838 0
-16837 16838 0
-839 -16837 0
-998 16839 0
-16838 16839 0
-998 -16838 0
-1054 16840 0
-16839 16840 0
-1054 -16839 0
-1220 16841 0
-16840 16841 0
-1220 -16840 0
-1276 16842 0
-16841 16842 0
-1276 -16841 0
-1395 16843 0
-16842 16843 0
-1395 -16842 0
-1562 16844 0
-16843 16844 0
-1562 -16843 0
-1619 16845 0
-16844 16845 0
-1619 -16844 0
-1784 16846 0
-16845 16846 0
-1784 -16845 0
-1878 16847 0
-16846 16847 0
-1878 -16846 0
-1926 16848 0
-16847 16848 0
-1926 -16847 0
-2068 16849 0
-16848 16849 0
-2068 -16848 0
-2116 16850 0
-16849 16850 0
-2116 -16849 0
-2219 16851 0
-16850 16851 0
-2219 -16850 0
-2362 16852 0
-16851 16852 0
-2362 -16851 0
-2411 16853 0
-16852 16853 0
-2411 -16852 0
-2552 16854 0
-16853 16854 0
-2552 -16853 0
-2595 16855 0
-16854 16855 0
-2595 -16854 0
-2734 16856 0
-16855 16856 0
-2734 -16855 0
-2783 16857 0
-16856 16857 0
-2783 -16856 0
-2924 16858 0
-16857 16858 0
-2924 -16857 0
-3026 16859 0
-16858 16859 0
-3026 -16858 0
-3074 16860 0
-16859 16860 0
-3074 -16859 0
-3216 16861 0
-16860 16861 0
-3216 -16860 0
-3264 16862 0
-16861 16862 0
-3264 -16861 0
-3395 16863 0
-16862 16863 0
-3395 -16862 0
-3495 16864 0
-16863 16864 0
-3495 -16863 0
-3531 16865 0
-16864 16865 0
-3531 -16864 0
-3623 16866 0
-16865 16866 0
-3623 -16865 0
-3687 16867 0
-16866 16867 0
-3687 -16866 0
-3719 16868 0
-16867 16868 0
-3719 -16867 0
-3815 16869 0
-16868 16869 0
-3815 -16868 0
-3847 16870 0
-16869 16870 0
-3847 -16869 0
-3943 16871 0
-16870 16871 0
-3943 -16870 0
-3975 16872 0
-16871 16872 0
-3975 -16871 0
-4071 16873 0
-16872 16873 0
-4071 -16872 0
-4103 16874 0
-16873 16874 0
-4103 -16873 0
-4167 16875 0
-16874 16875 0
-4167 -16874 0
-4263 16876 0
-16875 16876 0
-4263 -16875 0
-4295 16877 0
-16876 16877 0
-4295 -16876 0
-4391 16878 0
-16877 16878 0
-4391 -16877 0
-4455 16879 0
-16878 16879 0
-4455 -16878 0
-4487 16880 0
-16879 16880 0
-4487 -16879 0
-4583 16881 0
-16880 16881 0
-4583 -16880 0
-4615 16882 0
-16881 16882 0
-4615 -16881 0
-4679 16883 0
-16882 16883 0
-4679 -16882 0
-4775 16884 0
-16883 16884 0
-4775 -16883 0
-4807 16885 0
-16884 16885 0
-4807 -16884 0
-4903 16886 0
-16885 16886 0
-4903 -16885 0
-4931 16887 0
-16886 16887 0
-4931 -16886 0
-5031 16888 0
-16887 16888 0
-5031 -16887 0
-5067 16889 0
-16888 16889 0
-5067 -16888 0
-5159 16890 0
-16889 16890 0
-5159 -16889 0
-5223 16891 0
-16890 16891 0
-5223 -16890 0
-5255 16892 0
-16891 16892 0
-5255 -16891 0
-5351 16893 0
-16892 16893 0
-5351 -16892 0
-5383 -16893 0
46 109 172 476 537 597 657 1168 1227 1283 1339 1612 1671 1727 1783 2024 2075 2123 2171 2404 2455 2503 2551 2596 2641 2689 2737 2972 3021 3069 3117 3396 3432 3464 3496 3656 3688 3720 3752 4036 4072 4104 4136 4296 4328 4360 4392 4548 4584 4616 4648 4808 4840 4872 4904 4932 4968 5000 5032 5192 5224 5256 5288 0
-46 16894 0
-109 16895 0
-16894 16895 0
-109 -16894 0
-172 16896 0
-16895 16896 0
-172 -16895 0
-476 16897 0
-16896 16897 0
-476 -16896 0
-537 16898 0
-16897 16898 0
-537 -16897 0
-597 16899 0
-16898 16899 0
-597 -16898 0
-657 16900 0
-16899 16900 0
-657 -16899 0
-1168 16901 0
-16900 16901 0
-1168 -16900 0
-1227 16902 0
-16901 16902 0
-1227 -16901 0
-1283 16903 0
-16902 16903 0
-1283 -16902 0
-1339 16904 0
-16903 16904 0
-1339 -16903 0
-1612 16905 0
-16904 16905 0
-1612 -16904 0
-1671 16906 0
-16905 16906 0
-1671 -16905 0
-1727 16907 0
-16906 16907 0
-1727 -16906 0
-1783 16908 0
-16907 16908 0
-1783 -16907 0
-2024 16909 0
-16908 16909 0
-2024 -16908 0
-2075 16910 0
-16909 16910 0
-2075 -16909 0
-2123 16911 0
-16910 16911 0
-2123 -16910 0
-2171 16912 0
-16911 16912 0
-2171 -16911 0
-2404 16913 0
-16912 16913 0
-2404 -16912 0
-2455 16914 0
-16913 16914 0
-2455 -16913 0
-2503 16915 0
-16914 16915 0
-2503 -16914 0
-2551 16916 0
-16915 16916 0
-2551 -16915 0
-2596 16917 0
-16916 16917 0
-2596 -16916 0
-2641 16918 0
-16917 16918 0
-2641 -16917 0
-2689 16919 0
-16918 16919 0
-2689 -16918 0
-2737 16920 0
-16919 16920 0
-2737 -16919 0
-2972 16921 0
-16920 16921 0
-2972 -16920 0
-3021 16922 0
-16921 16922 0
-3021 -16921 0
-3069 16923 0
-16922 16923 0
-3069 -16922 0
-3117 16924 0
-16923 16924 0
-3117 -16923 0
-3396 16925 0
-16924 16925 0
-3396 -16924 0
-3432 16926 0
-16925 16926 0
-3432 -16925 0
-3464 16927 0
-16926 16927 0
-3464 -16926 0
-3496 16928 0
-16927 16928 0
-3496 -16927 0
-3656 16929 0
-16928 16929 0
-3656 -16928 0
-3688 16930 0
-16929 16930 0
-3688 -16929 0
-3720 16931 0
-16930 16931 0
-3720 -16930 0
-3752 16932 0
-16931 16932 0
-3752 -16931 0
-4036 16933 0
-16932 16933 0
-4036 -16932 0
-4072 16934 0
-16933 16934 0
-4072 -16933 0
-4104 16935 0
-16934 16935 0
-4104 -16934 0
-4136 16936 0
-16935 16936 0
-4136 -16935 0
-4296 16937 0
-16936 16937 0
-4296 -16936 0
-4328 16938 0
-16937 16938 0
-4328 -16937 0
-4360 16939 0
-16938 16939 0
-4360 -16938 0
-4392 16940 0
-16939 16940 0
-4392 -16939 0
-4548 16941 0
-16940 16941 0
-4548 -16940 0
-4584 16942 0
-16941 16942 0
-4584 -16941 0
-4616 16943 0
-16942 16943 0
-4616 -16942 0
-4648 16944 0
-16943 16944 0
-4648 -16943 0
-4808 16945 0
-16944 16945 0
-4808 -16944 0
-4840 16946 0
-16945 16946 0
-4840 -16945 0
-4872 16947 0
-16946 16947 0
-4872 -16946 0
-4904 16948 0
-16947 16948 0
-4904 -16947 0
-4932 16949 0
-16948 16949 0
-4932 -16948 0
-4968 16950 0
-16949 16950 0
-4968 -16949 0
-5000 16951 0
-16950 16951 0
-5000 -16950 0
-5032 16952 0
-16951 16952 0
-5032 -16951 0
-5192 16953 0
-16952 16953 0
-5192 -16952 0
-5224 16954 0
-16953 16954 0
-5224 -16953 0
-5256 16955 0
-16954 16955 0
-5256 -16954 0
-5288 -16955 0
46 356 418 477 536 839 899 1057 1113 1169 1226 1501 1557 1613 1670 1929 1977 2025 2074 2309 2357 2405 2454 2597 2640 2883 2931 2973 3020 3263 3311 3397 3433 3592 3624 3657 3689 3848 3880 3976 4008 4037 4073 4232 4264 4297 4329 4488 4520 4549 4585 4744 4776 4809 4841 4933 4969 5128 5160 5193 5225 5384 5416 0
-46 16956 0
-356 16957 0
-16956 16957 0
-356 -16956 0
-418 16958 0
-16957 16958 0
-418 -16957 0
-477 16959 0
-16958 16959 0
-477 -16958 0
-536 16960 0
-16959 16960 0
-536 -16959 0
-839 16961 0
-16960 16961 0
-839 -16960 0
-899 16962 0
-16961 16962 0
-899 -16961 0
-1057 16963 0
-16962 16963 0
-1057 -16962 0
-1113 16964 0
-16963 16964 0
-1113 -16963 0
-1169 16965 0
-16964 16965 0
-1169 -16964 0
-1226 16966 0
-16965 16966 0
-1226 -16965 0
-1501 16967 0
-16966 16967 0
-1501 -16966 0
-1557 16968 0
-16967 16968 0
-1557 -16967 0
-1613 16969 0
-16968 16969 0
-1613 -16968 0
-1670 16970 0
-16969 16970 0
-1670 -16969 0
-1929 16971 0
-16970 16971 0
-1929 -16970 0
-1977 16972 0
-16971 16972 0
-1977 -16971 0
-2025 16973 0
-16972 16973 0
-2025 -16972 0
-2074 16974 0
-16973 16974 0
-2074 -16973 0
-2309 16975 0
-16974 16975 0
-2309 -16974 0
-2357 16976 0
-16975 16976 0
-2357 -16975 0
-2405 16977 0
-16976 16977 0
-2405 -16976 0
-2454 16978 0
-16977 16978 0
-2454 -16977 0
-2597 16979 0
-16978 16979 0
-2597 -16978 0
-2640 16980 0
-16979 16980 0
-2640 -16979 0
-2883 16981 0
-16980 16981 0
-2883 -16980 0
-2931 16982 0
-16981 16982 0
-2931 -16981 0
-2973 16983 0
-16982 16983 0
-2973 -16982 0
-3020 16984 0
-16983 16984 0
-3020 -16983 0
-3263 16985 0
-16984 16985 0
-3263 -16984 0
-3311 16986 0
-16985 16986 0
-3311 -16985 0
-3397 16987 0
-16986 16987 0
-3397 -16986 0
-3433 16988 0
-16987 16988 0
-3433 -16987 0
-3592 16989 0
-16988 16989 0
-3592 -16988 0
-3624 16990 0
-16989 16990 0
-3624 -16989 0
-3657 16991 0
-16990 16991 0
-3657 -16990 0
-3689 16992 0
-16991 16992 0
-3689 -16991 0
-3848 16993 0
-16992 16993 0
-3848 -16992 0
-3880 16994 0
-16993 16994 0
-3880 -16993 0
-3976 16995 0
-16994 16995 0
-3976 -16994 0
-4008 16996 0
-16995 16996 0
-4008 -16995 0
-4037 16997 0
-16996 16997 0
-4037 -16996 0
-4073 16998 0
-16997 16998 0
-4073 -16997 0
-4232 16999 0
-16998 16999 0
-4232 -16998 0
-4264 17000 0
-16999 17000 0
-4264 -16999 0
-4297 17001 0
-17000 17001 0
-4297 -17000 0
-4329 17002 0
-17001 17002 0
-4329 -17001 0
-4488 17003 0
-17002 17003 0
-4488 -17002 0
-4520 17004 0
-17003 17004 0
-4520 -17003 0
-4549 17005 0
-17004 17005 0
-4549 -17004 0
-4585 17006 0
-17005 17006 0
-4585 -17005 0
-4744 17007 0
-17006 17007 0
-4744 -17006 0
-4776 17008 0
-17007 17008 0
-4776 -17007 0
-4809 17009 0
-17008 17009 0
-4809 -17008 0
-4841 17010 0
-17009 17010 0
-4841 -17009 0
-4933 17011 0
-17010 17011 0
-4933 -17010 0
-4969 17012 0
-17011 17012 0
-4969 -17011 0
-5128 17013 0
-17012 17013 0
-5128 -17012 0
-5160 17014 0
-17013 17014 0
-5160 -17013 0
-5193 17015 0
-17014 17015 0
-5193 -17014 0
-5225 17016 0
-17015 17016 0
-5225 -17015 0
-5384 17017 0
-17016 17017 0
-5384 -17016 0
-5416 -17017 0
109 294 419 478 596 779 898 1001 1112 1170 1282 1445 1556 1614 1726 1881 1976 2026 2122 2261 2356 2406 2502 2598 2688 2835 2930 2974 3068 3215 3310 3398 3465 3560 3625 3658 3721 3816 3881 3944 4009 4038 4105 4200 4265 4298 4361 4456 4521 4550 4617 4712 4777 4810 4873 4934 5001 5096 5161 5194 5257 5352 5417 0
-109 17018 0
-294 17019 0
-17018 17019 0
-294 -17018 0
-419 17020 0
-17019 17020 0
-419 -17019 0
-478 17021 0
-17020 17021 0
-478 -17020 0
-596 17022 0
-17021 17022 0
-596 -17021 0
-779 17023 0
-17022 17023 0
-779 -17022 0
-898 17024 0
-17023 17024 0
-898 -17023 0
-1001 17025 0
-17024 17025 0
-1001 -17024 0
-1112 17026 0
-17025 17026 0
-1112 -17025 0
-1170 17027 0
-17026 17027 0
-1170 -17026 0
-1282 17028 0
-17027 17028 0
-1282 -17027 0
-1445 17029 0
-17028 17029 0
-1445 -17028 0
-1556 17030 0
-17029 17030 0
-1556 -17029 0
-1614 17031 0
-17030 17031 0
-1614 -17030 0
-1726 17032 0
-17031 17032 0
-1726 -17031 0
-1881 17033 0
-17032 17033 0
-1881 -17032 0
-1976 17034 0
-17033 17034 0
-1976 -17033 0
-2026 17035 0
-17034 17035 0
-2026 -17034 0
-2122 17036 0
-17035 17036 0
-2122 -17035 0
-2261 17037 0
-17036 17037 0
-2261 -17036 0
-2356 17038 0
-17037 17038 0
-2356 -17037 0
-2406 17039 0
-17038 17039 0
-2406 -17038 0
-2502 17040 0
-17039 17040 0
-2502 -17039 0
-2598 17041 0
-17040 17041 0
-2598 -17040 0
-2688 17042 0
-17041 17042 0
-2688 -17041 0
-2835 17043 0
-17042 17043 0
-2835 -17042 0
-2930 17044 0
-17043 17044 0
-2930 -17043 0
-2974 17045 0
-17044 17045 0
-2974 -17044 0
-3068 17046 0
-17045 17046 0
-3068 -17045 0
-3215 17047 0
-17046 17047 0
-3215 -17046 0
-3310 17048 0
-17047 17048 0
-3310 -17047 0
-3398 17049 0
-17048 17049 0
-3398 -17048 0
-3465 17050 0
-17049 17050 0
-3465 -17049 0
-3560 17051 0
-17050 17051 0
-3560 -17050 0
-3625 17052 0
-17051 17052 0
-3625 -17051 0
-3658 17053 0
-17052 17053 0
-3658 -17052 0
-3721 17054 0
-17053 17054 0
-3721 -17053 0
-3816 17055 0
-17054 17055 0
-3816 -17054 0
-3881 17056 0
-17055 17056 0
-3881 -17055 0
-3944 17057 0
-17056 17057 0
-3944 -17056 0
-4009 17058 0
-17057 17058 0
-4009 -17057 0
-4038 17059 0
-17058 17059 0
-4038 -17058 0
-4105 17060 0
-17059 17060 0
-4105 -17059 0
-4200 17061 0
-17060 17061 0
-4200 -17060 0
-4265 17062 0
-17061 17062 0
-4265 -17061 0
-4298 17063 0
-17062 17063 0
-4298 -17062 0
-4361 17064 0
-17063 17064 0
-4361 -17063 0
-4456 17065 0
-17064 17065 0
-4456 -17064 0
-4521 17066 0
-17065 17066 0
-4521 -17065 0
-4550 17067 0
-17066 17067 0
-4550 -17066 0
-4617 17068 0
-17067 17068 0
-4617 -17067 0
-4712 17069 0
-17068 17069 0
-4712 -17068 0
-4777 17070 0
-17069 17070 0
-4777 -17069 0
-4810 17071 0
-17070 17071 0
-4810 -17070 0
-4873 17072 0
-17071 17072 0
-4873 -17071 0
-4934 17073 0
-17072 17073 0
-4934 -17072 0
-5001 17074 0
-17073 17074 0
-5001 -17073 0
-5096 17075 0
-17074 17075 0
-5096 -17074 0
-5161 17076 0
-17075 17076 0
-5161 -17075 0
-5194 17077 0
-17076 17077 0
-5194 -17076 0
-5257 17078 0
-17077 17078 0
-5257 -17077 0
-5352 17079 0
-17078 17079 0
-5352 -17078 0
-5417 -17079 0
172 295 357 479 656 778 838 1000 1056 1171 1338 1444 1500 1615 1782 1880 1928 2027 2170 2260 2308 2407 2550 2599 2736 2834 2882 2975 3116 3214 3262 3399 3497 3561 3593 3659 3753 3817 3849 3945 3977 4039 4137 4201 4233 4299 4393 4457 4489 4551 4649 4713 4745 4811 4905 4935 5033 5097 5129 5195 5289 5353 5385 0
-172 17080 0
-295 17081 0
-17080 17081 0
-295 -17080 0
-357 17082 0
-17081 17082 0
-357 -17081 0
-479 17083 0
-17082 17083 0
-479 -17082 0
-656 17084 0
-17083 17084 0
-656 -17083 0
-778 17085 0
-17084 17085 0
-778 -17084 0
-838 17086 0
-17085 17086 0
-838 -17085 0
-1000 17087 0
-17086 17087 0
-1000 -17086 0
-1056 17088 0
-17087 17088 0
-1056 -17087 0
-1171 17089 0
-17088 17089 0
-1171 -17088 0
-1338 17090 0
-17089 17090 0
-1338 -17089 0
-1444 17091 0
-17090 17091 0
-1444 -17090 0
-1500 17092 0
-17091 17092 0
-1500 -17091 0
-1615 17093 0
-17092 17093 0
-1615 -17092 0
-1782 17094 0
-17093 17094 0
-1782 -17093 0
-1880 17095 0
-17094 17095 0
-1880 -17094 0
-1928 17096 0
-17095 17096 0
-1928 -17095 0
-2027 17097 0
-17096 17097 0
-2027 -17096 0
-2170 17098 0
-17097 17098 0
-2170 -17097 0
-2260 17099 0
-17098 17099 0
-2260 -17098 0
-2308 17100 0
-17099 17100 0
-2308 -17099 0
-2407 17101 0
-17100 17101 0
-2407 -17100 0
-2550 17102 0
-17101 17102 0
-2550 -17101 0
-2599 17103 0
-17102 17103 0
-2599 -17102 0
-2736 17104 0
-17103 17104 0
-2736 -17103 0
-2834 17105 0
-17104 17105 0
-2834 -17104 0
-2882 17106 0
-17105 17106 0
-2882 -17105 0
-2975 17107 0
-17106 17107 0
-2975 -17106 0
-3116 17108 0
-17107 17108 0
-3116 -17107 0
-3214 17109 0
-17108 17109 0
-3214 -17108 0
-3262 17110 0
-17109 17110 0
-3262 -17109 0
-3399 17111 0
-17110 17111 0
-3399 -17110 0
-3497 17112 0
-17111 17112 0
-3497 -17111 0
-3561 17113 0
-17112 17113 0
-3561 -17112 0
-3593 17114 0
-17113 17114 0
-3593 -17113 0
-3659 17115 0
-17114 17115 0
-3659 -17114 0
-3753 17116 0
-17115 17116 0
-3753 -17115 0
-3817 17117 0
-17116 17117 0
-3817 -17116 0
-3849 17118 0
-17117 17118 0
-3849 -17117 0
-3945 17119 0
-17118 17119 0
-3945 -17118 0
-3977 17120 0
-17119 17120 0
-3977 -17119 0
-4039 17121 0
-17120 17121 0
-4039 -17120 0
-4137 17122 0
-17121 17122 0
-4137 -17121 0
-4201 17123 0
-17122 17123 0
-4201 -17122 0
-4233 17124 0
-17123 17124 0
-4233 -17123 0
-4299 17125 0
-17124 17125 0
-4299 -17124 0
-4393 17126 0
-17125 17126 0
-4393 -17125 0
-4457 17127 0
-17126 17127 0
-4457 -17126 0
-4489 17128 0
-17127 17128 0
-4489 -17127 0
-4551 17129 0
-17128 17129 0
-4551 -17128 0
-4649 17130 0
-17129 17130 0
-4649 -17129 0
-4713 17131 0
-17130 17131 0
-4713 -17130 0
-4745 17132 0
-17131 17132 0
-4745 -17131 0
-4811 17133 0
-17132 17133 0
-4811 -17132 0
-4905 17134 0
-17133 17134 0
-4905 -17133 0
-4935 17135 0
-17134 17135 0
-4935 -17134 0
-5033 17136 0
-17135 17136 0
-5033 -17135 0
-5097 17137 0
-17136 17137 0
-5097 -17136 0
-5129 17138 0
-17137 17138 0
-5129 -17137 0
-5195 17139 0
-17138 17139 0
-5195 -17138 0
-5289 17140 0
-17139 17140 0
-5289 -17139 0
-5353 17141 0
-17140 17141 0
-5353 -17140 0
-5385 -17141 0
47 110 173 716 777 837 897 1164 1225 1281 1337 1388 1447 1503 1559 2020 2073 2121 2169 2212 2263 2311 2359 2600 2643 2691 2739 3164 3213 3261 3309 3400 3434 3466 3498 3784 3818 3850 3882 4040 4074 4106 4138 4168 4202 4234 4266 4552 4586 4618 4650 4680 4714 4746 4778 4936 4970 5002 5034 5320 5354 5386 5418 0
-47 17142 0
-110 17143 0
-17142 17143 0
-110 -17142 0
-173 17144 0
-17143 17144 0
-173 -17143 0
-716 17145 0
-17144 17145 0
-716 -17144 0
-777 17146 0
-17145 17146 0
-777 -17145 0
-837 17147 0
-17146 17147 0
-837 -17146 0
-897 17148 0
-17147 17148 0
-897 -17147 0
-1164 17149 0
-17148 17149 0
-1164 -17148 0
-1225 17150 0
-17149 17150 0
-1225 -17149 0
-1281 17151 0
-17150 17151 0
-1281 -17150 0
-1337 17152 0
-17151 17152 0
-1337 -17151 0
-1388 17153 0
-17152 17153 0
-1388 -17152 0
-1447 17154 0
-17153 17154 0
-1447 -17153 0
-1503 17155 0
-17154 17155 0
-1503 -17154 0
-1559 17156 0
-17155 17156 0
-1559 -17155 0
-2020 17157 0
-17156 17157 0
-2020 -17156 0
-2073 17158 0
-17157 17158 0
-2073 -17157 0
-2121 17159 0
-17158 17159 0
-2121 -17158 0
-2169 17160 0
-17159 17160 0
-2169 -17159 0
-2212 17161 0
-17160 17161 0
-2212 -17160 0
-2263 17162 0
-17161 17162 0
-2263 -17161 0
-2311 17163 0
-17162 17163 0
-2311 -17162 0
-2359 17164 0
-17163 17164 0
-2359 -17163 0
-2600 17165 0
-17164 17165 0
-2600 -17164 0
-2643 17166 0
-17165 17166 0
-2643 -17165 0
-2691 17167 0
-17166 17167 0
-2691 -17166 0
-2739 17168 0
-17167 17168 0
-2739 -17167 0
-3164 17169 0
-17168 17169 0
-3164 -17168 0
-3213 17170 0
-17169 17170 0
-3213 -17169 0
-3261 17171 0
-17170 17171 0
-3261 -17170 0
-3309 17172 0
-17171 17172 0
-3309 -17171 0
-3400 17173 0
-17172 17173 0
-3400 -17172 0
-3434 17174 0
-17173 17174 0
-3434 -17173 0
-3466 17175 0
-17174 17175 0
-3466 -17174 0
-3498 17176 0
-17175 17176 0
-3498 -17175 0
-3784 17177 0
-17176 17177 0
-3784 -17176 0
-3818 17178 0
-17177 17178 0
-3818 -17177 0
-3850 17179 0
-17178 17179 0
-3850 -17178 0
-3882 17180 0
-17179 17180 0
-3882 -17179 0
-4040 17181 0
-17180 17181 0
-4040 -17180 0
-4074 17182 0
-17181 17182 0
-4074 -17181 0
-4106 17183 0
-17182 17183 0
-4106 -17182 0
-4138 17184 0
-17183 17184 0
-4138 -17183 0
-4168 17185 0
-17184 17185 0
-4168 -17184 0
-4202 17186 0
-17185 17186 0
-4202 -17185 0
-4234 17187 0
-17186 17187 0
-4234 -17186 0
-4266 17188 0
-17187 17188 0
-4266 -17187 0
-4552 17189 0
-17188 17189 0
-4552 -17188 0
-4586 17190 0
-17189 17190 0
-4586 -17189 0
-4618 17191 0
-17190 17191 0
-4618 -17190 0
-4650 17192 0
-17191 17192 0
-4650 -17191 0
-4680 17193 0
-17192 17193 0
-4680 -17192 0
-4714 17194 0
-17193 17194 0
-4714 -17193 0
-4746 17195 0
-17194 17195 0
-4746 -17194 0
-4778 17196 0
-17195 17196 0
-4778 -17195 0
-4936 17197 0
-17196 17197 0
-4936 -17196 0
-4970 17198 0
-17197 17198 0
-4970 -17197 0
-5002 17199 0
-17198 17199 0
-5002 -17198 0
-5034 17200 0
-17199 17200 0
-5034 -17199 0
-5320 17201 0
-17200 17201 0
-5320 -17200 0
-5354 17202 0
-17201 17202 0
-5354 -17201 0
-5386 17203 0
-17202 17203 0
-5386 -17202 0
-5418 -17203 0
47 357 419 599 659 717 776 1059 1115 1165 1224 1389 1446 1725 1781 1931 1979 2021 2072 2213 2262 2501 2549 2601 2642 2881 2929 3071 3119 3165 3212 3401 3435 3594 3626 3722 3754 3785 3819 3978 4010 4041 4075 4169 4203 4362 4394 4490 4522 4553 4587 4681 4715 4874 4906 4937 4971 5130 5162 5258 5290 5321 5355 0
-47 17204 0
-357 17205 0
-17204 17205 0
-357 -17204 0
-419 17206 0
-17205 17206 0
-419 -17205 0
-599 17207 0
-17206 17207 0
-599 -17206 0
-659 17208 0
-17207 17208 0
-659 -17207 0
-717 17209 0
-17208 17209 0
-717 -17208 0
-776 17210 0
-17209 17210 0
-776 -17209 0
-1059 17211 0
-17210 17211 0
-1059 -17210 0
-1115 17212 0
-17211 17212 0
-1115 -17211 0
-1165 17213 0
-17212 17213 0
-1165 -17212 0
-1224 17214 0
-17213 17214 0
-1224 -17213 0
-1389 17215 0
-17214 17215 0
-1389 -17214 0
-1446 17216 0
-17215 17216 0
-1446 -17215 0
-1725 17217 0
-17216 17217 0
-1725 -17216 0
-1781 17218 0
-17217 17218 0
-1781 -17217 0
-1931 17219 0
-17218 17219 0
-1931 -17218 0
-1979 17220 0
-17219 17220 0
-1979 -17219 0
-2021 17221 0
-17220 17221 0
-2021 -17220 0
-2072 17222 0
-17221 17222 0
-2072 -17221 0
-2213 17223 0
-17222 17223 0
-2213 -17222 0
-2262 17224 0
-17223 17224 0
-2262 -17223 0
-2501 17225 0
-17224 17225 0
-2501 -17224 0
-2549 17226 0
-17225 17226 0
-2549 -17225 0
-2601 17227 0
-17226 17227 0
-2601 -17226 0
-2642 17228 0
-17227 17228 0
-2642 -17227 0
-2881 17229 0
-17228 17229 0
-2881 -17228 0
-2929 17230 0
-17229 17230 0
-2929 -17229 0
-3071 17231 0
-17230 17231 0
-3071 -17230 0
-3119 17232 0
-17231 17232 0
-3119 -17231 0
-3165 17233 0
-17232 17233 0
-3165 -17232 0
-3212 17234 0
-17233 17234 0
-3212 -17233 0
-3401 17235 0
-17234 17235 0
-3401 -17234 0
-3435 17236 0
-17235 17236 0
-3435 -17235 0
-3594 17237 0
-17236 17237 0
-3594 -17236 0
-3626 17238 0
-17237 17238 0
-3626 -17237 0
-3722 17239 0
-17238 17239 0
-3722 -17238 0
-3754 17240 0
-17239 17240 0
-3754 -17239 0
-3785 17241 0
-17240 17241 0
-3785 -17240 0
-3819 17242 0
-17241 17242 0
-3819 -17241 0
-3978 17243 0
-17242 17243 0
-3978 -17242 0
-4010 17244 0
-17243 17244 0
-4010 -17243 0
-4041 17245 0
-17244 17245 0
-4041 -17244 0
-4075 17246 0
-17245 17246 0
-4075 -17245 0
-4169 17247 0
-17246 17247 0
-4169 -17246 0
-4203 17248 0
-17247 17248 0
-4203 -17247 0
-4362 17249 0
-17248 17249 0
-4362 -17248 0
-4394 17250 0
-17249 17250 0
-4394 -17249 0
-4490 17251 0
-17250 17251 0
-4490 -17250 0
-4522 17252 0
-17251 17252 0
-4522 -17251 0
-4553 17253 0
-17252 17253 0
-4553 -17252 0
-4587 17254 0
-17253 17254 0
-4587 -17253 0
-4681 17255 0
-17254 17255 0
-4681 -17254 0
-4715 17256 0
-17255 17256 0
-4715 -17255 0
-4874 17257 0
-17256 17257 0
-4874 -17256 0
-4906 17258 0
-17257 17258 0
-4906 -17257 0
-4937 17259 0
-17258 17259 0
-4937 -17258 0
-4971 17260 0
-17259 17260 0
-4971 -17259 0
-5130 17261 0
-17260 17261 0
-5130 -17260 0
-5162 17262 0
-17261 17262 0
-5162 -17261 0
-5258 17263 0
-17262 17263 0
-5258 -17262 0
-5290 17264 0
-17263 17264 0
-5290 -17263 0
-5321 17265 0
-17264 17265 0
-5321 -17264 0
-5355 -17265 0
110 295 418 539 658 718 836 1003 1114 1166 1280 1390 1502 1669 1780 1883 1978 2022 2120 2214 2310 2453 2548 2602 2690 2833 2928 3023 3118 3166 3260 3402 3467 3562 3627 3690 3755 3786 3851 3946 4011 4042 4107 4170 4235 4330 4395 4458 4523 4554 4619 4682 4747 4842 4907 4938 5003 5098 5163 5226 5291 5322 5387 0
-110 17266 0
-295 17267 0
-17266 17267 0
-295 -17266 0
-418 17268 0
-17267 17268 0
-418 -17267 0
-539 17269 0
-17268 17269 0
-539 -17268 0
-658 17270 0
-17269 17270 0
-658 -17269 0
-718 17271 0
-17270 17271 0
-718 -17270 0
-836 17272 0
-17271 17272 0
-836 -17271 0
-1003 17273 0
-17272 17273 0
-1003 -17272 0
-1114 17274 0
-17273 17274 0
-1114 -17273 0
-1166 17275 0
-17274 17275 0
-1166 -17274 0
-1280 17276 0
-17275 17276 0
-1280 -17275 0
-1390 17277 0
-17276 17277 0
-1390 -17276 0
-1502 17278 0
-17277 17278 0
-1502 -17277 0
-1669 17279 0
-17278 17279 0
-1669 -17278 0
-1780 17280 0
-17279 17280 0
-1780 -17279 0
-1883 17281 0
-17280 17281 0
-1883 -17280 0
-1978 17282 0
-17281 17282 0
-1978 -17281 0
-2022 17283 0
-17282 17283 0
-2022 -17282 0
-2120 17284 0
-17283 17284 0
-2120 -17283 0
-2214 17285 0
-17284 17285 0
-2214 -17284 0
-2310 17286 0
-17285 17286 0
-2310 -17285 0
-2453 17287 0
-17286 17287 0
-2453 -17286 0
-2548 17288 0
-17287 17288 0
-2548 -17287 0
-2602 17289 0
-17288 17289 0
-2602 -17288 0
-2690 17290 0
-17289 17290 0
-2690 -17289 0
-2833 17291 0
-17290 17291 0
-2833 -17290 0
-2928 17292 0
-17291 17292 0
-2928 -17291 0
-3023 17293 0
-17292 17293 0
-3023 -17292 0
-3118 17294 0
-17293 17294 0
-3118 -17293 0
-3166 17295 0
-17294 17295 0
-3166 -17294 0
-3260 17296 0
-17295 17296 0
-3260 -17295 0
-3402 17297 0
-17296 17297 0
-3402 -17296 0
-3467 17298 0
-17297 17298 0
-3467 -17297 0
-3562 17299 0
-17298 17299 0
-3562 -17298 0
-3627 17300 0
-17299 17300 0
-3627 -17299 0
-3690 17301 0
-17300 17301 0
-3690 -17300 0
-3755 17302 0
-17301 17302 0
-3755 -17301 0
-3786 17303 0
-17302 17303 0
-3786 -17302 0
-3851 17304 0
-17303 17304 0
-3851 -17303 0
-3946 17305 0
-17304 17305 0
-3946 -17304 0
-4011 17306 0
-17305 17306 0
-4011 -17305 0
-4042 17307 0
-17306 17307 0
-4042 -17306 0
-4107 17308 0
-17307 17308 0
-4107 -17307 0
-4170 17309 0
-17308 17309 0
-4170 -17308 0
-4235 17310 0
-17309 17310 0
-4235 -17309 0
-4330 17311 0
-17310 17311 0
-4330 -17310 0
-4395 17312 0
-17311 17312 0
-4395 -17311 0
-4458 17313 0
-17312 17313 0
-4458 -17312 0
-4523 17314 0
-17313 17314 0
-4523 -17313 0
-4554 17315 0
-17314 17315 0
-4554 -17314 0
-4619 17316 0
-17315 17316 0
-4619 -17315 0
-4682 17317 0
-17316 17317 0
-4682 -17316 0
-4747 17318 0
-17317 17318 0
-4747 -17317 0
-4842 17319 0
-17318 17319 0
-4842 -17318 0
-4907 17320 0
-17319 17320 0
-4907 -17319 0
-4938 17321 0
-17320 17321 0
-4938 -17320 0
-5003 17322 0
-17321 17322 0
-5003 -17321 0
-5098 17323 0
-17322 17323 0
-5098 -17322 0
-5163 17324 0
-17323 17324 0
-5163 -17323 0
-5226 17325 0
-17324 17325 0
-5226 -17324 0
-5291 17326 0
-17325 17326 0
-5291 -17325 0
-5322 17327 0
-17326 17327 0
-5322 -17326 0
-5387 -17327 0
173 294 356 538 598 719 896 1002 1058 1167 1336 1391 1558 1668 1724 1882 1930 2023 2168 2215 2358 2452 2500 2603 2738 2832 2880 3022 3070 3167 3308 3403 3499 3563 3595 3691 3723 3787 3883 3947 3979 4043 4139 4171 4267 4331 4363 4459 4491 4555 4651 4683 4779 4843 4875 4939 5035 5099 5131 5227 5259 5323 5419 0
-173 17328 0
-294 17329 0
-17328 17329 0
-294 -17328 0
-356 17330 0
-17329 17330 0
-356 -17329 0
-538 17331 0
-17330 17331 0
-538 -17330 0
-598 17332 0
-17331 17332 0
-598 -17331 0
-719 17333 0
-17332 17333 0
-719 -17332 0
-896 17334 0
-17333 17334 0
-896 -17333 0
-1002 17335 0
-17334 17335 0
-1002 -17334 0
-1058 17336 0
-17335 17336 0
-1058 -17335 0
-1167 17337 0
-17336 17337 0
-1167 -17336 0
-1336 17338 0
-17337 17338 0
-1336 -17337 0
-1391 17339 0
-17338 17339 0
-1391 -17338 0
-1558 17340 0
-17339 17340 0
-1558 -17339 0
-1668 17341 0
-17340 17341 0
-1668 -17340 0
-1724 17342 0
-17341 17342 0
-1724 -17341 0
-1882 17343 0
-17342 17343 0
-1882 -17342 0
-1930 17344 0
-17343 17344 0
-1930 -17343 0
-2023 17345 0
-17344 17345 0
-2023 -17344 0
-2168 17346 0
-17345 17346 0
-2168 -17345 0
-2215 17347 0
-17346 17347 0
-2215 -17346 0
-2358 17348 0
-17347 17348 0
-2358 -17347 0
-2452 17349 0
-17348 17349 0
-2452 -17348 0
-2500 17350 0
-17349 17350 0
-2500 -17349 0
-2603 17351 0
-17350 17351 0
-2603 -17350 0
-2738 17352 0
-17351 17352 0
-2738 -17351 0
-2832 17353 0
-17352 17353 0
-2832 -17352 0
-2880 17354 0
-17353 17354 0
-2880 -17353 0
-3022 17355 0
-17354 17355 0
-3022 -17354 0
-3070 17356 0
-17355 17356 0
-3070 -17355 0
-3167 17357 0
-17356 17357 0
-3167 -17356 0
-3308 17358 0
-17357 17358 0
-3308 -17357 0
-3403 17359 0
-17358 17359 0
-3403 -17358 0
-3499 17360 0
-17359 17360 0
-3499 -17359 0
-3563 17361 0
-17360 17361 0
-3563 -17360 0
-3595 17362 0
-17361 17362 0
-3595 -17361 0
-3691 17363 0
-17362 17363 0
-3691 -17362 0
-3723 17364 0
-17363 17364 0
-3723 -17363 0
-3787 17365 0
-17364 17365 0
-3787 -17364 0
-3883 17366 0
-17365 17366 0
-3883 -17365 0
-3947 17367 0
-17366 17367 0
-3947 -17366 0
-3979 17368 0
-17367 17368 0
-3979 -17367 0
-4043 17369 0
-17368 17369 0
-4043 -17368 0
-4139 17370 0
-17369 17370 0
-4139 -17369 0
-4171 17371 0
-17370 17371 0
-4171 -17370 0
-4267 17372 0
-17371 17372 0
-4267 -17371 0
-4331 17373 0
-17372 17373 0
-4331 -17372 0
-4363 17374 0
-17373 17374 0
-4363 -17373 0
-4459 17375 0
-17374 17375 0
-4459 -17374 0
-4491 17376 0
-17375 17376 0
-4491 -17375 0
-4555 17377 0
-17376 17377 0
-4555 -17376 0
-4651 17378 0
-17377 17378 0
-4651 -17377 0
-4683 17379 0
-17378 17379 0
-4683 -17378 0
-4779 17380 0
-17379 17380 0
-4779 -17379 0
-4843 17381 0
-17380 17381 0
-4843 -17380 0
-4875 17382 0
-17381 17382 0
-4875 -17381 0
-4939 17383 0
-17382 17383 0
-4939 -17382 0
-5035 17384 0
-17383 17384 0
-5035 -17383 0
-5099 17385 0
-17384 17385 0
-5099 -17384 0
-5131 17386 0
-17385 17386 0
-5131 -17385 0
-5227 17387 0
-17386 17387 0
-5227 -17386 0
-5259 17388 0
-17387 17388 0
-5259 -17387 0
-5323 17389 0
-17388 17389 0
-5323 -17388 0
-5419 -17389 0
48 111 174 234 296 358 420 480 540 600 660 720 780 840 900 948 1004 1060 1116 1172 1228 1284 1340 1396 1452 1508 1564 1620 1676 1732 1788 1836 1884 1932 1980 2028 2076 2124 2172 2220 2268 2316 2364 2412 2460 2508 2556 2604 2652 2700 2748 2796 2844 2892 2940 2988 3036 3084 3132 3180 3228 3276 3324 3340 3405 3437 3469 3504 3535 3567 3599 3632 3665 3697 3729 3760 3795 3827 3859 3900 3925 3957 3989 4024 4055 4087 4119 4152 4185 4217 4249 4280 4315 4347 4379 4412 4445 4477 4509 4544 4575 4607 4639 4672 4705 4737 4769 4800 4835 4867 4899 4924 4965 4997 5029 5064 5095 5127 5159 5192 5225 5257 5289 5320 5355 5387 5419 0
-48 17390 0
-111 17391 0
-17390 17391 0
-111 -17390 0
-174 17392 0
-17391 17392 0
-174 -17391 0
-234 17393 0
-17392 17393 0
-234 -17392 0
-296 17394 0
-17393 17394 0
-296 -17393 0
-358 17395 0
-17394 17395 0
-358 -17394 0
-420 17396 0
-17395 17396 0
-420 -17395 0
-480 17397 0
-17396 17397 0
-480 -17396 0
-540 17398 0
-17397 17398 0
-540 -17397 0
-600 17399 0
-17398 17399 0
-600 -17398 0
-660 17400 0
-17399 17400 0
-660 -17399 0
-720 17401 0
-17400 17401 0
-720 -17400 0
-780 17402 0
-17401 17402 0
-780 -17401 0
-840 17403 0
-17402 17403 0
-840 -17402 0
-900 17404 0
-17403 17404 0
-900 -17403 0
-948 17405 0
-17404 17405 0
-948 -17404 0
-1004 17406 0
-17405 17406 0
-1004 -17405 0
-1060 17407 0
-17406 17407 0
-1060 -17406 0
-1116 17408 0
-17407 17408 0
-1116 -17407 0
-1172 17409 0
-17408 17409 0
-1172 -17408 0
-1228 17410 0
-17409 17410 0
-1228 -17409 0
-1284 17411 0
-17410 17411 0
-1284 -17410 0
-1340 17412 0
-17411 17412 0
-1340 -17411 0
-1396 17413 0
-17412 17413 0
-1396 -17412 0
-1452 17414 0
-17413 17414 0
-1452 -17413 0
-1508 17415 0
-17414 17415 0
-1508 -17414 0
-1564 17416 0
-17415 17416 0
-1564 -17415 0
-1620 17417 0
-17416 17417 0
-1620 -17416 0
-1676 17418 0
-17417 17418 0
-1676 -17417 0
-1732 17419 0
-17418 17419 0
-1732 -17418 0
-1788 17420 0
-17419 17420 0
-1788 -17419 0
-1836 17421 0
-17420 17421 0
-1836 -17420 0
-1884 17422 0
-17421 17422 0
-1884 -17421 0
-1932 17423 0
-17422 17423 0
-1932 -17422 0
-1980 17424 0
-17423 17424 0
-1980 -17423 0
-2028 17425 0
-17424 17425 0
-2028 -17424 0
-2076 17426 0
-17425 17426 0
-2076 -17425 0
-2124 17427 0
-17426 17427 0
-2124 -17426 0
-2172 17428 0
-17427 17428 0
-2172 -17427 0
-2220 17429 0
-17428 17429 0
-2220 -17428 0
-2268 17430 0
-17429 17430 0
-2268 -17429 0
-2316 17431 0
-17430 17431 0
-2316 -17430 0
-2364 17432 0
-17431 17432 0
-2364 -17431 0
-2412 17433 0
-17432 17433 0
-2412 -17432 0
-2460 17434 0
-17433 17434 0
-2460 -17433 0
-2508 17435 0
-17434 17435 0
-2508 -17434 0
-2556 17436 0
-17435 17436 0
-2556 -17435 0
-2604 17437 0
-17436 17437 0
-2604 -17436 0
-2652 17438 0
-17437 17438 0
-2652 -17437 0
-2700 17439 0
-17438 17439 0
-2700 -17438 0
-2748 17440 0
-17439 17440 0
-2748 -17439 0
-2796 17441 0
-17440 17441 0
-2796 -17440 0
-2844 17442 0
-17441 17442 0
-2844 -17441 0
-2892 17443 0
-17442 17443 0
-2892 -17442 0
-2940 17444 0
-17443 17444 0
-2940 -17443 0
-2988 17445 0
-17444 17445 0
-2988 -17444 0
-3036 17446 0
-17445 17446 0
-3036 -17445 0
-3084 17447 0
-17446 17447 0
-3084 -17446 0
-3132 17448 0
-17447 17448 0
-3132 -17447 0
-3180 17449 0
-17448 17449 0
-3180 -17448 0
-3228 17450 0
-17449 17450 0
-3228 -17449 0
-3276 17451 0
-17450 17451 0
-3276 -17450 0
-3324 17452 0
-17451 17452 0
-3324 -17451 0
-3340 17453 0
-17452 17453 0
-3340 -17452 0
-3405 17454 0
-17453 17454 0
-3405 -17453 0
-3437 17455 0
-17454 17455 0
-3437 -17454 0
-3469 17456 0
-17455 17456 0
-3469 -17455 0
-3504 17457 0
-17456 17457 0
-3504 -17456 0
-3535 17458 0
-17457 17458 0
-3535 -17457 0
-3567 17459 0
-17458 17459 0
-3567 -17458 0
-3599 17460 0
-17459 17460 0
-3599 -17459 0
-3632 17461 0
-17460 17461 0
-3632 -17460 0
-3665 17462 0
-17461 17462 0
-3665 -17461 0
-3697 17463 0
-17462 17463 0
-3697 -17462 0
-3729 17464 0
-17463 17464 0
-3729 -17463 0
-3760 17465 0
-17464 17465 0
-3760 -17464 0
-3795 17466 0
-17465 17466 0
-3795 -17465 0
-3827 17467 0
-17466 17467 0
-3827 -17466 0
-3859 17468 0
-17467 17468 0
-3859 -17467 0
-3900 17469 0
-17468 17469 0
-3900 -17468 0
-3925 17470 0
-17469 17470 0
-3925 -17469 0
-3957 17471 0
-17470 17471 0
-3957 -17470 0
-3989 17472 0
-17471 17472 0
-3989 -17471 0
-4024 17473 0
-17472 17473 0
-4024 -17472 0
-4055 17474 0
-17473 17474 0
-4055 -17473 0
-4087 17475 0
-17474 17475 0
-4087 -17474 0
-4119 17476 0
-17475 17476 0
-4119 -17475 0
-4152 17477 0
-17476 17477 0
-4152 -17476 0
-4185 17478 0
-17477 17478 0
-4185 -17477 0
-4217 17479 0
-17478 17479 0
-4217 -17478 0
-4249 17480 0
-17479 17480 0
-4249 -17479 0
-4280 17481 0
-17480 17481 0
-4280 -17480 0
-4315 17482 0
-17481 17482 0
-4315 -17481 0
-4347 17483 0
-17482 17483 0
-4347 -17482 0
-4379 17484 0
-17483 17484 0
-4379 -17483 0
-4412 17485 0
-17484 17485 0
-4412 -17484 0
-4445 17486 0
-17485 17486 0
-4445 -17485 0
-4477 17487 0
-17486 17487 0
-4477 -17486 0
-4509 17488 0
-17487 17488 0
-4509 -17487 0
-4544 17489 0
-17488 17489 0
-4544 -17488 0
-4575 17490 0
-17489 17490 0
-4575 -17489 0
-4607 17491 0
-17490 17491 0
-4607 -17490 0
-4639 17492 0
-17491 17492 0
-4639 -17491 0
-4672 17493 0
-17492 17493 0
-4672 -17492 0
-4705 17494 0
-17493 17494 0
-4705 -17493 0
-4737 17495 0
-17494 17495 0
-4737 -17494 0
-4769 17496 0
-17495 17496 0
-4769 -17495 0
-4800 17497 0
-17496 17497 0
-4800 -17496 0
-4835 17498 0
-17497 17498 0
-4835 -17497 0
-4867 17499 0
-17498 17499 0
-4867 -17498 0
-4899 17500 0
-17499 17500 0
-4899 -17499 0
-4924 17501 0
-17500 17501 0
-4924 -17500 0
-4965 17502 0
-17501 17502 0
-4965 -17501 0
-4997 17503 0
-17502 17503 0
-4997 -17502 0
-5029 17504 0
-17503 17504 0
-5029 -17503 0
-5064 17505 0
-17504 17505 0
-5064 -17504 0
-5095 17506 0
-17505 17506 0
-5095 -17505 0
-5127 17507 0
-17506 17507 0
-5127 -17506 0
-5159 17508 0
-17507 17508 0
-5159 -17507 0
-5192 17509 0
-17508 17509 0
-5192 -17508 0
-5225 17510 0
-17509 17510 0
-5225 -17509 0
-5257 17511 0
-17510 17511 0
-5257 -17510 0
-5289 17512 0
-17511 17512 0
-5289 -17511 0
-5320 17513 0
-17512 17513 0
-5320 -17512 0
-5355 17514 0
-17513 17514 0
-5355 -17513 0
-5387 17515 0
-17514 17515 0
-5387 -17514 0
-5419 -17515 0
48 235 297 481 541 721 781 949 1005 1173 1229 1397 1453 1621 1677 1837 1885 2029 2077 2221 2269 2413 2461 2605 2653 2797 2845 2989 3037 3181 3229 3341 3404 3505 3534 3633 3664 3761 3794 3901 3924 4025 4054 4153 4184 4281 4314 4413 4444 4545 4574 4673 4704 4801 4834 4925 4964 5065 5094 5193 5224 5321 5354 0
-48 17516 0
-235 17517 0
-17516 17517 0
-235 -17516 0
-297 17518 0
-17517 17518 0
-297 -17517 0
-481 17519 0
-17518 17519 0
-481 -17518 0
-541 17520 0
-17519 17520 0
-541 -17519 0
-721 17521 0
-17520 17521 0
-721 -17520 0
-781 17522 0
-17521 17522 0
-781 -17521 0
-949 17523 0
-17522 17523 0
-949 -17522 0
-1005 17524 0
-17523 17524 0
-1005 -17523 0
-1173 17525 0
-17524 17525 0
-1173 -17524 0
-1229 17526 0
-17525 17526 0
-1229 -17525 0
-1397 17527 0
-17526 17527 0
-1397 -17526 0
-1453 17528 0
-17527 17528 0
-1453 -17527 0
-1621 17529 0
-17528 17529 0
-1621 -17528 0
-1677 17530 0
-17529 17530 0
-1677 -17529 0
-1837 17531 0
-17530 17531 0
-1837 -17530 0
-1885 17532 0
-17531 17532 0
-1885 -17531 0
-2029 17533 0
-17532 17533 0
-2029 -17532 0
-2077 17534 0
-17533 17534 0
-2077 -17533 0
-2221 17535 0
-17534 17535 0
-2221 -17534 0
-2269 17536 0
-17535 17536 0
-2269 -17535 0
-2413 17537 0
-17536 17537 0
-2413 -17536 0
-2461 17538 0
-17537 17538 0
-2461 -17537 0
-2605 17539 0
-17538 17539 0
-2605 -17538 0
-2653 17540 0
-17539 17540 0
-2653 -17539 0
-2797 17541 0
-17540 17541 0
-2797 -17540 0
-2845 17542 0
-17541 17542 0
-2845 -17541 0
-2989 17543 0
-17542 17543 0
-2989 -17542 0
-3037 17544 0
-17543 17544 0
-3037 -17543 0
-3181 17545 0
-17544 17545 0
-3181 -17544 0
-3229 17546 0
-17545 17546 0
-3229 -17545 0
-3341 17547 0
-17546 17547 0
-3341 -17546 0
-3404 17548 0
-17547 17548 0
-3404 -17547 0
-3505 17549 0
-17548 17549 0
-3505 -17548 0
-3534 17550 0
-17549 17550 0
-3534 -17549 0
-3633 17551 0
-17550 17551 0
-3633 -17550 0
-3664 17552 0
-17551 17552 0
-3664 -17551 0
-3761 17553 0
-17552 17553 0
-3761 -17552 0
-3794 17554 0
-17553 17554 0
-3794 -17553 0
-3901 17555 0
-17554 17555 0
-3901 -17554 0
-3924 17556 0
-17555 17556 0
-3924 -17555 0
-4025 17557 0
-17556 17557 0
-4025 -17556 0
-4054 17558 0
-17557 17558 0
-4054 -17557 0
-4153 17559 0
-17558 17559 0
-4153 -17558 0
-4184 17560 0
-17559 17560 0
-4184 -17559 0
-4281 17561 0
-17560 17561 0
-4281 -17560 0
-4314 17562 0
-17561 17562 0
-4314 -17561 0
-4413 17563 0
-17562 17563 0
-4413 -17562 0
-4444 17564 0
-17563 17564 0
-4444 -17563 0
-4545 17565 0
-17564 17565 0
-4545 -17564 0
-4574 17566 0
-17565 17566 0
-4574 -17565 0
-4673 17567 0
-17566 17567 0
-4673 -17566 0
-4704 17568 0
-17567 17568 0
-4704 -17567 0
-4801 17569 0
-17568 17569 0
-4801 -17568 0
-4834 17570 0
-17569 17570 0
-4834 -17569 0
-4925 17571 0
-17570 17571 0
-4925 -17570 0
-4964 17572 0
-17571 17572 0
-4964 -17571 0
-5065 17573 0
-17572 17573 0
-5065 -17572 0
-5094 17574 0
-17573 17574 0
-5094 -17573 0
-5193 17575 0
-17574 17575 0
-5193 -17574 0
-5224 17576 0
-17575 17576 0
-5224 -17575 0
-5321 17577 0
-17576 17577 0
-5321 -17576 0
-5354 -17577 0
111 236 359 482 601 722 841 950 1061 1174 1285 1398 1509 1622 1733 1838 1933 2030 2125 2222 2317 2414 2509 2606 2701 2798 2893 2990 3085 3182 3277 3342 3436 3506 3566 3634 3696 3762 3826 3902 3956 4026 4086 4154 4216 4282 4346 4414 4476 4546 4606 4674 4736 4802 4866 4926 4996 5066 5126 5194 5256 5322 5386 0
-111 17578 0
-236 17579 0
-17578 17579 0
-236 -17578 0
-359 17580 0
-17579 17580 0
-359 -17579 0
-482 17581 0
-17580 17581 0
-482 -17580 0
-601 17582 0
-17581 17582 0
-601 -17581 0
-722 17583 0
-17582 17583 0
-722 -17582 0
-841 17584 0
-17583 17584 0
-841 -17583 0
-950 17585 0
-17584 17585 0
-950 -17584 0
-1061 17586 0
-17585 17586 0
-1061 -17585 0
-1174 17587 0
-17586 17587 0
-1174 -17586 0
-1285 17588 0
-17587 17588 0
-1285 -17587 0
-1398 17589 0
-17588 17589 0
-1398 -17588 0
-1509 17590 0
-17589 17590 0
-1509 -17589 0
-1622 17591 0
-17590 17591 0
-1622 -17590 0
-1733 17592 0
-17591 17592 0
-1733 -17591 0
-1838 17593 0
-17592 17593 0
-1838 -17592 0
-1933 17594 0
-17593 17594 0
-1933 -17593 0
-2030 17595 0
-17594 17595 0
-2030 -17594 0
-2125 17596 0
-17595 17596 0
-2125 -17595 0
-2222 17597 0
-17596 17597 0
-2222 -17596 0
-2317 17598 0
-17597 17598 0
-2317 -17597 0
-2414 17599 0
-17598 17599 0
-2414 -17598 0
-2509 17600 0
-17599 17600 0
-2509 -17599 0
-2606 17601 0
-17600 17601 0
-2606 -17600 0
-2701 17602 0
-17601 17602 0
-2701 -17601 0
-2798 17603 0
-17602 17603 0
-2798 -17602 0
-2893 17604 0
-17603 17604 0
-2893 -17603 0
-2990 17605 0
-17604 17605 0
-2990 -17604 0
-3085 17606 0
-17605 17606 0
-3085 -17605 0
-3182 17607 0
-17606 17607 0
-3182 -17606 0
-3277 17608 0
-17607 17608 0
-3277 -17607 0
-3342 17609 0
-17608 17609 0
-3342 -17608 0
-3436 17610 0
-17609 17610 0
-3436 -17609 0
-3506 17611 0
-17610 17611 0
-3506 -17610 0
-3566 17612 0
-17611 17612 0
-3566 -17611 0
-3634 17613 0
-17612 17613 0
-3634 -17612 0
-3696 17614 0
-17613 17614 0
-3696 -17613 0
-3762 17615 0
-17614 17615 0
-3762 -17614 0
-3826 17616 0
-17615 17616 0
-3826 -17615 0
-3902 17617 0
-17616 17617 0
-3902 -17616 0
-3956 17618 0
-17617 17618 0
-3956 -17617 0
-4026 17619 0
-17618 17619 0
-4026 -17618 0
-4086 17620 0
-17619 17620 0
-4086 -17619 0
-4154 17621 0
-17620 17621 0
-4154 -17620 0
-4216 17622 0
-17621 17622 0
-4216 -17621 0
-4282 17623 0
-17622 17623 0
-4282 -17622 0
-4346 17624 0
-17623 17624 0
-4346 -17623 0
-4414 17625 0
-17624 17625 0
-4414 -17624 0
-4476 17626 0
-17625 17626 0
-4476 -17625 0
-4546 17627 0
-17626 17627 0
-4546 -17626 0
-4606 17628 0
-17627 17628 0
-4606 -17627 0
-4674 17629 0
-17628 17629 0
-4674 -17628 0
-4736 17630 0
-17629 17630 0
-4736 -17629 0
-4802 17631 0
-17630 17631 0
-4802 -17630 0
-4866 17632 0
-17631 17632 0
-4866 -17631 0
-4926 17633 0
-17632 17633 0
-4926 -17632 0
-4996 17634 0
-17633 17634 0
-4996 -17633 0
-5066 17635 0
-17634 17635 0
-5066 -17634 0
-5126 17636 0
-17635 17636 0
-5126 -17635 0
-5194 17637 0
-17636 17637 0
-5194 -17636 0
-5256 17638 0
-17637 17638 0
-5256 -17637 0
-5322 17639 0
-17638 17639 0
-5322 -17638 0
-5386 -17639 0
174 237 421 483 661 723 901 951 1117 1175 1341 1399 1565 1623 1789 1839 1981 2031 2173 2223 2365 2415 2557 2607 2749 2799 2941 2991 3133 3183 3325 3343 3468 3507 3598 3635 3728 3763 3858 3903 3988 4027 4118 4155 4248 4283 4378 4415 4508 4547 4638 4675 4768 4803 4898 4927 5028 5067 5158 5195 5288 5323 5418 0
-174 17640 0
-237 17641 0
-17640 17641 0
-237 -17640 0
-421 17642 0
-17641 17642 0
-421 -17641 0
-483 17643 0
-17642 17643 0
-483 -17642 0
-661 17644 0
-17643 17644 0
-661 -17643 0
-723 17645 0
-17644 17645 0
-723 -17644 0
-901 17646 0
-17645 17646 0
-901 -17645 0
-951 17647 0
-17646 17647 0
-951 -17646 0
-1117 17648 0
-17647 17648 0
-1117 -17647 0
-1175 17649 0
-17648 17649 0
-1175 -17648 0
-1341 17650 0
-17649 17650 0
-1341 -17649 0
-1399 17651 0
-17650 17651 0
-1399 -17650 0
-1565 17652 0
-17651 17652 0
-1565 -17651 0
-1623 17653 0
-17652 17653 0
-1623 -17652 0
-1789 17654 0
-17653 17654 0
-1789 -17653 0
-1839 17655 0
-17654 17655 0
-1839 -17654 0
-1981 17656 0
-17655 17656 0
-1981 -17655 0
-2031 17657 0
-17656 17657 0
-2031 -17656 0
-2173 17658 0
-17657 17658 0
-2173 -17657 0
-2223 17659 0
-17658 17659 0
-2223 -17658 0
-2365 17660 0
-17659 17660 0
-2365 -17659 0
-2415 17661 0
-17660 17661 0
-2415 -17660 0
-2557 17662 0
-17661 17662 0
-2557 -17661 0
-2607 17663 0
-17662 17663 0
-2607 -17662 0
-2749 17664 0
-17663 17664 0
-2749 -17663 0
-2799 17665 0
-17664 17665 0
-2799 -17664 0
-2941 17666 0
-17665 17666 0
-2941 -17665 0
-2991 17667 0
-17666 17667 0
-2991 -17666 0
-3133 17668 0
-17667 17668 0
-3133 -17667 0
-3183 17669 0
-17668 17669 0
-3183 -17668 0
-3325 17670 0
-17669 17670 0
-3325 -17669 0
-3343 17671 0
-17670 17671 0
-3343 -17670 0
-3468 17672 0
-17671 17672 0
-3468 -17671 0
-3507 17673 0
-17672 17673 0
-3507 -17672 0
-3598 17674 0
-17673 17674 0
-3598 -17673 0
-3635 17675 0
-17674 17675 0
-3635 -17674 0
-3728 17676 0
-17675 17676 0
-3728 -17675 0
-3763 17677 0
-17676 17677 0
-3763 -17676 0
-3858 17678 0
-17677 17678 0
-3858 -17677 0
-3903 17679 0
-17678 17679 0
-3903 -17678 0
-3988 17680 0
-17679 17680 0
-3988 -17679 0
-4027 17681 0
-17680 17681 0
-4027 -17680 0
-4118 17682 0
-17681 17682 0
-4118 -17681 0
-4155 17683 0
-17682 17683 0
-4155 -17682 0
-4248 17684 0
-17683 17684 0
-4248 -17683 0
-4283 17685 0
-17684 17685 0
-4283 -17684 0
-4378 17686 0
-17685 17686 0
-4378 -17685 0
-4415 17687 0
-17686 17687 0
-4415 -17686 0
-4508 17688 0
-17687 17688 0
-4508 -17687 0
-4547 17689 0
-17688 17689 0
-4547 -17688 0
-4638 17690 0
-17689 17690 0
-4638 -17689 0
-4675 17691 0
-17690 17691 0
-4675 -17690 0
-4768 17692 0
-17691 17692 0
-4768 -17691 0
-4803 17693 0
-17692 17693 0
-4803 -17692 0
-4898 17694 0
-17693 17694 0
-4898 -17693 0
-4927 17695 0
-17694 17695 0
-4927 -17694 0
-5028 17696 0
-17695 17696 0
-5028 -17695 0
-5067 17697 0
-17696 17697 0
-5067 -17696 0
-5158 17698 0
-17697 17698 0
-5158 -17697 0
-5195 17699 0
-17698 17699 0
-5195 -17698 0
-5288 17700 0
-17699 17700 0
-5288 -17699 0
-5323 17701 0
-17700 17701 0
-5323 -17700 0
-5418 -17701 0
49 112 175 234 297 359 421 952 1006 1062 1118 1176 1230 1286 1342 1840 1886 1934 1982 2032 2078 2126 2174 2608 2654 2702 2750 2800 2846 2894 2942 3344 3407 3439 3471 3500 3533 3565 3597 3904 3927 3959 3991 4020 4053 4085 4117 4416 4447 4479 4511 4540 4573 4605 4637 4928 4967 4999 5031 5060 5093 5125 5157 0
-49 17702 0
-112 17703 0
-17702 17703 0
-112 -17702 0
-175 17704 0
-17703 17704 0
-175 -17703 0
-234 17705 0
-17704 17705 0
-234 -17704 0
-297 17706 0
-17705 17706 0
-297 -17705 0
-359 17707 0
-17706 17707 0
-359 -17706 0
-421 17708 0
-17707 17708 0
-421 -17707 0
-952 17709 0
-17708 17709 0
-952 -17708 0
-1006 17710 0
-17709 17710 0
-1006 -17709 0
-1062 17711 0
-17710 17711 0
-1062 -17710 0
-1118 17712 0
-17711 17712 0
-1118 -17711 0
-1176 17713 0
-17712 17713 0
-1176 -17712 0
-1230 17714 0
-17713 17714 0
-1230 -17713 0
-1286 17715 0
-17714 17715 0
-1286 -17714 0
-1342 17716 0
-17715 17716 0
-1342 -17715 0
-1840 17717 0
-17716 17717 0
-1840 -17716 0
-1886 17718 0
-17717 17718 0
-1886 -17717 0
-1934 17719 0
-17718 17719 0
-1934 -17718 0
-1982 17720 0
-17719 17720 0
-1982 -17719 0
-2032 17721 0
-17720 17721 0
-2032 -17720 0
-2078 17722 0
-17721 17722 0
-2078 -17721 0
-2126 17723 0
-17722 17723 0
-2126 -17722 0
-2174 17724 0
-17723 17724 0
-2174 -17723 0
-2608 17725 0
-17724 17725 0
-2608 -17724 0
-2654 17726 0
-17725 17726 0
-2654 -17725 0
-2702 17727 0
-17726 17727 0
-2702 -17726 0
-2750 17728 0
-17727 17728 0
-2750 -17727 0
-2800 17729 0
-17728 17729 0
-2800 -17728 0
-2846 17730 0
-17729 17730 0
-2846 -17729 0
-2894 17731 0
-17730 17731 0
-2894 -17730 0
-2942 17732 0
-17731 17732 0
-2942 -17731 0
-3344 17733 0
-17732 17733 0
-3344 -17732 0
-3407 17734 0
-17733 17734 0
-3407 -17733 0
-3439 17735 0
-17734 17735 0
-3439 -17734 0
-3471 17736 0
-17735 17736 0
-3471 -17735 0
-3500 17737 0
-17736 17737 0
-3500 -17736 0
-3533 17738 0
-17737 17738 0
-3533 -17737 0
-3565 17739 0
-17738 17739 0
-3565 -17738 0
-3597 17740 0
-17739 17740 0
-3597 -17739 0
-3904 17741 0
-17740 17741 0
-3904 -17740 0
-3927 17742 0
-17741 17742 0
-3927 -17741 0
-3959 17743 0
-17742 17743 0
-3959 -17742 0
-3991 17744 0
-17743 17744 0
-3991 -17743 0
-4020 17745 0
-17744 17745 0
-4020 -17744 0
-4053 17746 0
-17745 17746 0
-4053 -17745 0
-4085 17747 0
-17746 17747 0
-4085 -17746 0
-4117 17748 0
-17747 17748 0
-4117 -17747 0
-4416 17749 0
-17748 17749 0
-4416 -17748 0
-4447 17750 0
-17749 17750 0
-4447 -17749 0
-4479 17751 0
-17750 17751 0
-4479 -17750 0
-4511 17752 0
-17751 17752 0
-4511 -17751 0
-4540 17753 0
-17752 17753 0
-4540 -17752 0
-4573 17754 0
-17753 17754 0
-4573 -17753 0
-4605 17755 0
-17754 17755 0
-4605 -17754 0
-4637 17756 0
-17755 17756 0
-4637 -17755 0
-4928 17757 0
-17756 17757 0
-4928 -17756 0
-4967 17758 0
-17757 17758 0
-4967 -17757 0
-4999 17759 0
-17758 17759 0
-4999 -17758 0
-5031 17760 0
-17759 17760 0
-5031 -17759 0
-5060 17761 0
-17760 17761 0
-5060 -17760 0
-5093 17762 0
-17761 17762 0
-5093 -17761 0
-5125 17763 0
-17762 17763 0
-5125 -17762 0
-5157 -17763 0
49 235 296 602 662 842 902 953 1007 1177 1231 1510 1566 1734 1790 1841 1887 2033 2079 2318 2366 2510 2558 2609 2655 2801 2847 3086 3134 3278 3326 3345 3406 3501 3532 3699 3731 3825 3857 3905 3926 4021 4052 4219 4251 4345 4377 4417 4446 4541 4572 4739 4771 4865 4897 4929 4966 5061 5092 5259 5291 5385 5417 0
-49 17764 0
-235 17765 0
-17764 17765 0
-235 -17764 0
-296 17766 0
-17765 17766 0
-296 -17765 0
-602 17767 0
-17766 17767 0
-602 -17766 0
-662 17768 0
-17767 17768 0
-662 -17767 0
-842 17769 0
-17768 17769 0
-842 -17768 0
-902 17770 0
-17769 17770 0
-902 -17769 0
-953 17771 0
-17770 17771 0
-953 -17770 0
-1007 17772 0
-17771 17772 0
-1007 -17771 0
-1177 17773 0
-17772 17773 0
-1177 -17772 0
-1231 17774 0
-17773 17774 0
-1231 -17773 0
-1510 17775 0
-17774 17775 0
-1510 -17774 0
-1566 17776 0
-17775 17776 0
-1566 -17775 0
-1734 17777 0
-17776 17777 0
-1734 -17776 0
-1790 17778 0
-17777 17778 0
-1790 -17777 0
-1841 17779 0
-17778 17779 0
-1841 -17778 0
-1887 17780 0
-17779 17780 0
-1887 -17779 0
-2033 17781 0
-17780 17781 0
-2033 -17780 0
-2079 17782 0
-17781 17782 0
-2079 -17781 0
-2318 17783 0
-17782 17783 0
-2318 -17782 0
-2366 17784 0
-17783 17784 0
-2366 -17783 0
-2510 17785 0
-17784 17785 0
-2510 -17784 0
-2558 17786 0
-17785 17786 0
-2558 -17785 0
-2609 17787 0
-17786 17787 0
-2609 -17786 0
-2655 17788 0
-17787 17788 0
-2655 -17787 0
-2801 17789 0
-17788 17789 0
-2801 -17788 0
-2847 17790 0
-17789 17790 0
-2847 -17789 0
-3086 17791 0
-17790 17791 0
-3086 -17790 0
-3134 17792 0
-17791 17792 0
-3134 -17791 0
-3278 17793 0
-17792 17793 0
-3278 -17792 0
-3326 17794 0
-17793 17794 0
-3326 -17793 0
-3345 17795 0
-17794 17795 0
-3345 -17794 0
-3406 17796 0
-17795 17796 0
-3406 -17795 0
-3501 17797 0
-17796 17797 0
-3501 -17796 0
-3532 17798 0
-17797 17798 0
-3532 -17797 0
-3699 17799 0
-17798 17799 0
-3699 -17798 0
-3731 17800 0
-17799 17800 0
-3731 -17799 0
-3825 17801 0
-17800 17801 0
-3825 -17800 0
-3857 17802 0
-17801 17802 0
-3857 -17801 0
-3905 17803 0
-17802 17803 0
-3905 -17802 0
-3926 17804 0
-17803 17804 0
-3926 -17803 0
-4021 17805 0
-17804 17805 0
-4021 -17804 0
-4052 17806 0
-17805 17806 0
-4052 -17805 0
-4219 17807 0
-17806 17807 0
-4219 -17806 0
-4251 17808 0
-17807 17808 0
-4251 -17807 0
-4345 17809 0
-17808 17809 0
-4345 -17808 0
-4377 17810 0
-17809 17810 0
-4377 -17809 0
-4417 17811 0
-17810 17811 0
-4417 -17810 0
-4446 17812 0
-17811 17812 0
-4446 -17811 0
-4541 17813 0
-17812 17813 0
-4541 -17812 0
-4572 17814 0
-17813 17814 0
-4572 -17813 0
-4739 17815 0
-17814 17815 0
-4739 -17814 0
-4771 17816 0
-17815 17816 0
-4771 -17815 0
-4865 17817 0
-17816 17817 0
-4865 -17816 0
-4897 17818 0
-17817 17818 0
-4897 -17817 0
-4929 17819 0
-17818 17819 0
-4929 -17818 0
-4966 17820 0
-17819 17820 0
-4966 -17819 0
-5061 17821 0
-17820 17821 0
-5061 -17820 0
-5092 17822 0
-17821 17822 0
-5092 -17821 0
-5259 17823 0
-17822 17823 0
-5259 -17822 0
-5291 17824 0
-17823 17824 0
-5291 -17823 0
-5385 17825 0
-17824 17825 0
-5385 -17824 0
-5417 -17825 0
112 236 358 542 663 782 903 954 1063 1178 1287 1454 1567 1678 1791 1842 1935 2034 2127 2270 2367 2462 2559 2610 2703 2802 2895 3038 3135 3230 3327 3346 3438 3502 3564 3667 3730 3793 3856 3906 3958 4022 4084 4187 4250 4313 4376 4418 4478 4542 4604 4707 4770 4833 4896 4930 4998 5062 5124 5227 5290 5353 5416 0
-112 17826 0
-236 17827 0
-17826 17827 0
-236 -17826 0
-358 17828 0
-17827 17828 0
-358 -17827 0
-542 17829 0
-17828 17829 0
-542 -17828 0
-663 17830 0
-17829 17830 0
-663 -17829 0
-782 17831 0
-17830 17831 0
-782 -17830 0
-903 17832 0
-17831 17832 0
-903 -17831 0
-954 17833 0
-17832 17833 0
-954 -17832 0
-1063 17834 0
-17833 17834 0
-1063 -17833 0
-1178 17835 0
-17834 17835 0
-1178 -17834 0
-1287 17836 0
-17835 17836 0
-1287 -17835 0
-1454 17837 0
-17836 17837 0
-1454 -17836 0
-1567 17838 0
-17837 17838 0
-1567 -17837 0
-1678 17839 0
-17838 17839 0
-1678 -17838 0
-1791 17840 0
-17839 17840 0
-1791 -17839 0
-1842 17841 0
-17840 17841 0
-1842 -17840 0
-1935 17842 0
-17841 17842 0
-1935 -17841 0
-2034 17843 0
-17842 17843 0
-2034 -17842 0
-2127 17844 0
-17843 17844 0
-2127 -17843 0
-2270 17845 0
-17844 17845 0
-2270 -17844 0
-2367 17846 0
-17845 17846 0
-2367 -17845 0
-2462 17847 0
-17846 17847 0
-2462 -17846 0
-2559 17848 0
-17847 17848 0
-2559 -17847 0
-2610 17849 0
-17848 17849 0
-2610 -17848 0
-2703 17850 0
-17849 17850 0
-2703 -17849 0
-2802 17851 0
-17850 17851 0
-2802 -17850 0
-2895 17852 0
-17851 17852 0
-2895 -17851 0
-3038 17853 0
-17852 17853 0
-3038 -17852 0
-3135 17854 0
-17853 17854 0
-3135 -17853 0
-3230 17855 0
-17854 17855 0
-3230 -17854 0
-3327 17856 0
-17855 17856 0
-3327 -17855 0
-3346 17857 0
-17856 17857 0
-3346 -17856 0
-3438 17858 0
-17857 17858 0
-3438 -17857 0
-3502 17859 0
-17858 17859 0
-3502 -17858 0
-3564 17860 0
-17859 17860 0
-3564 -17859 0
-3667 17861 0
-17860 17861 0
-3667 -17860 0
-3730 17862 0
-17861 17862 0
-3730 -17861 0
-3793 17863 0
-17862 17863 0
-3793 -17862 0
-3856 17864 0
-17863 17864 0
-3856 -17863 0
-3906 17865 0
-17864 17865 0
-3906 -17864 0
-3958 17866 0
-17865 17866 0
-3958 -17865 0
-4022 17867 0
-17866 17867 0
-4022 -17866 0
-4084 17868 0
-17867 17868 0
-4084 -17867 0
-4187 17869 0
-17868 17869 0
-4187 -17868 0
-4250 17870 0
-17869 17870 0
-4250 -17869 0
-4313 17871 0
-17870 17871 0
-4313 -17870 0
-4376 17872 0
-17871 17872 0
-4376 -17871 0
-4418 17873 0
-17872 17873 0
-4418 -17872 0
-4478 17874 0
-17873 17874 0
-4478 -17873 0
-4542 17875 0
-17874 17875 0
-4542 -17874 0
-4604 17876 0
-17875 17876 0
-4604 -17875 0
-4707 17877 0
-17876 17877 0
-4707 -17876 0
-4770 17878 0
-17877 17878 0
-4770 -17877 0
-4833 17879 0
-17878 17879 0
-4833 -17878 0
-4896 17880 0
-17879 17880 0
-4896 -17879 0
-4930 17881 0
-17880 17881 0
-4930 -17880 0
-4998 17882 0
-17881 17882 0
-4998 -17881 0
-5062 17883 0
-17882 17883 0
-5062 -17882 0
-5124 17884 0
-17883 17884 0
-5124 -17883 0
-5227 17885 0
-17884 17885 0
-5227 -17884 0
-5290 17886 0
-17885 17886 0
-5290 -17885 0
-5353 17887 0
-17886 17887 0
-5353 -17886 0
-5416 -17887 0
175 237 420 543 603 783 843 955 1119 1179 1343 1455 1511 1679 1735 1843 1983 2035 2175 2271 2319 2463 2511 2611 2751 2803 2943 3039 3087 3231 3279 3347 3470 3503 3596 3666 3698 3792 3824 3907 3990 4023 4116 4186 4218 4312 4344 4419 4510 4543 4636 4706 4738 4832 4864 4931 5030 5063 5156 5226 5258 5352 5384 0
-175 17888 0
-237 17889 0
-17888 17889 0
-237 -17888 0
-420 17890 0
-17889 17890 0
-420 -17889 0
-543 17891 0
-17890 17891 0
-543 -17890 0
-603 17892 0
-17891 17892 0
-603 -17891 0
-783 17893 0
-17892 17893 0
-783 -17892 0
-843 17894 0
-17893 17894 0
-843 -17893 0
-955 17895 0
-17894 17895 0
-955 -17894 0
-1119 17896 0
-17895 17896 0
-1119 -17895 0
-1179 17897 0
-17896 17897 0
-1179 -17896 0
-1343 17898 0
-17897 17898 0
-1343 -17897 0
-1455 17899 0
-17898 17899 0
-1455 -17898 0
-1511 17900 0
-17899 17900 0
-1511 -17899 0
-1679 17901 0
-17900 17901 0
-1679 -17900 0
-1735 17902 0
-17901 17902 0
-1735 -17901 0
-1843 17903 0
-17902 17903 0
-1843 -17902 0
-1983 17904 0
-17903 17904 0
-1983 -17903 0
-2035 17905 0
-17904 17905 0
-2035 -17904 0
-2175 17906 0
-17905 17906 0
-2175 -17905 0
-2271 17907 0
-17906 17907 0
-2271 -17906 0
-2319 17908 0
-17907 17908 0
-2319 -17907 0
-2463 17909 0
-17908 17909 0
-2463 -17908 0
-2511 17910 0
-17909 17910 0
-2511 -17909 0
-2611 17911 0
-17910 17911 0
-2611 -17910 0
-2751 17912 0
-17911 17912 0
-2751 -17911 0
-2803 17913 0
-17912 17913 0
-2803 -17912 0
-2943 17914 0
-17913 17914 0
-2943 -17913 0
-3039 17915 0
-17914 17915 0
-3039 -17914 0
-3087 17916 0
-17915 17916 0
-3087 -17915 0
-3231 17917 0
-17916 17917 0
-3231 -17916 0
-3279 17918 0
-17917 17918 0
-3279 -17917 0
-3347 17919 0
-17918 17919 0
-3347 -17918 0
-3470 17920 0
-17919 17920 0
-3470 -17919 0
-3503 17921 0
-17920 17921 0
-3503 -17920 0
-3596 17922 0
-17921 17922 0
-3596 -17921 0
-3666 17923 0
-17922 17923 0
-3666 -17922 0
-3698 17924 0
-17923 17924 0
-3698 -17923 0
-3792 17925 0
-17924 17925 0
-3792 -17924 0
-3824 17926 0
-17925 17926 0
-3824 -17925 0
-3907 17927 0
-17926 17927 0
-3907 -17926 0
-3990 17928 0
-17927 17928 0
-3990 -17927 0
-4023 17929 0
-17928 17929 0
-4023 -17928 0
-4116 17930 0
-17929 17930 0
-4116 -17929 0
-4186 17931 0
-17930 17931 0
-4186 -17930 0
-4218 17932 0
-17931 17932 0
-4218 -17931 0
-4312 17933 0
-17932 17933 0
-4312 -17932 0
-4344 17934 0
-17933 17934 0
-4344 -17933 0
-4419 17935 0
-17934 17935 0
-4419 -17934 0
-4510 17936 0
-17935 17936 0
-4510 -17935 0
-4543 17937 0
-17936 17937 0
-4543 -17936 0
-4636 17938 0
-17937 17938 0
-4636 -17937 0
-4706 17939 0
-17938 17939 0
-4706 -17938 0
-4738 17940 0
-17939 17940 0
-4738 -17939 0
-4832 17941 0
-17940 17941 0
-4832 -17940 0
-4864 17942 0
-17941 17942 0
-4864 -17941 0
-4931 17943 0
-17942 17943 0
-4931 -17942 0
-5030 17944 0
-17943 17944 0
-5030 -17943 0
-5063 17945 0
-17944 17945 0
-5063 -17944 0
-5156 17946 0
-17945 17946 0
-5156 -17945 0
-5226 17947 0
-17946 17947 0
-5226 -17946 0
-5258 17948 0
-17947 17948 0
-5258 -17947 0
-5352 17949 0
-17948 17949 0
-5352 -17948 0
-5384 -17949 0
50 113 176 480 541 601 661 956 1008 1064 1120 1400 1456 1512 1568 1844 1888 1936 1984 2224 2272 2320 2368 2612 2656 2704 2752 2992 3040 3088 3136 3348 3409 3441 3473 3628 3661 3693 3725 3908 3929 3961 3993 4148 4181 4213 4245 4420 4449 4481 4513 4668 4701 4733 4765 4932 4969 5001 5033 5188 5221 5253 5285 0
-50 17950 0
-113 17951 0
-17950 17951 0
-113 -17950 0
-176 17952 0
-17951 17952 0
-176 -17951 0
-480 17953 0
-17952 17953 0
-480 -17952 0
-541 17954 0
-17953 17954 0
-541 -17953 0
-601 17955 0
-17954 17955 0
-601 -17954 0
-661 17956 0
-17955 17956 0
-661 -17955 0
-956 17957 0
-17956 17957 0
-956 -17956 0
-1008 17958 0
-17957 17958 0
-1008 -17957 0
-1064 17959 0
-17958 17959 0
-1064 -17958 0
-1120 17960 0
-17959 17960 0
-1120 -17959 0
-1400 17961 0
-17960 17961 0
-1400 -17960 0
-1456 17962 0
-17961 17962 0
-1456 -17961 0
-1512 17963 0
-17962 17963 0
-1512 -17962 0
-1568 17964 0
-17963 17964 0
-1568 -17963 0
-1844 17965 0
-17964 17965 0
-1844 -17964 0
-1888 17966 0
-17965 17966 0
-1888 -17965 0
-1936 17967 0
-17966 17967 0
-1936 -17966 0
-1984 17968 0
-17967 17968 0
-1984 -17967 0
-2224 17969 0
-17968 17969 0
-2224 -17968 0
-2272 17970 0
-17969 17970 0
-2272 -17969 0
-2320 17971 0
-17970 17971 0
-2320 -17970 0
-2368 17972 0
-17971 17972 0
-2368 -17971 0
-2612 17973 0
-17972 17973 0
-2612 -17972 0
-2656 17974 0
-17973 17974 0
-2656 -17973 0
-2704 17975 0
-17974 17975 0
-2704 -17974 0
-2752 17976 0
-17975 17976 0
-2752 -17975 0
-2992 17977 0
-17976 17977 0
-2992 -17976 0
-3040 17978 0
-17977 17978 0
-3040 -17977 0
-3088 17979 0
-17978 17979 0
-3088 -17978 0
-3136 17980 0
-17979 17980 0
-3136 -17979 0
-3348 17981 0
-17980 17981 0
-3348 -17980 0
-3409 17982 0
-17981 17982 0
-3409 -17981 0
-3441 17983 0
-17982 17983 0
-3441 -17982 0
-3473 17984 0
-17983 17984 0
-3473 -17983 0
-3628 17985 0
-17984 17985 0
-3628 -17984 0
-3661 17986 0
-17985 17986 0
-3661 -17985 0
-3693 17987 0
-17986 17987 0
-3693 -17986 0
-3725 17988 0
-17987 17988 0
-3725 -17987 0
-3908 17989 0
-17988 17989 0
-3908 -17988 0
-3929 17990 0
-17989 17990 0
-3929 -17989 0
-3961 17991 0
-17990 17991 0
-3961 -17990 0
-3993 17992 0
-17991 17992 0
-3993 -17991 0
-4148 17993 0
-17992 17993 0
-4148 -17992 0
-4181 17994 0
-17993 17994 0
-4181 -17993 0
-4213 17995 0
-17994 17995 0
-4213 -17994 0
-4245 17996 0
-17995 17996 0
-4245 -17995 0
-4420 17997 0
-17996 17997 0
-4420 -17996 0
-4449 17998 0
-17997 17998 0
-4449 -17997 0
-4481 17999 0
-17998 17999 0
-4481 -17998 0
-4513 18000 0
-17999 18000 0
-4513 -17999 0
-4668 18001 0
-18000 18001 0
-4668 -18000 0
-4701 18002 0
-18001 18002 0
-4701 -18001 0
-4733 18003 0
-18002 18003 0
-4733 -18002 0
-4765 18004 0
-18003 18004 0
-4765 -18003 0
-4932 18005 0
-18004 18005 0
-4932 -18004 0
-4969 18006 0
-18005 18006 0
-4969 -18005 0
-5001 18007 0
-18006 18007 0
-5001 -18006 0
-5033 18008 0
-18007 18008 0
-5033 -18007 0
-5188 18009 0
-18008 18009 0
-5188 -18008 0
-5221 18010 0
-18009 18010 0
-5221 -18009 0
-5253 18011 0
-18010 18011 0
-5253 -18010 0
-5285 -18011 0
50 360 422 481 540 843 903 957 1009 1288 1344 1401 1457 1736 1792 1845 1889 2128 2176 2225 2273 2512 2560 2613 2657 2896 2944 2993 3041 3280 3328 3349 3408 3571 3603 3629 3660 3823 3855 3909 3928 4091 4123 4149 4180 4343 4375 4421 4448 4611 4643 4669 4700 4863 4895 4933 4968 5131 5163 5189 5220 5383 5415 0
-50 18012 0
-360 18013 0
-18012 18013 0
-360 -18012 0
-422 18014 0
-18013 18014 0
-422 -18013 0
-481 18015 0
-18014 18015 0
-481 -18014 0
-540 18016 0
-18015 18016 0
-540 -18015 0
-843 18017 0
-18016 18017 0
-843 -18016 0
-903 18018 0
-18017 18018 0
-903 -18017 0
-957 18019 0
-18018 18019 0
-957 -18018 0
-1009 18020 0
-18019 18020 0
-1009 -18019 0
-1288 18021 0
-18020 18021 0
-1288 -18020 0
-1344 18022 0
-18021 18022 0
-1344 -18021 0
-1401 18023 0
-18022 18023 0
-1401 -18022 0
-1457 18024 0
-18023 18024 0
-1457 -18023 0
-1736 18025 0
-18024 18025 0
-1736 -18024 0
-1792 18026 0
-18025 18026 0
-1792 -18025 0
-1845 18027 0
-18026 18027 0
-1845 -18026 0
-1889 18028 0
-18027 18028 0
-1889 -18027 0
-2128 18029 0
-18028 18029 0
-2128 -18028 0
-2176 18030 0
-18029 18030 0
-2176 -18029 0
-2225 18031 0
-18030 18031 0
-2225 -18030 0
-2273 18032 0
-18031 18032 0
-2273 -18031 0
-2512 18033 0
-18032 18033 0
-2512 -18032 0
-2560 18034 0
-18033 18034 0
-2560 -18033 0
-2613 18035 0
-18034 18035 0
-2613 -18034 0
-2657 18036 0
-18035 18036 0
-2657 -18035 0
-2896 18037 0
-18036 18037 0
-2896 -18036 0
-2944 18038 0
-18037 18038 0
-2944 -18037 0
-2993 18039 0
-18038 18039 0
-2993 -18038 0
-3041 18040 0
-18039 18040 0
-3041 -18039 0
-3280 18041 0
-18040 18041 0
-3280 -18040 0
-3328 18042 0
-18041 18042 0
-3328 -18041 0
-3349 18043 0
-18042 18043 0
-3349 -18042 0
-3408 18044 0
-18043 18044 0
-3408 -18043 0
-3571 18045 0
-18044 18045 0
-3571 -18044 0
-3603 18046 0
-18045 18046 0
-3603 -18045 0
-3629 18047 0
-18046 18047 0
-3629 -18046 0
-3660 18048 0
-18047 18048 0
-3660 -18047 0
-3823 18049 0
-18048 18049 0
-3823 -18048 0
-3855 18050 0
-18049 18050 0
-3855 -18049 0
-3909 18051 0
-18050 18051 0
-3909 -18050 0
-3928 18052 0
-18051 18052 0
-3928 -18051 0
-4091 18053 0
-18052 18053 0
-4091 -18052 0
-4123 18054 0
-18053 18054 0
-4123 -18053 0
-4149 18055 0
-18054 18055 0
-4149 -18054 0
-4180 18056 0
-18055 18056 0
-4180 -18055 0
-4343 18057 0
-18056 18057 0
-4343 -18056 0
-4375 18058 0
-18057 18058 0
-4375 -18057 0
-4421 18059 0
-18058 18059 0
-4421 -18058 0
-4448 18060 0
-18059 18060 0
-4448 -18059 0
-4611 18061 0
-18060 18061 0
-4611 -18060 0
-4643 18062 0
-18061 18062 0
-4643 -18061 0
-4669 18063 0
-18062 18063 0
-4669 -18062 0
-4700 18064 0
-18063 18064 0
-4700 -18063 0
-4863 18065 0
-18064 18065 0
-4863 -18064 0
-4895 18066 0
-18065 18066 0
-4895 -18065 0
-4933 18067 0
-18066 18067 0
-4933 -18066 0
-4968 18068 0
-18067 18068 0
-4968 -18067 0
-5131 18069 0
-18068 18069 0
-5131 -18068 0
-5163 18070 0
-18069 18070 0
-5163 -18069 0
-5189 18071 0
-18070 18071 0
-5189 -18070 0
-5220 18072 0
-18071 18072 0
-5220 -18071 0
-5383 18073 0
-18072 18073 0
-5383 -18072 0
-5415 -18073 0
113 298 423 482 600 783 902 958 1065 1232 1345 1402 1513 1680 1793 1846 1937 2080 2177 2226 2321 2464 2561 2614 2705 2848 2945 2994 3089 3232 3329 3350 3440 3539 3602 3630 3692 3791 3854 3910 3960 4059 4122 4150 4212 4311 4374 4422 4480 4579 4642 4670 4732 4831 4894 4934 5000 5099 5162 5190 5252 5351 5414 0
-113 18074 0
-298 18075 0
-18074 18075 0
-298 -18074 0
-423 18076 0
-18075 18076 0
-423 -18075 0
-482 18077 0
-18076 18077 0
-482 -18076 0
-600 18078 0
-18077 18078 0
-600 -18077 0
-783 18079 0
-18078 18079 0
-783 -18078 0
-902 18080 0
-18079 18080 0
-902 -18079 0
-958 18081 0
-18080 18081 0
-958 -18080 0
-1065 18082 0
-18081 18082 0
-1065 -18081 0
-1232 18083 0
-18082 18083 0
-1232 -18082 0
-1345 18084 0
-18083 18084 0
-1345 -18083 0
-1402 18085 0
-18084 18085 0
-1402 -18084 0
-1513 18086 0
-18085 18086 0
-1513 -18085 0
-1680 18087 0
-18086 18087 0
-1680 -18086 0
-1793 18088 0
-18087 18088 0
-1793 -18087 0
-1846 18089 0
-18088 18089 0
-1846 -18088 0
-1937 18090 0
-18089 18090 0
-1937 -18089 0
-2080 18091 0
-18090 18091 0
-2080 -18090 0
-2177 18092 0
-18091 18092 0
-2177 -18091 0
-2226 18093 0
-18092 18093 0
-2226 -18092 0
-2321 18094 0
-18093 18094 0
-2321 -18093 0
-2464 18095 0
-18094 18095 0
-2464 -18094 0
-2561 18096 0
-18095 18096 0
-2561 -18095 0
-2614 18097 0
-18096 18097 0
-2614 -18096 0
-2705 18098 0
-18097 18098 0
-2705 -18097 0
-2848 18099 0
-18098 18099 0
-2848 -18098 0
-2945 18100 0
-18099 18100 0
-2945 -18099 0
-2994 18101 0
-18100 18101 0
-2994 -18100 0
-3089 18102 0
-18101 18102 0
-3089 -18101 0
-3232 18103 0
-18102 18103 0
-3232 -18102 0
-3329 18104 0
-18103 18104 0
-3329 -18103 0
-3350 18105 0
-18104 18105 0
-3350 -18104 0
-3440 18106 0
-18105 18106 0
-3440 -18105 0
-3539 18107 0
-18106 18107 0
-3539 -18106 0
-3602 18108 0
-18107 18108 0
-3602 -18107 0
-3630 18109 0
-18108 18109 0
-3630 -18108 0
-3692 18110 0
-18109 18110 0
-3692 -18109 0
-3791 18111 0
-18110 18111 0
-3791 -18110 0
-3854 18112 0
-18111 18112 0
-3854 -18111 0
-3910 18113 0
-18112 18113 0
-3910 -18112 0
-3960 18114 0
-18113 18114 0
-3960 -18113 0
-4059 18115 0
-18114 18115 0
-4059 -18114 0
-4122 18116 0
-18115 18116 0
-4122 -18115 0
-4150 18117 0
-18116 18117 0
-4150 -18116 0
-4212 18118 0
-18117 18118 0
-4212 -18117 0
-4311 18119 0
-18118 18119 0
-4311 -18118 0
-4374 18120 0
-18119 18120 0
-4374 -18119 0
-4422 18121 0
-18120 18121 0
-4422 -18120 0
-4480 18122 0
-18121 18122 0
-4480 -18121 0
-4579 18123 0
-18122 18123 0
-4579 -18122 0
-4642 18124 0
-18123 18124 0
-4642 -18123 0
-4670 18125 0
-18124 18125 0
-4670 -18124 0
-4732 18126 0
-18125 18126 0
-4732 -18125 0
-4831 18127 0
-18126 18127 0
-4831 -18126 0
-4894 18128 0
-18127 18128 0
-4894 -18127 0
-4934 18129 0
-18128 18129 0
-4934 -18128 0
-5000 18130 0
-18129 18130 0
-5000 -18129 0
-5099 18131 0
-18130 18131 0
-5099 -18130 0
-5162 18132 0
-18131 18132 0
-5162 -18131 0
-5190 18133 0
-18132 18133 0
-5190 -18132 0
-5252 18134 0
-18133 18134 0
-5252 -18133 0
-5351 18135 0
-18134 18135 0
-5351 -18134 0
-5414 -18135 0
176 299 361 483 660 782 842 959 1121 1233 1289 1403 1569 1681 1737 1847 1985 2081 2129 2227 2369 2465 2513 2615 2753 2849 2897 2995 3137 3233 3281 3351 3472 3538 3570 3631 3724 3790 3822 3911 3992 4058 4090 4151 4244 4310 4342 4423 4512 4578 4610 4671 4764 4830 4862 4935 5032 5098 5130 5191 5284 5350 5382 0
-176 18136 0
-299 18137 0
-18136 18137 0
-299 -18136 0
-361 18138 0
-18137 18138 0
-361 -18137 0
-483 18139 0
-18138 18139 0
-483 -18138 0
-660 18140 0
-18139 18140 0
-660 -18139 0
-782 18141 0
-18140 18141 0
-782 -18140 0
-842 18142 0
-18141 18142 0
-842 -18141 0
-959 18143 0
-18142 18143 0
-959 -18142 0
-1121 18144 0
-18143 18144 0
-1121 -18143 0
-1233 18145 0
-18144 18145 0
-1233 -18144 0
-1289 18146 0
-18145 18146 0
-1289 -18145 0
-1403 18147 0
-18146 18147 0
-1403 -18146 0
-1569 18148 0
-18147 18148 0
-1569 -18147 0
-1681 18149 0
-18148 18149 0
-1681 -18148 0
-1737 18150 0
-18149 18150 0
-1737 -18149 0
-1847 18151 0
-18150 18151 0
-1847 -18150 0
-1985 18152 0
-18151 18152 0
-1985 -18151 0
-2081 18153 0
-18152 18153 0
-2081 -18152 0
-2129 18154 0
-18153 18154 0
-2129 -18153 0
-2227 18155 0
-18154 18155 0
-2227 -18154 0
-2369 18156 0
-18155 18156 0
-2369 -18155 0
-2465 18157 0
-18156 18157 0
-2465 -18156 0
-2513 18158 0
-18157 18158 0
-2513 -18157 0
-2615 18159 0
-18158 18159 0
-2615 -18158 0
-2753 18160 0
-18159 18160 0
-2753 -18159 0
-2849 18161 0
-18160 18161 0
-2849 -18160 0
-2897 18162 0
-18161 18162 0
-2897 -18161 0
-2995 18163 0
-18162 18163 0
-2995 -18162 0
-3137 18164 0
-18163 18164 0
-3137 -18163 0
-3233 18165 0
-18164 18165 0
-3233 -18164 0
-3281 18166 0
-18165 18166 0
-3281 -18165 0
-3351 18167 0
-18166 18167 0
-3351 -18166 0
-3472 18168 0
-18167 18168 0
-3472 -18167 0
-3538 18169 0
-18168 18169 0
-3538 -18168 0
-3570 18170 0
-18169 18170 0
-3570 -18169 0
-3631 18171 0
-18170 18171 0
-3631 -18170 0
-3724 18172 0
-18171 18172 0
-3724 -18171 0
-3790 18173 0
-18172 18173 0
-3790 -18172 0
-3822 18174 0
-18173 18174 0
-3822 -18173 0
-3911 18175 0
-18174 18175 0
-3911 -18174 0
-3992 18176 0
-18175 18176 0
-3992 -18175 0
-4058 18177 0
-18176 18177 0
-4058 -18176 0
-4090 18178 0
-18177 18178 0
-4090 -18177 0
-4151 18179 0
-18178 18179 0
-4151 -18178 0
-4244 18180 0
-18179 18180 0
-4244 -18179 0
-4310 18181 0
-18180 18181 0
-4310 -18180 0
-4342 18182 0
-18181 18182 0
-4342 -18181 0
-4423 18183 0
-18182 18183 0
-4423 -18182 0
-4512 18184 0
-18183 18184 0
-4512 -18183 0
-4578 18185 0
-18184 18185 0
-4578 -18184 0
-4610 18186 0
-18185 18186 0
-4610 -18185 0
-4671 18187 0
-18186 18187 0
-4671 -18186 0
-4764 18188 0
-18187 18188 0
-4764 -18187 0
-4830 18189 0
-18188 18189 0
-4830 -18188 0
-4862 18190 0
-18189 18190 0
-4862 -18189 0
-4935 18191 0
-18190 18191 0
-4935 -18190 0
-5032 18192 0
-18191 18192 0
-5032 -18191 0
-5098 18193 0
-18192 18193 0
-5098 -18192 0
-5130 18194 0
-18193 18194 0
-5130 -18193 0
-5191 18195 0
-18194 18195 0
-5191 -18194 0
-5284 18196 0
-18195 18196 0
-5284 -18195 0
-5350 18197 0
-18196 18197 0
-5350 -18196 0
-5382 -18197 0
51 114 177 720 781 841 901 960 1010 1066 1122 1624 1682 1738 1794 1848 1890 1938 1986 2416 2466 2514 2562 2616 2658 2706 2754 3184 3234 3282 3330 3352 3411 3443 3475 3756 3789 3821 3853 3912 3931 3963 3995 4276 4309 4341 4373 4424 4451 4483 4515 4796 4829 4861 4893 4936 4971 5003 5035 5316 5349 5381 5413 0
-51 18198 0
-114 18199 0
-18198 18199 0
-114 -18198 0
-177 18200 0
-18199 18200 0
-177 -18199 0
-720 18201 0
-18200 18201 0
-720 -18200 0
-781 18202 0
-18201 18202 0
-781 -18201 0
-841 18203 0
-18202 18203 0
-841 -18202 0
-901 18204 0
-18203 18204 0
-901 -18203 0
-960 18205 0
-18204 18205 0
-960 -18204 0
-1010 18206 0
-18205 18206 0
-1010 -18205 0
-1066 18207 0
-18206 18207 0
-1066 -18206 0
-1122 18208 0
-18207 18208 0
-1122 -18207 0
-1624 18209 0
-18208 18209 0
-1624 -18208 0
-1682 18210 0
-18209 18210 0
-1682 -18209 0
-1738 18211 0
-18210 18211 0
-1738 -18210 0
-1794 18212 0
-18211 18212 0
-1794 -18211 0
-1848 18213 0
-18212 18213 0
-1848 -18212 0
-1890 18214 0
-18213 18214 0
-1890 -18213 0
-1938 18215 0
-18214 18215 0
-1938 -18214 0
-1986 18216 0
-18215 18216 0
-1986 -18215 0
-2416 18217 0
-18216 18217 0
-2416 -18216 0
-2466 18218 0
-18217 18218 0
-2466 -18217 0
-2514 18219 0
-18218 18219 0
-2514 -18218 0
-2562 18220 0
-18219 18220 0
-2562 -18219 0
-2616 18221 0
-18220 18221 0
-2616 -18220 0
-2658 18222 0
-18221 18222 0
-2658 -18221 0
-2706 18223 0
-18222 18223 0
-2706 -18222 0
-2754 18224 0
-18223 18224 0
-2754 -18223 0
-3184 18225 0
-18224 18225 0
-3184 -18224 0
-3234 18226 0
-18225 18226 0
-3234 -18225 0
-3282 18227 0
-18226 18227 0
-3282 -18226 0
-3330 18228 0
-18227 18228 0
-3330 -18227 0
-3352 18229 0
-18228 18229 0
-3352 -18228 0
-3411 18230 0
-18229 18230 0
-3411 -18229 0
-3443 18231 0
-18230 18231 0
-3443 -18230 0
-3475 18232 0
-18231 18232 0
-3475 -18231 0
-3756 18233 0
-18232 18233 0
-3756 -18232 0
-3789 18234 0
-18233 18234 0
-3789 -18233 0
-3821 18235 0
-18234 18235 0
-3821 -18234 0
-3853 18236 0
-18235 18236 0
-3853 -18235 0
-3912 18237 0
-18236 18237 0
-3912 -18236 0
-3931 18238 0
-18237 18238 0
-3931 -18237 0
-3963 18239 0
-18238 18239 0
-3963 -18238 0
-3995 18240 0
-18239 18240 0
-3995 -18239 0
-4276 18241 0
-18240 18241 0
-4276 -18240 0
-4309 18242 0
-18241 18242 0
-4309 -18241 0
-4341 18243 0
-18242 18243 0
-4341 -18242 0
-4373 18244 0
-18243 18244 0
-4373 -18243 0
-4424 18245 0
-18244 18245 0
-4424 -18244 0
-4451 18246 0
-18245 18246 0
-4451 -18245 0
-4483 18247 0
-18246 18247 0
-4483 -18246 0
-4515 18248 0
-18247 18248 0
-4515 -18247 0
-4796 18249 0
-18248 18249 0
-4796 -18248 0
-4829 18250 0
-18249 18250 0
-4829 -18249 0
-4861 18251 0
-18250 18251 0
-4861 -18250 0
-4893 18252 0
-18251 18252 0
-4893 -18251 0
-4936 18253 0
-18252 18253 0
-4936 -18252 0
-4971 18254 0
-18253 18254 0
-4971 -18253 0
-5003 18255 0
-18254 18255 0
-5003 -18254 0
-5035 18256 0
-18255 18256 0
-5035 -18255 0
-5316 18257 0
-18256 18257 0
-5316 -18256 0
-5349 18258 0
-18257 18258 0
-5349 -18257 0
-5381 18259 0
-18258 18259 0
-5381 -18258 0
-5413 -18259 0
51 361 423 603 663 721 780 961 1011 1290 1346 1514 1570 1625 1683 1849 1891 2130 2178 2322 2370 2417 2467 2617 2659 2898 2946 3090 3138 3185 3235 3353 3410 3569 3601 3695 3727 3757 3788 3913 3930 4089 4121 4215 4247 4277 4308 4425 4450 4609 4641 4735 4767 4797 4828 4937 4970 5129 5161 5255 5287 5317 5348 0
-51 18260 0
-361 18261 0
-18260 18261 0
-361 -18260 0
-423 18262 0
-18261 18262 0
-423 -18261 0
-603 18263 0
-18262 18263 0
-603 -18262 0
-663 18264 0
-18263 18264 0
-663 -18263 0
-721 18265 0
-18264 18265 0
-721 -18264 0
-780 18266 0
-18265 18266 0
-780 -18265 0
-961 18267 0
-18266 18267 0
-961 -18266 0
-1011 18268 0
-18267 18268 0
-1011 -18267 0
-1290 18269 0
-18268 18269 0
-1290 -18268 0
-1346 18270 0
-18269 18270 0
-1346 -18269 0
-1514 18271 0
-18270 18271 0
-1514 -18270 0
-1570 18272 0
-18271 18272 0
-1570 -18271 0
-1625 18273 0
-18272 18273 0
-1625 -18272 0
-1683 18274 0
-18273 18274 0
-1683 -18273 0
-1849 18275 0
-18274 18275 0
-1849 -18274 0
-1891 18276 0
-18275 18276 0
-1891 -18275 0
-2130 18277 0
-18276 18277 0
-2130 -18276 0
-2178 18278 0
-18277 18278 0
-2178 -18277 0
-2322 18279 0
-18278 18279 0
-2322 -18278 0
-2370 18280 0
-18279 18280 0
-2370 -18279 0
-2417 18281 0
-18280 18281 0
-2417 -18280 0
-2467 18282 0
-18281 18282 0
-2467 -18281 0
-2617 18283 0
-18282 18283 0
-2617 -18282 0
-2659 18284 0
-18283 18284 0
-2659 -18283 0
-2898 18285 0
-18284 18285 0
-2898 -18284 0
-2946 18286 0
-18285 18286 0
-2946 -18285 0
-3090 18287 0
-18286 18287 0
-3090 -18286 0
-3138 18288 0
-18287 18288 0
-3138 -18287 0
-3185 18289 0
-18288 18289 0
-3185 -18288 0
-3235 18290 0
-18289 18290 0
-3235 -18289 0
-3353 18291 0
-18290 18291 0
-3353 -18290 0
-3410 18292 0
-18291 18292 0
-3410 -18291 0
-3569 18293 0
-18292 18293 0
-3569 -18292 0
-3601 18294 0
-18293 18294 0
-3601 -18293 0
-3695 18295 0
-18294 18295 0
-3695 -18294 0
-3727 18296 0
-18295 18296 0
-3727 -18295 0
-3757 18297 0
-18296 18297 0
-3757 -18296 0
-3788 18298 0
-18297 18298 0
-3788 -18297 0
-3913 18299 0
-18298 18299 0
-3913 -18298 0
-3930 18300 0
-18299 18300 0
-3930 -18299 0
-4089 18301 0
-18300 18301 0
-4089 -18300 0
-4121 18302 0
-18301 18302 0
-4121 -18301 0
-4215 18303 0
-18302 18303 0
-4215 -18302 0
-4247 18304 0
-18303 18304 0
-4247 -18303 0
-4277 18305 0
-18304 18305 0
-4277 -18304 0
-4308 18306 0
-18305 18306 0
-4308 -18305 0
-4425 18307 0
-18306 18307 0
-4425 -18306 0
-4450 18308 0
-18307 18308 0
-4450 -18307 0
-4609 18309 0
-18308 18309 0
-4609 -18308 0
-4641 18310 0
-18309 18310 0
-4641 -18309 0
-4735 18311 0
-18310 18311 0
-4735 -18310 0
-4767 18312 0
-18311 18312 0
-4767 -18311 0
-4797 18313 0
-18312 18313 0
-4797 -18312 0
-4828 18314 0
-18313 18314 0
-4828 -18313 0
-4937 18315 0
-18314 18315 0
-4937 -18314 0
-4970 18316 0
-18315 18316 0
-4970 -18315 0
-5129 18317 0
-18316 18317 0
-5129 -18316 0
-5161 18318 0
-18317 18318 0
-5161 -18317 0
-5255 18319 0
-18318 18319 0
-5255 -18318 0
-5287 18320 0
-18319 18320 0
-5287 -18319 0
-5317 18321 0
-18320 18321 0
-5317 -18320 0
-5348 -18321 0
114 299 422 543 662 722 840 962 1067 1234 1347 1458 1571 1626 1739 1850 1939 2082 2179 2274 2371 2418 2515 2618 2707 2850 2947 3042 3139 3186 3283 3354 3442 3537 3600 3663 3726 3758 3820 3914 3962 4057 4120 4183 4246 4278 4340 4426 4482 4577 4640 4703 4766 4798 4860 4938 5002 5097 5160 5223 5286 5318 5380 0
-114 18322 0
-299 18323 0
-18322 18323 0
-299 -18322 0
-422 18324 0
-18323 18324 0
-422 -18323 0
-543 18325 0
-18324 18325 0
-543 -18324 0
-662 18326 0
-18325 18326 0
-662 -18325 0
-722 18327 0
-18326 18327 0
-722 -18326 0
-840 18328 0
-18327 18328 0
-840 -18327 0
-962 18329 0
-18328 18329 0
-962 -18328 0
-1067 18330 0
-18329 18330 0
-1067 -18329 0
-1234 18331 0
-18330 18331 0
-1234 -18330 0
-1347 18332 0
-18331 18332 0
-1347 -18331 0
-1458 18333 0
-18332 18333 0
-1458 -18332 0
-1571 18334 0
-18333 18334 0
-1571 -18333 0
-1626 18335 0
-18334 18335 0
-1626 -18334 0
-1739 18336 0
-18335 18336 0
-1739 -18335 0
-1850 18337 0
-18336 18337 0
-1850 -18336 0
-1939 18338 0
-18337 18338 0
-1939 -18337 0
-2082 18339 0
-18338 18339 0
-2082 -18338 0
-2179 18340 0
-18339 18340 0
-2179 -18339 0
-2274 18341 0
-18340 18341 0
-2274 -18340 0
-2371 18342 0
-18341 18342 0
-2371 -18341 0
-2418 18343 0
-18342 18343 0
-2418 -18342 0
-2515 18344 0
-18343 18344 0
-2515 -18343 0
-2618 18345 0
-18344 18345 0
-2618 -18344 0
-2707 18346 0
-18345 18346 0
-2707 -18345 0
-2850 18347 0
-18346 18347 0
-2850 -18346 0
-2947 18348 0
-18347 18348 0
-2947 -18347 0
-3042 18349 0
-18348 18349 0
-3042 -18348 0
-3139 18350 0
-18349 18350 0
-3139 -18349 0
-3186 18351 0
-18350 18351 0
-3186 -18350 0
-3283 18352 0
-18351 18352 0
-3283 -18351 0
-3354 18353 0
-18352 18353 0
-3354 -18352 0
-3442 18354 0
-18353 18354 0
-3442 -18353 0
-3537 18355 0
-18354 18355 0
-3537 -18354 0
-3600 18356 0
-18355 18356 0
-3600 -18355 0
-3663 18357 0
-18356 18357 0
-3663 -18356 0
-3726 18358 0
-18357 18358 0
-3726 -18357 0
-3758 18359 0
-18358 18359 0
-3758 -18358 0
-3820 18360 0
-18359 18360 0
-3820 -18359 0
-3914 18361 0
-18360 18361 0
-3914 -18360 0
-3962 18362 0
-18361 18362 0
-3962 -18361 0
-4057 18363 0
-18362 18363 0
-4057 -18362 0
-4120 18364 0
-18363 18364 0
-4120 -18363 0
-4183 18365 0
-18364 18365 0
-4183 -18364 0
-4246 18366 0
-18365 18366 0
-4246 -18365 0
-4278 18367 0
-18366 18367 0
-4278 -18366 0
-4340 18368 0
-18367 18368 0
-4340 -18367 0
-4426 18369 0
-18368 18369 0
-4426 -18368 0
-4482 18370 0
-18369 18370 0
-4482 -18369 0
-4577 18371 0
-18370 18371 0
-4577 -18370 0
-4640 18372 0
-18371 18372 0
-4640 -18371 0
-4703 18373 0
-18372 18373 0
-4703 -18372 0
-4766 18374 0
-18373 18374 0
-4766 -18373 0
-4798 18375 0
-18374 18375 0
-4798 -18374 0
-4860 18376 0
-18375 18376 0
-4860 -18375 0
-4938 18377 0
-18376 18377 0
-4938 -18376 0
-5002 18378 0
-18377 18378 0
-5002 -18377 0
-5097 18379 0
-18378 18379 0
-5097 -18378 0
-5160 18380 0
-18379 18380 0
-5160 -18379 0
-5223 18381 0
-18380 18381 0
-5223 -18380 0
-5286 18382 0
-18381 18382 0
-5286 -18381 0
-5318 18383 0
-18382 18383 0
-5318 -18382 0
-5380 -18383 0
177 298 360 542 602 723 900 963 1123 1235 1291 1459 1515 1627 1795 1851 1987 2083 2131 2275 2323 2419 2563 2619 2755 2851 2899 3043 3091 3187 3331 3355 3474 3536 3568 3662 3694 3759 3852 3915 3994 4056 4088 4182 4214 4279 4372 4427 4514 4576 4608 4702 4734 4799 4892 4939 5034 5096 5128 5222 5254 5319 5412 0
-177 18384 0
-298 18385 0
-18384 18385 0
-298 -18384 0
-360 18386 0
-18385 18386 0
-360 -18385 0
-542 18387 0
-18386 18387 0
-542 -18386 0
-602 18388 0
-18387 18388 0
-602 -18387 0
-723 18389 0
-18388 18389 0
-723 -18388 0
-900 18390 0
-18389 18390 0
-900 -18389 0
-963 18391 0
-18390 18391 0
-963 -18390 0
-1123 18392 0
-18391 18392 0
-1123 -18391 0
-1235 18393 0
-18392 18393 0
-1235 -18392 0
-1291 18394 0
-18393 18394 0
-1291 -18393 0
-1459 18395 0
-18394 18395 0
-1459 -18394 0
-1515 18396 0
-18395 18396 0
-1515 -18395 0
-1627 18397 0
-18396 18397 0
-1627 -18396 0
-1795 18398 0
-18397 18398 0
-1795 -18397 0
-1851 18399 0
-18398 18399 0
-1851 -18398 0
-1987 18400 0
-18399 18400 0
-1987 -18399 0
-2083 18401 0
-18400 18401 0
-2083 -18400 0
-2131 18402 0
-18401 18402 0
-2131 -18401 0
-2275 18403 0
-18402 18403 0
-2275 -18402 0
-2323 18404 0
-18403 18404 0
-2323 -18403 0
-2419 18405 0
-18404 18405 0
-2419 -18404 0
-2563 18406 0
-18405 18406 0
-2563 -18405 0
-2619 18407 0
-18406 18407 0
-2619 -18406 0
-2755 18408 0
-18407 18408 0
-2755 -18407 0
-2851 18409 0
-18408 18409 0
-2851 -18408 0
-2899 18410 0
-18409 18410 0
-2899 -18409 0
-3043 18411 0
-18410 18411 0
-3043 -18410 0
-3091 18412 0
-18411 18412 0
-3091 -18411 0
-3187 18413 0
-18412 18413 0
-3187 -18412 0
-3331 18414 0
-18413 18414 0
-3331 -18413 0
-3355 18415 0
-18414 18415 0
-3355 -18414 0
-3474 18416 0
-18415 18416 0
-3474 -18415 0
-3536 18417 0
-18416 18417 0
-3536 -18416 0
-3568 18418 0
-18417 18418 0
-3568 -18417 0
-3662 18419 0
-18418 18419 0
-3662 -18418 0
-3694 18420 0
-18419 18420 0
-3694 -18419 0
-3759 18421 0
-18420 18421 0
-3759 -18420 0
-3852 18422 0
-18421 18422 0
-3852 -18421 0
-3915 18423 0
-18422 18423 0
-3915 -18422 0
-3994 18424 0
-18423 18424 0
-3994 -18423 0
-4056 18425 0
-18424 18425 0
-4056 -18424 0
-4088 18426 0
-18425 18426 0
-4088 -18425 0
-4182 18427 0
-18426 18427 0
-4182 -18426 0
-4214 18428 0
-18427 18428 0
-4214 -18427 0
-4279 18429 0
-18428 18429 0
-4279 -18428 0
-4372 18430 0
-18429 18430 0
-4372 -18429 0
-4427 18431 0
-18430 18431 0
-4427 -18430 0
-4514 18432 0
-18431 18432 0
-4514 -18431 0
-4576 18433 0
-18432 18433 0
-4576 -18432 0
-4608 18434 0
-18433 18434 0
-4608 -18433 0
-4702 18435 0
-18434 18435 0
-4702 -18434 0
-4734 18436 0
-18435 18436 0
-4734 -18435 0
-4799 18437 0
-18436 18437 0
-4799 -18436 0
-4892 18438 0
-18437 18438 0
-4892 -18437 0
-4939 18439 0
-18438 18439 0
-4939 -18438 0
-5034 18440 0
-18439 18440 0
-5034 -18439 0
-5096 18441 0
-18440 18441 0
-5096 -18440 0
-5128 18442 0
-18441 18442 0
-5128 -18441 0
-5222 18443 0
-18442 18443 0
-5222 -18442 0
-5254 18444 0
-18443 18444 0
-5254 -18443 0
-5319 18445 0
-18444 18445 0
-5319 -18444 0
-5412 -18445 0
52 115 178 238 300 362 424 484 544 604 664 724 784 844 904 948 1005 1061 1117 1176 1231 1287 1343 1400 1457 1513 1569 1624 1683 1739 1795 3356 3413 3445 3477 3512 3543 3575 3607 3640 3673 3705 3737 3768 3803 3835 3867 3884 3917 3949 3981 4016 4047 4079 4111 4144 4177 4209 4241 4272 4307 4339 4371 0
-52 18446 0
-115 18447 0
-18446 18447 0
-115 -18446 0
-178 18448 0
-18447 18448 0
-178 -18447 0
-238 18449 0
-18448 18449 0
-238 -18448 0
-300 18450 0
-18449 18450 0
-300 -18449 0
-362 18451 0
-18450 18451 0
-362 -18450 0
-424 18452 0
-18451 18452 0
-424 -18451 0
-484 18453 0
-18452 18453 0
-484 -18452 0
-544 18454 0
-18453 18454 0
-544 -18453 0
-604 18455 0
-18454 18455 0
-604 -18454 0
-664 18456 0
-18455 18456 0
-664 -18455 0
-724 18457 0
-18456 18457 0
-724 -18456 0
-784 18458 0
-18457 18458 0
-784 -18457 0
-844 18459 0
-18458 18459 0
-844 -18458 0
-904 18460 0
-18459 18460 0
-904 -18459 0
-948 18461 0
-18460 18461 0
-948 -18460 0
-1005 18462 0
-18461 18462 0
-1005 -18461 0
-1061 18463 0
-18462 18463 0
-1061 -18462 0
-1117 18464 0
-18463 18464 0
-1117 -18463 0
-1176 18465 0
-18464 18465 0
-1176 -18464 0
-1231 18466 0
-18465 18466 0
-1231 -18465 0
-1287 18467 0
-18466 18467 0
-1287 -18466 0
-1343 18468 0
-18467 18468 0
-1343 -18467 0
-1400 18469 0
-18468 18469 0
-1400 -18468 0
-1457 18470 0
-18469 18470 0
-1457 -18469 0
-1513 18471 0
-18470 18471 0
-1513 -18470 0
-1569 18472 0
-18471 18472 0
-1569 -18471 0
-1624 18473 0
-18472 18473 0
-1624 -18472 0
-1683 18474 0
-18473 18474 0
-1683 -18473 0
-1739 18475 0
-18474 18475 0
-1739 -18474 0
-1795 18476 0
-18475 18476 0
-1795 -18475 0
-3356 18477 0
-18476 18477 0
-3356 -18476 0
-3413 18478 0
-18477 18478 0
-3413 -18477 0
-3445 18479 0
-18478 18479 0
-3445 -18478 0
-3477 18480 0
-18479 18480 0
-3477 -18479 0
-3512 18481 0
-18480 18481 0
-3512 -18480 0
-3543 18482 0
-18481 18482 0
-3543 -18481 0
-3575 18483 0
-18482 18483 0
-3575 -18482 0
-3607 18484 0
-18483 18484 0
-3607 -18483 0
-3640 18485 0
-18484 18485 0
-3640 -18484 0
-3673 18486 0
-18485 18486 0
-3673 -18485 0
-3705 18487 0
-18486 18487 0
-3705 -18486 0
-3737 18488 0
-18487 18488 0
-3737 -18487 0
-3768 18489 0
-18488 18489 0
-3768 -18488 0
-3803 18490 0
-18489 18490 0
-3803 -18489 0
-3835 18491 0
-18490 18491 0
-3835 -18490 0
-3867 18492 0
-18491 18492 0
-3867 -18491 0
-3884 18493 0
-18492 18493 0
-3884 -18492 0
-3917 18494 0
-18493 18494 0
-3917 -18493 0
-3949 18495 0
-18494 18495 0
-3949 -18494 0
-3981 18496 0
-18495 18496 0
-3981 -18495 0
-4016 18497 0
-18496 18497 0
-4016 -18496 0
-4047 18498 0
-18497 18498 0
-4047 -18497 0
-4079 18499 0
-18498 18499 0
-4079 -18498 0
-4111 18500 0
-18499 18500 0
-4111 -18499 0
-4144 18501 0
-18500 18501 0
-4144 -18500 0
-4177 18502 0
-18501 18502 0
-4177 -18501 0
-4209 18503 0
-18502 18503 0
-4209 -18502 0
-4241 18504 0
-18503 18504 0
-4241 -18503 0
-4272 18505 0
-18504 18505 0
-4272 -18504 0
-4307 18506 0
-18505 18506 0
-4307 -18505 0
-4339 18507 0
-18506 18507 0
-4339 -18506 0
-4371 -18507 0
52 239 301 485 545 725 785 949 1004 1177 1230 1401 1456 1625 1682 1940 1988 2132 2180 2324 2372 2516 2564 2708 2756 2900 2948 3092 3140 3284 3332 3357 3412 3513 3542 3641 3672 3769 3802 3885 3916 4017 4046 4145 4176 4273 4306 4485 4517 4615 4647 4745 4777 4875 4907 4989 5021 5119 5151 5249 5281 5379 5411 0
-52 18508 0
-239 18509 0
-18508 18509 0
-239 -18508 0
-301 18510 0
-18509 18510 0
-301 -18509 0
-485 18511 0
-18510 18511 0
-485 -18510 0
-545 18512 0
-18511 18512 0
-545 -18511 0
-725 18513 0
-18512 18513 0
-725 -18512 0
-785 18514 0
-18513 18514 0
-785 -18513 0
-949 18515 0
-18514 18515 0
-949 -18514 0
-1004 18516 0
-18515 18516 0
-1004 -18515 0
-1177 18517 0
-18516 18517 0
-1177 -18516 0
-1230 18518 0
-18517 18518 0
-1230 -18517 0
-1401 18519 0
-18518 18519 0
-1401 -18518 0
-1456 18520 0
-18519 18520 0
-1456 -18519 0
-1625 18521 0
-18520 18521 0
-1625 -18520 0
-1682 18522 0
-18521 18522 0
-1682 -18521 0
-1940 18523 0
-18522 18523 0
-1940 -18522 0
-1988 18524 0
-18523 18524 0
-1988 -18523 0
-2132 18525 0
-18524 18525 0
-2132 -18524 0
-2180 18526 0
-18525 18526 0
-2180 -18525 0
-2324 18527 0
-18526 18527 0
-2324 -18526 0
-2372 18528 0
-18527 18528 0
-2372 -18527 0
-2516 18529 0
-18528 18529 0
-2516 -18528 0
-2564 18530 0
-18529 18530 0
-2564 -18529 0
-2708 18531 0
-18530 18531 0
-2708 -18530 0
-2756 18532 0
-18531 18532 0
-2756 -18531 0
-2900 18533 0
-18532 18533 0
-2900 -18532 0
-2948 18534 0
-18533 18534 0
-2948 -18533 0
-3092 18535 0
-18534 18535 0
-3092 -18534 0
-3140 18536 0
-18535 18536 0
-3140 -18535 0
-3284 18537 0
-18536 18537 0
-3284 -18536 0
-3332 18538 0
-18537 18538 0
-3332 -18537 0
-3357 18539 0
-18538 18539 0
-3357 -18538 0
-3412 18540 0
-18539 18540 0
-3412 -18539 0
-3513 18541 0
-18540 18541 0
-3513 -18540 0
-3542 18542 0
-18541 18542 0
-3542 -18541 0
-3641 18543 0
-18542 18543 0
-3641 -18542 0
-3672 18544 0
-18543 18544 0
-3672 -18543 0
-3769 18545 0
-18544 18545 0
-3769 -18544 0
-3802 18546 0
-18545 18546 0
-3802 -18545 0
-3885 18547 0
-18546 18547 0
-3885 -18546 0
-3916 18548 0
-18547 18548 0
-3916 -18547 0
-4017 18549 0
-18548 18549 0
-4017 -18548 0
-4046 18550 0
-18549 18550 0
-4046 -18549 0
-4145 18551 0
-18550 18551 0
-4145 -18550 0
-4176 18552 0
-18551 18552 0
-4176 -18551 0
-4273 18553 0
-18552 18553 0
-4273 -18552 0
-4306 18554 0
-18553 18554 0
-4306 -18553 0
-4485 18555 0
-18554 18555 0
-4485 -18554 0
-4517 18556 0
-18555 18556 0
-4517 -18555 0
-4615 18557 0
-18556 18557 0
-4615 -18556 0
-4647 18558 0
-18557 18558 0
-4647 -18557 0
-4745 18559 0
-18558 18559 0
-4745 -18558 0
-4777 18560 0
-18559 18560 0
-4777 -18559 0
-4875 18561 0
-18560 18561 0
-4875 -18560 0
-4907 18562 0
-18561 18562 0
-4907 -18561 0
-4989 18563 0
-18562 18563 0
-4989 -18562 0
-5021 18564 0
-18563 18564 0
-5021 -18563 0
-5119 18565 0
-18564 18565 0
-5119 -18564 0
-5151 18566 0
-18565 18566 0
-5151 -18565 0
-5249 18567 0
-18566 18567 0
-5249 -18566 0
-5281 18568 0
-18567 18568 0
-5281 -18567 0
-5379 18569 0
-18568 18569 0
-5379 -18568 0
-5411 -18569 0
115 240 363 486 605 726 845 950 1060 1178 1286 1402 1512 1626 1738 1892 1989 2084 2181 2276 2373 2468 2565 2660 2757 2852 2949 3044 3141 3236 3333 3358 3444 3514 3574 3642 3704 3770 3834 3886 3948 4018 4078 4146 4208 4274 4338 4453 4516 4583 4646 4713 4776 4843 4906 4957 5020 5087 5150 5217 5280 5347 5410 0
-115 18570 0
-240 18571 0
-18570 18571 0
-240 -18570 0
-363 18572 0
-18571 18572 0
-363 -18571 0
-486 18573 0
-18572 18573 0
-486 -18572 0
-605 18574 0
-18573 18574 0
-605 -18573 0
-726 18575 0
-18574 18575 0
-726 -18574 0
-845 18576 0
-18575 18576 0
-845 -18575 0
-950 18577 0
-18576 18577 0
-950 -18576 0
-1060 18578 0
-18577 18578 0
-1060 -18577 0
-1178 18579 0
-18578 18579 0
-1178 -18578 0
-1286 18580 0
-18579 18580 0
-1286 -18579 0
-1402 18581 0
-18580 18581 0
-1402 -18580 0
-1512 18582 0
-18581 18582 0
-1512 -18581 0
-1626 18583 0
-18582 18583 0
-1626 -18582 0
-1738 18584 0
-18583 18584 0
-1738 -18583 0
-1892 18585 0
-18584 18585 0
-1892 -18584 0
-1989 18586 0
-18585 18586 0
-1989 -18585 0
-2084 18587 0
-18586 18587 0
-2084 -18586 0
-2181 18588 0
-18587 18588 0
-2181 -18587 0
-2276 18589 0
-18588 18589 0
-2276 -18588 0
-2373 18590 0
-18589 18590 0
-2373 -18589 0
-2468 18591 0
-18590 18591 0
-2468 -18590 0
-2565 18592 0
-18591 18592 0
-2565 -18591 0
-2660 18593 0
-18592 18593 0
-2660 -18592 0
-2757 18594 0
-18593 18594 0
-2757 -18593 0
-2852 18595 0
-18594 18595 0
-2852 -18594 0
-2949 18596 0
-18595 18596 0
-2949 -18595 0
-3044 18597 0
-18596 18597 0
-3044 -18596 0
-3141 18598 0
-18597 18598 0
-3141 -18597 0
-3236 18599 0
-18598 18599 0
-3236 -18598 0
-3333 18600 0
-18599 18600 0
-3333 -18599 0
-3358 18601 0
-18600 18601 0
-3358 -18600 0
-3444 18602 0
-18601 18602 0
-3444 -18601 0
-3514 18603 0
-18602 18603 0
-3514 -18602 0
-3574 18604 0
-18603 18604 0
-3574 -18603 0
-3642 18605 0
-18604 18605 0
-3642 -18604 0
-3704 18606 0
-18605 18606 0
-3704 -18605 0
-3770 18607 0
-18606 18607 0
-3770 -18606 0
-3834 18608 0
-18607 18608 0
-3834 -18607 0
-3886 18609 0
-18608 18609 0
-3886 -18608 0
-3948 18610 0
-18609 18610 0
-3948 -18609 0
-4018 18611 0
-18610 18611 0
-4018 -18610 0
-4078 18612 0
-18611 18612 0
-4078 -18611 0
-4146 18613 0
-18612 18613 0
-4146 -18612 0
-4208 18614 0
-18613 18614 0
-4208 -18613 0
-4274 18615 0
-18614 18615 0
-4274 -18614 0
-4338 18616 0
-18615 18616 0
-4338 -18615 0
-4453 18617 0
-18616 18617 0
-4453 -18616 0
-4516 18618 0
-18617 18618 0
-4516 -18617 0
-4583 18619 0
-18618 18619 0
-4583 -18618 0
-4646 18620 0
-18619 18620 0
-4646 -18619 0
-4713 18621 0
-18620 18621 0
-4713 -18620 0
-4776 18622 0
-18621 18622 0
-4776 -18621 0
-4843 18623 0
-18622 18623 0
-4843 -18622 0
-4906 18624 0
-18623 18624 0
-4906 -18623 0
-4957 18625 0
-18624 18625 0
-4957 -18624 0
-5020 18626 0
-18625 18626 0
-5020 -18625 0
-5087 18627 0
-18626 18627 0
-5087 -18626 0
-5150 18628 0
-18627 18628 0
-5150 -18627 0
-5217 18629 0
-18628 18629 0
-5217 -18628 0
-5280 18630 0
-18629 18630 0
-5280 -18629 0
-5347 18631 0
-18630 18631 0
-5347 -18630 0
-5410 -18631 0
178 241 425 487 665 727 905 951 1116 1179 1342 1403 1568 1627 1794 1893 1941 2085 2133 2277 2325 2469 2517 2661 2709 2853 2901 3045 3093 3237 3285 3359 3476 3515 3606 3643 3736 3771 3866 3887 3980 4019 4110 4147 4240 4275 4370 4452 4484 4582 4614 4712 4744 4842 4874 4956 4988 5086 5118 5216 5248 5346 5378 0
-178 18632 0
-241 18633 0
-18632 18633 0
-241 -18632 0
-425 18634 0
-18633 18634 0
-425 -18633 0
-487 18635 0
-18634 18635 0
-487 -18634 0
-665 18636 0
-18635 18636 0
-665 -18635 0
-727 18637 0
-18636 18637 0
-727 -18636 0
-905 18638 0
-18637 18638 0
-905 -18637 0
-951 18639 0
-18638 18639 0
-951 -18638 0
-1116 18640 0
-18639 18640 0
-1116 -18639 0
-1179 18641 0
-18640 18641 0
-1179 -18640 0
-1342 18642 0
-18641 18642 0
-1342 -18641 0
-1403 18643 0
-18642 18643 0
-1403 -18642 0
-1568 18644 0
-18643 18644 0
-1568 -18643 0
-1627 18645 0
-18644 18645 0
-1627 -18644 0
-1794 18646 0
-18645 18646 0
-1794 -18645 0
-1893 18647 0
-18646 18647 0
-1893 -18646 0
-1941 18648 0
-18647 18648 0
-1941 -18647 0
-2085 18649 0
-18648 18649 0
-2085 -18648 0
-2133 18650 0
-18649 18650 0
-2133 -18649 0
-2277 18651 0
-18650 18651 0
-2277 -18650 0
-2325 18652 0
-18651 18652 0
-2325 -18651 0
-2469 18653 0
-18652 18653 0
-2469 -18652 0
-2517 18654 0
-18653 18654 0
-2517 -18653 0
-2661 18655 0
-18654 18655 0
-2661 -18654 0
-2709 18656 0
-18655 18656 0
-2709 -18655 0
-2853 18657 0
-18656 18657 0
-2853 -18656 0
-2901 18658 0
-18657 18658 0
-2901 -18657 0
-3045 18659 0
-18658 18659 0
-3045 -18658 0
-3093 18660 0
-18659 18660 0
-3093 -18659 0
-3237 18661 0
-18660 18661 0
-3237 -18660 0
-3285 18662 0
-18661 18662 0
-3285 -18661 0
-3359 18663 0
-18662 18663 0
-3359 -18662 0
-3476 18664 0
-18663 18664 0
-3476 -18663 0
-3515 18665 0
-18664 18665 0
-3515 -18664 0
-3606 18666 0
-18665 18666 0
-3606 -18665 0
-3643 18667 0
-18666 18667 0
-3643 -18666 0
-3736 18668 0
-18667 18668 0
-3736 -18667 0
-3771 18669 0
-18668 18669 0
-3771 -18668 0
-3866 18670 0
-18669 18670 0
-3866 -18669 0
-3887 18671 0
-18670 18671 0
-3887 -18670 0
-3980 18672 0
-18671 18672 0
-3980 -18671 0
-4019 18673 0
-18672 18673 0
-4019 -18672 0
-4110 18674 0
-18673 18674 0
-4110 -18673 0
-4147 18675 0
-18674 18675 0
-4147 -18674 0
-4240 18676 0
-18675 18676 0
-4240 -18675 0
-4275 18677 0
-18676 18677 0
-4275 -18676 0
-4370 18678 0
-18677 18678 0
-4370 -18677 0
-4452 18679 0
-18678 18679 0
-4452 -18678 0
-4484 18680 0
-18679 18680 0
-4484 -18679 0
-4582 18681 0
-18680 18681 0
-4582 -18680 0
-4614 18682 0
-18681 18682 0
-4614 -18681 0
-4712 18683 0
-18682 18683 0
-4712 -18682 0
-4744 18684 0
-18683 18684 0
-4744 -18683 0
-4842 18685 0
-18684 18685 0
-4842 -18684 0
-4874 18686 0
-18685 18686 0
-4874 -18685 0
-4956 18687 0
-18686 18687 0
-4956 -18686 0
-4988 18688 0
-18687 18688 0
-4988 -18687 0
-5086 18689 0
-18688 18689 0
-5086 -18688 0
-5118 18690 0
-18689 18690 0
-5118 -18689 0
-5216 18691 0
-18690 18691 0
-5216 -18690 0
-5248 18692 0
-18691 18692 0
-5248 -18691 0
-5346 18693 0
-18692 18693 0
-5346 -18692 0
-5378 -18693 0
53 116 179 238 301 363 425 952 1007 1063 1119 1172 1229 1285 1341 2228 2278 2326 2374 2420 2470 2518 2566 2996 3046 3094 3142 3188 3238 3286 3334 3360 3415 3447 3479 3508 3541 3573 3605 3888 3919 3951 3983 4012 4045 4077 4109 4680 4715 4747 4779 4808 4841 4873 4905 5184 5219 5251 5283 5312 5345 5377 5409 0
-53 18694 0
-116 18695 0
-18694 18695 0
-116 -18694 0
-179 18696 0
-18695 18696 0
-179 -18695 0
-238 18697 0
-18696 18697 0
-238 -18696 0
-301 18698 0
-18697 18698 0
-301 -18697 0
-363 18699 0
-18698 18699 0
-363 -18698 0
-425 18700 0
-18699 18700 0
-425 -18699 0
-952 18701 0
-18700 18701 0
-952 -18700 0
-1007 18702 0
-18701 18702 0
-1007 -18701 0
-1063 18703 0
-18702 18703 0
-1063 -18702 0
-1119 18704 0
-18703 18704 0
-1119 -18703 0
-1172 18705 0
-18704 18705 0
-1172 -18704 0
-1229 18706 0
-18705 18706 0
-1229 -18705 0
-1285 18707 0
-18706 18707 0
-1285 -18706 0
-1341 18708 0
-18707 18708 0
-1341 -18707 0
-2228 18709 0
-18708 18709 0
-2228 -18708 0
-2278 18710 0
-18709 18710 0
-2278 -18709 0
-2326 18711 0
-18710 18711 0
-2326 -18710 0
-2374 18712 0
-18711 18712 0
-2374 -18711 0
-2420 18713 0
-18712 18713 0
-2420 -18712 0
-2470 18714 0
-18713 18714 0
-2470 -18713 0
-2518 18715 0
-18714 18715 0
-2518 -18714 0
-2566 18716 0
-18715 18716 0
-2566 -18715 0
-2996 18717 0
-18716 18717 0
-2996 -18716 0
-3046 18718 0
-18717 18718 0
-3046 -18717 0
-3094 18719 0
-18718 18719 0
-3094 -18718 0
-3142 18720 0
-18719 18720 0
-3142 -18719 0
-3188 18721 0
-18720 18721 0
-3188 -18720 0
-3238 18722 0
-18721 18722 0
-3238 -18721 0
-3286 18723 0
-18722 18723 0
-3286 -18722 0
-3334 18724 0
-18723 18724 0
-3334 -18723 0
-3360 18725 0
-18724 18725 0
-3360 -18724 0
-3415 18726 0
-18725 18726 0
-3415 -18725 0
-3447 18727 0
-18726 18727 0
-3447 -18726 0
-3479 18728 0
-18727 18728 0
-3479 -18727 0
-3508 18729 0
-18728 18729 0
-3508 -18728 0
-3541 18730 0
-18729 18730 0
-3541 -18729 0
-3573 18731 0
-18730 18731 0
-3573 -18730 0
-3605 18732 0
-18731 18732 0
-3605 -18731 0
-3888 18733 0
-18732 18733 0
-3888 -18732 0
-3919 18734 0
-18733 18734 0
-3919 -18733 0
-3951 18735 0
-18734 18735 0
-3951 -18734 0
-3983 18736 0
-18735 18736 0
-3983 -18735 0
-4012 18737 0
-18736 18737 0
-4012 -18736 0
-4045 18738 0
-18737 18738 0
-4045 -18737 0
-4077 18739 0
-18738 18739 0
-4077 -18738 0
-4109 18740 0
-18739 18740 0
-4109 -18739 0
-4680 18741 0
-18740 18741 0
-4680 -18740 0
-4715 18742 0
-18741 18742 0
-4715 -18741 0
-4747 18743 0
-18742 18743 0
-4747 -18742 0
-4779 18744 0
-18743 18744 0
-4779 -18743 0
-4808 18745 0
-18744 18745 0
-4808 -18744 0
-4841 18746 0
-18745 18746 0
-4841 -18745 0
-4873 18747 0
-18746 18747 0
-4873 -18746 0
-4905 18748 0
-18747 18748 0
-4905 -18747 0
-5184 18749 0
-18748 18749 0
-5184 -18748 0
-5219 18750 0
-18749 18750 0
-5219 -18749 0
-5251 18751 0
-18750 18751 0
-5251 -18750 0
-5283 18752 0
-18751 18752 0
-5283 -18751 0
-5312 18753 0
-18752 18753 0
-5312 -18752 0
-5345 18754 0
-18753 18754 0
-5345 -18753 0
-5377 18755 0
-18754 18755 0
-5377 -18754 0
-5409 -18755 0
53 239 300 606 666 846 906 953 1006 1173 1228 1515 1571 1737 1793 1942 1990 2134 2182 2229 2279 2421 2471 2710 2758 2902 2950 2997 3047 3189 3239 3361 3414 3509 3540 3707 3739 3833 3865 3889 3918 4013 4044 4211 4243 4337 4369 4487 4519 4613 4645 4681 4714 4809 4840 4991 5023 5117 5149 5185 5218 5313 5344 0
-53 18756 0
-239 18757 0
-18756 18757 0
-239 -18756 0
-300 18758 0
-18757 18758 0
-300 -18757 0
-606 18759 0
-18758 18759 0
-606 -18758 0
-666 18760 0
-18759 18760 0
-666 -18759 0
-846 18761 0
-18760 18761 0
-846 -18760 0
-906 18762 0
-18761 18762 0
-906 -18761 0
-953 18763 0
-18762 18763 0
-953 -18762 0
-1006 18764 0
-18763 18764 0
-1006 -18763 0
-1173 18765 0
-18764 18765 0
-1173 -18764 0
-1228 18766 0
-18765 18766 0
-1228 -18765 0
-1515 18767 0
-18766 18767 0
-1515 -18766 0
-1571 18768 0
-18767 18768 0
-1571 -18767 0
-1737 18769 0
-18768 18769 0
-1737 -18768 0
-1793 18770 0
-18769 18770 0
-1793 -18769 0
-1942 18771 0
-18770 18771 0
-1942 -18770 0
-1990 18772 0
-18771 18772 0
-1990 -18771 0
-2134 18773 0
-18772 18773 0
-2134 -18772 0
-2182 18774 0
-18773 18774 0
-2182 -18773 0
-2229 18775 0
-18774 18775 0
-2229 -18774 0
-2279 18776 0
-18775 18776 0
-2279 -18775 0
-2421 18777 0
-18776 18777 0
-2421 -18776 0
-2471 18778 0
-18777 18778 0
-2471 -18777 0
-2710 18779 0
-18778 18779 0
-2710 -18778 0
-2758 18780 0
-18779 18780 0
-2758 -18779 0
-2902 18781 0
-18780 18781 0
-2902 -18780 0
-2950 18782 0
-18781 18782 0
-2950 -18781 0
-2997 18783 0
-18782 18783 0
-2997 -18782 0
-3047 18784 0
-18783 18784 0
-3047 -18783 0
-3189 18785 0
-18784 18785 0
-3189 -18784 0
-3239 18786 0
-18785 18786 0
-3239 -18785 0
-3361 18787 0
-18786 18787 0
-3361 -18786 0
-3414 18788 0
-18787 18788 0
-3414 -18787 0
-3509 18789 0
-18788 18789 0
-3509 -18788 0
-3540 18790 0
-18789 18790 0
-3540 -18789 0
-3707 18791 0
-18790 18791 0
-3707 -18790 0
-3739 18792 0
-18791 18792 0
-3739 -18791 0
-3833 18793 0
-18792 18793 0
-3833 -18792 0
-3865 18794 0
-18793 18794 0
-3865 -18793 0
-3889 18795 0
-18794 18795 0
-3889 -18794 0
-3918 18796 0
-18795 18796 0
-3918 -18795 0
-4013 18797 0
-18796 18797 0
-4013 -18796 0
-4044 18798 0
-18797 18798 0
-4044 -18797 0
-4211 18799 0
-18798 18799 0
-4211 -18798 0
-4243 18800 0
-18799 18800 0
-4243 -18799 0
-4337 18801 0
-18800 18801 0
-4337 -18800 0
-4369 18802 0
-18801 18802 0
-4369 -18801 0
-4487 18803 0
-18802 18803 0
-4487 -18802 0
-4519 18804 0
-18803 18804 0
-4519 -18803 0
-4613 18805 0
-18804 18805 0
-4613 -18804 0
-4645 18806 0
-18805 18806 0
-4645 -18805 0
-4681 18807 0
-18806 18807 0
-4681 -18806 0
-4714 18808 0
-18807 18808 0
-4714 -18807 0
-4809 18809 0
-18808 18809 0
-4809 -18808 0
-4840 18810 0
-18809 18810 0
-4840 -18809 0
-4991 18811 0
-18810 18811 0
-4991 -18810 0
-5023 18812 0
-18811 18812 0
-5023 -18811 0
-5117 18813 0
-18812 18813 0
-5117 -18812 0
-5149 18814 0
-18813 18814 0
-5149 -18813 0
-5185 18815 0
-18814 18815 0
-5185 -18814 0
-5218 18816 0
-18815 18816 0
-5218 -18815 0
-5313 18817 0
-18816 18817 0
-5313 -18816 0
-5344 -18817 0
116 240 362 546 667 786 907 954 1062 1174 1284 1459 1570 1681 1792 1894 1991 2086 2183 2230 2327 2422 2519 2662 2759 2854 2951 2998 3095 3190 3287 3362 3446 3510 3572 3675 3738 3801 3864 3890 3950 4014 4076 4179 4242 4305 4368 4455 4518 4581 4644 4682 4746 4810 4872 4959 5022 5085 5148 5186 5250 5314 5376 0
-116 18818 0
-240 18819 0
-18818 18819 0
-240 -18818 0
-362 18820 0
-18819 18820 0
-362 -18819 0
-546 18821 0
-18820 18821 0
-546 -18820 0
-667 18822 0
-18821 18822 0
-667 -18821 0
-786 18823 0
-18822 18823 0
-786 -18822 0
-907 18824 0
-18823 18824 0
-907 -18823 0
-954 18825 0
-18824 18825 0
-954 -18824 0
-1062 18826 0
-18825 18826 0
-1062 -18825 0
-1174 18827 0
-18826 18827 0
-1174 -18826 0
-1284 18828 0
-18827 18828 0
-1284 -18827 0
-1459 18829 0
-18828 18829 0
-1459 -18828 0
-1570 18830 0
-18829 18830 0
-1570 -18829 0
-1681 18831 0
-18830 18831 0
-1681 -18830 0
-1792 18832 0
-18831 18832 0
-1792 -18831 0
-1894 18833 0
-18832 18833 0
-1894 -18832 0
-1991 18834 0
-18833 18834 0
-1991 -18833 0
-2086 18835 0
-18834 18835 0
-2086 -18834 0
-2183 18836 0
-18835 18836 0
-2183 -18835 0
-2230 18837 0
-18836 18837 0
-2230 -18836 0
-2327 18838 0
-18837 18838 0
-2327 -18837 0
-2422 18839 0
-18838 18839 0
-2422 -18838 0
-2519 18840 0
-18839 18840 0
-2519 -18839 0
-2662 18841 0
-18840 18841 0
-2662 -18840 0
-2759 18842 0
-18841 18842 0
-2759 -18841 0
-2854 18843 0
-18842 18843 0
-2854 -18842 0
-2951 18844 0
-18843 18844 0
-2951 -18843 0
-2998 18845 0
-18844 18845 0
-2998 -18844 0
-3095 18846 0
-18845 18846 0
-3095 -18845 0
-3190 18847 0
-18846 18847 0
-3190 -18846 0
-3287 18848 0
-18847 18848 0
-3287 -18847 0
-3362 18849 0
-18848 18849 0
-3362 -18848 0
-3446 18850 0
-18849 18850 0
-3446 -18849 0
-3510 18851 0
-18850 18851 0
-3510 -18850 0
-3572 18852 0
-18851 18852 0
-3572 -18851 0
-3675 18853 0
-18852 18853 0
-3675 -18852 0
-3738 18854 0
-18853 18854 0
-3738 -18853 0
-3801 18855 0
-18854 18855 0
-3801 -18854 0
-3864 18856 0
-18855 18856 0
-3864 -18855 0
-3890 18857 0
-18856 18857 0
-3890 -18856 0
-3950 18858 0
-18857 18858 0
-3950 -18857 0
-4014 18859 0
-18858 18859 0
-4014 -18858 0
-4076 18860 0
-18859 18860 0
-4076 -18859 0
-4179 18861 0
-18860 18861 0
-4179 -18860 0
-4242 18862 0
-18861 18862 0
-4242 -18861 0
-4305 18863 0
-18862 18863 0
-4305 -18862 0
-4368 18864 0
-18863 18864 0
-4368 -18863 0
-4455 18865 0
-18864 18865 0
-4455 -18864 0
-4518 18866 0
-18865 18866 0
-4518 -18865 0
-4581 18867 0
-18866 18867 0
-4581 -18866 0
-4644 18868 0
-18867 18868 0
-4644 -18867 0
-4682 18869 0
-18868 18869 0
-4682 -18868 0
-4746 18870 0
-18869 18870 0
-4746 -18869 0
-4810 18871 0
-18870 18871 0
-4810 -18870 0
-4872 18872 0
-18871 18872 0
-4872 -18871 0
-4959 18873 0
-18872 18873 0
-4959 -18872 0
-5022 18874 0
-18873 18874 0
-5022 -18873 0
-5085 18875 0
-18874 18875 0
-5085 -18874 0
-5148 18876 0
-18875 18876 0
-5148 -18875 0
-5186 18877 0
-18876 18877 0
-5186 -18876 0
-5250 18878 0
-18877 18878 0
-5250 -18877 0
-5314 18879 0
-18878 18879 0
-5314 -18878 0
-5376 -18879 0
179 241 424 547 607 787 847 955 1118 1175 1340 1458 1514 1680 1736 1895 1943 2087 2135 2231 2375 2423 2567 2663 2711 2855 2903 2999 3143 3191 3335 3363 3478 3511 3604 3674 3706 3800 3832 3891 3982 4015 4108 4178 4210 4304 4336 4454 4486 4580 4612 4683 4778 4811 4904 4958 4990 5084 5116 5187 5282 5315 5408 0
-179 18880 0
-241 18881 0
-18880 18881 0
-241 -18880 0
-424 18882 0
-18881 18882 0
-424 -18881 0
-547 18883 0
-18882 18883 0
-547 -18882 0
-607 18884 0
-18883 18884 0
-607 -18883 0
-787 18885 0
-18884 18885 0
-787 -18884 0
-847 18886 0
-18885 18886 0
-847 -18885 0
-955 18887 0
-18886 18887 0
-955 -18886 0
-1118 18888 0
-18887 18888 0
-1118 -18887 0
-1175 18889 0
-18888 18889 0
-1175 -18888 0
-1340 18890 0
-18889 18890 0
-1340 -18889 0
-1458 18891 0
-18890 18891 0
-1458 -18890 0
-1514 18892 0
-18891 18892 0
-1514 -18891 0
-1680 18893 0
-18892 18893 0
-1680 -18892 0
-1736 18894 0
-18893 18894 0
-1736 -18893 0
-1895 18895 0
-18894 18895 0
-1895 -18894 0
-1943 18896 0
-18895 18896 0
-1943 -18895 0
-2087 18897 0
-18896 18897 0
-2087 -18896 0
-2135 18898 0
-18897 18898 0
-2135 -18897 0
-2231 18899 0
-18898 18899 0
-2231 -18898 0
-2375 18900 0
-18899 18900 0
-2375 -18899 0
-2423 18901 0
-18900 18901 0
-2423 -18900 0
-2567 18902 0
-18901 18902 0
-2567 -18901 0
-2663 18903 0
-18902 18903 0
-2663 -18902 0
-2711 18904 0
-18903 18904 0
-2711 -18903 0
-2855 18905 0
-18904 18905 0
-2855 -18904 0
-2903 18906 0
-18905 18906 0
-2903 -18905 0
-2999 18907 0
-18906 18907 0
-2999 -18906 0
-3143 18908 0
-18907 18908 0
-3143 -18907 0
-3191 18909 0
-18908 18909 0
-3191 -18908 0
-3335 18910 0
-18909 18910 0
-3335 -18909 0
-3363 18911 0
-18910 18911 0
-3363 -18910 0
-3478 18912 0
-18911 18912 0
-3478 -18911 0
-3511 18913 0
-18912 18913 0
-3511 -18912 0
-3604 18914 0
-18913 18914 0
-3604 -18913 0
-3674 18915 0
-18914 18915 0
-3674 -18914 0
-3706 18916 0
-18915 18916 0
-3706 -18915 0
-3800 18917 0
-18916 18917 0
-3800 -18916 0
-3832 18918 0
-18917 18918 0
-3832 -18917 0
-3891 18919 0
-18918 18919 0
-3891 -18918 0
-3982 18920 0
-18919 18920 0
-3982 -18919 0
-4015 18921 0
-18920 18921 0
-4015 -18920 0
-4108 18922 0
-18921 18922 0
-4108 -18921 0
-4178 18923 0
-18922 18923 0
-4178 -18922 0
-4210 18924 0
-18923 18924 0
-4210 -18923 0
-4304 18925 0
-18924 18925 0
-4304 -18924 0
-4336 18926 0
-18925 18926 0
-4336 -18925 0
-4454 18927 0
-18926 18927 0
-4454 -18926 0
-4486 18928 0
-18927 18928 0
-4486 -18927 0
-4580 18929 0
-18928 18929 0
-4580 -18928 0
-4612 18930 0
-18929 18930 0
-4612 -18929 0
-4683 18931 0
-18930 18931 0
-4683 -18930 0
-4778 18932 0
-18931 18932 0
-4778 -18931 0
-4811 18933 0
-18932 18933 0
-4811 -18932 0
-4904 18934 0
-18933 18934 0
-4904 -18933 0
-4958 18935 0
-18934 18935 0
-4958 -18934 0
-4990 18936 0
-18935 18936 0
-4990 -18935 0
-5084 18937 0
-18936 18937 0
-5084 -18936 0
-5116 18938 0
-18937 18938 0
-5116 -18937 0
-5187 18939 0
-18938 18939 0
-5187 -18938 0
-5282 18940 0
-18939 18940 0
-5282 -18939 0
-5315 18941 0
-18940 18941 0
-5315 -18940 0
-5408 -18941 0
54 117 180 484 545 605 665 956 1009 1065 1121 1396 1453 1509 1565 2036 2088 2136 2184 2424 2472 2520 2568 2804 2856 2904 2952 3192 3240 3288 3336 3364 3417 3449 3481 3636 3669 3701 3733 3892 3921 3953 3985 4140 4173 4205 4237 4552 4587 4619 4651 4804 4839 4871 4903 5056 5091 5123 5155 5308 5343 5375 5407 0
-54 18942 0
-117 18943 0
-18942 18943 0
-117 -18942 0
-180 18944 0
-18943 18944 0
-180 -18943 0
-484 18945 0
-18944 18945 0
-484 -18944 0
-545 18946 0
-18945 18946 0
-545 -18945 0
-605 18947 0
-18946 18947 0
-605 -18946 0
-665 18948 0
-18947 18948 0
-665 -18947 0
-956 18949 0
-18948 18949 0
-956 -18948 0
-1009 18950 0
-18949 18950 0
-1009 -18949 0
-1065 18951 0
-18950 18951 0
-1065 -18950 0
-1121 18952 0
-18951 18952 0
-1121 -18951 0
-1396 18953 0
-18952 18953 0
-1396 -18952 0
-1453 18954 0
-18953 18954 0
-1453 -18953 0
-1509 18955 0
-18954 18955 0
-1509 -18954 0
-1565 18956 0
-18955 18956 0
-1565 -18955 0
-2036 18957 0
-18956 18957 0
-2036 -18956 0
-2088 18958 0
-18957 18958 0
-2088 -18957 0
-2136 18959 0
-18958 18959 0
-2136 -18958 0
-2184 18960 0
-18959 18960 0
-2184 -18959 0
-2424 18961 0
-18960 18961 0
-2424 -18960 0
-2472 18962 0
-18961 18962 0
-2472 -18961 0
-2520 18963 0
-18962 18963 0
-2520 -18962 0
-2568 18964 0
-18963 18964 0
-2568 -18963 0
-2804 18965 0
-18964 18965 0
-2804 -18964 0
-2856 18966 0
-18965 18966 0
-2856 -18965 0
-2904 18967 0
-18966 18967 0
-2904 -18966 0
-2952 18968 0
-18967 18968 0
-2952 -18967 0
-3192 18969 0
-18968 18969 0
-3192 -18968 0
-3240 18970 0
-18969 18970 0
-3240 -18969 0
-3288 18971 0
-18970 18971 0
-3288 -18970 0
-3336 18972 0
-18971 18972 0
-3336 -18971 0
-3364 18973 0
-18972 18973 0
-3364 -18972 0
-3417 18974 0
-18973 18974 0
-3417 -18973 0
-3449 18975 0
-18974 18975 0
-3449 -18974 0
-3481 18976 0
-18975 18976 0
-3481 -18975 0
-3636 18977 0
-18976 18977 0
-3636 -18976 0
-3669 18978 0
-18977 18978 0
-3669 -18977 0
-3701 18979 0
-18978 18979 0
-3701 -18978 0
-3733 18980 0
-18979 18980 0
-3733 -18979 0
-3892 18981 0
-18980 18981 0
-3892 -18980 0
-3921 18982 0
-18981 18982 0
-3921 -18981 0
-3953 18983 0
-18982 18983 0
-3953 -18982 0
-3985 18984 0
-18983 18984 0
-3985 -18983 0
-4140 18985 0
-18984 18985 0
-4140 -18984 0
-4173 18986 0
-18985 18986 0
-4173 -18985 0
-4205 18987 0
-18986 18987 0
-4205 -18986 0
-4237 18988 0
-18987 18988 0
-4237 -18987 0
-4552 18989 0
-18988 18989 0
-4552 -18988 0
-4587 18990 0
-18989 18990 0
-4587 -18989 0
-4619 18991 0
-18990 18991 0
-4619 -18990 0
-4651 18992 0
-18991 18992 0
-4651 -18991 0
-4804 18993 0
-18992 18993 0
-4804 -18992 0
-4839 18994 0
-18993 18994 0
-4839 -18993 0
-4871 18995 0
-18994 18995 0
-4871 -18994 0
-4903 18996 0
-18995 18996 0
-4903 -18995 0
-5056 18997 0
-18996 18997 0
-5056 -18996 0
-5091 18998 0
-18997 18998 0
-5091 -18997 0
-5123 18999 0
-18998 18999 0
-5123 -18998 0
-5155 19000 0
-18999 19000 0
-5155 -18999 0
-5308 19001 0
-19000 19001 0
-5308 -19000 0
-5343 19002 0
-19001 19002 0
-5343 -19001 0
-5375 19003 0
-19002 19003 0
-5375 -19002 0
-5407 -19003 0
54 364 426 485 544 847 907 957 1008 1291 1347 1397 1452 1735 1791 1944 1992 2037 2089 2328 2376 2425 2473 2712 2760 2805 2857 3096 3144 3193 3241 3365 3416 3579 3611 3637 3668 3831 3863 3893 3920 4083 4115 4141 4172 4335 4367 4489 4521 4553 4586 4741 4773 4805 4838 4993 5025 5057 5090 5245 5277 5309 5342 0
-54 19004 0
-364 19005 0
-19004 19005 0
-364 -19004 0
-426 19006 0
-19005 19006 0
-426 -19005 0
-485 19007 0
-19006 19007 0
-485 -19006 0
-544 19008 0
-19007 19008 0
-544 -19007 0
-847 19009 0
-19008 19009 0
-847 -19008 0
-907 19010 0
-19009 19010 0
-907 -19009 0
-957 19011 0
-19010 19011 0
-957 -19010 0
-1008 19012 0
-19011 19012 0
-1008 -19011 0
-1291 19013 0
-19012 19013 0
-1291 -19012 0
-1347 19014 0
-19013 19014 0
-1347 -19013 0
-1397 19015 0
-19014 19015 0
-1397 -19014 0
-1452 19016 0
-19015 19016 0
-1452 -19015 0
-1735 19017 0
-19016 19017 0
-1735 -19016 0
-1791 19018 0
-19017 19018 0
-1791 -19017 0
-1944 19019 0
-19018 19019 0
-1944 -19018 0
-1992 19020 0
-19019 19020 0
-1992 -19019 0
-2037 19021 0
-19020 19021 0
-2037 -19020 0
-2089 19022 0
-19021 19022 0
-2089 -19021 0
-2328 19023 0
-19022 19023 0
-2328 -19022 0
-2376 19024 0
-19023 19024 0
-2376 -19023 0
-2425 19025 0
-19024 19025 0
-2425 -19024 0
-2473 19026 0
-19025 19026 0
-2473 -19025 0
-2712 19027 0
-19026 19027 0
-2712 -19026 0
-2760 19028 0
-19027 19028 0
-2760 -19027 0
-2805 19029 0
-19028 19029 0
-2805 -19028 0
-2857 19030 0
-19029 19030 0
-2857 -19029 0
-3096 19031 0
-19030 19031 0
-3096 -19030 0
-3144 19032 0
-19031 19032 0
-3144 -19031 0
-3193 19033 0
-19032 19033 0
-3193 -19032 0
-3241 19034 0
-19033 19034 0
-3241 -19033 0
-3365 19035 0
-19034 19035 0
-3365 -19034 0
-3416 19036 0
-19035 19036 0
-3416 -19035 0
-3579 19037 0
-19036 19037 0
-3579 -19036 0
-3611 19038 0
-19037 19038 0
-3611 -19037 0
-3637 19039 0
-19038 19039 0
-3637 -19038 0
-3668 19040 0
-19039 19040 0
-3668 -19039 0
-3831 19041 0
-19040 19041 0
-3831 -19040 0
-3863 19042 0
-19041 19042 0
-3863 -19041 0
-3893 19043 0
-19042 19043 0
-3893 -19042 0
-3920 19044 0
-19043 19044 0
-3920 -19043 0
-4083 19045 0
-19044 19045 0
-4083 -19044 0
-4115 19046 0
-19045 19046 0
-4115 -19045 0
-4141 19047 0
-19046 19047 0
-4141 -19046 0
-4172 19048 0
-19047 19048 0
-4172 -19047 0
-4335 19049 0
-19048 19049 0
-4335 -19048 0
-4367 19050 0
-19049 19050 0
-4367 -19049 0
-4489 19051 0
-19050 19051 0
-4489 -19050 0
-4521 19052 0
-19051 19052 0
-4521 -19051 0
-4553 19053 0
-19052 19053 0
-4553 -19052 0
-4586 19054 0
-19053 19054 0
-4586 -19053 0
-4741 19055 0
-19054 19055 0
-4741 -19054 0
-4773 19056 0
-19055 19056 0
-4773 -19055 0
-4805 19057 0
-19056 19057 0
-4805 -19056 0
-4838 19058 0
-19057 19058 0
-4838 -19057 0
-4993 19059 0
-19058 19059 0
-4993 -19058 0
-5025 19060 0
-19059 19060 0
-5025 -19059 0
-5057 19061 0
-19060 19061 0
-5057 -19060 0
-5090 19062 0
-19061 19062 0
-5090 -19061 0
-5245 19063 0
-19062 19063 0
-5245 -19062 0
-5277 19064 0
-19063 19064 0
-5277 -19063 0
-5309 19065 0
-19064 19065 0
-5309 -19064 0
-5342 -19065 0
117 302 427 486 604 787 906 958 1064 1235 1346 1398 1508 1679 1790 1896 1993 2038 2137 2280 2377 2426 2521 2664 2761 2806 2905 3048 3145 3194 3289 3366 3448 3547 3610 3638 3700 3799 3862 3894 3952 4051 4114 4142 4204 4303 4366 4457 4520 4554 4618 4709 4772 4806 4870 4961 5024 5058 5122 5213 5276 5310 5374 0
-117 19066 0
-302 19067 0
-19066 19067 0
-302 -19066 0
-427 19068 0
-19067 19068 0
-427 -19067 0
-486 19069 0
-19068 19069 0
-486 -19068 0
-604 19070 0
-19069 19070 0
-604 -19069 0
-787 19071 0
-19070 19071 0
-787 -19070 0
-906 19072 0
-19071 19072 0
-906 -19071 0
-958 19073 0
-19072 19073 0
-958 -19072 0
-1064 19074 0
-19073 19074 0
-1064 -19073 0
-1235 19075 0
-19074 19075 0
-1235 -19074 0
-1346 19076 0
-19075 19076 0
-1346 -19075 0
-1398 19077 0
-19076 19077 0
-1398 -19076 0
-1508 19078 0
-19077 19078 0
-1508 -19077 0
-1679 19079 0
-19078 19079 0
-1679 -19078 0
-1790 19080 0
-19079 19080 0
-1790 -19079 0
-1896 19081 0
-19080 19081 0
-1896 -19080 0
-1993 19082 0
-19081 19082 0
-1993 -19081 0
-2038 19083 0
-19082 19083 0
-2038 -19082 0
-2137 19084 0
-19083 19084 0
-2137 -19083 0
-2280 19085 0
-19084 19085 0
-2280 -19084 0
-2377 19086 0
-19085 19086 0
-2377 -19085 0
-2426 19087 0
-19086 19087 0
-2426 -19086 0
-2521 19088 0
-19087 19088 0
-2521 -19087 0
-2664 19089 0
-19088 19089 0
-2664 -19088 0
-2761 19090 0
-19089 19090 0
-2761 -19089 0
-2806 19091 0
-19090 19091 0
-2806 -19090 0
-2905 19092 0
-19091 19092 0
-2905 -19091 0
-3048 19093 0
-19092 19093 0
-3048 -19092 0
-3145 19094 0
-19093 19094 0
-3145 -19093 0
-3194 19095 0
-19094 19095 0
-3194 -19094 0
-3289 19096 0
-19095 19096 0
-3289 -19095 0
-3366 19097 0
-19096 19097 0
-3366 -19096 0
-3448 19098 0
-19097 19098 0
-3448 -19097 0
-3547 19099 0
-19098 19099 0
-3547 -19098 0
-3610 19100 0
-19099 19100 0
-3610 -19099 0
-3638 19101 0
-19100 19101 0
-3638 -19100 0
-3700 19102 0
-19101 19102 0
-3700 -19101 0
-3799 19103 0
-19102 19103 0
-3799 -19102 0
-3862 19104 0
-19103 19104 0
-3862 -19103 0
-3894 19105 0
-19104 19105 0
-3894 -19104 0
-3952 19106 0
-19105 19106 0
-3952 -19105 0
-4051 19107 0
-19106 19107 0
-4051 -19106 0
-4114 19108 0
-19107 19108 0
-4114 -19107 0
-4142 19109 0
-19108 19109 0
-4142 -19108 0
-4204 19110 0
-19109 19110 0
-4204 -19109 0
-4303 19111 0
-19110 19111 0
-4303 -19110 0
-4366 19112 0
-19111 19112 0
-4366 -19111 0
-4457 19113 0
-19112 19113 0
-4457 -19112 0
-4520 19114 0
-19113 19114 0
-4520 -19113 0
-4554 19115 0
-19114 19115 0
-4554 -19114 0
-4618 19116 0
-19115 19116 0
-4618 -19115 0
-4709 19117 0
-19116 19117 0
-4709 -19116 0
-4772 19118 0
-19117 19118 0
-4772 -19117 0
-4806 19119 0
-19118 19119 0
-4806 -19118 0
-4870 19120 0
-19119 19120 0
-4870 -19119 0
-4961 19121 0
-19120 19121 0
-4961 -19120 0
-5024 19122 0
-19121 19122 0
-5024 -19121 0
-5058 19123 0
-19122 19123 0
-5058 -19122 0
-5122 19124 0
-19123 19124 0
-5122 -19123 0
-5213 19125 0
-19124 19125 0
-5213 -19124 0
-5276 19126 0
-19125 19126 0
-5276 -19125 0
-5310 19127 0
-19126 19127 0
-5310 -19126 0
-5374 -19127 0
180 303 365 487 664 786 846 959 1120 1234 1290 1399 1564 1678 1734 1897 1945 2039 2185 2281 2329 2427 2569 2665 2713 2807 2953 3049 3097 3195 3337 3367 3480 3546 3578 3639 3732 3798 3830 3895 3984 4050 4082 4143 4236 4302 4334 4456 4488 4555 4650 4708 4740 4807 4902 4960 4992 5059 5154 5212 5244 5311 5406 0
-180 19128 0
-303 19129 0
-19128 19129 0
-303 -19128 0
-365 19130 0
-19129 19130 0
-365 -19129 0
-487 19131 0
-19130 19131 0
-487 -19130 0
-664 19132 0
-19131 19132 0
-664 -19131 0
-786 19133 0
-19132 19133 0
-786 -19132 0
-846 19134 0
-19133 19134 0
-846 -19133 0
-959 19135 0
-19134 19135 0
-959 -19134 0
-1120 19136 0
-19135 19136 0
-1120 -19135 0
-1234 19137 0
-19136 19137 0
-1234 -19136 0
-1290 19138 0
-19137 19138 0
-1290 -19137 0
-1399 19139 0
-19138 19139 0
-1399 -19138 0
-1564 19140 0
-19139 19140 0
-1564 -19139 0
-1678 19141 0
-19140 19141 0
-1678 -19140 0
-1734 19142 0
-19141 19142 0
-1734 -19141 0
-1897 19143 0
-19142 19143 0
-1897 -19142 0
-1945 19144 0
-19143 19144 0
-1945 -19143 0
-2039 19145 0
-19144 19145 0
-2039 -19144 0
-2185 19146 0
-19145 19146 0
-2185 -19145 0
-2281 19147 0
-19146 19147 0
-2281 -19146 0
-2329 19148 0
-19147 19148 0
-2329 -19147 0
-2427 19149 0
-19148 19149 0
-2427 -19148 0
-2569 19150 0
-19149 19150 0
-2569 -19149 0
-2665 19151 0
-19150 19151 0
-2665 -19150 0
-2713 19152 0
-19151 19152 0
-2713 -19151 0
-2807 19153 0
-19152 19153 0
-2807 -19152 0
-2953 19154 0
-19153 19154 0
-2953 -19153 0
-3049 19155 0
-19154 19155 0
-3049 -19154 0
-3097 19156 0
-19155 19156 0
-3097 -19155 0
-3195 19157 0
-19156 19157 0
-3195 -19156 0
-3337 19158 0
-19157 19158 0
-3337 -19157 0
-3367 19159 0
-19158 19159 0
-3367 -19158 0
-3480 19160 0
-19159 19160 0
-3480 -19159 0
-3546 19161 0
-19160 19161 0
-3546 -19160 0
-3578 19162 0
-19161 19162 0
-3578 -19161 0
-3639 19163 0
-19162 19163 0
-3639 -19162 0
-3732 19164 0
-19163 19164 0
-3732 -19163 0
-3798 19165 0
-19164 19165 0
-3798 -19164 0
-3830 19166 0
-19165 19166 0
-3830 -19165 0
-3895 19167 0
-19166 19167 0
-3895 -19166 0
-3984 19168 0
-19167 19168 0
-3984 -19167 0
-4050 19169 0
-19168 19169 0
-4050 -19168 0
-4082 19170 0
-19169 19170 0
-4082 -19169 0
-4143 19171 0
-19170 19171 0
-4143 -19170 0
-4236 19172 0
-19171 19172 0
-4236 -19171 0
-4302 19173 0
-19172 19173 0
-4302 -19172 0
-4334 19174 0
-19173 19174 0
-4334 -19173 0
-4456 19175 0
-19174 19175 0
-4456 -19174 0
-4488 19176 0
-19175 19176 0
-4488 -19175 0
-4555 19177 0
-19176 19177 0
-4555 -19176 0
-4650 19178 0
-19177 19178 0
-4650 -19177 0
-4708 19179 0
-19178 19179 0
-4708 -19178 0
-4740 19180 0
-19179 19180 0
-4740 -19179 0
-4807 19181 0
-19180 19181 0
-4807 -19180 0
-4902 19182 0
-19181 19182 0
-4902 -19181 0
-4960 19183 0
-19182 19183 0
-4960 -19182 0
-4992 19184 0
-19183 19184 0
-4992 -19183 0
-5059 19185 0
-19184 19185 0
-5059 -19184 0
-5154 19186 0
-19185 19186 0
-5154 -19185 0
-5212 19187 0
-19186 19187 0
-5212 -19186 0
-5244 19188 0
-19187 19188 0
-5244 -19187 0
-5311 19189 0
-19188 19189 0
-5311 -19188 0
-5406 -19189 0
55 118 181 724 785 845 905 960 1011 1067 1123 1620 1677 1733 1789 2040 2090 2138 2186 2232 2282 2330 2378 2808 2858 2906 2954 3000 3050 3098 3146 3368 3419 3451 3483 3764 3797 3829 3861 3896 3923 3955 3987 4268 4301 4333 4365 4548 4585 4617 4649 4676 4711 4743 4775 5052 5089 5121 5153 5180 5215 5247 5279 0
-55 19190 0
-118 19191 0
-19190 19191 0
-118 -19190 0
-181 19192 0
-19191 19192 0
-181 -19191 0
-724 19193 0
-19192 19193 0
-724 -19192 0
-785 19194 0
-19193 19194 0
-785 -19193 0
-845 19195 0
-19194 19195 0
-845 -19194 0
-905 19196 0
-19195 19196 0
-905 -19195 0
-960 19197 0
-19196 19197 0
-960 -19196 0
-1011 19198 0
-19197 19198 0
-1011 -19197 0
-1067 19199 0
-19198 19199 0
-1067 -19198 0
-1123 19200 0
-19199 19200 0
-1123 -19199 0
-1620 19201 0
-19200 19201 0
-1620 -19200 0
-1677 19202 0
-19201 19202 0
-1677 -19201 0
-1733 19203 0
-19202 19203 0
-1733 -19202 0
-1789 19204 0
-19203 19204 0
-1789 -19203 0
-2040 19205 0
-19204 19205 0
-2040 -19204 0
-2090 19206 0
-19205 19206 0
-2090 -19205 0
-2138 19207 0
-19206 19207 0
-2138 -19206 0
-2186 19208 0
-19207 19208 0
-2186 -19207 0
-2232 19209 0
-19208 19209 0
-2232 -19208 0
-2282 19210 0
-19209 19210 0
-2282 -19209 0
-2330 19211 0
-19210 19211 0
-2330 -19210 0
-2378 19212 0
-19211 19212 0
-2378 -19211 0
-2808 19213 0
-19212 19213 0
-2808 -19212 0
-2858 19214 0
-19213 19214 0
-2858 -19213 0
-2906 19215 0
-19214 19215 0
-2906 -19214 0
-2954 19216 0
-19215 19216 0
-2954 -19215 0
-3000 19217 0
-19216 19217 0
-3000 -19216 0
-3050 19218 0
-19217 19218 0
-3050 -19217 0
-3098 19219 0
-19218 19219 0
-3098 -19218 0
-3146 19220 0
-19219 19220 0
-3146 -19219 0
-3368 19221 0
-19220 19221 0
-3368 -19220 0
-3419 19222 0
-19221 19222 0
-3419 -19221 0
-3451 19223 0
-19222 19223 0
-3451 -19222 0
-3483 19224 0
-19223 19224 0
-3483 -19223 0
-3764 19225 0
-19224 19225 0
-3764 -19224 0
-3797 19226 0
-19225 19226 0
-3797 -19225 0
-3829 19227 0
-19226 19227 0
-3829 -19226 0
-3861 19228 0
-19227 19228 0
-3861 -19227 0
-3896 19229 0
-19228 19229 0
-3896 -19228 0
-3923 19230 0
-19229 19230 0
-3923 -19229 0
-3955 19231 0
-19230 19231 0
-3955 -19230 0
-3987 19232 0
-19231 19232 0
-3987 -19231 0
-4268 19233 0
-19232 19233 0
-4268 -19232 0
-4301 19234 0
-19233 19234 0
-4301 -19233 0
-4333 19235 0
-19234 19235 0
-4333 -19234 0
-4365 19236 0
-19235 19236 0
-4365 -19235 0
-4548 19237 0
-19236 19237 0
-4548 -19236 0
-4585 19238 0
-19237 19238 0
-4585 -19237 0
-4617 19239 0
-19238 19239 0
-4617 -19238 0
-4649 19240 0
-19239 19240 0
-4649 -19239 0
-4676 19241 0
-19240 19241 0
-4676 -19240 0
-4711 19242 0
-19241 19242 0
-4711 -19241 0
-4743 19243 0
-19242 19243 0
-4743 -19242 0
-4775 19244 0
-19243 19244 0
-4775 -19243 0
-5052 19245 0
-19244 19245 0
-5052 -19244 0
-5089 19246 0
-19245 19246 0
-5089 -19245 0
-5121 19247 0
-19246 19247 0
-5121 -19246 0
-5153 19248 0
-19247 19248 0
-5153 -19247 0
-5180 19249 0
-19248 19249 0
-5180 -19248 0
-5215 19250 0
-19249 19250 0
-5215 -19249 0
-5247 19251 0
-19250 19251 0
-5247 -19250 0
-5279 -19251 0
55 365 427 607 667 725 784 961 1010 1289 1345 1511 1567 1621 1676 1946 1994 2041 2091 2233 2283 2522 2570 2714 2762 2809 2859 3001 3051 3290 3338 3369 3418 3577 3609 3703 3735 3765 3796 3897 3922 4081 4113 4207 4239 4269 4300 4491 4523 4549 4584 4677 4710 4869 4901 4995 5027 5053 5088 5181 5214 5373 5405 0
-55 19252 0
-365 19253 0
-19252 19253 0
-365 -19252 0
-427 19254 0
-19253 19254 0
-427 -19253 0
-607 19255 0
-19254 19255 0
-607 -19254 0
-667 19256 0
-19255 19256 0
-667 -19255 0
-725 19257 0
-19256 19257 0
-725 -19256 0
-784 19258 0
-19257 19258 0
-784 -19257 0
-961 19259 0
-19258 19259 0
-961 -19258 0
-1010 19260 0
-19259 19260 0
-1010 -19259 0
-1289 19261 0
-19260 19261 0
-1289 -19260 0
-1345 19262 0
-19261 19262 0
-1345 -19261 0
-1511 19263 0
-19262 19263 0
-1511 -19262 0
-1567 19264 0
-19263 19264 0
-1567 -19263 0
-1621 19265 0
-19264 19265 0
-1621 -19264 0
-1676 19266 0
-19265 19266 0
-1676 -19265 0
-1946 19267 0
-19266 19267 0
-1946 -19266 0
-1994 19268 0
-19267 19268 0
-1994 -19267 0
-2041 19269 0
-19268 19269 0
-2041 -19268 0
-2091 19270 0
-19269 19270 0
-2091 -19269 0
-2233 19271 0
-19270 19271 0
-2233 -19270 0
-2283 19272 0
-19271 19272 0
-2283 -19271 0
-2522 19273 0
-19272 19273 0
-2522 -19272 0
-2570 19274 0
-19273 19274 0
-2570 -19273 0
-2714 19275 0
-19274 19275 0
-2714 -19274 0
-2762 19276 0
-19275 19276 0
-2762 -19275 0
-2809 19277 0
-19276 19277 0
-2809 -19276 0
-2859 19278 0
-19277 19278 0
-2859 -19277 0
-3001 19279 0
-19278 19279 0
-3001 -19278 0
-3051 19280 0
-19279 19280 0
-3051 -19279 0
-3290 19281 0
-19280 19281 0
-3290 -19280 0
-3338 19282 0
-19281 19282 0
-3338 -19281 0
-3369 19283 0
-19282 19283 0
-3369 -19282 0
-3418 19284 0
-19283 19284 0
-3418 -19283 0
-3577 19285 0
-19284 19285 0
-3577 -19284 0
-3609 19286 0
-19285 19286 0
-3609 -19285 0
-3703 19287 0
-19286 19287 0
-3703 -19286 0
-3735 19288 0
-19287 19288 0
-3735 -19287 0
-3765 19289 0
-19288 19289 0
-3765 -19288 0
-3796 19290 0
-19289 19290 0
-3796 -19289 0
-3897 19291 0
-19290 19291 0
-3897 -19290 0
-3922 19292 0
-19291 19292 0
-3922 -19291 0
-4081 19293 0
-19292 19293 0
-4081 -19292 0
-4113 19294 0
-19293 19294 0
-4113 -19293 0
-4207 19295 0
-19294 19295 0
-4207 -19294 0
-4239 19296 0
-19295 19296 0
-4239 -19295 0
-4269 19297 0
-19296 19297 0
-4269 -19296 0
-4300 19298 0
-19297 19298 0
-4300 -19297 0
-4491 19299 0
-19298 19299 0
-4491 -19298 0
-4523 19300 0
-19299 19300 0
-4523 -19299 0
-4549 19301 0
-19300 19301 0
-4549 -19300 0
-4584 19302 0
-19301 19302 0
-4584 -19301 0
-4677 19303 0
-19302 19303 0
-4677 -19302 0
-4710 19304 0
-19303 19304 0
-4710 -19303 0
-4869 19305 0
-19304 19305 0
-4869 -19304 0
-4901 19306 0
-19305 19306 0
-4901 -19305 0
-4995 19307 0
-19306 19307 0
-4995 -19306 0
-5027 19308 0
-19307 19308 0
-5027 -19307 0
-5053 19309 0
-19308 19309 0
-5053 -19308 0
-5088 19310 0
-19309 19310 0
-5088 -19309 0
-5181 19311 0
-19310 19311 0
-5181 -19310 0
-5214 19312 0
-19311 19312 0
-5214 -19311 0
-5373 19313 0
-19312 19313 0
-5373 -19312 0
-5405 -19313 0
118 303 426 547 666 726 844 962 1066 1233 1344 1455 1566 1622 1732 1898 1995 2042 2139 2234 2331 2474 2571 2666 2763 2810 2907 3002 3099 3242 3339 3370 3450 3545 3608 3671 3734 3766 3828 3898 3954 4049 4112 4175 4238 4270 4332 4459 4522 4550 4616 4678 4742 4837 4900 4963 5026 5054 5120 5182 5246 5341 5404 0
-118 19314 0
-303 19315 0
-19314 19315 0
-303 -19314 0
-426 19316 0
-19315 19316 0
-426 -19315 0
-547 19317 0
-19316 19317 0
-547 -19316 0
-666 19318 0
-19317 19318 0
-666 -19317 0
-726 19319 0
-19318 19319 0
-726 -19318 0
-844 19320 0
-19319 19320 0
-844 -19319 0
-962 19321 0
-19320 19321 0
-962 -19320 0
-1066 19322 0
-19321 19322 0
-1066 -19321 0
-1233 19323 0
-19322 19323 0
-1233 -19322 0
-1344 19324 0
-19323 19324 0
-1344 -19323 0
-1455 19325 0
-19324 19325 0
-1455 -19324 0
-1566 19326 0
-19325 19326 0
-1566 -19325 0
-1622 19327 0
-19326 19327 0
-1622 -19326 0
-1732 19328 0
-19327 19328 0
-1732 -19327 0
-1898 19329 0
-19328 19329 0
-1898 -19328 0
-1995 19330 0
-19329 19330 0
-1995 -19329 0
-2042 19331 0
-19330 19331 0
-2042 -19330 0
-2139 19332 0
-19331 19332 0
-2139 -19331 0
-2234 19333 0
-19332 19333 0
-2234 -19332 0
-2331 19334 0
-19333 19334 0
-2331 -19333 0
-2474 19335 0
-19334 19335 0
-2474 -19334 0
-2571 19336 0
-19335 19336 0
-2571 -19335 0
-2666 19337 0
-19336 19337 0
-2666 -19336 0
-2763 19338 0
-19337 19338 0
-2763 -19337 0
-2810 19339 0
-19338 19339 0
-2810 -19338 0
-2907 19340 0
-19339 19340 0
-2907 -19339 0
-3002 19341 0
-19340 19341 0
-3002 -19340 0
-3099 19342 0
-19341 19342 0
-3099 -19341 0
-3242 19343 0
-19342 19343 0
-3242 -19342 0
-3339 19344 0
-19343 19344 0
-3339 -19343 0
-3370 19345 0
-19344 19345 0
-3370 -19344 0
-3450 19346 0
-19345 19346 0
-3450 -19345 0
-3545 19347 0
-19346 19347 0
-3545 -19346 0
-3608 19348 0
-19347 19348 0
-3608 -19347 0
-3671 19349 0
-19348 19349 0
-3671 -19348 0
-3734 19350 0
-19349 19350 0
-3734 -19349 0
-3766 19351 0
-19350 19351 0
-3766 -19350 0
-3828 19352 0
-19351 19352 0
-3828 -19351 0
-3898 19353 0
-19352 19353 0
-3898 -19352 0
-3954 19354 0
-19353 19354 0
-3954 -19353 0
-4049 19355 0
-19354 19355 0
-4049 -19354 0
-4112 19356 0
-19355 19356 0
-4112 -19355 0
-4175 19357 0
-19356 19357 0
-4175 -19356 0
-4238 19358 0
-19357 19358 0
-4238 -19357 0
-4270 19359 0
-19358 19359 0
-4270 -19358 0
-4332 19360 0
-19359 19360 0
-4332 -19359 0
-4459 19361 0
-19360 19361 0
-4459 -19360 0
-4522 19362 0
-19361 19362 0
-4522 -19361 0
-4550 19363 0
-19362 19363 0
-4550 -19362 0
-4616 19364 0
-19363 19364 0
-4616 -19363 0
-4678 19365 0
-19364 19365 0
-4678 -19364 0
-4742 19366 0
-19365 19366 0
-4742 -19365 0
-4837 19367 0
-19366 19367 0
-4837 -19366 0
-4900 19368 0
-19367 19368 0
-4900 -19367 0
-4963 19369 0
-19368 19369 0
-4963 -19368 0
-5026 19370 0
-19369 19370 0
-5026 -19369 0
-5054 19371 0
-19370 19371 0
-5054 -19370 0
-5120 19372 0
-19371 19372 0
-5120 -19371 0
-5182 19373 0
-19372 19373 0
-5182 -19372 0
-5246 19374 0
-19373 19374 0
-5246 -19373 0
-5341 19375 0
-19374 19375 0
-5341 -19374 0
-5404 -19375 0
181 302 364 546 606 727 904 963 1122 1232 1288 1454 1510 1623 1788 1899 1947 2043 2187 2235 2379 2475 2523 2667 2715 2811 2955 3003 3147 3243 3291 3371 3482 3544 3576 3670 3702 3767 3860 3899 3986 4048 4080 4174 4206 4271 4364 4458 4490 4551 4648 4679 4774 4836 4868 4962 4994 5055 5152 5183 5278 5340 5372 0
-181 19376 0
-302 19377 0
-19376 19377 0
-302 -19376 0
-364 19378 0
-19377 19378 0
-364 -19377 0
-546 19379 0
-19378 19379 0
-546 -19378 0
-606 19380 0
-19379 19380 0
-606 -19379 0
-727 19381 0
-19380 19381 0
-727 -19380 0
-904 19382 0
-19381 19382 0
-904 -19381 0
-963 19383 0
-19382 19383 0
-963 -19382 0
-1122 19384 0
-19383 19384 0
-1122 -19383 0
-1232 19385 0
-19384 19385 0
-1232 -19384 0
-1288 19386 0
-19385 19386 0
-1288 -19385 0
-1454 19387 0
-19386 19387 0
-1454 -19386 0
-1510 19388 0
-19387 19388 0
-1510 -19387 0
-1623 19389 0
-19388 19389 0
-1623 -19388 0
-1788 19390 0
-19389 19390 0
-1788 -19389 0
-1899 19391 0
-19390 19391 0
-1899 -19390 0
-1947 19392 0
-19391 19392 0
-1947 -19391 0
-2043 19393 0
-19392 19393 0
-2043 -19392 0
-2187 19394 0
-19393 19394 0
-2187 -19393 0
-2235 19395 0
-19394 19395 0
-2235 -19394 0
-2379 19396 0
-19395 19396 0
-2379 -19395 0
-2475 19397 0
-19396 19397 0
-2475 -19396 0
-2523 19398 0
-19397 19398 0
-2523 -19397 0
-2667 19399 0
-19398 19399 0
-2667 -19398 0
-2715 19400 0
-19399 19400 0
-2715 -19399 0
-2811 19401 0
-19400 19401 0
-2811 -19400 0
-2955 19402 0
-19401 19402 0
-2955 -19401 0
-3003 19403 0
-19402 19403 0
-3003 -19402 0
-3147 19404 0
-19403 19404 0
-3147 -19403 0
-3243 19405 0
-19404 19405 0
-3243 -19404 0
-3291 19406 0
-19405 19406 0
-3291 -19405 0
-3371 19407 0
-19406 19407 0
-3371 -19406 0
-3482 19408 0
-19407 19408 0
-3482 -19407 0
-3544 19409 0
-19408 19409 0
-3544 -19408 0
-3576 19410 0
-19409 19410 0
-3576 -19409 0
-3670 19411 0
-19410 19411 0
-3670 -19410 0
-3702 19412 0
-19411 19412 0
-3702 -19411 0
-3767 19413 0
-19412 19413 0
-3767 -19412 0
-3860 19414 0
-19413 19414 0
-3860 -19413 0
-3899 19415 0
-19414 19415 0
-3899 -19414 0
-3986 19416 0
-19415 19416 0
-3986 -19415 0
-4048 19417 0
-19416 19417 0
-4048 -19416 0
-4080 19418 0
-19417 19418 0
-4080 -19417 0
-4174 19419 0
-19418 19419 0
-4174 -19418 0
-4206 19420 0
-19419 19420 0
-4206 -19419 0
-4271 19421 0
-19420 19421 0
-4271 -19420 0
-4364 19422 0
-19421 19422 0
-4364 -19421 0
-4458 19423 0
-19422 19423 0
-4458 -19422 0
-4490 19424 0
-19423 19424 0
-4490 -19423 0
-4551 19425 0
-19424 19425 0
-4551 -19424 0
-4648 19426 0
-19425 19426 0
-4648 -19425 0
-4679 19427 0
-19426 19427 0
-4679 -19426 0
-4774 19428 0
-19427 19428 0
-4774 -19427 0
-4836 19429 0
-19428 19429 0
-4836 -19428 0
-4868 19430 0
-19429 19430 0
-4868 -19429 0
-4962 19431 0
-19430 19431 0
-4962 -19430 0
-4994 19432 0
-19431 19432 0
-4994 -19431 0
-5055 19433 0
-19432 19433 0
-5055 -19432 0
-5152 19434 0
-19433 19434 0
-5152 -19433 0
-5183 19435 0
-19434 19435 0
-5183 -19434 0
-5278 19436 0
-19435 19436 0
-5278 -19435 0
-5340 19437 0
-19436 19437 0
-5340 -19436 0
-5372 -19437 0
56 119 182 242 304 366 428 488 548 608 668 728 788 848 908 1836 1885 1933 1981 2032 2079 2127 2175 2224 2273 2321 2369 2416 2467 2515 2563 3372 3421 3453 3485 3520 3551 3583 3615 3648 3681 3713 3745 3776 3811 3843 3875 4396 4429 4461 4493 4528 4559 4591 4623 4656 4689 4721 4753 4784 4819 4851 4883 0
-56 19438 0
-119 19439 0
-19438 19439 0
-119 -19438 0
-182 19440 0
-19439 19440 0
-182 -19439 0
-242 19441 0
-19440 19441 0
-242 -19440 0
-304 19442 0
-19441 19442 0
-304 -19441 0
-366 19443 0
-19442 19443 0
-366 -19442 0
-428 19444 0
-19443 19444 0
-428 -19443 0
-488 19445 0
-19444 19445 0
-488 -19444 0
-548 19446 0
-19445 19446 0
-548 -19445 0
-608 19447 0
-19446 19447 0
-608 -19446 0
-668 19448 0
-19447 19448 0
-668 -19447 0
-728 19449 0
-19448 19449 0
-728 -19448 0
-788 19450 0
-19449 19450 0
-788 -19449 0
-848 19451 0
-19450 19451 0
-848 -19450 0
-908 19452 0
-19451 19452 0
-908 -19451 0
-1836 19453 0
-19452 19453 0
-1836 -19452 0
-1885 19454 0
-19453 19454 0
-1885 -19453 0
-1933 19455 0
-19454 19455 0
-1933 -19454 0
-1981 19456 0
-19455 19456 0
-1981 -19455 0
-2032 19457 0
-19456 19457 0
-2032 -19456 0
-2079 19458 0
-19457 19458 0
-2079 -19457 0
-2127 19459 0
-19458 19459 0
-2127 -19458 0
-2175 19460 0
-19459 19460 0
-2175 -19459 0
-2224 19461 0
-19460 19461 0
-2224 -19460 0
-2273 19462 0
-19461 19462 0
-2273 -19461 0
-2321 19463 0
-19462 19463 0
-2321 -19462 0
-2369 19464 0
-19463 19464 0
-2369 -19463 0
-2416 19465 0
-19464 19465 0
-2416 -19464 0
-2467 19466 0
-19465 19466 0
-2467 -19465 0
-2515 19467 0
-19466 19467 0
-2515 -19466 0
-2563 19468 0
-19467 19468 0
-2563 -19467 0
-3372 19469 0
-19468 19469 0
-3372 -19468 0
-3421 19470 0
-19469 19470 0
-3421 -19469 0
-3453 19471 0
-19470 19471 0
-3453 -19470 0
-3485 19472 0
-19471 19472 0
-3485 -19471 0
-3520 19473 0
-19472 19473 0
-3520 -19472 0
-3551 19474 0
-19473 19474 0
-3551 -19473 0
-3583 19475 0
-19474 19475 0
-3583 -19474 0
-3615 19476 0
-19475 19476 0
-3615 -19475 0
-3648 19477 0
-19476 19477 0
-3648 -19476 0
-3681 19478 0
-19477 19478 0
-3681 -19477 0
-3713 19479 0
-19478 19479 0
-3713 -19478 0
-3745 19480 0
-19479 19480 0
-3745 -19479 0
-3776 19481 0
-19480 19481 0
-3776 -19480 0
-3811 19482 0
-19481 19482 0
-3811 -19481 0
-3843 19483 0
-19482 19483 0
-3843 -19482 0
-3875 19484 0
-19483 19484 0
-3875 -19483 0
-4396 19485 0
-19484 19485 0
-4396 -19484 0
-4429 19486 0
-19485 19486 0
-4429 -19485 0
-4461 19487 0
-19486 19487 0
-4461 -19486 0
-4493 19488 0
-19487 19488 0
-4493 -19487 0
-4528 19489 0
-19488 19489 0
-4528 -19488 0
-4559 19490 0
-19489 19490 0
-4559 -19489 0
-4591 19491 0
-19490 19491 0
-4591 -19490 0
-4623 19492 0
-19491 19492 0
-4623 -19491 0
-4656 19493 0
-19492 19493 0
-4656 -19492 0
-4689 19494 0
-19493 19494 0
-4689 -19493 0
-4721 19495 0
-19494 19495 0
-4721 -19494 0
-4753 19496 0
-19495 19496 0
-4753 -19495 0
-4784 19497 0
-19496 19497 0
-4784 -19496 0
-4819 19498 0
-19497 19498 0
-4819 -19497 0
-4851 19499 0
-19498 19499 0
-4851 -19498 0
-4883 -19499 0
56 243 305 489 549 729 789 1068 1124 1292 1348 1516 1572 1740 1796 1837 1884 2033 2078 2225 2272 2417 2466 2709 2757 2903 2951 3097 3145 3291 3339 3373 3420 3521 3550 3649 3680 3777 3810 3973 4005 4103 4135 4233 4265 4363 4395 4397 4428 4529 4558 4657 4688 4785 4818 4981 5013 5111 5143 5241 5273 5371 5403 0
-56 19500 0
-243 19501 0
-19500 19501 0
-243 -19500 0
-305 19502 0
-19501 19502 0
-305 -19501 0
-489 19503 0
-19502 19503 0
-489 -19502 0
-549 19504 0
-19503 19504 0
-549 -19503 0
-729 19505 0
-19504 19505 0
-729 -19504 0
-789 19506 0
-19505 19506 0
-789 -19505 0
-1068 19507 0
-19506 19507 0
-1068 -19506 0
-1124 19508 0
-19507 19508 0
-1124 -19507 0
-1292 19509 0
-19508 19509 0
-1292 -19508 0
-1348 19510 0
-19509 19510 0
-1348 -19509 0
-1516 19511 0
-19510 19511 0
-1516 -19510 0
-1572 19512 0
-19511 19512 0
-1572 -19511 0
-1740 19513 0
-19512 19513 0
-1740 -19512 0
-1796 19514 0
-19513 19514 0
-1796 -19513 0
-1837 19515 0
-19514 19515 0
-1837 -19514 0
-1884 19516 0
-19515 19516 0
-1884 -19515 0
-2033 19517 0
-19516 19517 0
-2033 -19516 0
-2078 19518 0
-19517 19518 0
-2078 -19517 0
-2225 19519 0
-19518 19519 0
-2225 -19518 0
-2272 19520 0
-19519 19520 0
-2272 -19519 0
-2417 19521 0
-19520 19521 0
-2417 -19520 0
-2466 19522 0
-19521 19522 0
-2466 -19521 0
-2709 19523 0
-19522 19523 0
-2709 -19522 0
-2757 19524 0
-19523 19524 0
-2757 -19523 0
-2903 19525 0
-19524 19525 0
-2903 -19524 0
-2951 19526 0
-19525 19526 0
-2951 -19525 0
-3097 19527 0
-19526 19527 0
-3097 -19526 0
-3145 19528 0
-19527 19528 0
-3145 -19527 0
-3291 19529 0
-19528 19529 0
-3291 -19528 0
-3339 19530 0
-19529 19530 0
-3339 -19529 0
-3373 19531 0
-19530 19531 0
-3373 -19530 0
-3420 19532 0
-19531 19532 0
-3420 -19531 0
-3521 19533 0
-19532 19533 0
-3521 -19532 0
-3550 19534 0
-19533 19534 0
-3550 -19533 0
-3649 19535 0
-19534 19535 0
-3649 -19534 0
-3680 19536 0
-19535 19536 0
-3680 -19535 0
-3777 19537 0
-19536 19537 0
-3777 -19536 0
-3810 19538 0
-19537 19538 0
-3810 -19537 0
-3973 19539 0
-19538 19539 0
-3973 -19538 0
-4005 19540 0
-19539 19540 0
-4005 -19539 0
-4103 19541 0
-19540 19541 0
-4103 -19540 0
-4135 19542 0
-19541 19542 0
-4135 -19541 0
-4233 19543 0
-19542 19543 0
-4233 -19542 0
-4265 19544 0
-19543 19544 0
-4265 -19543 0
-4363 19545 0
-19544 19545 0
-4363 -19544 0
-4395 19546 0
-19545 19546 0
-4395 -19545 0
-4397 19547 0
-19546 19547 0
-4397 -19546 0
-4428 19548 0
-19547 19548 0
-4428 -19547 0
-4529 19549 0
-19548 19549 0
-4529 -19548 0
-4558 19550 0
-19549 19550 0
-4558 -19549 0
-4657 19551 0
-19550 19551 0
-4657 -19550 0
-4688 19552 0
-19551 19552 0
-4688 -19551 0
-4785 19553 0
-19552 19553 0
-4785 -19552 0
-4818 19554 0
-19553 19554 0
-4818 -19553 0
-4981 19555 0
-19554 19555 0
-4981 -19554 0
-5013 19556 0
-19555 19556 0
-5013 -19555 0
-5111 19557 0
-19556 19557 0
-5111 -19556 0
-5143 19558 0
-19557 19558 0
-5143 -19557 0
-5241 19559 0
-19558 19559 0
-5241 -19558 0
-5273 19560 0
-19559 19560 0
-5273 -19559 0
-5371 19561 0
-19560 19561 0
-5371 -19560 0
-5403 -19561 0
119 244 367 490 609 730 849 1012 1125 1236 1349 1460 1573 1684 1797 1838 1932 2034 2126 2226 2320 2418 2514 2661 2756 2855 2950 3049 3144 3243 3338 3374 3452 3522 3582 3650 3712 3778 3842 3941 4004 4071 4134 4201 4264 4331 4394 4398 4460 4530 4590 4658 4720 4786 4850 4949 5012 5079 5142 5209 5272 5339 5402 0
-119 19562 0
-244 19563 0
-19562 19563 0
-244 -19562 0
-367 19564 0
-19563 19564 0
-367 -19563 0
-490 19565 0
-19564 19565 0
-490 -19564 0
-609 19566 0
-19565 19566 0
-609 -19565 0
-730 19567 0
-19566 19567 0
-730 -19566 0
-849 19568 0
-19567 19568 0
-849 -19567 0
-1012 19569 0
-19568 19569 0
-1012 -19568 0
-1125 19570 0
-19569 19570 0
-1125 -19569 0
-1236 19571 0
-19570 19571 0
-1236 -19570 0
-1349 19572 0
-19571 19572 0
-1349 -19571 0
-1460 19573 0
-19572 19573 0
-1460 -19572 0
-1573 19574 0
-19573 19574 0
-1573 -19573 0
-1684 19575 0
-19574 19575 0
-1684 -19574 0
-1797 19576 0
-19575 19576 0
-1797 -19575 0
-1838 19577 0
-19576 19577 0
-1838 -19576 0
-1932 19578 0
-19577 19578 0
-1932 -19577 0
-2034 19579 0
-19578 19579 0
-2034 -19578 0
-2126 19580 0
-19579 19580 0
-2126 -19579 0
-2226 19581 0
-19580 19581 0
-2226 -19580 0
-2320 19582 0
-19581 19582 0
-2320 -19581 0
-2418 19583 0
-19582 19583 0
-2418 -19582 0
-2514 19584 0
-19583 19584 0
-2514 -19583 0
-2661 19585 0
-19584 19585 0
-2661 -19584 0
-2756 19586 0
-19585 19586 0
-2756 -19585 0
-2855 19587 0
-19586 19587 0
-2855 -19586 0
-2950 19588 0
-19587 19588 0
-2950 -19587 0
-3049 19589 0
-19588 19589 0
-3049 -19588 0
-3144 19590 0
-19589 19590 0
-3144 -19589 0
-3243 19591 0
-19590 19591 0
-3243 -19590 0
-3338 19592 0
-19591 19592 0
-3338 -19591 0
-3374 19593 0
-19592 19593 0
-3374 -19592 0
-3452 19594 0
-19593 19594 0
-3452 -19593 0
-3522 19595 0
-19594 19595 0
-3522 -19594 0
-3582 19596 0
-19595 19596 0
-3582 -19595 0
-3650 19597 0
-19596 19597 0
-3650 -19596 0
-3712 19598 0
-19597 19598 0
-3712 -19597 0
-3778 19599 0
-19598 19599 0
-3778 -19598 0
-3842 19600 0
-19599 19600 0
-3842 -19599 0
-3941 19601 0
-19600 19601 0
-3941 -19600 0
-4004 19602 0
-19601 19602 0
-4004 -19601 0
-4071 19603 0
-19602 19603 0
-4071 -19602 0
-4134 19604 0
-19603 19604 0
-4134 -19603 0
-4201 19605 0
-19604 19605 0
-4201 -19604 0
-4264 19606 0
-19605 19606 0
-4264 -19605 0
-4331 19607 0
-19606 19607 0
-4331 -19606 0
-4394 19608 0
-19607 19608 0
-4394 -19607 0
-4398 19609 0
-19608 19609 0
-4398 -19608 0
-4460 19610 0
-19609 19610 0
-4460 -19609 0
-4530 19611 0
-19610 19611 0
-4530 -19610 0
-4590 19612 0
-19611 19612 0
-4590 -19611 0
-4658 19613 0
-19612 19613 0
-4658 -19612 0
-4720 19614 0
-19613 19614 0
-4720 -19613 0
-4786 19615 0
-19614 19615 0
-4786 -19614 0
-4850 19616 0
-19615 19616 0
-4850 -19615 0
-4949 19617 0
-19616 19617 0
-4949 -19616 0
-5012 19618 0
-19617 19618 0
-5012 -19617 0
-5079 19619 0
-19618 19619 0
-5079 -19618 0
-5142 19620 0
-19619 19620 0
-5142 -19619 0
-5209 19621 0
-19620 19621 0
-5209 -19620 0
-5272 19622 0
-19621 19622 0
-5272 -19621 0
-5339 19623 0
-19622 19623 0
-5339 -19622 0
-5402 -19623 0
182 245 429 491 669 731 909 1013 1069 1237 1293 1461 1517 1685 1741 1839 1980 2035 2174 2227 2368 2419 2562 2660 2708 2854 2902 3048 3096 3242 3290 3375 3484 3523 3614 3651 3744 3779 3874 3940 3972 4070 4102 4200 4232 4330 4362 4399 4492 4531 4622 4659 4752 4787 4882 4948 4980 5078 5110 5208 5240 5338 5370 0
-182 19624 0
-245 19625 0
-19624 19625 0
-245 -19624 0
-429 19626 0
-19625 19626 0
-429 -19625 0
-491 19627 0
-19626 19627 0
-491 -19626 0
-669 19628 0
-19627 19628 0
-669 -19627 0
-731 19629 0
-19628 19629 0
-731 -19628 0
-909 19630 0
-19629 19630 0
-909 -19629 0
-1013 19631 0
-19630 19631 0
-1013 -19630 0
-1069 19632 0
-19631 19632 0
-1069 -19631 0
-1237 19633 0
-19632 19633 0
-1237 -19632 0
-1293 19634 0
-19633 19634 0
-1293 -19633 0
-1461 19635 0
-19634 19635 0
-1461 -19634 0
-1517 19636 0
-19635 19636 0
-1517 -19635 0
-1685 19637 0
-19636 19637 0
-1685 -19636 0
-1741 19638 0
-19637 19638 0
-1741 -19637 0
-1839 19639 0
-19638 19639 0
-1839 -19638 0
-1980 19640 0
-19639 19640 0
-1980 -19639 0
-2035 19641 0
-19640 19641 0
-2035 -19640 0
-2174 19642 0
-19641 19642 0
-2174 -19641 0
-2227 19643 0
-19642 19643 0
-2227 -19642 0
-2368 19644 0
-19643 19644 0
-2368 -19643 0
-2419 19645 0
-19644 19645 0
-2419 -19644 0
-2562 19646 0
-19645 19646 0
-2562 -19645 0
-2660 19647 0
-19646 19647 0
-2660 -19646 0
-2708 19648 0
-19647 19648 0
-2708 -19647 0
-2854 19649 0
-19648 19649 0
-2854 -19648 0
-2902 19650 0
-19649 19650 0
-2902 -19649 0
-3048 19651 0
-19650 19651 0
-3048 -19650 0
-3096 19652 0
-19651 19652 0
-3096 -19651 0
-3242 19653 0
-19652 19653 0
-3242 -19652 0
-3290 19654 0
-19653 19654 0
-3290 -19653 0
-3375 19655 0
-19654 19655 0
-3375 -19654 0
-3484 19656 0
-19655 19656 0
-3484 -19655 0
-3523 19657 0
-19656 19657 0
-3523 -19656 0
-3614 19658 0
-19657 19658 0
-3614 -19657 0
-3651 19659 0
-19658 19659 0
-3651 -19658 0
-3744 19660 0
-19659 19660 0
-3744 -19659 0
-3779 19661 0
-19660 19661 0
-3779 -19660 0
-3874 19662 0
-19661 19662 0
-3874 -19661 0
-3940 19663 0
-19662 19663 0
-3940 -19662 0
-3972 19664 0
-19663 19664 0
-3972 -19663 0
-4070 19665 0
-19664 19665 0
-4070 -19664 0
-4102 19666 0
-19665 19666 0
-4102 -19665 0
-4200 19667 0
-19666 19667 0
-4200 -19666 0
-4232 19668 0
-19667 19668 0
-4232 -19667 0
-4330 19669 0
-19668 19669 0
-4330 -19668 0
-4362 19670 0
-19669 19670 0
-4362 -19669 0
-4399 19671 0
-19670 19671 0
-4399 -19670 0
-4492 19672 0
-19671 19672 0
-4492 -19671 0
-4531 19673 0
-19672 19673 0
-4531 -19672 0
-4622 19674 0
-19673 19674 0
-4622 -19673 0
-4659 19675 0
-19674 19675 0
-4659 -19674 0
-4752 19676 0
-19675 19676 0
-4752 -19675 0
-4787 19677 0
-19676 19677 0
-4787 -19676 0
-4882 19678 0
-19677 19678 0
-4882 -19677 0
-4948 19679 0
-19678 19679 0
-4948 -19678 0
-4980 19680 0
-19679 19680 0
-4980 -19679 0
-5078 19681 0
-19680 19681 0
-5078 -19680 0
-5110 19682 0
-19681 19682 0
-5110 -19681 0
-5208 19683 0
-19682 19683 0
-5208 -19682 0
-5240 19684 0
-19683 19684 0
-5240 -19683 0
-5338 19685 0
-19684 19685 0
-5338 -19684 0
-5370 -19685 0
57 120 183 242 305 367 429 1404 1462 1518 1574 1628 1686 1742 1798 1840 1887 1935 1983 2028 2077 2125 2173 3000 3051 3099 3147 3192 3241 3289 3337 3376 3423 3455 3487 3516 3549 3581 3613 4168 4203 4235 4267 4296 4329 4361 4393 4400 4431 4463 4495 4524 4557 4589 4621 5176 5211 5243 5275 5304 5337 5369 5401 0
-57 19686 0
-120 19687 0
-19686 19687 0
-120 -19686 0
-183 19688 0
-19687 19688 0
-183 -19687 0
-242 19689 0
-19688 19689 0
-242 -19688 0
-305 19690 0
-19689 19690 0
-305 -19689 0
-367 19691 0
-19690 19691 0
-367 -19690 0
-429 19692 0
-19691 19692 0
-429 -19691 0
-1404 19693 0
-19692 19693 0
-1404 -19692 0
-1462 19694 0
-19693 19694 0
-1462 -19693 0
-1518 19695 0
-19694 19695 0
-1518 -19694 0
-1574 19696 0
-19695 19696 0
-1574 -19695 0
-1628 19697 0
-19696 19697 0
-1628 -19696 0
-1686 19698 0
-19697 19698 0
-1686 -19697 0
-1742 19699 0
-19698 19699 0
-1742 -19698 0
-1798 19700 0
-19699 19700 0
-1798 -19699 0
-1840 19701 0
-19700 19701 0
-1840 -19700 0
-1887 19702 0
-19701 19702 0
-1887 -19701 0
-1935 19703 0
-19702 19703 0
-1935 -19702 0
-1983 19704 0
-19703 19704 0
-1983 -19703 0
-2028 19705 0
-19704 19705 0
-2028 -19704 0
-2077 19706 0
-19705 19706 0
-2077 -19705 0
-2125 19707 0
-19706 19707 0
-2125 -19706 0
-2173 19708 0
-19707 19708 0
-2173 -19707 0
-3000 19709 0
-19708 19709 0
-3000 -19708 0
-3051 19710 0
-19709 19710 0
-3051 -19709 0
-3099 19711 0
-19710 19711 0
-3099 -19710 0
-3147 19712 0
-19711 19712 0
-3147 -19711 0
-3192 19713 0
-19712 19713 0
-3192 -19712 0
-3241 19714 0
-19713 19714 0
-3241 -19713 0
-3289 19715 0
-19714 19715 0
-3289 -19714 0
-3337 19716 0
-19715 19716 0
-3337 -19715 0
-3376 19717 0
-19716 19717 0
-3376 -19716 0
-3423 19718 0
-19717 19718 0
-3423 -19717 0
-3455 19719 0
-19718 19719 0
-3455 -19718 0
-3487 19720 0
-19719 19720 0
-3487 -19719 0
-3516 19721 0
-19720 19721 0
-3516 -19720 0
-3549 19722 0
-19721 19722 0
-3549 -19721 0
-3581 19723 0
-19722 19723 0
-3581 -19722 0
-3613 19724 0
-19723 19724 0
-3613 -19723 0
-4168 19725 0
-19724 19725 0
-4168 -19724 0
-4203 19726 0
-19725 19726 0
-4203 -19725 0
-4235 19727 0
-19726 19727 0
-4235 -19726 0
-4267 19728 0
-19727 19728 0
-4267 -19727 0
-4296 19729 0
-19728 19729 0
-4296 -19728 0
-4329 19730 0
-19729 19730 0
-4329 -19729 0
-4361 19731 0
-19730 19731 0
-4361 -19730 0
-4393 19732 0
-19731 19732 0
-4393 -19731 0
-4400 19733 0
-19732 19733 0
-4400 -19732 0
-4431 19734 0
-19733 19734 0
-4431 -19733 0
-4463 19735 0
-19734 19735 0
-4463 -19734 0
-4495 19736 0
-19735 19736 0
-4495 -19735 0
-4524 19737 0
-19736 19737 0
-4524 -19736 0
-4557 19738 0
-19737 19738 0
-4557 -19737 0
-4589 19739 0
-19738 19739 0
-4589 -19738 0
-4621 19740 0
-19739 19740 0
-4621 -19739 0
-5176 19741 0
-19740 19741 0
-5176 -19740 0
-5211 19742 0
-19741 19742 0
-5211 -19741 0
-5243 19743 0
-19742 19743 0
-5243 -19742 0
-5275 19744 0
-19743 19744 0
-5275 -19743 0
-5304 19745 0
-19744 19745 0
-5304 -19744 0
-5337 19746 0
-19745 19746 0
-5337 -19745 0
-5369 19747 0
-19746 19747 0
-5369 -19746 0
-5401 -19747 0
57 243 304 610 670 850 910 1070 1126 1294 1350 1405 1463 1629 1687 1841 1886 2029 2076 2323 2371 2513 2561 2711 2759 2901 2949 3001 3050 3193 3240 3377 3422 3517 3548 3715 3747 3841 3873 3975 4007 4101 4133 4169 4202 4297 4328 4401 4430 4525 4556 4723 4755 4849 4881 4983 5015 5109 5141 5177 5210 5305 5336 0
-57 19748 0
-243 19749 0
-19748 19749 0
-243 -19748 0
-304 19750 0
-19749 19750 0
-304 -19749 0
-610 19751 0
-19750 19751 0
-610 -19750 0
-670 19752 0
-19751 19752 0
-670 -19751 0
-850 19753 0
-19752 19753 0
-850 -19752 0
-910 19754 0
-19753 19754 0
-910 -19753 0
-1070 19755 0
-19754 19755 0
-1070 -19754 0
-1126 19756 0
-19755 19756 0
-1126 -19755 0
-1294 19757 0
-19756 19757 0
-1294 -19756 0
-1350 19758 0
-19757 19758 0
-1350 -19757 0
-1405 19759 0
-19758 19759 0
-1405 -19758 0
-1463 19760 0
-19759 19760 0
-1463 -19759 0
-1629 19761 0
-19760 19761 0
-1629 -19760 0
-1687 19762 0
-19761 19762 0
-1687 -19761 0
-1841 19763 0
-19762 19763 0
-1841 -19762 0
-1886 19764 0
-19763 19764 0
-1886 -19763 0
-2029 19765 0
-19764 19765 0
-2029 -19764 0
-2076 19766 0
-19765 19766 0
-2076 -19765 0
-2323 19767 0
-19766 19767 0
-2323 -19766 0
-2371 19768 0
-19767 19768 0
-2371 -19767 0
-2513 19769 0
-19768 19769 0
-2513 -19768 0
-2561 19770 0
-19769 19770 0
-2561 -19769 0
-2711 19771 0
-19770 19771 0
-2711 -19770 0
-2759 19772 0
-19771 19772 0
-2759 -19771 0
-2901 19773 0
-19772 19773 0
-2901 -19772 0
-2949 19774 0
-19773 19774 0
-2949 -19773 0
-3001 19775 0
-19774 19775 0
-3001 -19774 0
-3050 19776 0
-19775 19776 0
-3050 -19775 0
-3193 19777 0
-19776 19777 0
-3193 -19776 0
-3240 19778 0
-19777 19778 0
-3240 -19777 0
-3377 19779 0
-19778 19779 0
-3377 -19778 0
-3422 19780 0
-19779 19780 0
-3422 -19779 0
-3517 19781 0
-19780 19781 0
-3517 -19780 0
-3548 19782 0
-19781 19782 0
-3548 -19781 0
-3715 19783 0
-19782 19783 0
-3715 -19782 0
-3747 19784 0
-19783 19784 0
-3747 -19783 0
-3841 19785 0
-19784 19785 0
-3841 -19784 0
-3873 19786 0
-19785 19786 0
-3873 -19785 0
-3975 19787 0
-19786 19787 0
-3975 -19786 0
-4007 19788 0
-19787 19788 0
-4007 -19787 0
-4101 19789 0
-19788 19789 0
-4101 -19788 0
-4133 19790 0
-19789 19790 0
-4133 -19789 0
-4169 19791 0
-19790 19791 0
-4169 -19790 0
-4202 19792 0
-19791 19792 0
-4202 -19791 0
-4297 19793 0
-19792 19793 0
-4297 -19792 0
-4328 19794 0
-19793 19794 0
-4328 -19793 0
-4401 19795 0
-19794 19795 0
-4401 -19794 0
-4430 19796 0
-19795 19796 0
-4430 -19795 0
-4525 19797 0
-19796 19797 0
-4525 -19796 0
-4556 19798 0
-19797 19798 0
-4556 -19797 0
-4723 19799 0
-19798 19799 0
-4723 -19798 0
-4755 19800 0
-19799 19800 0
-4755 -19799 0
-4849 19801 0
-19800 19801 0
-4849 -19800 0
-4881 19802 0
-19801 19802 0
-4881 -19801 0
-4983 19803 0
-19802 19803 0
-4983 -19802 0
-5015 19804 0
-19803 19804 0
-5015 -19803 0
-5109 19805 0
-19804 19805 0
-5109 -19804 0
-5141 19806 0
-19805 19806 0
-5141 -19805 0
-5177 19807 0
-19806 19807 0
-5177 -19806 0
-5210 19808 0
-19807 19808 0
-5210 -19807 0
-5305 19809 0
-19808 19809 0
-5305 -19808 0
-5336 -19809 0
120 244 366 550 671 790 911 1014 1127 1238 1351 1406 1519 1630 1743 1842 1934 2030 2124 2275 2370 2465 2560 2663 2758 2853 2948 3002 3098 3194 3288 3378 3454 3518 3580 3683 3746 3809 3872 3943 4006 4069 4132 4170 4234 4298 4360 4402 4462 4526 4588 4691 4754 4817 4880 4951 5014 5077 5140 5178 5242 5306 5368 0
-120 19810 0
-244 19811 0
-19810 19811 0
-244 -19810 0
-366 19812 0
-19811 19812 0
-366 -19811 0
-550 19813 0
-19812 19813 0
-550 -19812 0
-671 19814 0
-19813 19814 0
-671 -19813 0
-790 19815 0
-19814 19815 0
-790 -19814 0
-911 19816 0
-19815 19816 0
-911 -19815 0
-1014 19817 0
-19816 19817 0
-1014 -19816 0
-1127 19818 0
-19817 19818 0
-1127 -19817 0
-1238 19819 0
-19818 19819 0
-1238 -19818 0
-1351 19820 0
-19819 19820 0
-1351 -19819 0
-1406 19821 0
-19820 19821 0
-1406 -19820 0
-1519 19822 0
-19821 19822 0
-1519 -19821 0
-1630 19823 0
-19822 19823 0
-1630 -19822 0
-1743 19824 0
-19823 19824 0
-1743 -19823 0
-1842 19825 0
-19824 19825 0
-1842 -19824 0
-1934 19826 0
-19825 19826 0
-1934 -19825 0
-2030 19827 0
-19826 19827 0
-2030 -19826 0
-2124 19828 0
-19827 19828 0
-2124 -19827 0
-2275 19829 0
-19828 19829 0
-2275 -19828 0
-2370 19830 0
-19829 19830 0
-2370 -19829 0
-2465 19831 0
-19830 19831 0
-2465 -19830 0
-2560 19832 0
-19831 19832 0
-2560 -19831 0
-2663 19833 0
-19832 19833 0
-2663 -19832 0
-2758 19834 0
-19833 19834 0
-2758 -19833 0
-2853 19835 0
-19834 19835 0
-2853 -19834 0
-2948 19836 0
-19835 19836 0
-2948 -19835 0
-3002 19837 0
-19836 19837 0
-3002 -19836 0
-3098 19838 0
-19837 19838 0
-3098 -19837 0
-3194 19839 0
-19838 19839 0
-3194 -19838 0
-3288 19840 0
-19839 19840 0
-3288 -19839 0
-3378 19841 0
-19840 19841 0
-3378 -19840 0
-3454 19842 0
-19841 19842 0
-3454 -19841 0
-3518 19843 0
-19842 19843 0
-3518 -19842 0
-3580 19844 0
-19843 19844 0
-3580 -19843 0
-3683 19845 0
-19844 19845 0
-3683 -19844 0
-3746 19846 0
-19845 19846 0
-3746 -19845 0
-3809 19847 0
-19846 19847 0
-3809 -19846 0
-3872 19848 0
-19847 19848 0
-3872 -19847 0
-3943 19849 0
-19848 19849 0
-3943 -19848 0
-4006 19850 0
-19849 19850 0
-4006 -19849 0
-4069 19851 0
-19850 19851 0
-4069 -19850 0
-4132 19852 0
-19851 19852 0
-4132 -19851 0
-4170 19853 0
-19852 19853 0
-4170 -19852 0
-4234 19854 0
-19853 19854 0
-4234 -19853 0
-4298 19855 0
-19854 19855 0
-4298 -19854 0
-4360 19856 0
-19855 19856 0
-4360 -19855 0
-4402 19857 0
-19856 19857 0
-4402 -19856 0
-4462 19858 0
-19857 19858 0
-4462 -19857 0
-4526 19859 0
-19858 19859 0
-4526 -19858 0
-4588 19860 0
-19859 19860 0
-4588 -19859 0
-4691 19861 0
-19860 19861 0
-4691 -19860 0
-4754 19862 0
-19861 19862 0
-4754 -19861 0
-4817 19863 0
-19862 19863 0
-4817 -19862 0
-4880 19864 0
-19863 19864 0
-4880 -19863 0
-4951 19865 0
-19864 19865 0
-4951 -19864 0
-5014 19866 0
-19865 19866 0
-5014 -19865 0
-5077 19867 0
-19866 19867 0
-5077 -19866 0
-5140 19868 0
-19867 19868 0
-5140 -19867 0
-5178 19869 0
-19868 19869 0
-5178 -19868 0
-5242 19870 0
-19869 19870 0
-5242 -19869 0
-5306 19871 0
-19870 19871 0
-5306 -19870 0
-5368 -19871 0
183 245 428 551 611 791 851 1015 1071 1239 1295 1407 1575 1631 1799 1843 1982 2031 2172 2274 2322 2464 2512 2662 2710 2852 2900 3003 3146 3195 3336 3379 3486 3519 3612 3682 3714 3808 3840 3942 3974 4068 4100 4171 4266 4299 4392 4403 4494 4527 4620 4690 4722 4816 4848 4950 4982 5076 5108 5179 5274 5307 5400 0
-183 19872 0
-245 19873 0
-19872 19873 0
-245 -19872 0
-428 19874 0
-19873 19874 0
-428 -19873 0
-551 19875 0
-19874 19875 0
-551 -19874 0
-611 19876 0
-19875 19876 0
-611 -19875 0
-791 19877 0
-19876 19877 0
-791 -19876 0
-851 19878 0
-19877 19878 0
-851 -19877 0
-1015 19879 0
-19878 19879 0
-1015 -19878 0
-1071 19880 0
-19879 19880 0
-1071 -19879 0
-1239 19881 0
-19880 19881 0
-1239 -19880 0
-1295 19882 0
-19881 19882 0
-1295 -19881 0
-1407 19883 0
-19882 19883 0
-1407 -19882 0
-1575 19884 0
-19883 19884 0
-1575 -19883 0
-1631 19885 0
-19884 19885 0
-1631 -19884 0
-1799 19886 0
-19885 19886 0
-1799 -19885 0
-1843 19887 0
-19886 19887 0
-1843 -19886 0
-1982 19888 0
-19887 19888 0
-1982 -19887 0
-2031 19889 0
-19888 19889 0
-2031 -19888 0
-2172 19890 0
-19889 19890 0
-2172 -19889 0
-2274 19891 0
-19890 19891 0
-2274 -19890 0
-2322 19892 0
-19891 19892 0
-2322 -19891 0
-2464 19893 0
-19892 19893 0
-2464 -19892 0
-2512 19894 0
-19893 19894 0
-2512 -19893 0
-2662 19895 0
-19894 19895 0
-2662 -19894 0
-2710 19896 0
-19895 19896 0
-2710 -19895 0
-2852 19897 0
-19896 19897 0
-2852 -19896 0
-2900 19898 0
-19897 19898 0
-2900 -19897 0
-3003 19899 0
-19898 19899 0
-3003 -19898 0
-3146 19900 0
-19899 19900 0
-3146 -19899 0
-3195 19901 0
-19900 19901 0
-3195 -19900 0
-3336 19902 0
-19901 19902 0
-3336 -19901 0
-3379 19903 0
-19902 19903 0
-3379 -19902 0
-3486 19904 0
-19903 19904 0
-3486 -19903 0
-3519 19905 0
-19904 19905 0
-3519 -19904 0
-3612 19906 0
-19905 19906 0
-3612 -19905 0
-3682 19907 0
-19906 19907 0
-3682 -19906 0
-3714 19908 0
-19907 19908 0
-3714 -19907 0
-3808 19909 0
-19908 19909 0
-3808 -19908 0
-3840 19910 0
-19909 19910 0
-3840 -19909 0
-3942 19911 0
-19910 19911 0
-3942 -19910 0
-3974 19912 0
-19911 19912 0
-3974 -19911 0
-4068 19913 0
-19912 19913 0
-4068 -19912 0
-4100 19914 0
-19913 19914 0
-4100 -19913 0
-4171 19915 0
-19914 19915 0
-4171 -19914 0
-4266 19916 0
-19915 19916 0
-4266 -19915 0
-4299 19917 0
-19916 19917 0
-4299 -19916 0
-4392 19918 0
-19917 19918 0
-4392 -19917 0
-4403 19919 0
-19918 19919 0
-4403 -19918 0
-4494 19920 0
-19919 19920 0
-4494 -19919 0
-4527 19921 0
-19920 19921 0
-4527 -19920 0
-4620 19922 0
-19921 19922 0
-4620 -19921 0
-4690 19923 0
-19922 19923 0
-4690 -19922 0
-4722 19924 0
-19923 19924 0
-4722 -19923 0
-4816 19925 0
-19924 19925 0
-4816 -19924 0
-4848 19926 0
-19925 19926 0
-4848 -19925 0
-4950 19927 0
-19926 19927 0
-4950 -19926 0
-4982 19928 0
-19927 19928 0
-4982 -19927 0
-5076 19929 0
-19928 19929 0
-5076 -19928 0
-5108 19930 0
-19929 19930 0
-5108 -19929 0
-5179 19931 0
-19930 19931 0
-5179 -19930 0
-5274 19932 0
-19931 19932 0
-5274 -19931 0
-5307 19933 0
-19932 19933 0
-5307 -19932 0
-5400 -19933 0
58 121 184 488 549 609 669 1180 1240 1296 1352 1632 1688 1744 1800 1844 1889 1937 1985 2220 2269 2317 2365 2808 2859 2907 2955 3188 3239 3287 3335 3380 3425 3457 3489 3644 3677 3709 3741 4040 4075 4107 4139 4292 4327 4359 4391 4404 4433 4465 4497 4652 4685 4717 4749 5048 5083 5115 5147 5300 5335 5367 5399 0
-58 19934 0
-121 19935 0
-19934 19935 0
-121 -19934 0
-184 19936 0
-19935 19936 0
-184 -19935 0
-488 19937 0
-19936 19937 0
-488 -19936 0
-549 19938 0
-19937 19938 0
-549 -19937 0
-609 19939 0
-19938 19939 0
-609 -19938 0
-669 19940 0
-19939 19940 0
-669 -19939 0
-1180 19941 0
-19940 19941 0
-1180 -19940 0
-1240 19942 0
-19941 19942 0
-1240 -19941 0
-1296 19943 0
-19942 19943 0
-1296 -19942 0
-1352 19944 0
-19943 19944 0
-1352 -19943 0
-1632 19945 0
-19944 19945 0
-1632 -19944 0
-1688 19946 0
-19945 19946 0
-1688 -19945 0
-1744 19947 0
-19946 19947 0
-1744 -19946 0
-1800 19948 0
-19947 19948 0
-1800 -19947 0
-1844 19949 0
-19948 19949 0
-1844 -19948 0
-1889 19950 0
-19949 19950 0
-1889 -19949 0
-1937 19951 0
-19950 19951 0
-1937 -19950 0
-1985 19952 0
-19951 19952 0
-1985 -19951 0
-2220 19953 0
-19952 19953 0
-2220 -19952 0
-2269 19954 0
-19953 19954 0
-2269 -19953 0
-2317 19955 0
-19954 19955 0
-2317 -19954 0
-2365 19956 0
-19955 19956 0
-2365 -19955 0
-2808 19957 0
-19956 19957 0
-2808 -19956 0
-2859 19958 0
-19957 19958 0
-2859 -19957 0
-2907 19959 0
-19958 19959 0
-2907 -19958 0
-2955 19960 0
-19959 19960 0
-2955 -19959 0
-3188 19961 0
-19960 19961 0
-3188 -19960 0
-3239 19962 0
-19961 19962 0
-3239 -19961 0
-3287 19963 0
-19962 19963 0
-3287 -19962 0
-3335 19964 0
-19963 19964 0
-3335 -19963 0
-3380 19965 0
-19964 19965 0
-3380 -19964 0
-3425 19966 0
-19965 19966 0
-3425 -19965 0
-3457 19967 0
-19966 19967 0
-3457 -19966 0
-3489 19968 0
-19967 19968 0
-3489 -19967 0
-3644 19969 0
-19968 19969 0
-3644 -19968 0
-3677 19970 0
-19969 19970 0
-3677 -19969 0
-3709 19971 0
-19970 19971 0
-3709 -19970 0
-3741 19972 0
-19971 19972 0
-3741 -19971 0
-4040 19973 0
-19972 19973 0
-4040 -19972 0
-4075 19974 0
-19973 19974 0
-4075 -19973 0
-4107 19975 0
-19974 19975 0
-4107 -19974 0
-4139 19976 0
-19975 19976 0
-4139 -19975 0
-4292 19977 0
-19976 19977 0
-4292 -19976 0
-4327 19978 0
-19977 19978 0
-4327 -19977 0
-4359 19979 0
-19978 19979 0
-4359 -19978 0
-4391 19980 0
-19979 19980 0
-4391 -19979 0
-4404 19981 0
-19980 19981 0
-4404 -19980 0
-4433 19982 0
-19981 19982 0
-4433 -19981 0
-4465 19983 0
-19982 19983 0
-4465 -19982 0
-4497 19984 0
-19983 19984 0
-4497 -19983 0
-4652 19985 0
-19984 19985 0
-4652 -19984 0
-4685 19986 0
-19985 19986 0
-4685 -19985 0
-4717 19987 0
-19986 19987 0
-4717 -19986 0
-4749 19988 0
-19987 19988 0
-4749 -19987 0
-5048 19989 0
-19988 19989 0
-5048 -19988 0
-5083 19990 0
-19989 19990 0
-5083 -19989 0
-5115 19991 0
-19990 19991 0
-5115 -19990 0
-5147 19992 0
-19991 19992 0
-5147 -19991 0
-5300 19993 0
-19992 19993 0
-5300 -19992 0
-5335 19994 0
-19993 19994 0
-5335 -19993 0
-5367 19995 0
-19994 19995 0
-5367 -19994 0
-5399 -19995 0
58 368 430 489 548 851 911 1072 1128 1181 1241 1520 1576 1633 1689 1845 1888 2131 2179 2221 2268 2511 2559 2713 2761 2809 2858 3093 3141 3189 3238 3381 3424 3587 3619 3645 3676 3839 3871 3977 4009 4041 4074 4229 4261 4293 4326 4405 4432 4595 4627 4653 4684 4847 4879 4985 5017 5049 5082 5237 5269 5301 5334 0
-58 19996 0
-368 19997 0
-19996 19997 0
-368 -19996 0
-430 19998 0
-19997 19998 0
-430 -19997 0
-489 19999 0
-19998 19999 0
-489 -19998 0
-548 20000 0
-19999 20000 0
-548 -19999 0
-851 20001 0
-20000 20001 0
-851 -20000 0
-911 20002 0
-20001 20002 0
-911 -20001 0
-1072 20003 0
-20002 20003 0
-1072 -20002 0
-1128 20004 0
-20003 20004 0
-1128 -20003 0
-1181 20005 0
-20004 20005 0
-1181 -20004 0
-1241 20006 0
-20005 20006 0
-1241 -20005 0
-1520 20007 0
-20006 20007 0
-1520 -20006 0
-1576 20008 0
-20007 20008 0
-1576 -20007 0
-1633 20009 0
-20008 20009 0
-1633 -20008 0
-1689 20010 0
-20009 20010 0
-1689 -20009 0
-1845 20011 0
-20010 20011 0
-1845 -20010 0
-1888 20012 0
-20011 20012 0
-1888 -20011 0
-2131 20013 0
-20012 20013 0
-2131 -20012 0
-2179 20014 0
-20013 20014 0
-2179 -20013 0
-2221 20015 0
-20014 20015 0
-2221 -20014 0
-2268 20016 0
-20015 20016 0
-2268 -20015 0
-2511 20017 0
-20016 20017 0
-2511 -20016 0
-2559 20018 0
-20017 20018 0
-2559 -20017 0
-2713 20019 0
-20018 20019 0
-2713 -20018 0
-2761 20020 0
-20019 20020 0
-2761 -20019 0
-2809 20021 0
-20020 20021 0
-2809 -20020 0
-2858 20022 0
-20021 20022 0
-2858 -20021 0
-3093 20023 0
-20022 20023 0
-3093 -20022 0
-3141 20024 0
-20023 20024 0
-3141 -20023 0
-3189 20025 0
-20024 20025 0
-3189 -20024 0
-3238 20026 0
-20025 20026 0
-3238 -20025 0
-3381 20027 0
-20026 20027 0
-3381 -20026 0
-3424 20028 0
-20027 20028 0
-3424 -20027 0
-3587 20029 0
-20028 20029 0
-3587 -20028 0
-3619 20030 0
-20029 20030 0
-3619 -20029 0
-3645 20031 0
-20030 20031 0
-3645 -20030 0
-3676 20032 0
-20031 20032 0
-3676 -20031 0
-3839 20033 0
-20032 20033 0
-3839 -20032 0
-3871 20034 0
-20033 20034 0
-3871 -20033 0
-3977 20035 0
-20034 20035 0
-3977 -20034 0
-4009 20036 0
-20035 20036 0
-4009 -20035 0
-4041 20037 0
-20036 20037 0
-4041 -20036 0
-4074 20038 0
-20037 20038 0
-4074 -20037 0
-4229 20039 0
-20038 20039 0
-4229 -20038 0
-4261 20040 0
-20039 20040 0
-4261 -20039 0
-4293 20041 0
-20040 20041 0
-4293 -20040 0
-4326 20042 0
-20041 20042 0
-4326 -20041 0
-4405 20043 0
-20042 20043 0
-4405 -20042 0
-4432 20044 0
-20043 20044 0
-4432 -20043 0
-4595 20045 0
-20044 20045 0
-4595 -20044 0
-4627 20046 0
-20045 20046 0
-4627 -20045 0
-4653 20047 0
-20046 20047 0
-4653 -20046 0
-4684 20048 0
-20047 20048 0
-4684 -20047 0
-4847 20049 0
-20048 20049 0
-4847 -20048 0
-4879 20050 0
-20049 20050 0
-4879 -20049 0
-4985 20051 0
-20050 20051 0
-4985 -20050 0
-5017 20052 0
-20051 20052 0
-5017 -20051 0
-5049 20053 0
-20052 20053 0
-5049 -20052 0
-5082 20054 0
-20053 20054 0
-5082 -20053 0
-5237 20055 0
-20054 20055 0
-5237 -20054 0
-5269 20056 0
-20055 20056 0
-5269 -20055 0
-5301 20057 0
-20056 20057 0
-5301 -20056 0
-5334 -20057 0
121 306 431 490 608 791 910 1016 1129 1182 1297 1464 1577 1634 1745 1846 1936 2083 2178 2222 2316 2463 2558 2665 2760 2810 2906 3045 3140 3190 3286 3382 3456 3555 3618 3646 3708 3807 3870 3945 4008 4042 4106 4197 4260 4294 4358 4406 4464 4563 4626 4654 4716 4815 4878 4953 5016 5050 5114 5205 5268 5302 5366 0
-121 20058 0
-306 20059 0
-20058 20059 0
-306 -20058 0
-431 20060 0
-20059 20060 0
-431 -20059 0
-490 20061 0
-20060 20061 0
-490 -20060 0
-608 20062 0
-20061 20062 0
-608 -20061 0
-791 20063 0
-20062 20063 0
-791 -20062 0
-910 20064 0
-20063 20064 0
-910 -20063 0
-1016 20065 0
-20064 20065 0
-1016 -20064 0
-1129 20066 0
-20065 20066 0
-1129 -20065 0
-1182 20067 0
-20066 20067 0
-1182 -20066 0
-1297 20068 0
-20067 20068 0
-1297 -20067 0
-1464 20069 0
-20068 20069 0
-1464 -20068 0
-1577 20070 0
-20069 20070 0
-1577 -20069 0
-1634 20071 0
-20070 20071 0
-1634 -20070 0
-1745 20072 0
-20071 20072 0
-1745 -20071 0
-1846 20073 0
-20072 20073 0
-1846 -20072 0
-1936 20074 0
-20073 20074 0
-1936 -20073 0
-2083 20075 0
-20074 20075 0
-2083 -20074 0
-2178 20076 0
-20075 20076 0
-2178 -20075 0
-2222 20077 0
-20076 20077 0
-2222 -20076 0
-2316 20078 0
-20077 20078 0
-2316 -20077 0
-2463 20079 0
-20078 20079 0
-2463 -20078 0
-2558 20080 0
-20079 20080 0
-2558 -20079 0
-2665 20081 0
-20080 20081 0
-2665 -20080 0
-2760 20082 0
-20081 20082 0
-2760 -20081 0
-2810 20083 0
-20082 20083 0
-2810 -20082 0
-2906 20084 0
-20083 20084 0
-2906 -20083 0
-3045 20085 0
-20084 20085 0
-3045 -20084 0
-3140 20086 0
-20085 20086 0
-3140 -20085 0
-3190 20087 0
-20086 20087 0
-3190 -20086 0
-3286 20088 0
-20087 20088 0
-3286 -20087 0
-3382 20089 0
-20088 20089 0
-3382 -20088 0
-3456 20090 0
-20089 20090 0
-3456 -20089 0
-3555 20091 0
-20090 20091 0
-3555 -20090 0
-3618 20092 0
-20091 20092 0
-3618 -20091 0
-3646 20093 0
-20092 20093 0
-3646 -20092 0
-3708 20094 0
-20093 20094 0
-3708 -20093 0
-3807 20095 0
-20094 20095 0
-3807 -20094 0
-3870 20096 0
-20095 20096 0
-3870 -20095 0
-3945 20097 0
-20096 20097 0
-3945 -20096 0
-4008 20098 0
-20097 20098 0
-4008 -20097 0
-4042 20099 0
-20098 20099 0
-4042 -20098 0
-4106 20100 0
-20099 20100 0
-4106 -20099 0
-4197 20101 0
-20100 20101 0
-4197 -20100 0
-4260 20102 0
-20101 20102 0
-4260 -20101 0
-4294 20103 0
-20102 20103 0
-4294 -20102 0
-4358 20104 0
-20103 20104 0
-4358 -20103 0
-4406 20105 0
-20104 20105 0
-4406 -20104 0
-4464 20106 0
-20105 20106 0
-4464 -20105 0
-4563 20107 0
-20106 20107 0
-4563 -20106 0
-4626 20108 0
-20107 20108 0
-4626 -20107 0
-4654 20109 0
-20108 20109 0
-4654 -20108 0
-4716 20110 0
-20109 20110 0
-4716 -20109 0
-4815 20111 0
-20110 20111 0
-4815 -20110 0
-4878 20112 0
-20111 20112 0
-4878 -20111 0
-4953 20113 0
-20112 20113 0
-4953 -20112 0
-5016 20114 0
-20113 20114 0
-5016 -20113 0
-5050 20115 0
-20114 20115 0
-5050 -20114 0
-5114 20116 0
-20115 20116 0
-5114 -20115 0
-5205 20117 0
-20116 20117 0
-5205 -20116 0
-5268 20118 0
-20117 20118 0
-5268 -20117 0
-5302 20119 0
-20118 20119 0
-5302 -20118 0
-5366 -20119 0
184 307 369 491 668 790 850 1017 1073 1183 1353 1465 1521 1635 1801 1847 1984 2082 2130 2223 2364 2462 2510 2664 2712 2811 2954 3044 3092 3191 3334 3383 3488 3554 3586 3647 3740 3806 3838 3944 3976 4043 4138 4196 4228 4295 4390 4407 4496 4562 4594 4655 4748 4814 4846 4952 4984 5051 5146 5204 5236 5303 5398 0
-184 20120 0
-307 20121 0
-20120 20121 0
-307 -20120 0
-369 20122 0
-20121 20122 0
-369 -20121 0
-491 20123 0
-20122 20123 0
-491 -20122 0
-668 20124 0
-20123 20124 0
-668 -20123 0
-790 20125 0
-20124 20125 0
-790 -20124 0
-850 20126 0
-20125 20126 0
-850 -20125 0
-1017 20127 0
-20126 20127 0
-1017 -20126 0
-1073 20128 0
-20127 20128 0
-1073 -20127 0
-1183 20129 0
-20128 20129 0
-1183 -20128 0
-1353 20130 0
-20129 20130 0
-1353 -20129 0
-1465 20131 0
-20130 20131 0
-1465 -20130 0
-1521 20132 0
-20131 20132 0
-1521 -20131 0
-1635 20133 0
-20132 20133 0
-1635 -20132 0
-1801 20134 0
-20133 20134 0
-1801 -20133 0
-1847 20135 0
-20134 20135 0
-1847 -20134 0
-1984 20136 0
-20135 20136 0
-1984 -20135 0
-2082 20137 0
-20136 20137 0
-2082 -20136 0
-2130 20138 0
-20137 20138 0
-2130 -20137 0
-2223 20139 0
-20138 20139 0
-2223 -20138 0
-2364 20140 0
-20139 20140 0
-2364 -20139 0
-2462 20141 0
-20140 20141 0
-2462 -20140 0
-2510 20142 0
-20141 20142 0
-2510 -20141 0
-2664 20143 0
-20142 20143 0
-2664 -20142 0
-2712 20144 0
-20143 20144 0
-2712 -20143 0
-2811 20145 0
-20144 20145 0
-2811 -20144 0
-2954 20146 0
-20145 20146 0
-2954 -20145 0
-3044 20147 0
-20146 20147 0
-3044 -20146 0
-3092 20148 0
-20147 20148 0
-3092 -20147 0
-3191 20149 0
-20148 20149 0
-3191 -20148 0
-3334 20150 0
-20149 20150 0
-3334 -20149 0
-3383 20151 0
-20150 20151 0
-3383 -20150 0
-3488 20152 0
-20151 20152 0
-3488 -20151 0
-3554 20153 0
-20152 20153 0
-3554 -20152 0
-3586 20154 0
-20153 20154 0
-3586 -20153 0
-3647 20155 0
-20154 20155 0
-3647 -20154 0
-3740 20156 0
-20155 20156 0
-3740 -20155 0
-3806 20157 0
-20156 20157 0
-3806 -20156 0
-3838 20158 0
-20157 20158 0
-3838 -20157 0
-3944 20159 0
-20158 20159 0
-3944 -20158 0
-3976 20160 0
-20159 20160 0
-3976 -20159 0
-4043 20161 0
-20160 20161 0
-4043 -20160 0
-4138 20162 0
-20161 20162 0
-4138 -20161 0
-4196 20163 0
-20162 20163 0
-4196 -20162 0
-4228 20164 0
-20163 20164 0
-4228 -20163 0
-4295 20165 0
-20164 20165 0
-4295 -20164 0
-4390 20166 0
-20165 20166 0
-4390 -20165 0
-4407 20167 0
-20166 20167 0
-4407 -20166 0
-4496 20168 0
-20167 20168 0
-4496 -20167 0
-4562 20169 0
-20168 20169 0
-4562 -20168 0
-4594 20170 0
-20169 20170 0
-4594 -20169 0
-4655 20171 0
-20170 20171 0
-4655 -20170 0
-4748 20172 0
-20171 20172 0
-4748 -20171 0
-4814 20173 0
-20172 20173 0
-4814 -20172 0
-4846 20174 0
-20173 20174 0
-4846 -20173 0
-4952 20175 0
-20174 20175 0
-4952 -20174 0
-4984 20176 0
-20175 20176 0
-4984 -20175 0
-5051 20177 0
-20176 20177 0
-5051 -20176 0
-5146 20178 0
-20177 20178 0
-5146 -20177 0
-5204 20179 0
-20178 20179 0
-5204 -20178 0
-5236 20180 0
-20179 20180 0
-5236 -20179 0
-5303 20181 0
-20180 20181 0
-5303 -20180 0
-5398 -20181 0
59 122 185 728 789 849 909 1184 1242 1298 1354 1408 1466 1522 1578 1848 1891 1939 1987 2412 2461 2509 2557 2804 2857 2905 2953 2996 3047 3095 3143 3384 3427 3459 3491 3772 3805 3837 3869 4036 4073 4105 4137 4164 4199 4231 4263 4408 4435 4467 4499 4780 4813 4845 4877 5044 5081 5113 5145 5172 5207 5239 5271 0
-59 20182 0
-122 20183 0
-20182 20183 0
-122 -20182 0
-185 20184 0
-20183 20184 0
-185 -20183 0
-728 20185 0
-20184 20185 0
-728 -20184 0
-789 20186 0
-20185 20186 0
-789 -20185 0
-849 20187 0
-20186 20187 0
-849 -20186 0
-909 20188 0
-20187 20188 0
-909 -20187 0
-1184 20189 0
-20188 20189 0
-1184 -20188 0
-1242 20190 0
-20189 20190 0
-1242 -20189 0
-1298 20191 0
-20190 20191 0
-1298 -20190 0
-1354 20192 0
-20191 20192 0
-1354 -20191 0
-1408 20193 0
-20192 20193 0
-1408 -20192 0
-1466 20194 0
-20193 20194 0
-1466 -20193 0
-1522 20195 0
-20194 20195 0
-1522 -20194 0
-1578 20196 0
-20195 20196 0
-1578 -20195 0
-1848 20197 0
-20196 20197 0
-1848 -20196 0
-1891 20198 0
-20197 20198 0
-1891 -20197 0
-1939 20199 0
-20198 20199 0
-1939 -20198 0
-1987 20200 0
-20199 20200 0
-1987 -20199 0
-2412 20201 0
-20200 20201 0
-2412 -20200 0
-2461 20202 0
-20201 20202 0
-2461 -20201 0
-2509 20203 0
-20202 20203 0
-2509 -20202 0
-2557 20204 0
-20203 20204 0
-2557 -20203 0
-2804 20205 0
-20204 20205 0
-2804 -20204 0
-2857 20206 0
-20205 20206 0
-2857 -20205 0
-2905 20207 0
-20206 20207 0
-2905 -20206 0
-2953 20208 0
-20207 20208 0
-2953 -20207 0
-2996 20209 0
-20208 20209 0
-2996 -20208 0
-3047 20210 0
-20209 20210 0
-3047 -20209 0
-3095 20211 0
-20210 20211 0
-3095 -20210 0
-3143 20212 0
-20211 20212 0
-3143 -20211 0
-3384 20213 0
-20212 20213 0
-3384 -20212 0
-3427 20214 0
-20213 20214 0
-3427 -20213 0
-3459 20215 0
-20214 20215 0
-3459 -20214 0
-3491 20216 0
-20215 20216 0
-3491 -20215 0
-3772 20217 0
-20216 20217 0
-3772 -20216 0
-3805 20218 0
-20217 20218 0
-3805 -20217 0
-3837 20219 0
-20218 20219 0
-3837 -20218 0
-3869 20220 0
-20219 20220 0
-3869 -20219 0
-4036 20221 0
-20220 20221 0
-4036 -20220 0
-4073 20222 0
-20221 20222 0
-4073 -20221 0
-4105 20223 0
-20222 20223 0
-4105 -20222 0
-4137 20224 0
-20223 20224 0
-4137 -20223 0
-4164 20225 0
-20224 20225 0
-4164 -20224 0
-4199 20226 0
-20225 20226 0
-4199 -20225 0
-4231 20227 0
-20226 20227 0
-4231 -20226 0
-4263 20228 0
-20227 20228 0
-4263 -20227 0
-4408 20229 0
-20228 20229 0
-4408 -20228 0
-4435 20230 0
-20229 20230 0
-4435 -20229 0
-4467 20231 0
-20230 20231 0
-4467 -20230 0
-4499 20232 0
-20231 20232 0
-4499 -20231 0
-4780 20233 0
-20232 20233 0
-4780 -20232 0
-4813 20234 0
-20233 20234 0
-4813 -20233 0
-4845 20235 0
-20234 20235 0
-4845 -20234 0
-4877 20236 0
-20235 20236 0
-4877 -20235 0
-5044 20237 0
-20236 20237 0
-5044 -20236 0
-5081 20238 0
-20237 20238 0
-5081 -20237 0
-5113 20239 0
-20238 20239 0
-5113 -20238 0
-5145 20240 0
-20239 20240 0
-5145 -20239 0
-5172 20241 0
-20240 20241 0
-5172 -20240 0
-5207 20242 0
-20241 20242 0
-5207 -20241 0
-5239 20243 0
-20242 20243 0
-5239 -20242 0
-5271 -20243 0
59 369 431 611 671 729 788 1074 1130 1185 1243 1409 1467 1746 1802 1849 1890 2129 2177 2319 2367 2413 2460 2715 2763 2805 2856 2997 3046 3285 3333 3385 3426 3585 3617 3711 3743 3773 3804 3979 4011 4037 4072 4165 4198 4357 4389 4409 4434 4593 4625 4719 4751 4781 4812 4987 5019 5045 5080 5173 5206 5365 5397 0
-59 20244 0
-369 20245 0
-20244 20245 0
-369 -20244 0
-431 20246 0
-20245 20246 0
-431 -20245 0
-611 20247 0
-20246 20247 0
-611 -20246 0
-671 20248 0
-20247 20248 0
-671 -20247 0
-729 20249 0
-20248 20249 0
-729 -20248 0
-788 20250 0
-20249 20250 0
-788 -20249 0
-1074 20251 0
-20250 20251 0
-1074 -20250 0
-1130 20252 0
-20251 20252 0
-1130 -20251 0
-1185 20253 0
-20252 20253 0
-1185 -20252 0
-1243 20254 0
-20253 20254 0
-1243 -20253 0
-1409 20255 0
-20254 20255 0
-1409 -20254 0
-1467 20256 0
-20255 20256 0
-1467 -20255 0
-1746 20257 0
-20256 20257 0
-1746 -20256 0
-1802 20258 0
-20257 20258 0
-1802 -20257 0
-1849 20259 0
-20258 20259 0
-1849 -20258 0
-1890 20260 0
-20259 20260 0
-1890 -20259 0
-2129 20261 0
-20260 20261 0
-2129 -20260 0
-2177 20262 0
-20261 20262 0
-2177 -20261 0
-2319 20263 0
-20262 20263 0
-2319 -20262 0
-2367 20264 0
-20263 20264 0
-2367 -20263 0
-2413 20265 0
-20264 20265 0
-2413 -20264 0
-2460 20266 0
-20265 20266 0
-2460 -20265 0
-2715 20267 0
-20266 20267 0
-2715 -20266 0
-2763 20268 0
-20267 20268 0
-2763 -20267 0
-2805 20269 0
-20268 20269 0
-2805 -20268 0
-2856 20270 0
-20269 20270 0
-2856 -20269 0
-2997 20271 0
-20270 20271 0
-2997 -20270 0
-3046 20272 0
-20271 20272 0
-3046 -20271 0
-3285 20273 0
-20272 20273 0
-3285 -20272 0
-3333 20274 0
-20273 20274 0
-3333 -20273 0
-3385 20275 0
-20274 20275 0
-3385 -20274 0
-3426 20276 0
-20275 20276 0
-3426 -20275 0
-3585 20277 0
-20276 20277 0
-3585 -20276 0
-3617 20278 0
-20277 20278 0
-3617 -20277 0
-3711 20279 0
-20278 20279 0
-3711 -20278 0
-3743 20280 0
-20279 20280 0
-3743 -20279 0
-3773 20281 0
-20280 20281 0
-3773 -20280 0
-3804 20282 0
-20281 20282 0
-3804 -20281 0
-3979 20283 0
-20282 20283 0
-3979 -20282 0
-4011 20284 0
-20283 20284 0
-4011 -20283 0
-4037 20285 0
-20284 20285 0
-4037 -20284 0
-4072 20286 0
-20285 20286 0
-4072 -20285 0
-4165 20287 0
-20286 20287 0
-4165 -20286 0
-4198 20288 0
-20287 20288 0
-4198 -20287 0
-4357 20289 0
-20288 20289 0
-4357 -20288 0
-4389 20290 0
-20289 20290 0
-4389 -20289 0
-4409 20291 0
-20290 20291 0
-4409 -20290 0
-4434 20292 0
-20291 20292 0
-4434 -20291 0
-4593 20293 0
-20292 20293 0
-4593 -20292 0
-4625 20294 0
-20293 20294 0
-4625 -20293 0
-4719 20295 0
-20294 20295 0
-4719 -20294 0
-4751 20296 0
-20295 20296 0
-4751 -20295 0
-4781 20297 0
-20296 20297 0
-4781 -20296 0
-4812 20298 0
-20297 20298 0
-4812 -20297 0
-4987 20299 0
-20298 20299 0
-4987 -20298 0
-5019 20300 0
-20299 20300 0
-5019 -20299 0
-5045 20301 0
-20300 20301 0
-5045 -20300 0
-5080 20302 0
-20301 20302 0
-5080 -20301 0
-5173 20303 0
-20302 20303 0
-5173 -20302 0
-5206 20304 0
-20303 20304 0
-5206 -20303 0
-5365 20305 0
-20304 20305 0
-5365 -20304 0
-5397 -20305 0
122 307 430 551 670 730 848 1018 1131 1186 1299 1410 1523 1690 1803 1850 1938 2081 2176 2271 2366 2414 2508 2667 2762 2806 2904 2998 3094 3237 3332 3386 3458 3553 3616 3679 3742 3774 3836 3947 4010 4038 4104 4166 4230 4325 4388 4410 4466 4561 4624 4687 4750 4782 4844 4955 5018 5046 5112 5174 5238 5333 5396 0
-122 20306 0
-307 20307 0
-20306 20307 0
-307 -20306 0
-430 20308 0
-20307 20308 0
-430 -20307 0
-551 20309 0
-20308 20309 0
-551 -20308 0
-670 20310 0
-20309 20310 0
-670 -20309 0
-730 20311 0
-20310 20311 0
-730 -20310 0
-848 20312 0
-20311 20312 0
-848 -20311 0
-1018 20313 0
-20312 20313 0
-1018 -20312 0
-1131 20314 0
-20313 20314 0
-1131 -20313 0
-1186 20315 0
-20314 20315 0
-1186 -20314 0
-1299 20316 0
-20315 20316 0
-1299 -20315 0
-1410 20317 0
-20316 20317 0
-1410 -20316 0
-1523 20318 0
-20317 20318 0
-1523 -20317 0
-1690 20319 0
-20318 20319 0
-1690 -20318 0
-1803 20320 0
-20319 20320 0
-1803 -20319 0
-1850 20321 0
-20320 20321 0
-1850 -20320 0
-1938 20322 0
-20321 20322 0
-1938 -20321 0
-2081 20323 0
-20322 20323 0
-2081 -20322 0
-2176 20324 0
-20323 20324 0
-2176 -20323 0
-2271 20325 0
-20324 20325 0
-2271 -20324 0
-2366 20326 0
-20325 20326 0
-2366 -20325 0
-2414 20327 0
-20326 20327 0
-2414 -20326 0
-2508 20328 0
-20327 20328 0
-2508 -20327 0
-2667 20329 0
-20328 20329 0
-2667 -20328 0
-2762 20330 0
-20329 20330 0
-2762 -20329 0
-2806 20331 0
-20330 20331 0
-2806 -20330 0
-2904 20332 0
-20331 20332 0
-2904 -20331 0
-2998 20333 0
-20332 20333 0
-2998 -20332 0
-3094 20334 0
-20333 20334 0
-3094 -20333 0
-3237 20335 0
-20334 20335 0
-3237 -20334 0
-3332 20336 0
-20335 20336 0
-3332 -20335 0
-3386 20337 0
-20336 20337 0
-3386 -20336 0
-3458 20338 0
-20337 20338 0
-3458 -20337 0
-3553 20339 0
-20338 20339 0
-3553 -20338 0
-3616 20340 0
-20339 20340 0
-3616 -20339 0
-3679 20341 0
-20340 20341 0
-3679 -20340 0
-3742 20342 0
-20341 20342 0
-3742 -20341 0
-3774 20343 0
-20342 20343 0
-3774 -20342 0
-3836 20344 0
-20343 20344 0
-3836 -20343 0
-3947 20345 0
-20344 20345 0
-3947 -20344 0
-4010 20346 0
-20345 20346 0
-4010 -20345 0
-4038 20347 0
-20346 20347 0
-4038 -20346 0
-4104 20348 0
-20347 20348 0
-4104 -20347 0
-4166 20349 0
-20348 20349 0
-4166 -20348 0
-4230 20350 0
-20349 20350 0
-4230 -20349 0
-4325 20351 0
-20350 20351 0
-4325 -20350 0
-4388 20352 0
-20351 20352 0
-4388 -20351 0
-4410 20353 0
-20352 20353 0
-4410 -20352 0
-4466 20354 0
-20353 20354 0
-4466 -20353 0
-4561 20355 0
-20354 20355 0
-4561 -20354 0
-4624 20356 0
-20355 20356 0
-4624 -20355 0
-4687 20357 0
-20356 20357 0
-4687 -20356 0
-4750 20358 0
-20357 20358 0
-4750 -20357 0
-4782 20359 0
-20358 20359 0
-4782 -20358 0
-4844 20360 0
-20359 20360 0
-4844 -20359 0
-4955 20361 0
-20360 20361 0
-4955 -20360 0
-5018 20362 0
-20361 20362 0
-5018 -20361 0
-5046 20363 0
-20362 20363 0
-5046 -20362 0
-5112 20364 0
-20363 20364 0
-5112 -20363 0
-5174 20365 0
-20364 20365 0
-5174 -20364 0
-5238 20366 0
-20365 20366 0
-5238 -20365 0
-5333 20367 0
-20366 20367 0
-5333 -20366 0
-5396 -20367 0
185 306 368 550 610 731 908 1019 1075 1187 1355 1411 1579 1691 1747 1851 1986 2080 2128 2270 2318 2415 2556 2666 2714 2807 2952 2999 3142 3236 3284 3387 3490 3552 3584 3678 3710 3775 3868 3946 3978 4039 4136 4167 4262 4324 4356 4411 4498 4560 4592 4686 4718 4783 4876 4954 4986 5047 5144 5175 5270 5332 5364 0
-185 20368 0
-306 20369 0
-20368 20369 0
-306 -20368 0
-368 20370 0
-20369 20370 0
-368 -20369 0
-550 20371 0
-20370 20371 0
-550 -20370 0
-610 20372 0
-20371 20372 0
-610 -20371 0
-731 20373 0
-20372 20373 0
-731 -20372 0
-908 20374 0
-20373 20374 0
-908 -20373 0
-1019 20375 0
-20374 20375 0
-1019 -20374 0
-1075 20376 0
-20375 20376 0
-1075 -20375 0
-1187 20377 0
-20376 20377 0
-1187 -20376 0
-1355 20378 0
-20377 20378 0
-1355 -20377 0
-1411 20379 0
-20378 20379 0
-1411 -20378 0
-1579 20380 0
-20379 20380 0
-1579 -20379 0
-1691 20381 0
-20380 20381 0
-1691 -20380 0
-1747 20382 0
-20381 20382 0
-1747 -20381 0
-1851 20383 0
-20382 20383 0
-1851 -20382 0
-1986 20384 0
-20383 20384 0
-1986 -20383 0
-2080 20385 0
-20384 20385 0
-2080 -20384 0
-2128 20386 0
-20385 20386 0
-2128 -20385 0
-2270 20387 0
-20386 20387 0
-2270 -20386 0
-2318 20388 0
-20387 20388 0
-2318 -20387 0
-2415 20389 0
-20388 20389 0
-2415 -20388 0
-2556 20390 0
-20389 20390 0
-2556 -20389 0
-2666 20391 0
-20390 20391 0
-2666 -20390 0
-2714 20392 0
-20391 20392 0
-2714 -20391 0
-2807 20393 0
-20392 20393 0
-2807 -20392 0
-2952 20394 0
-20393 20394 0
-2952 -20393 0
-2999 20395 0
-20394 20395 0
-2999 -20394 0
-3142 20396 0
-20395 20396 0
-3142 -20395 0
-3236 20397 0
-20396 20397 0
-3236 -20396 0
-3284 20398 0
-20397 20398 0
-3284 -20397 0
-3387 20399 0
-20398 20399 0
-3387 -20398 0
-3490 20400 0
-20399 20400 0
-3490 -20399 0
-3552 20401 0
-20400 20401 0
-3552 -20400 0
-3584 20402 0
-20401 20402 0
-3584 -20401 0
-3678 20403 0
-20402 20403 0
-3678 -20402 0
-3710 20404 0
-20403 20404 0
-3710 -20403 0
-3775 20405 0
-20404 20405 0
-3775 -20404 0
-3868 20406 0
-20405 20406 0
-3868 -20405 0
-3946 20407 0
-20406 20407 0
-3946 -20406 0
-3978 20408 0
-20407 20408 0
-3978 -20407 0
-4039 20409 0
-20408 20409 0
-4039 -20408 0
-4136 20410 0
-20409 20410 0
-4136 -20409 0
-4167 20411 0
-20410 20411 0
-4167 -20410 0
-4262 20412 0
-20411 20412 0
-4262 -20411 0
-4324 20413 0
-20412 20413 0
-4324 -20412 0
-4356 20414 0
-20413 20414 0
-4356 -20413 0
-4411 20415 0
-20414 20415 0
-4411 -20414 0
-4498 20416 0
-20415 20416 0
-4498 -20415 0
-4560 20417 0
-20416 20417 0
-4560 -20416 0
-4592 20418 0
-20417 20418 0
-4592 -20417 0
-4686 20419 0
-20418 20419 0
-4686 -20418 0
-4718 20420 0
-20419 20420 0
-4718 -20419 0
-4783 20421 0
-20420 20421 0
-4783 -20420 0
-4876 20422 0
-20421 20422 0
-4876 -20421 0
-4954 20423 0
-20422 20423 0
-4954 -20422 0
-4986 20424 0
-20423 20424 0
-4986 -20423 0
-5047 20425 0
-20424 20425 0
-5047 -20424 0
-5144 20426 0
-20425 20426 0
-5144 -20425 0
-5175 20427 0
-20426 20427 0
-5175 -20426 0
-5270 20428 0
-20427 20428 0
-5270 -20427 0
-5332 20429 0
-20428 20429 0
-5332 -20428 0
-5364 -20429 0
60 123 186 246 308 370 432 492 552 612 672 732 792 852 912 2604 2653 2701 2749 2800 2847 2895 2943 2992 3041 3089 3137 3184 3235 3283 3331 3388 3429 3461 3493 3528 3559 3591 3623 3656 3689 3721 3753 3784 3819 3851 3883 4908 4941 4973 5005 5040 5071 5103 5135 5168 5201 5233 5265 5296 5331 5363 5395 0
-60 20430 0
-123 20431 0
-20430 20431 0
-123 -20430 0
-186 20432 0
-20431 20432 0
-186 -20431 0
-246 20433 0
-20432 20433 0
-246 -20432 0
-308 20434 0
-20433 20434 0
-308 -20433 0
-370 20435 0
-20434 20435 0
-370 -20434 0
-432 20436 0
-20435 20436 0
-432 -20435 0
-492 20437 0
-20436 20437 0
-492 -20436 0
-552 20438 0
-20437 20438 0
-552 -20437 0
-612 20439 0
-20438 20439 0
-612 -20438 0
-672 20440 0
-20439 20440 0
-672 -20439 0
-732 20441 0
-20440 20441 0
-732 -20440 0
-792 20442 0
-20441 20442 0
-792 -20441 0
-852 20443 0
-20442 20443 0
-852 -20442 0
-912 20444 0
-20443 20444 0
-912 -20443 0
-2604 20445 0
-20444 20445 0
-2604 -20444 0
-2653 20446 0
-20445 20446 0
-2653 -20445 0
-2701 20447 0
-20446 20447 0
-2701 -20446 0
-2749 20448 0
-20447 20448 0
-2749 -20447 0
-2800 20449 0
-20448 20449 0
-2800 -20448 0
-2847 20450 0
-20449 20450 0
-2847 -20449 0
-2895 20451 0
-20450 20451 0
-2895 -20450 0
-2943 20452 0
-20451 20452 0
-2943 -20451 0
-2992 20453 0
-20452 20453 0
-2992 -20452 0
-3041 20454 0
-20453 20454 0
-3041 -20453 0
-3089 20455 0
-20454 20455 0
-3089 -20454 0
-3137 20456 0
-20455 20456 0
-3137 -20455 0
-3184 20457 0
-20456 20457 0
-3184 -20456 0
-3235 20458 0
-20457 20458 0
-3235 -20457 0
-3283 20459 0
-20458 20459 0
-3283 -20458 0
-3331 20460 0
-20459 20460 0
-3331 -20459 0
-3388 20461 0
-20460 20461 0
-3388 -20460 0
-3429 20462 0
-20461 20462 0
-3429 -20461 0
-3461 20463 0
-20462 20463 0
-3461 -20462 0
-3493 20464 0
-20463 20464 0
-3493 -20463 0
-3528 20465 0
-20464 20465 0
-3528 -20464 0
-3559 20466 0
-20465 20466 0
-3559 -20465 0
-3591 20467 0
-20466 20467 0
-3591 -20466 0
-3623 20468 0
-20467 20468 0
-3623 -20467 0
-3656 20469 0
-20468 20469 0
-3656 -20468 0
-3689 20470 0
-20469 20470 0
-3689 -20469 0
-3721 20471 0
-20470 20471 0
-3721 -20470 0
-3753 20472 0
-20471 20472 0
-3753 -20471 0
-3784 20473 0
-20472 20473 0
-3784 -20472 0
-3819 20474 0
-20473 20474 0
-3819 -20473 0
-3851 20475 0
-20474 20475 0
-3851 -20474 0
-3883 20476 0
-20475 20476 0
-3883 -20475 0
-4908 20477 0
-20476 20477 0
-4908 -20476 0
-4941 20478 0
-20477 20478 0
-4941 -20477 0
-4973 20479 0
-20478 20479 0
-4973 -20478 0
-5005 20480 0
-20479 20480 0
-5005 -20479 0
-5040 20481 0
-20480 20481 0
-5040 -20480 0
-5071 20482 0
-20481 20482 0
-5071 -20481 0
-5103 20483 0
-20482 20483 0
-5103 -20482 0
-5135 20484 0
-20483 20484 0
-5135 -20483 0
-5168 20485 0
-20484 20485 0
-5168 -20484 0
-5201 20486 0
-20485 20486 0
-5201 -20485 0
-5233 20487 0
-20486 20487 0
-5233 -20486 0
-5265 20488 0
-20487 20488 0
-5265 -20487 0
-5296 20489 0
-20488 20489 0
-5296 -20488 0
-5331 20490 0
-20489 20490 0
-5331 -20489 0
-5363 20491 0
-20490 20491 0
-5363 -20490 0
-5395 -20491 0
60 247 309 493 553 733 793 1069 1125 1295 1351 1521 1577 1747 1803 1941 1989 2135 2183 2329 2377 2523 2571 2605 2652 2801 2846 2993 3040 3185 3234 3389 3428 3529 3558 3657 3688 3785 3818 3965 3997 4095 4127 4225 4257 4355 4387 4469 4501 4599 4631 4729 4761 4859 4891 4909 4940 5041 5070 5169 5200 5297 5330 0
-60 20492 0
-247 20493 0
-20492 20493 0
-247 -20492 0
-309 20494 0
-20493 20494 0
-309 -20493 0
-493 20495 0
-20494 20495 0
-493 -20494 0
-553 20496 0
-20495 20496 0
-553 -20495 0
-733 20497 0
-20496 20497 0
-733 -20496 0
-793 20498 0
-20497 20498 0
-793 -20497 0
-1069 20499 0
-20498 20499 0
-1069 -20498 0
-1125 20500 0
-20499 20500 0
-1125 -20499 0
-1295 20501 0
-20500 20501 0
-1295 -20500 0
-1351 20502 0
-20501 20502 0
-1351 -20501 0
-1521 20503 0
-20502 20503 0
-1521 -20502 0
-1577 20504 0
-20503 20504 0
-1577 -20503 0
-1747 20505 0
-20504 20505 0
-1747 -20504 0
-1803 20506 0
-20505 20506 0
-1803 -20505 0
-1941 20507 0
-20506 20507 0
-1941 -20506 0
-1989 20508 0
-20507 20508 0
-1989 -20507 0
-2135 20509 0
-20508 20509 0
-2135 -20508 0
-2183 20510 0
-20509 20510 0
-2183 -20509 0
-2329 20511 0
-20510 20511 0
-2329 -20510 0
-2377 20512 0
-20511 20512 0
-2377 -20511 0
-2523 20513 0
-20512 20513 0
-2523 -20512 0
-2571 20514 0
-20513 20514 0
-2571 -20513 0
-2605 20515 0
-20514 20515 0
-2605 -20514 0
-2652 20516 0
-20515 20516 0
-2652 -20515 0
-2801 20517 0
-20516 20517 0
-2801 -20516 0
-2846 20518 0
-20517 20518 0
-2846 -20517 0
-2993 20519 0
-20518 20519 0
-2993 -20518 0
-3040 20520 0
-20519 20520 0
-3040 -20519 0
-3185 20521 0
-20520 20521 0
-3185 -20520 0
-3234 20522 0
-20521 20522 0
-3234 -20521 0
-3389 20523 0
-20522 20523 0
-3389 -20522 0
-3428 20524 0
-20523 20524 0
-3428 -20523 0
-3529 20525 0
-20524 20525 0
-3529 -20524 0
-3558 20526 0
-20525 20526 0
-3558 -20525 0
-3657 20527 0
-20526 20527 0
-3657 -20526 0
-3688 20528 0
-20527 20528 0
-3688 -20527 0
-3785 20529 0
-20528 20529 0
-3785 -20528 0
-3818 20530 0
-20529 20530 0
-3818 -20529 0
-3965 20531 0
-20530 20531 0
-3965 -20530 0
-3997 20532 0
-20531 20532 0
-3997 -20531 0
-4095 20533 0
-20532 20533 0
-4095 -20532 0
-4127 20534 0
-20533 20534 0
-4127 -20533 0
-4225 20535 0
-20534 20535 0
-4225 -20534 0
-4257 20536 0
-20535 20536 0
-4257 -20535 0
-4355 20537 0
-20536 20537 0
-4355 -20536 0
-4387 20538 0
-20537 20538 0
-4387 -20537 0
-4469 20539 0
-20538 20539 0
-4469 -20538 0
-4501 20540 0
-20539 20540 0
-4501 -20539 0
-4599 20541 0
-20540 20541 0
-4599 -20540 0
-4631 20542 0
-20541 20542 0
-4631 -20541 0
-4729 20543 0
-20542 20543 0
-4729 -20542 0
-4761 20544 0
-20543 20544 0
-4761 -20543 0
-4859 20545 0
-20544 20545 0
-4859 -20544 0
-4891 20546 0
-20545 20546 0
-4891 -20545 0
-4909 20547 0
-20546 20547 0
-4909 -20546 0
-4940 20548 0
-20547 20548 0
-4940 -20547 0
-5041 20549 0
-20548 20549 0
-5041 -20548 0
-5070 20550 0
-20549 20550 0
-5070 -20549 0
-5169 20551 0
-20550 20551 0
-5169 -20550 0
-5200 20552 0
-20551 20552 0
-5200 -20551 0
-5297 20553 0
-20552 20553 0
-5297 -20552 0
-5330 -20553 0
123 248 371 494 613 734 853 1013 1124 1239 1350 1465 1576 1691 1802 1893 1988 2087 2182 2281 2376 2475 2570 2606 2700 2802 2894 2994 3088 3186 3282 3390 3460 3530 3590 3658 3720 3786 3850 3933 3996 4063 4126 4193 4256 4323 4386 4437 4500 4567 4630 4697 4760 4827 4890 4910 4972 5042 5102 5170 5232 5298 5362 0
-123 20554 0
-248 20555 0
-20554 20555 0
-248 -20554 0
-371 20556 0
-20555 20556 0
-371 -20555 0
-494 20557 0
-20556 20557 0
-494 -20556 0
-613 20558 0
-20557 20558 0
-613 -20557 0
-734 20559 0
-20558 20559 0
-734 -20558 0
-853 20560 0
-20559 20560 0
-853 -20559 0
-1013 20561 0
-20560 20561 0
-1013 -20560 0
-1124 20562 0
-20561 20562 0
-1124 -20561 0
-1239 20563 0
-20562 20563 0
-1239 -20562 0
-1350 20564 0
-20563 20564 0
-1350 -20563 0
-1465 20565 0
-20564 20565 0
-1465 -20564 0
-1576 20566 0
-20565 20566 0
-1576 -20565 0
-1691 20567 0
-20566 20567 0
-1691 -20566 0
-1802 20568 0
-20567 20568 0
-1802 -20567 0
-1893 20569 0
-20568 20569 0
-1893 -20568 0
-1988 20570 0
-20569 20570 0
-1988 -20569 0
-2087 20571 0
-20570 20571 0
-2087 -20570 0
-2182 20572 0
-20571 20572 0
-2182 -20571 0
-2281 20573 0
-20572 20573 0
-2281 -20572 0
-2376 20574 0
-20573 20574 0
-2376 -20573 0
-2475 20575 0
-20574 20575 0
-2475 -20574 0
-2570 20576 0
-20575 20576 0
-2570 -20575 0
-2606 20577 0
-20576 20577 0
-2606 -20576 0
-2700 20578 0
-20577 20578 0
-2700 -20577 0
-2802 20579 0
-20578 20579 0
-2802 -20578 0
-2894 20580 0
-20579 20580 0
-2894 -20579 0
-2994 20581 0
-20580 20581 0
-2994 -20580 0
-3088 20582 0
-20581 20582 0
-3088 -20581 0
-3186 20583 0
-20582 20583 0
-3186 -20582 0
-3282 20584 0
-20583 20584 0
-3282 -20583 0
-3390 20585 0
-20584 20585 0
-3390 -20584 0
-3460 20586 0
-20585 20586 0
-3460 -20585 0
-3530 20587 0
-20586 20587 0
-3530 -20586 0
-3590 20588 0
-20587 20588 0
-3590 -20587 0
-3658 20589 0
-20588 20589 0
-3658 -20588 0
-3720 20590 0
-20589 20590 0
-3720 -20589 0
-3786 20591 0
-20590 20591 0
-3786 -20590 0
-3850 20592 0
-20591 20592 0
-3850 -20591 0
-3933 20593 0
-20592 20593 0
-3933 -20592 0
-3996 20594 0
-20593 20594 0
-3996 -20593 0
-4063 20595 0
-20594 20595 0
-4063 -20594 0
-4126 20596 0
-20595 20596 0
-4126 -20595 0
-4193 20597 0
-20596 20597 0
-4193 -20596 0
-4256 20598 0
-20597 20598 0
-4256 -20597 0
-4323 20599 0
-20598 20599 0
-4323 -20598 0
-4386 20600 0
-20599 20600 0
-4386 -20599 0
-4437 20601 0
-20600 20601 0
-4437 -20600 0
-4500 20602 0
-20601 20602 0
-4500 -20601 0
-4567 20603 0
-20602 20603 0
-4567 -20602 0
-4630 20604 0
-20603 20604 0
-4630 -20603 0
-4697 20605 0
-20604 20605 0
-4697 -20604 0
-4760 20606 0
-20605 20606 0
-4760 -20605 0
-4827 20607 0
-20606 20607 0
-4827 -20606 0
-4890 20608 0
-20607 20608 0
-4890 -20607 0
-4910 20609 0
-20608 20609 0
-4910 -20608 0
-4972 20610 0
-20609 20610 0
-4972 -20609 0
-5042 20611 0
-20610 20611 0
-5042 -20610 0
-5102 20612 0
-20611 20612 0
-5102 -20611 0
-5170 20613 0
-20612 20613 0
-5170 -20612 0
-5232 20614 0
-20613 20614 0
-5232 -20613 0
-5298 20615 0
-20614 20615 0
-5298 -20614 0
-5362 -20615 0
186 249 433 495 673 735 913 1012 1068 1238 1294 1464 1520 1690 1746 1892 1940 2086 2134 2280 2328 2474 2522 2607 2748 2803 2942 2995 3136 3187 3330 3391 3492 3531 3622 3659 3752 3787 3882 3932 3964 4062 4094 4192 4224 4322 4354 4436 4468 4566 4598 4696 4728 4826 4858 4911 5004 5043 5134 5171 5264 5299 5394 0
-186 20616 0
-249 20617 0
-20616 20617 0
-249 -20616 0
-433 20618 0
-20617 20618 0
-433 -20617 0
-495 20619 0
-20618 20619 0
-495 -20618 0
-673 20620 0
-20619 20620 0
-673 -20619 0
-735 20621 0
-20620 20621 0
-735 -20620 0
-913 20622 0
-20621 20622 0
-913 -20621 0
-1012 20623 0
-20622 20623 0
-1012 -20622 0
-1068 20624 0
-20623 20624 0
-1068 -20623 0
-1238 20625 0
-20624 20625 0
-1238 -20624 0
-1294 20626 0
-20625 20626 0
-1294 -20625 0
-1464 20627 0
-20626 20627 0
-1464 -20626 0
-1520 20628 0
-20627 20628 0
-1520 -20627 0
-1690 20629 0
-20628 20629 0
-1690 -20628 0
-1746 20630 0
-20629 20630 0
-1746 -20629 0
-1892 20631 0
-20630 20631 0
-1892 -20630 0
-1940 20632 0
-20631 20632 0
-1940 -20631 0
-2086 20633 0
-20632 20633 0
-2086 -20632 0
-2134 20634 0
-20633 20634 0
-2134 -20633 0
-2280 20635 0
-20634 20635 0
-2280 -20634 0
-2328 20636 0
-20635 20636 0
-2328 -20635 0
-2474 20637 0
-20636 20637 0
-2474 -20636 0
-2522 20638 0
-20637 20638 0
-2522 -20637 0
-2607 20639 0
-20638 20639 0
-2607 -20638 0
-2748 20640 0
-20639 20640 0
-2748 -20639 0
-2803 20641 0
-20640 20641 0
-2803 -20640 0
-2942 20642 0
-20641 20642 0
-2942 -20641 0
-2995 20643 0
-20642 20643 0
-2995 -20642 0
-3136 20644 0
-20643 20644 0
-3136 -20643 0
-3187 20645 0
-20644 20645 0
-3187 -20644 0
-3330 20646 0
-20645 20646 0
-3330 -20645 0
-3391 20647 0
-20646 20647 0
-3391 -20646 0
-3492 20648 0
-20647 20648 0
-3492 -20647 0
-3531 20649 0
-20648 20649 0
-3531 -20648 0
-3622 20650 0
-20649 20650 0
-3622 -20649 0
-3659 20651 0
-20650 20651 0
-3659 -20650 0
-3752 20652 0
-20651 20652 0
-3752 -20651 0
-3787 20653 0
-20652 20653 0
-3787 -20652 0
-3882 20654 0
-20653 20654 0
-3882 -20653 0
-3932 20655 0
-20654 20655 0
-3932 -20654 0
-3964 20656 0
-20655 20656 0
-3964 -20655 0
-4062 20657 0
-20656 20657 0
-4062 -20656 0
-4094 20658 0
-20657 20658 0
-4094 -20657 0
-4192 20659 0
-20658 20659 0
-4192 -20658 0
-4224 20660 0
-20659 20660 0
-4224 -20659 0
-4322 20661 0
-20660 20661 0
-4322 -20660 0
-4354 20662 0
-20661 20662 0
-4354 -20661 0
-4436 20663 0
-20662 20663 0
-4436 -20662 0
-4468 20664 0
-20663 20664 0
-4468 -20663 0
-4566 20665 0
-20664 20665 0
-4566 -20664 0
-4598 20666 0
-20665 20666 0
-4598 -20665 0
-4696 20667 0
-20666 20667 0
-4696 -20666 0
-4728 20668 0
-20667 20668 0
-4728 -20667 0
-4826 20669 0
-20668 20669 0
-4826 -20668 0
-4858 20670 0
-20669 20670 0
-4858 -20669 0
-4911 20671 0
-20670 20671 0
-4911 -20670 0
-5004 20672 0
-20671 20672 0
-5004 -20671 0
-5043 20673 0
-20672 20673 0
-5043 -20672 0
-5134 20674 0
-20673 20674 0
-5134 -20673 0
-5171 20675 0
-20674 20675 0
-5171 -20674 0
-5264 20676 0
-20675 20676 0
-5264 -20675 0
-5299 20677 0
-20676 20677 0
-5299 -20676 0
-5394 -20677 0
61 124 187 246 309 371 433 1408 1467 1523 1579 1632 1689 1745 1801 2232 2283 2331 2379 2424 2473 2521 2569 2608 2655 2703 2751 2796 2845 2893 2941 3392 3431 3463 3495 3524 3557 3589 3621 4160 4195 4227 4259 4288 4321 4353 4385 4664 4699 4731 4763 4792 4825 4857 4889 4912 4943 4975 5007 5036 5069 5101 5133 0
-61 20678 0
-124 20679 0
-20678 20679 0
-124 -20678 0
-187 20680 0
-20679 20680 0
-187 -20679 0
-246 20681 0
-20680 20681 0
-246 -20680 0
-309 20682 0
-20681 20682 0
-309 -20681 0
-371 20683 0
-20682 20683 0
-371 -20682 0
-433 20684 0
-20683 20684 0
-433 -20683 0
-1408 20685 0
-20684 20685 0
-1408 -20684 0
-1467 20686 0
-20685 20686 0
-1467 -20685 0
-1523 20687 0
-20686 20687 0
-1523 -20686 0
-1579 20688 0
-20687 20688 0
-1579 -20687 0
-1632 20689 0
-20688 20689 0
-1632 -20688 0
-1689 20690 0
-20689 20690 0
-1689 -20689 0
-1745 20691 0
-20690 20691 0
-1745 -20690 0
-1801 20692 0
-20691 20692 0
-1801 -20691 0
-2232 20693 0
-20692 20693 0
-2232 -20692 0
-2283 20694 0
-20693 20694 0
-2283 -20693 0
-2331 20695 0
-20694 20695 0
-2331 -20694 0
-2379 20696 0
-20695 20696 0
-2379 -20695 0
-2424 20697 0
-20696 20697 0
-2424 -20696 0
-2473 20698 0
-20697 20698 0
-2473 -20697 0
-2521 20699 0
-20698 20699 0
-2521 -20698 0
-2569 20700 0
-20699 20700 0
-2569 -20699 0
-2608 20701 0
-20700 20701 0
-2608 -20700 0
-2655 20702 0
-20701 20702 0
-2655 -20701 0
-2703 20703 0
-20702 20703 0
-2703 -20702 0
-2751 20704 0
-20703 20704 0
-2751 -20703 0
-2796 20705 0
-20704 20705 0
-2796 -20704 0
-2845 20706 0
-20705 20706 0
-2845 -20705 0
-2893 20707 0
-20706 20707 0
-2893 -20706 0
-2941 20708 0
-20707 20708 0
-2941 -20707 0
-3392 20709 0
-20708 20709 0
-3392 -20708 0
-3431 20710 0
-20709 20710 0
-3431 -20709 0
-3463 20711 0
-20710 20711 0
-3463 -20710 0
-3495 20712 0
-20711 20712 0
-3495 -20711 0
-3524 20713 0
-20712 20713 0
-3524 -20712 0
-3557 20714 0
-20713 20714 0
-3557 -20713 0
-3589 20715 0
-20714 20715 0
-3589 -20714 0
-3621 20716 0
-20715 20716 0
-3621 -20715 0
-4160 20717 0
-20716 20717 0
-4160 -20716 0
-4195 20718 0
-20717 20718 0
-4195 -20717 0
-4227 20719 0
-20718 20719 0
-4227 -20718 0
-4259 20720 0
-20719 20720 0
-4259 -20719 0
-4288 20721 0
-20720 20721 0
-4288 -20720 0
-4321 20722 0
-20721 20722 0
-4321 -20721 0
-4353 20723 0
-20722 20723 0
-4353 -20722 0
-4385 20724 0
-20723 20724 0
-4385 -20723 0
-4664 20725 0
-20724 20725 0
-4664 -20724 0
-4699 20726 0
-20725 20726 0
-4699 -20725 0
-4731 20727 0
-20726 20727 0
-4731 -20726 0
-4763 20728 0
-20727 20728 0
-4763 -20727 0
-4792 20729 0
-20728 20729 0
-4792 -20728 0
-4825 20730 0
-20729 20730 0
-4825 -20729 0
-4857 20731 0
-20730 20731 0
-4857 -20730 0
-4889 20732 0
-20731 20732 0
-4889 -20731 0
-4912 20733 0
-20732 20733 0
-4912 -20732 0
-4943 20734 0
-20733 20734 0
-4943 -20733 0
-4975 20735 0
-20734 20735 0
-4975 -20734 0
-5007 20736 0
-20735 20736 0
-5007 -20735 0
-5036 20737 0
-20736 20737 0
-5036 -20736 0
-5069 20738 0
-20737 20738 0
-5069 -20737 0
-5101 20739 0
-20738 20739 0
-5101 -20738 0
-5133 -20739 0
61 247 308 614 674 854 914 1071 1127 1293 1349 1409 1466 1633 1688 1943 1991 2133 2181 2233 2282 2425 2472 2609 2654 2797 2844 3091 3139 3281 3329 3393 3430 3525 3556 3723 3755 3849 3881 3967 3999 4093 4125 4161 4194 4289 4320 4471 4503 4597 4629 4665 4698 4793 4824 4913 4942 5037 5068 5235 5267 5361 5393 0
-61 20740 0
-247 20741 0
-20740 20741 0
-247 -20740 0
-308 20742 0
-20741 20742 0
-308 -20741 0
-614 20743 0
-20742 20743 0
-614 -20742 0
-674 20744 0
-20743 20744 0
-674 -20743 0
-854 20745 0
-20744 20745 0
-854 -20744 0
-914 20746 0
-20745 20746 0
-914 -20745 0
-1071 20747 0
-20746 20747 0
-1071 -20746 0
-1127 20748 0
-20747 20748 0
-1127 -20747 0
-1293 20749 0
-20748 20749 0
-1293 -20748 0
-1349 20750 0
-20749 20750 0
-1349 -20749 0
-1409 20751 0
-20750 20751 0
-1409 -20750 0
-1466 20752 0
-20751 20752 0
-1466 -20751 0
-1633 20753 0
-20752 20753 0
-1633 -20752 0
-1688 20754 0
-20753 20754 0
-1688 -20753 0
-1943 20755 0
-20754 20755 0
-1943 -20754 0
-1991 20756 0
-20755 20756 0
-1991 -20755 0
-2133 20757 0
-20756 20757 0
-2133 -20756 0
-2181 20758 0
-20757 20758 0
-2181 -20757 0
-2233 20759 0
-20758 20759 0
-2233 -20758 0
-2282 20760 0
-20759 20760 0
-2282 -20759 0
-2425 20761 0
-20760 20761 0
-2425 -20760 0
-2472 20762 0
-20761 20762 0
-2472 -20761 0
-2609 20763 0
-20762 20763 0
-2609 -20762 0
-2654 20764 0
-20763 20764 0
-2654 -20763 0
-2797 20765 0
-20764 20765 0
-2797 -20764 0
-2844 20766 0
-20765 20766 0
-2844 -20765 0
-3091 20767 0
-20766 20767 0
-3091 -20766 0
-3139 20768 0
-20767 20768 0
-3139 -20767 0
-3281 20769 0
-20768 20769 0
-3281 -20768 0
-3329 20770 0
-20769 20770 0
-3329 -20769 0
-3393 20771 0
-20770 20771 0
-3393 -20770 0
-3430 20772 0
-20771 20772 0
-3430 -20771 0
-3525 20773 0
-20772 20773 0
-3525 -20772 0
-3556 20774 0
-20773 20774 0
-3556 -20773 0
-3723 20775 0
-20774 20775 0
-3723 -20774 0
-3755 20776 0
-20775 20776 0
-3755 -20775 0
-3849 20777 0
-20776 20777 0
-3849 -20776 0
-3881 20778 0
-20777 20778 0
-3881 -20777 0
-3967 20779 0
-20778 20779 0
-3967 -20778 0
-3999 20780 0
-20779 20780 0
-3999 -20779 0
-4093 20781 0
-20780 20781 0
-4093 -20780 0
-4125 20782 0
-20781 20782 0
-4125 -20781 0
-4161 20783 0
-20782 20783 0
-4161 -20782 0
-4194 20784 0
-20783 20784 0
-4194 -20783 0
-4289 20785 0
-20784 20785 0
-4289 -20784 0
-4320 20786 0
-20785 20786 0
-4320 -20785 0
-4471 20787 0
-20786 20787 0
-4471 -20786 0
-4503 20788 0
-20787 20788 0
-4503 -20787 0
-4597 20789 0
-20788 20789 0
-4597 -20788 0
-4629 20790 0
-20789 20790 0
-4629 -20789 0
-4665 20791 0
-20790 20791 0
-4665 -20790 0
-4698 20792 0
-20791 20792 0
-4698 -20791 0
-4793 20793 0
-20792 20793 0
-4793 -20792 0
-4824 20794 0
-20793 20794 0
-4824 -20793 0
-4913 20795 0
-20794 20795 0
-4913 -20794 0
-4942 20796 0
-20795 20796 0
-4942 -20795 0
-5037 20797 0
-20796 20797 0
-5037 -20796 0
-5068 20798 0
-20797 20798 0
-5068 -20797 0
-5235 20799 0
-20798 20799 0
-5235 -20798 0
-5267 20800 0
-20799 20800 0
-5267 -20799 0
-5361 20801 0
-20800 20801 0
-5361 -20800 0
-5393 -20801 0
124 248 370 554 675 794 915 1015 1126 1237 1348 1410 1522 1634 1744 1895 1990 2085 2180 2234 2330 2426 2520 2610 2702 2798 2892 3043 3138 3233 3328 3394 3462 3526 3588 3691 3754 3817 3880 3935 3998 4061 4124 4162 4226 4290 4352 4439 4502 4565 4628 4666 4730 4794 4856 4914 4974 5038 5100 5203 5266 5329 5392 0
-124 20802 0
-248 20803 0
-20802 20803 0
-248 -20802 0
-370 20804 0
-20803 20804 0
-370 -20803 0
-554 20805 0
-20804 20805 0
-554 -20804 0
-675 20806 0
-20805 20806 0
-675 -20805 0
-794 20807 0
-20806 20807 0
-794 -20806 0
-915 20808 0
-20807 20808 0
-915 -20807 0
-1015 20809 0
-20808 20809 0
-1015 -20808 0
-1126 20810 0
-20809 20810 0
-1126 -20809 0
-1237 20811 0
-20810 20811 0
-1237 -20810 0
-1348 20812 0
-20811 20812 0
-1348 -20811 0
-1410 20813 0
-20812 20813 0
-1410 -20812 0
-1522 20814 0
-20813 20814 0
-1522 -20813 0
-1634 20815 0
-20814 20815 0
-1634 -20814 0
-1744 20816 0
-20815 20816 0
-1744 -20815 0
-1895 20817 0
-20816 20817 0
-1895 -20816 0
-1990 20818 0
-20817 20818 0
-1990 -20817 0
-2085 20819 0
-20818 20819 0
-2085 -20818 0
-2180 20820 0
-20819 20820 0
-2180 -20819 0
-2234 20821 0
-20820 20821 0
-2234 -20820 0
-2330 20822 0
-20821 20822 0
-2330 -20821 0
-2426 20823 0
-20822 20823 0
-2426 -20822 0
-2520 20824 0
-20823 20824 0
-2520 -20823 0
-2610 20825 0
-20824 20825 0
-2610 -20824 0
-2702 20826 0
-20825 20826 0
-2702 -20825 0
-2798 20827 0
-20826 20827 0
-2798 -20826 0
-2892 20828 0
-20827 20828 0
-2892 -20827 0
-3043 20829 0
-20828 20829 0
-3043 -20828 0
-3138 20830 0
-20829 20830 0
-3138 -20829 0
-3233 20831 0
-20830 20831 0
-3233 -20830 0
-3328 20832 0
-20831 20832 0
-3328 -20831 0
-3394 20833 0
-20832 20833 0
-3394 -20832 0
-3462 20834 0
-20833 20834 0
-3462 -20833 0
-3526 20835 0
-20834 20835 0
-3526 -20834 0
-3588 20836 0
-20835 20836 0
-3588 -20835 0
-3691 20837 0
-20836 20837 0
-3691 -20836 0
-3754 20838 0
-20837 20838 0
-3754 -20837 0
-3817 20839 0
-20838 20839 0
-3817 -20838 0
-3880 20840 0
-20839 20840 0
-3880 -20839 0
-3935 20841 0
-20840 20841 0
-3935 -20840 0
-3998 20842 0
-20841 20842 0
-3998 -20841 0
-4061 20843 0
-20842 20843 0
-4061 -20842 0
-4124 20844 0
-20843 20844 0
-4124 -20843 0
-4162 20845 0
-20844 20845 0
-4162 -20844 0
-4226 20846 0
-20845 20846 0
-4226 -20845 0
-4290 20847 0
-20846 20847 0
-4290 -20846 0
-4352 20848 0
-20847 20848 0
-4352 -20847 0
-4439 20849 0
-20848 20849 0
-4439 -20848 0
-4502 20850 0
-20849 20850 0
-4502 -20849 0
-4565 20851 0
-20850 20851 0
-4565 -20850 0
-4628 20852 0
-20851 20852 0
-4628 -20851 0
-4666 20853 0
-20852 20853 0
-4666 -20852 0
-4730 20854 0
-20853 20854 0
-4730 -20853 0
-4794 20855 0
-20854 20855 0
-4794 -20854 0
-4856 20856 0
-20855 20856 0
-4856 -20855 0
-4914 20857 0
-20856 20857 0
-4914 -20856 0
-4974 20858 0
-20857 20858 0
-4974 -20857 0
-5038 20859 0
-20858 20859 0
-5038 -20858 0
-5100 20860 0
-20859 20860 0
-5100 -20859 0
-5203 20861 0
-20860 20861 0
-5203 -20860 0
-5266 20862 0
-20861 20862 0
-5266 -20861 0
-5329 20863 0
-20862 20863 0
-5329 -20862 0
-5392 -20863 0
187 249 432 555 615 795 855 1014 1070 1236 1292 1411 1578 1635 1800 1894 1942 2084 2132 2235 2378 2427 2568 2611 2750 2799 2940 3042 3090 3232 3280 3395 3494 3527 3620 3690 3722 3816 3848 3934 3966 4060 4092 4163 4258 4291 4384 4438 4470 4564 4596 4667 4762 4795 4888 4915 5006 5039 5132 5202 5234 5328 5360 0
-187 20864 0
-249 20865 0
-20864 20865 0
-249 -20864 0
-432 20866 0
-20865 20866 0
-432 -20865 0
-555 20867 0
-20866 20867 0
-555 -20866 0
-615 20868 0
-20867 20868 0
-615 -20867 0
-795 20869 0
-20868 20869 0
-795 -20868 0
-855 20870 0
-20869 20870 0
-855 -20869 0
-1014 20871 0
-20870 20871 0
-1014 -20870 0
-1070 20872 0
-20871 20872 0
-1070 -20871 0
-1236 20873 0
-20872 20873 0
-1236 -20872 0
-1292 20874 0
-20873 20874 0
-1292 -20873 0
-1411 20875 0
-20874 20875 0
-1411 -20874 0
-1578 20876 0
-20875 20876 0
-1578 -20875 0
-1635 20877 0
-20876 20877 0
-1635 -20876 0
-1800 20878 0
-20877 20878 0
-1800 -20877 0
-1894 20879 0
-20878 20879 0
-1894 -20878 0
-1942 20880 0
-20879 20880 0
-1942 -20879 0
-2084 20881 0
-20880 20881 0
-2084 -20880 0
-2132 20882 0
-20881 20882 0
-2132 -20881 0
-2235 20883 0
-20882 20883 0
-2235 -20882 0
-2378 20884 0
-20883 20884 0
-2378 -20883 0
-2427 20885 0
-20884 20885 0
-2427 -20884 0
-2568 20886 0
-20885 20886 0
-2568 -20885 0
-2611 20887 0
-20886 20887 0
-2611 -20886 0
-2750 20888 0
-20887 20888 0
-2750 -20887 0
-2799 20889 0
-20888 20889 0
-2799 -20888 0
-2940 20890 0
-20889 20890 0
-2940 -20889 0
-3042 20891 0
-20890 20891 0
-3042 -20890 0
-3090 20892 0
-20891 20892 0
-3090 -20891 0
-3232 20893 0
-20892 20893 0
-3232 -20892 0
-3280 20894 0
-20893 20894 0
-3280 -20893 0
-3395 20895 0
-20894 20895 0
-3395 -20894 0
-3494 20896 0
-20895 20896 0
-3494 -20895 0
-3527 20897 0
-20896 20897 0
-3527 -20896 0
-3620 20898 0
-20897 20898 0
-3620 -20897 0
-3690 20899 0
-20898 20899 0
-3690 -20898 0
-3722 20900 0
-20899 20900 0
-3722 -20899 0
-3816 20901 0
-20900 20901 0
-3816 -20900 0
-3848 20902 0
-20901 20902 0
-3848 -20901 0
-3934 20903 0
-20902 20903 0
-3934 -20902 0
-3966 20904 0
-20903 20904 0
-3966 -20903 0
-4060 20905 0
-20904 20905 0
-4060 -20904 0
-4092 20906 0
-20905 20906 0
-4092 -20905 0
-4163 20907 0
-20906 20907 0
-4163 -20906 0
-4258 20908 0
-20907 20908 0
-4258 -20907 0
-4291 20909 0
-20908 20909 0
-4291 -20908 0
-4384 20910 0
-20909 20910 0
-4384 -20909 0
-4438 20911 0
-20910 20911 0
-4438 -20910 0
-4470 20912 0
-20911 20912 0
-4470 -20911 0
-4564 20913 0
-20912 20913 0
-4564 -20912 0
-4596 20914 0
-20913 20914 0
-4596 -20913 0
-4667 20915 0
-20914 20915 0
-4667 -20914 0
-4762 20916 0
-20915 20916 0
-4762 -20915 0
-4795 20917 0
-20916 20917 0
-4795 -20916 0
-4888 20918 0
-20917 20918 0
-4888 -20917 0
-4915 20919 0
-20918 20919 0
-4915 -20918 0
-5006 20920 0
-20919 20920 0
-5006 -20919 0
-5039 20921 0
-20920 20921 0
-5039 -20920 0
-5132 20922 0
-20921 20922 0
-5132 -20921 0
-5202 20923 0
-20922 20923 0
-5202 -20922 0
-5234 20924 0
-20923 20924 0
-5234 -20923 0
-5328 20925 0
-20924 20925 0
-5328 -20924 0
-5360 -20925 0
62 125 188 492 553 613 673 1184 1243 1299 1355 1628 1687 1743 1799 2040 2091 2139 2187 2420 2471 2519 2567 2612 2657 2705 2753 2988 3037 3085 3133 3396 3433 3465 3497 3652 3685 3717 3749 4032 4067 4099 4131 4284 4319 4351 4383 4536 4571 4603 4635 4788 4823 4855 4887 4916 4945 4977 5009 5164 5197 5229 5261 0
-62 20926 0
-125 20927 0
-20926 20927 0
-125 -20926 0
-188 20928 0
-20927 20928 0
-188 -20927 0
-492 20929 0
-20928 20929 0
-492 -20928 0
-553 20930 0
-20929 20930 0
-553 -20929 0
-613 20931 0
-20930 20931 0
-613 -20930 0
-673 20932 0
-20931 20932 0
-673 -20931 0
-1184 20933 0
-20932 20933 0
-1184 -20932 0
-1243 20934 0
-20933 20934 0
-1243 -20933 0
-1299 20935 0
-20934 20935 0
-1299 -20934 0
-1355 20936 0
-20935 20936 0
-1355 -20935 0
-1628 20937 0
-20936 20937 0
-1628 -20936 0
-1687 20938 0
-20937 20938 0
-1687 -20937 0
-1743 20939 0
-20938 20939 0
-1743 -20938 0
-1799 20940 0
-20939 20940 0
-1799 -20939 0
-2040 20941 0
-20940 20941 0
-2040 -20940 0
-2091 20942 0
-20941 20942 0
-2091 -20941 0
-2139 20943 0
-20942 20943 0
-2139 -20942 0
-2187 20944 0
-20943 20944 0
-2187 -20943 0
-2420 20945 0
-20944 20945 0
-2420 -20944 0
-2471 20946 0
-20945 20946 0
-2471 -20945 0
-2519 20947 0
-20946 20947 0
-2519 -20946 0
-2567 20948 0
-20947 20948 0
-2567 -20947 0
-2612 20949 0
-20948 20949 0
-2612 -20948 0
-2657 20950 0
-20949 20950 0
-2657 -20949 0
-2705 20951 0
-20950 20951 0
-2705 -20950 0
-2753 20952 0
-20951 20952 0
-2753 -20951 0
-2988 20953 0
-20952 20953 0
-2988 -20952 0
-3037 20954 0
-20953 20954 0
-3037 -20953 0
-3085 20955 0
-20954 20955 0
-3085 -20954 0
-3133 20956 0
-20955 20956 0
-3133 -20955 0
-3396 20957 0
-20956 20957 0
-3396 -20956 0
-3433 20958 0
-20957 20958 0
-3433 -20957 0
-3465 20959 0
-20958 20959 0
-3465 -20958 0
-3497 20960 0
-20959 20960 0
-3497 -20959 0
-3652 20961 0
-20960 20961 0
-3652 -20960 0
-3685 20962 0
-20961 20962 0
-3685 -20961 0
-3717 20963 0
-20962 20963 0
-3717 -20962 0
-3749 20964 0
-20963 20964 0
-3749 -20963 0
-4032 20965 0
-20964 20965 0
-4032 -20964 0
-4067 20966 0
-20965 20966 0
-4067 -20965 0
-4099 20967 0
-20966 20967 0
-4099 -20966 0
-4131 20968 0
-20967 20968 0
-4131 -20967 0
-4284 20969 0
-20968 20969 0
-4284 -20968 0
-4319 20970 0
-20969 20970 0
-4319 -20969 0
-4351 20971 0
-20970 20971 0
-4351 -20970 0
-4383 20972 0
-20971 20972 0
-4383 -20971 0
-4536 20973 0
-20972 20973 0
-4536 -20972 0
-4571 20974 0
-20973 20974 0
-4571 -20973 0
-4603 20975 0
-20974 20975 0
-4603 -20974 0
-4635 20976 0
-20975 20976 0
-4635 -20975 0
-4788 20977 0
-20976 20977 0
-4788 -20976 0
-4823 20978 0
-20977 20978 0
-4823 -20977 0
-4855 20979 0
-20978 20979 0
-4855 -20978 0
-4887 20980 0
-20979 20980 0
-4887 -20979 0
-4916 20981 0
-20980 20981 0
-4916 -20980 0
-4945 20982 0
-20981 20982 0
-4945 -20981 0
-4977 20983 0
-20982 20983 0
-4977 -20982 0
-5009 20984 0
-20983 20984 0
-5009 -20983 0
-5164 20985 0
-20984 20985 0
-5164 -20984 0
-5197 20986 0
-20985 20986 0
-5197 -20985 0
-5229 20987 0
-20986 20987 0
-5229 -20986 0
-5261 -20987 0
62 372 434 493 552 855 915 1073 1129 1185 1242 1517 1573 1629 1686 1945 1993 2041 2090 2325 2373 2421 2470 2613 2656 2899 2947 2989 3036 3279 3327 3397 3432 3595 3627 3653 3684 3847 3879 3969 4001 4033 4066 4221 4253 4285 4318 4473 4505 4537 4570 4725 4757 4789 4822 4917 4944 5107 5139 5165 5196 5359 5391 0
-62 20988 0
-372 20989 0
-20988 20989 0
-372 -20988 0
-434 20990 0
-20989 20990 0
-434 -20989 0
-493 20991 0
-20990 20991 0
-493 -20990 0
-552 20992 0
-20991 20992 0
-552 -20991 0
-855 20993 0
-20992 20993 0
-855 -20992 0
-915 20994 0
-20993 20994 0
-915 -20993 0
-1073 20995 0
-20994 20995 0
-1073 -20994 0
-1129 20996 0
-20995 20996 0
-1129 -20995 0
-1185 20997 0
-20996 20997 0
-1185 -20996 0
-1242 20998 0
-20997 20998 0
-1242 -20997 0
-1517 20999 0
-20998 20999 0
-1517 -20998 0
-1573 21000 0
-20999 21000 0
-1573 -20999 0
-1629 21001 0
-21000 21001 0
-1629 -21000 0
-1686 21002 0
-21001 21002 0
-1686 -21001 0
-1945 21003 0
-21002 21003 0
-1945 -21002 0
-1993 21004 0
-21003 21004 0
-1993 -21003 0
-2041 21005 0
-21004 21005 0
-2041 -21004 0
-2090 21006 0
-21005 21006 0
-2090 -21005 0
-2325 21007 0
-21006 21007 0
-2325 -21006 0
-2373 21008 0
-21007 21008 0
-2373 -21007 0
-2421 21009 0
-21008 21009 0
-2421 -21008 0
-2470 21010 0
-21009 21010 0
-2470 -21009 0
-2613 21011 0
-21010 21011 0
-2613 -21010 0
-2656 21012 0
-21011 21012 0
-2656 -21011 0
-2899 21013 0
-21012 21013 0
-2899 -21012 0
-2947 21014 0
-21013 21014 0
-2947 -21013 0
-2989 21015 0
-21014 21015 0
-2989 -21014 0
-3036 21016 0
-21015 21016 0
-3036 -21015 0
-3279 21017 0
-21016 21017 0
-3279 -21016 0
-3327 21018 0
-21017 21018 0
-3327 -21017 0
-3397 21019 0
-21018 21019 0
-3397 -21018 0
-3432 21020 0
-21019 21020 0
-3432 -21019 0
-3595 21021 0
-21020 21021 0
-3595 -21020 0
-3627 21022 0
-21021 21022 0
-3627 -21021 0
-3653 21023 0
-21022 21023 0
-3653 -21022 0
-3684 21024 0
-21023 21024 0
-3684 -21023 0
-3847 21025 0
-21024 21025 0
-3847 -21024 0
-3879 21026 0
-21025 21026 0
-3879 -21025 0
-3969 21027 0
-21026 21027 0
-3969 -21026 0
-4001 21028 0
-21027 21028 0
-4001 -21027 0
-4033 21029 0
-21028 21029 0
-4033 -21028 0
-4066 21030 0
-21029 21030 0
-4066 -21029 0
-4221 21031 0
-21030 21031 0
-4221 -21030 0
-4253 21032 0
-21031 21032 0
-4253 -21031 0
-4285 21033 0
-21032 21033 0
-4285 -21032 0
-4318 21034 0
-21033 21034 0
-4318 -21033 0
-4473 21035 0
-21034 21035 0
-4473 -21034 0
-4505 21036 0
-21035 21036 0
-4505 -21035 0
-4537 21037 0
-21036 21037 0
-4537 -21036 0
-4570 21038 0
-21037 21038 0
-4570 -21037 0
-4725 21039 0
-21038 21039 0
-4725 -21038 0
-4757 21040 0
-21039 21040 0
-4757 -21039 0
-4789 21041 0
-21040 21041 0
-4789 -21040 0
-4822 21042 0
-21041 21042 0
-4822 -21041 0
-4917 21043 0
-21042 21043 0
-4917 -21042 0
-4944 21044 0
-21043 21044 0
-4944 -21043 0
-5107 21045 0
-21044 21045 0
-5107 -21044 0
-5139 21046 0
-21045 21046 0
-5139 -21045 0
-5165 21047 0
-21046 21047 0
-5165 -21046 0
-5196 21048 0
-21047 21048 0
-5196 -21047 0
-5359 21049 0
-21048 21049 0
-5359 -21048 0
-5391 -21049 0
125 310 435 494 612 795 914 1017 1128 1186 1298 1461 1572 1630 1742 1897 1992 2042 2138 2277 2372 2422 2518 2614 2704 2851 2946 2990 3084 3231 3326 3398 3464 3563 3626 3654 3716 3815 3878 3937 4000 4034 4098 4189 4252 4286 4350 4441 4504 4538 4602 4693 4756 4790 4854 4918 4976 5075 5138 5166 5228 5327 5390 0
-125 21050 0
-310 21051 0
-21050 21051 0
-310 -21050 0
-435 21052 0
-21051 21052 0
-435 -21051 0
-494 21053 0
-21052 21053 0
-494 -21052 0
-612 21054 0
-21053 21054 0
-612 -21053 0
-795 21055 0
-21054 21055 0
-795 -21054 0
-914 21056 0
-21055 21056 0
-914 -21055 0
-1017 21057 0
-21056 21057 0
-1017 -21056 0
-1128 21058 0
-21057 21058 0
-1128 -21057 0
-1186 21059 0
-21058 21059 0
-1186 -21058 0
-1298 21060 0
-21059 21060 0
-1298 -21059 0
-1461 21061 0
-21060 21061 0
-1461 -21060 0
-1572 21062 0
-21061 21062 0
-1572 -21061 0
-1630 21063 0
-21062 21063 0
-1630 -21062 0
-1742 21064 0
-21063 21064 0
-1742 -21063 0
-1897 21065 0
-21064 21065 0
-1897 -21064 0
-1992 21066 0
-21065 21066 0
-1992 -21065 0
-2042 21067 0
-21066 21067 0
-2042 -21066 0
-2138 21068 0
-21067 21068 0
-2138 -21067 0
-2277 21069 0
-21068 21069 0
-2277 -21068 0
-2372 21070 0
-21069 21070 0
-2372 -21069 0
-2422 21071 0
-21070 21071 0
-2422 -21070 0
-2518 21072 0
-21071 21072 0
-2518 -21071 0
-2614 21073 0
-21072 21073 0
-2614 -21072 0
-2704 21074 0
-21073 21074 0
-2704 -21073 0
-2851 21075 0
-21074 21075 0
-2851 -21074 0
-2946 21076 0
-21075 21076 0
-2946 -21075 0
-2990 21077 0
-21076 21077 0
-2990 -21076 0
-3084 21078 0
-21077 21078 0
-3084 -21077 0
-3231 21079 0
-21078 21079 0
-3231 -21078 0
-3326 21080 0
-21079 21080 0
-3326 -21079 0
-3398 21081 0
-21080 21081 0
-3398 -21080 0
-3464 21082 0
-21081 21082 0
-3464 -21081 0
-3563 21083 0
-21082 21083 0
-3563 -21082 0
-3626 21084 0
-21083 21084 0
-3626 -21083 0
-3654 21085 0
-21084 21085 0
-3654 -21084 0
-3716 21086 0
-21085 21086 0
-3716 -21085 0
-3815 21087 0
-21086 21087 0
-3815 -21086 0
-3878 21088 0
-21087 21088 0
-3878 -21087 0
-3937 21089 0
-21088 21089 0
-3937 -21088 0
-4000 21090 0
-21089 21090 0
-4000 -21089 0
-4034 21091 0
-21090 21091 0
-4034 -21090 0
-4098 21092 0
-21091 21092 0
-4098 -21091 0
-4189 21093 0
-21092 21093 0
-4189 -21092 0
-4252 21094 0
-21093 21094 0
-4252 -21093 0
-4286 21095 0
-21094 21095 0
-4286 -21094 0
-4350 21096 0
-21095 21096 0
-4350 -21095 0
-4441 21097 0
-21096 21097 0
-4441 -21096 0
-4504 21098 0
-21097 21098 0
-4504 -21097 0
-4538 21099 0
-21098 21099 0
-4538 -21098 0
-4602 21100 0
-21099 21100 0
-4602 -21099 0
-4693 21101 0
-21100 21101 0
-4693 -21100 0
-4756 21102 0
-21101 21102 0
-4756 -21101 0
-4790 21103 0
-21102 21103 0
-4790 -21102 0
-4854 21104 0
-21103 21104 0
-4854 -21103 0
-4918 21105 0
-21104 21105 0
-4918 -21104 0
-4976 21106 0
-21105 21106 0
-4976 -21105 0
-5075 21107 0
-21106 21107 0
-5075 -21106 0
-5138 21108 0
-21107 21108 0
-5138 -21107 0
-5166 21109 0
-21108 21109 0
-5166 -21108 0
-5228 21110 0
-21109 21110 0
-5228 -21109 0
-5327 21111 0
-21110 21111 0
-5327 -21110 0
-5390 -21111 0
188 311 373 495 672 794 854 1016 1072 1187 1354 1460 1516 1631 1798 1896 1944 2043 2186 2276 2324 2423 2566 2615 2752 2850 2898 2991 3132 3230 3278 3399 3496 3562 3594 3655 3748 3814 3846 3936 3968 4035 4130 4188 4220 4287 4382 4440 4472 4539 4634 4692 4724 4791 4886 4919 5008 5074 5106 5167 5260 5326 5358 0
-188 21112 0
-311 21113 0
-21112 21113 0
-311 -21112 0
-373 21114 0
-21113 21114 0
-373 -21113 0
-495 21115 0
-21114 21115 0
-495 -21114 0
-672 21116 0
-21115 21116 0
-672 -21115 0
-794 21117 0
-21116 21117 0
-794 -21116 0
-854 21118 0
-21117 21118 0
-854 -21117 0
-1016 21119 0
-21118 21119 0
-1016 -21118 0
-1072 21120 0
-21119 21120 0
-1072 -21119 0
-1187 21121 0
-21120 21121 0
-1187 -21120 0
-1354 21122 0
-21121 21122 0
-1354 -21121 0
-1460 21123 0
-21122 21123 0
-1460 -21122 0
-1516 21124 0
-21123 21124 0
-1516 -21123 0
-1631 21125 0
-21124 21125 0
-1631 -21124 0
-1798 21126 0
-21125 21126 0
-1798 -21125 0
-1896 21127 0
-21126 21127 0
-1896 -21126 0
-1944 21128 0
-21127 21128 0
-1944 -21127 0
-2043 21129 0
-21128 21129 0
-2043 -21128 0
-2186 21130 0
-21129 21130 0
-2186 -21129 0
-2276 21131 0
-21130 21131 0
-2276 -21130 0
-2324 21132 0
-21131 21132 0
-2324 -21131 0
-2423 21133 0
-21132 21133 0
-2423 -21132 0
-2566 21134 0
-21133 21134 0
-2566 -21133 0
-2615 21135 0
-21134 21135 0
-2615 -21134 0
-2752 21136 0
-21135 21136 0
-2752 -21135 0
-2850 21137 0
-21136 21137 0
-2850 -21136 0
-2898 21138 0
-21137 21138 0
-2898 -21137 0
-2991 21139 0
-21138 21139 0
-2991 -21138 0
-3132 21140 0
-21139 21140 0
-3132 -21139 0
-3230 21141 0
-21140 21141 0
-3230 -21140 0
-3278 21142 0
-21141 21142 0
-3278 -21141 0
-3399 21143 0
-21142 21143 0
-3399 -21142 0
-3496 21144 0
-21143 21144 0
-3496 -21143 0
-3562 21145 0
-21144 21145 0
-3562 -21144 0
-3594 21146 0
-21145 21146 0
-3594 -21145 0
-3655 21147 0
-21146 21147 0
-3655 -21146 0
-3748 21148 0
-21147 21148 0
-3748 -21147 0
-3814 21149 0
-21148 21149 0
-3814 -21148 0
-3846 21150 0
-21149 21150 0
-3846 -21149 0
-3936 21151 0
-21150 21151 0
-3936 -21150 0
-3968 21152 0
-21151 21152 0
-3968 -21151 0
-4035 21153 0
-21152 21153 0
-4035 -21152 0
-4130 21154 0
-21153 21154 0
-4130 -21153 0
-4188 21155 0
-21154 21155 0
-4188 -21154 0
-4220 21156 0
-21155 21156 0
-4220 -21155 0
-4287 21157 0
-21156 21157 0
-4287 -21156 0
-4382 21158 0
-21157 21158 0
-4382 -21157 0
-4440 21159 0
-21158 21159 0
-4440 -21158 0
-4472 21160 0
-21159 21160 0
-4472 -21159 0
-4539 21161 0
-21160 21161 0
-4539 -21160 0
-4634 21162 0
-21161 21162 0
-4634 -21161 0
-4692 21163 0
-21162 21163 0
-4692 -21162 0
-4724 21164 0
-21163 21164 0
-4724 -21163 0
-4791 21165 0
-21164 21165 0
-4791 -21164 0
-4886 21166 0
-21165 21166 0
-4886 -21165 0
-4919 21167 0
-21166 21167 0
-4919 -21166 0
-5008 21168 0
-21167 21168 0
-5008 -21167 0
-5074 21169 0
-21168 21169 0
-5074 -21168 0
-5106 21170 0
-21169 21170 0
-5106 -21169 0
-5167 21171 0
-21170 21171 0
-5167 -21170 0
-5260 21172 0
-21171 21172 0
-5260 -21171 0
-5326 21173 0
-21172 21173 0
-5326 -21172 0
-5358 -21173 0
63 126 189 732 793 853 913 1180 1241 1297 1353 1404 1463 1519 1575 2036 2089 2137 2185 2228 2279 2327 2375 2616 2659 2707 2755 3180 3229 3277 3325 3400 3435 3467 3499 3780 3813 3845 3877 4028 4065 4097 4129 4156 4191 4223 4255 4532 4569 4601 4633 4660 4695 4727 4759 4920 4947 4979 5011 5292 5325 5357 5389 0
-63 21174 0
-126 21175 0
-21174 21175 0
-126 -21174 0
-189 21176 0
-21175 21176 0
-189 -21175 0
-732 21177 0
-21176 21177 0
-732 -21176 0
-793 21178 0
-21177 21178 0
-793 -21177 0
-853 21179 0
-21178 21179 0
-853 -21178 0
-913 21180 0
-21179 21180 0
-913 -21179 0
-1180 21181 0
-21180 21181 0
-1180 -21180 0
-1241 21182 0
-21181 21182 0
-1241 -21181 0
-1297 21183 0
-21182 21183 0
-1297 -21182 0
-1353 21184 0
-21183 21184 0
-1353 -21183 0
-1404 21185 0
-21184 21185 0
-1404 -21184 0
-1463 21186 0
-21185 21186 0
-1463 -21185 0
-1519 21187 0
-21186 21187 0
-1519 -21186 0
-1575 21188 0
-21187 21188 0
-1575 -21187 0
-2036 21189 0
-21188 21189 0
-2036 -21188 0
-2089 21190 0
-21189 21190 0
-2089 -21189 0
-2137 21191 0
-21190 21191 0
-2137 -21190 0
-2185 21192 0
-21191 21192 0
-2185 -21191 0
-2228 21193 0
-21192 21193 0
-2228 -21192 0
-2279 21194 0
-21193 21194 0
-2279 -21193 0
-2327 21195 0
-21194 21195 0
-2327 -21194 0
-2375 21196 0
-21195 21196 0
-2375 -21195 0
-2616 21197 0
-21196 21197 0
-2616 -21196 0
-2659 21198 0
-21197 21198 0
-2659 -21197 0
-2707 21199 0
-21198 21199 0
-2707 -21198 0
-2755 21200 0
-21199 21200 0
-2755 -21199 0
-3180 21201 0
-21200 21201 0
-3180 -21200 0
-3229 21202 0
-21201 21202 0
-3229 -21201 0
-3277 21203 0
-21202 21203 0
-3277 -21202 0
-3325 21204 0
-21203 21204 0
-3325 -21203 0
-3400 21205 0
-21204 21205 0
-3400 -21204 0
-3435 21206 0
-21205 21206 0
-3435 -21205 0
-3467 21207 0
-21206 21207 0
-3467 -21206 0
-3499 21208 0
-21207 21208 0
-3499 -21207 0
-3780 21209 0
-21208 21209 0
-3780 -21208 0
-3813 21210 0
-21209 21210 0
-3813 -21209 0
-3845 21211 0
-21210 21211 0
-3845 -21210 0
-3877 21212 0
-21211 21212 0
-3877 -21211 0
-4028 21213 0
-21212 21213 0
-4028 -21212 0
-4065 21214 0
-21213 21214 0
-4065 -21213 0
-4097 21215 0
-21214 21215 0
-4097 -21214 0
-4129 21216 0
-21215 21216 0
-4129 -21215 0
-4156 21217 0
-21216 21217 0
-4156 -21216 0
-4191 21218 0
-21217 21218 0
-4191 -21217 0
-4223 21219 0
-21218 21219 0
-4223 -21218 0
-4255 21220 0
-21219 21220 0
-4255 -21219 0
-4532 21221 0
-21220 21221 0
-4532 -21220 0
-4569 21222 0
-21221 21222 0
-4569 -21221 0
-4601 21223 0
-21222 21223 0
-4601 -21222 0
-4633 21224 0
-21223 21224 0
-4633 -21223 0
-4660 21225 0
-21224 21225 0
-4660 -21224 0
-4695 21226 0
-21225 21226 0
-4695 -21225 0
-4727 21227 0
-21226 21227 0
-4727 -21226 0
-4759 21228 0
-21227 21228 0
-4759 -21227 0
-4920 21229 0
-21228 21229 0
-4920 -21228 0
-4947 21230 0
-21229 21230 0
-4947 -21229 0
-4979 21231 0
-21230 21231 0
-4979 -21230 0
-5011 21232 0
-21231 21232 0
-5011 -21231 0
-5292 21233 0
-21232 21233 0
-5292 -21232 0
-5325 21234 0
-21233 21234 0
-5325 -21233 0
-5357 21235 0
-21234 21235 0
-5357 -21234 0
-5389 -21235 0
63 373 435 615 675 733 792 1075 1131 1181 1240 1405 1462 1741 1797 1947 1995 2037 2088 2229 2278 2517 2565 2617 2658 2897 2945 3087 3135 3181 3228 3401 3434 3593 3625 3719 3751 3781 3812 3971 4003 4029 4064 4157 4190 4349 4381 4475 4507 4533 4568 4661 4694 4853 4885 4921 4946 5105 5137 5231 5263 5293 5324 0
-63 21236 0
-373 21237 0
-21236 21237 0
-373 -21236 0
-435 21238 0
-21237 21238 0
-435 -21237 0
-615 21239 0
-21238 21239 0
-615 -21238 0
-675 21240 0
-21239 21240 0
-675 -21239 0
-733 21241 0
-21240 21241 0
-733 -21240 0
-792 21242 0
-21241 21242 0
-792 -21241 0
-1075 21243 0
-21242 21243 0
-1075 -21242 0
-1131 21244 0
-21243 21244 0
-1131 -21243 0
-1181 21245 0
-21244 21245 0
-1181 -21244 0
-1240 21246 0
-21245 21246 0
-1240 -21245 0
-1405 21247 0
-21246 21247 0
-1405 -21246 0
-1462 21248 0
-21247 21248 0
-1462 -21247 0
-1741 21249 0
-21248 21249 0
-1741 -21248 0
-1797 21250 0
-21249 21250 0
-1797 -21249 0
-1947 21251 0
-21250 21251 0
-1947 -21250 0
-1995 21252 0
-21251 21252 0
-1995 -21251 0
-2037 21253 0
-21252 21253 0
-2037 -21252 0
-2088 21254 0
-21253 21254 0
-2088 -21253 0
-2229 21255 0
-21254 21255 0
-2229 -21254 0
-2278 21256 0
-21255 21256 0
-2278 -21255 0
-2517 21257 0
-21256 21257 0
-2517 -21256 0
-2565 21258 0
-21257 21258 0
-2565 -21257 0
-2617 21259 0
-21258 21259 0
-2617 -21258 0
-2658 21260 0
-21259 21260 0
-2658 -21259 0
-2897 21261 0
-21260 21261 0
-2897 -21260 0
-2945 21262 0
-21261 21262 0
-2945 -21261 0
-3087 21263 0
-21262 21263 0
-3087 -21262 0
-3135 21264 0
-21263 21264 0
-3135 -21263 0
-3181 21265 0
-21264 21265 0
-3181 -21264 0
-3228 21266 0
-21265 21266 0
-3228 -21265 0
-3401 21267 0
-21266 21267 0
-3401 -21266 0
-3434 21268 0
-21267 21268 0
-3434 -21267 0
-3593 21269 0
-21268 21269 0
-3593 -21268 0
-3625 21270 0
-21269 21270 0
-3625 -21269 0
-3719 21271 0
-21270 21271 0
-3719 -21270 0
-3751 21272 0
-21271 21272 0
-3751 -21271 0
-3781 21273 0
-21272 21273 0
-3781 -21272 0
-3812 21274 0
-21273 21274 0
-3812 -21273 0
-3971 21275 0
-21274 21275 0
-3971 -21274 0
-4003 21276 0
-21275 21276 0
-4003 -21275 0
-4029 21277 0
-21276 21277 0
-4029 -21276 0
-4064 21278 0
-21277 21278 0
-4064 -21277 0
-4157 21279 0
-21278 21279 0
-4157 -21278 0
-4190 21280 0
-21279 21280 0
-4190 -21279 0
-4349 21281 0
-21280 21281 0
-4349 -21280 0
-4381 21282 0
-21281 21282 0
-4381 -21281 0
-4475 21283 0
-21282 21283 0
-4475 -21282 0
-4507 21284 0
-21283 21284 0
-4507 -21283 0
-4533 21285 0
-21284 21285 0
-4533 -21284 0
-4568 21286 0
-21285 21286 0
-4568 -21285 0
-4661 21287 0
-21286 21287 0
-4661 -21286 0
-4694 21288 0
-21287 21288 0
-4694 -21287 0
-4853 21289 0
-21288 21289 0
-4853 -21288 0
-4885 21290 0
-21289 21290 0
-4885 -21289 0
-4921 21291 0
-21290 21291 0
-4921 -21290 0
-4946 21292 0
-21291 21292 0
-4946 -21291 0
-5105 21293 0
-21292 21293 0
-5105 -21292 0
-5137 21294 0
-21293 21294 0
-5137 -21293 0
-5231 21295 0
-21294 21295 0
-5231 -21294 0
-5263 21296 0
-21295 21296 0
-5263 -21295 0
-5293 21297 0
-21296 21297 0
-5293 -21296 0
-5324 -21297 0
126 311 434 555 674 734 852 1019 1130 1182 1296 1406 1518 1685 1796 1899 1994 2038 2136 2230 2326 2469 2564 2618 2706 2849 2944 3039 3134 3182 3276 3402 3466 3561 3624 3687 3750 3782 3844 3939 4002 4030 4096 4158 4222 4317 4380 4443 4506 4534 4600 4662 4726 4821 4884 4922 4978 5073 5136 5199 5262 5294 5356 0
-126 21298 0
-311 21299 0
-21298 21299 0
-311 -21298 0
-434 21300 0
-21299 21300 0
-434 -21299 0
-555 21301 0
-21300 21301 0
-555 -21300 0
-674 21302 0
-21301 21302 0
-674 -21301 0
-734 21303 0
-21302 21303 0
-734 -21302 0
-852 21304 0
-21303 21304 0
-852 -21303 0
-1019 21305 0
-21304 21305 0
-1019 -21304 0
-1130 21306 0
-21305 21306 0
-1130 -21305 0
-1182 21307 0
-21306 21307 0
-1182 -21306 0
-1296 21308 0
-21307 21308 0
-1296 -21307 0
-1406 21309 0
-21308 21309 0
-1406 -21308 0
-1518 21310 0
-21309 21310 0
-1518 -21309 0
-1685 21311 0
-21310 21311 0
-1685 -21310 0
-1796 21312 0
-21311 21312 0
-1796 -21311 0
-1899 21313 0
-21312 21313 0
-1899 -21312 0
-1994 21314 0
-21313 21314 0
-1994 -21313 0
-2038 21315 0
-21314 21315 0
-2038 -21314 0
-2136 21316 0
-21315 21316 0
-2136 -21315 0
-2230 21317 0
-21316 21317 0
-2230 -21316 0
-2326 21318 0
-21317 21318 0
-2326 -21317 0
-2469 21319 0
-21318 21319 0
-2469 -21318 0
-2564 21320 0
-21319 21320 0
-2564 -21319 0
-2618 21321 0
-21320 21321 0
-2618 -21320 0
-2706 21322 0
-21321 21322 0
-2706 -21321 0
-2849 21323 0
-21322 21323 0
-2849 -21322 0
-2944 21324 0
-21323 21324 0
-2944 -21323 0
-3039 21325 0
-21324 21325 0
-3039 -21324 0
-3134 21326 0
-21325 21326 0
-3134 -21325 0
-3182 21327 0
-21326 21327 0
-3182 -21326 0
-3276 21328 0
-21327 21328 0
-3276 -21327 0
-3402 21329 0
-21328 21329 0
-3402 -21328 0
-3466 21330 0
-21329 21330 0
-3466 -21329 0
-3561 21331 0
-21330 21331 0
-3561 -21330 0
-3624 21332 0
-21331 21332 0
-3624 -21331 0
-3687 21333 0
-21332 21333 0
-3687 -21332 0
-3750 21334 0
-21333 21334 0
-3750 -21333 0
-3782 21335 0
-21334 21335 0
-3782 -21334 0
-3844 21336 0
-21335 21336 0
-3844 -21335 0
-3939 21337 0
-21336 21337 0
-3939 -21336 0
-4002 21338 0
-21337 21338 0
-4002 -21337 0
-4030 21339 0
-21338 21339 0
-4030 -21338 0
-4096 21340 0
-21339 21340 0
-4096 -21339 0
-4158 21341 0
-21340 21341 0
-4158 -21340 0
-4222 21342 0
-21341 21342 0
-4222 -21341 0
-4317 21343 0
-21342 21343 0
-4317 -21342 0
-4380 21344 0
-21343 21344 0
-4380 -21343 0
-4443 21345 0
-21344 21345 0
-4443 -21344 0
-4506 21346 0
-21345 21346 0
-4506 -21345 0
-4534 21347 0
-21346 21347 0
-4534 -21346 0
-4600 21348 0
-21347 21348 0
-4600 -21347 0
-4662 21349 0
-21348 21349 0
-4662 -21348 0
-4726 21350 0
-21349 21350 0
-4726 -21349 0
-4821 21351 0
-21350 21351 0
-4821 -21350 0
-4884 21352 0
-21351 21352 0
-4884 -21351 0
-4922 21353 0
-21352 21353 0
-4922 -21352 0
-4978 21354 0
-21353 21354 0
-4978 -21353 0
-5073 21355 0
-21354 21355 0
-5073 -21354 0
-5136 21356 0
-21355 21356 0
-5136 -21355 0
-5199 21357 0
-21356 21357 0
-5199 -21356 0
-5262 21358 0
-21357 21358 0
-5262 -21357 0
-5294 21359 0
-21358 21359 0
-5294 -21358 0
-5356 -21359 0
189 310 372 554 614 735 912 1018 1074 1183 1352 1407 1574 1684 1740 1898 1946 2039 2184 2231 2374 2468 2516 2619 2754 2848 2896 3038 3086 3183 3324 3403 3498 3560 3592 3686 3718 3783 3876 3938 3970 4031 4128 4159 4254 4316 4348 4442 4474 4535 4632 4663 4758 4820 4852 4923 5010 5072 5104 5198 5230 5295 5388 0
-189 21360 0
-310 21361 0
-21360 21361 0
-310 -21360 0
-372 21362 0
-21361 21362 0
-372 -21361 0
-554 21363 0
-21362 21363 0
-554 -21362 0
-614 21364 0
-21363 21364 0
-614 -21363 0
-735 21365 0
-21364 21365 0
-735 -21364 0
-912 21366 0
-21365 21366 0
-912 -21365 0
-1018 21367 0
-21366 21367 0
-1018 -21366 0
-1074 21368 0
-21367 21368 0
-1074 -21367 0
-1183 21369 0
-21368 21369 0
-1183 -21368 0
-1352 21370 0
-21369 21370 0
-1352 -21369 0
-1407 21371 0
-21370 21371 0
-1407 -21370 0
-1574 21372 0
-21371 21372 0
-1574 -21371 0
-1684 21373 0
-21372 21373 0
-1684 -21372 0
-1740 21374 0
-21373 21374 0
-1740 -21373 0
-1898 21375 0
-21374 21375 0
-1898 -21374 0
-1946 21376 0
-21375 21376 0
-1946 -21375 0
-2039 21377 0
-21376 21377 0
-2039 -21376 0
-2184 21378 0
-21377 21378 0
-2184 -21377 0
-2231 21379 0
-21378 21379 0
-2231 -21378 0
-2374 21380 0
-21379 21380 0
-2374 -21379 0
-2468 21381 0
-21380 21381 0
-2468 -21380 0
-2516 21382 0
-21381 21382 0
-2516 -21381 0
-2619 21383 0
-21382 21383 0
-2619 -21382 0
-2754 21384 0
-21383 21384 0
-2754 -21383 0
-2848 21385 0
-21384 21385 0
-2848 -21384 0
-2896 21386 0
-21385 21386 0
-2896 -21385 0
-3038 21387 0
-21386 21387 0
-3038 -21386 0
-3086 21388 0
-21387 21388 0
-3086 -21387 0
-3183 21389 0
-21388 21389 0
-3183 -21388 0
-3324 21390 0
-21389 21390 0
-3324 -21389 0
-3403 21391 0
-21390 21391 0
-3403 -21390 0
-3498 21392 0
-21391 21392 0
-3498 -21391 0
-3560 21393 0
-21392 21393 0
-3560 -21392 0
-3592 21394 0
-21393 21394 0
-3592 -21393 0
-3686 21395 0
-21394 21395 0
-3686 -21394 0
-3718 21396 0
-21395 21396 0
-3718 -21395 0
-3783 21397 0
-21396 21397 0
-3783 -21396 0
-3876 21398 0
-21397 21398 0
-3876 -21397 0
-3938 21399 0
-21398 21399 0
-3938 -21398 0
-3970 21400 0
-21399 21400 0
-3970 -21399 0
-4031 21401 0
-21400 21401 0
-4031 -21400 0
-4128 21402 0
-21401 21402 0
-4128 -21401 0
-4159 21403 0
-21402 21403 0
-4159 -21402 0
-4254 21404 0
-21403 21404 0
-4254 -21403 0
-4316 21405 0
-21404 21405 0
-4316 -21404 0
-4348 21406 0
-21405 21406 0
-4348 -21405 0
-4442 21407 0
-21406 21407 0
-4442 -21406 0
-4474 21408 0
-21407 21408 0
-4474 -21407 0
-4535 21409 0
-21408 21409 0
-4535 -21408 0
-4632 21410 0
-21409 21410 0
-4632 -21409 0
-4663 21411 0
-21410 21411 0
-4663 -21410 0
-4758 21412 0
-21411 21412 0
-4758 -21411 0
-4820 21413 0
-21412 21413 0
-4820 -21412 0
-4852 21414 0
-21413 21414 0
-4852 -21413 0
-4923 21415 0
-21414 21415 0
-4923 -21414 0
-5010 21416 0
-21415 21416 0
-5010 -21415 0
-5072 21417 0
-21416 21417 0
-5072 -21416 0
-5104 21418 0
-21417 21418 0
-5104 -21417 0
-5198 21419 0
-21418 21419 0
-5198 -21418 0
-5230 21420 0
-21419 21420 0
-5230 -21419 0
-5295 21421 0
-21420 21421 0
-5295 -21420 0
-5388 -21421 0
