p cnf 1517 3366
1 2 3 4 5 6 7 8 9 10 11 12 13 14 15 0
-1 396 0
-2 397 0
-396 397 0
-2 -396 0
-3 398 0
-397 398 0
-3 -397 0
-4 399 0
-398 399 0
-4 -398 0
-5 400 0
-399 400 0
-5 -399 0
-6 401 0
-400 401 0
-6 -400 0
-7 402 0
-401 402 0
-7 -401 0
-8 403 0
-402 403 0
-8 -402 0
-9 404 0
-403 404 0
-9 -403 0
-10 405 0
-404 405 0
-10 -404 0
-11 406 0
-405 406 0
-11 -405 0
-12 407 0
-406 407 0
-12 -406 0
-13 408 0
-407 408 0
-13 -407 0
-14 409 0
-408 409 0
-14 -408 0
-15 -409 0
16 17 18 19 20 21 22 23 24 25 26 27 28 29 30 0
-16 410 0
-17 411 0
-410 411 0
-17 -410 0
-18 412 0
-411 412 0
-18 -411 0
-19 413 0
-412 413 0
-19 -412 0
-20 414 0
-413 414 0
-20 -413 0
-21 415 0
-414 415 0
-21 -414 0
-22 416 0
-415 416 0
-22 -415 0
-23 417 0
-416 417 0
-23 -416 0
-24 418 0
-417 418 0
-24 -417 0
-25 419 0
-418 419 0
-25 -418 0
-26 420 0
-419 420 0
-26 -419 0
-27 421 0
-420 421 0
-27 -420 0
-28 422 0
-421 422 0
-28 -421 0
-29 423 0
-422 423 0
-29 -422 0
-30 -423 0
31 32 33 34 35 36 37 38 39 40 41 42 43 44 45 0
-31 424 0
-32 425 0
-424 425 0
-32 -424 0
-33 426 0
-425 426 0
-33 -425 0
-34 427 0
-426 427 0
-34 -426 0
-35 428 0
-427 428 0
-35 -427 0
-36 429 0
-428 429 0
-36 -428 0
-37 430 0
-429 430 0
-37 -429 0
-38 431 0
-430 431 0
-38 -430 0
-39 432 0
-431 432 0
-39 -431 0
-40 433 0
-432 433 0
-40 -432 0
-41 434 0
-433 434 0
-41 -433 0
-42 435 0
-434 435 0
-42 -434 0
-43 436 0
-435 436 0
-43 -435 0
-44 437 0
-436 437 0
-44 -436 0
-45 -437 0
1 16 31 46 47 48 49 50 51 52 53 54 55 56 57 58 59 60 61 62 63 64 65 66 67 68 69 70 71 72 73 0
-1 438 0
-16 439 0
-438 439 0
-16 -438 0
-31 440 0
-439 440 0
-31 -439 0
-46 441 0
-440 441 0
-46 -440 0
-47 442 0
-441 442 0
-47 -441 0
-48 443 0
-442 443 0
-48 -442 0
-49 444 0
-443 444 0
-49 -443 0
-50 445 0
-444 445 0
-50 -444 0
-51 446 0
-445 446 0
-51 -445 0
-52 447 0
-446 447 0
-52 -446 0
-53 448 0
-447 448 0
-53 -447 0
-54 449 0
-448 449 0
-54 -448 0
-55 450 0
-449 450 0
-55 -449 0
-56 451 0
-450 451 0
-56 -450 0
-57 452 0
-451 452 0
-57 -451 0
-58 453 0
-452 453 0
-58 -452 0
-59 454 0
-453 454 0
-59 -453 0
-60 455 0
-454 455 0
-60 -454 0
-61 456 0
-455 456 0
-61 -455 0
-62 457 0
-456 457 0
-62 -456 0
-63 458 0
-457 458 0
-63 -457 0
-64 459 0
-458 459 0
-64 -458 0
-65 460 0
-459 460 0
-65 -459 0
-66 461 0
-460 461 0
-66 -460 0
-67 462 0
-461 462 0
-67 -461 0
-68 463 0
-462 463 0
-68 -462 0
-69 464 0
-463 464 0
-69 -463 0
-70 465 0
-464 465 0
-70 -464 0
-71 466 0
-465 466 0
-71 -465 0
-72 467 0
-466 467 0
-72 -466 0
-73 -467 0
1 74 75 76 77 78 79 80 81 82 83 84 85 86 87 0
-1 468 0
-74 469 0
-468 469 0
-74 -468 0
-75 470 0
-469 470 0
-75 -469 0
-76 471 0
-470 471 0
-76 -470 0
-77 472 0
-471 472 0
-77 -471 0
-78 473 0
-472 473 0
-78 -472 0
-79 474 0
-473 474 0
-79 -473 0
-80 475 0
-474 475 0
-80 -474 0
-81 476 0
-475 476 0
-81 -475 0
-82 477 0
-476 477 0
-82 -476 0
-83 478 0
-477 478 0
-83 -477 0
-84 479 0
-478 479 0
-84 -478 0
-85 480 0
-479 480 0
-85 -479 0
-86 481 0
-480 481 0
-86 -480 0
-87 -481 0
16 88 89 90 91 92 93 94 95 96 97 98 99 100 101 0
-16 482 0
-88 483 0
-482 483 0
-88 -482 0
-89 484 0
-483 484 0
-89 -483 0
-90 485 0
-484 485 0
-90 -484 0
-91 486 0
-485 486 0
-91 -485 0
-92 487 0
-486 487 0
-92 -486 0
-93 488 0
-487 488 0
-93 -487 0
-94 489 0
-488 489 0
-94 -488 0
-95 490 0
-489 490 0
-95 -489 0
-96 491 0
-490 491 0
-96 -490 0
-97 492 0
-491 492 0
-97 -491 0
-98 493 0
-492 493 0
-98 -492 0
-99 494 0
-493 494 0
-99 -493 0
-100 495 0
-494 495 0
-100 -494 0
-101 -495 0
31 102 103 104 105 106 107 108 109 110 111 112 113 114 115 0
-31 496 0
-102 497 0
-496 497 0
-102 -496 0
-103 498 0
-497 498 0
-103 -497 0
-104 499 0
-498 499 0
-104 -498 0
-105 500 0
-499 500 0
-105 -499 0
-106 501 0
-500 501 0
-106 -500 0
-107 502 0
-501 502 0
-107 -501 0
-108 503 0
-502 503 0
-108 -502 0
-109 504 0
-503 504 0
-109 -503 0
-110 505 0
-504 505 0
-110 -504 0
-111 506 0
-505 506 0
-111 -505 0
-112 507 0
-506 507 0
-112 -506 0
-113 508 0
-507 508 0
-113 -507 0
-114 509 0
-508 509 0
-114 -508 0
-115 -509 0
2 17 32 46 74 88 102 116 117 118 119 120 121 122 123 124 125 126 127 128 129 130 131 132 133 134 135 136 137 138 139 0
-2 510 0
-17 511 0
-510 511 0
-17 -510 0
-32 512 0
-511 512 0
-32 -511 0
-46 513 0
-512 513 0
-46 -512 0
-74 514 0
-513 514 0
-74 -513 0
-88 515 0
-514 515 0
-88 -514 0
-102 516 0
-515 516 0
-102 -515 0
-116 517 0
-516 517 0
-116 -516 0
-117 518 0
-517 518 0
-117 -517 0
-118 519 0
-518 519 0
-118 -518 0
-119 520 0
-519 520 0
-119 -519 0
-120 521 0
-520 521 0
-120 -520 0
-121 522 0
-521 522 0
-121 -521 0
-122 523 0
-522 523 0
-122 -522 0
-123 524 0
-523 524 0
-123 -523 0
-124 525 0
-524 525 0
-124 -524 0
-125 526 0
-525 526 0
-125 -525 0
-126 527 0
-526 527 0
-126 -526 0
-127 528 0
-527 528 0
-127 -527 0
-128 529 0
-528 529 0
-128 -528 0
-129 530 0
-529 530 0
-129 -529 0
-130 531 0
-530 531 0
-130 -530 0
-131 532 0
-531 532 0
-131 -531 0
-132 533 0
-532 533 0
-132 -532 0
-133 534 0
-533 534 0
-133 -533 0
-134 535 0
-534 535 0
-134 -534 0
-135 536 0
-535 536 0
-135 -535 0
-136 537 0
-536 537 0
-136 -536 0
-137 538 0
-537 538 0
-137 -537 0
-138 539 0
-538 539 0
-138 -538 0
-139 -539 0
2 47 75 140 141 142 143 144 145 146 147 148 149 150 151 0
-2 540 0
-47 541 0
-540 541 0
-47 -540 0
-75 542 0
-541 542 0
-75 -541 0
-140 543 0
-542 543 0
-140 -542 0
-141 544 0
-543 544 0
-141 -543 0
-142 545 0
-544 545 0
-142 -544 0
-143 546 0
-545 546 0
-143 -545 0
-144 547 0
-546 547 0
-144 -546 0
-145 548 0
-547 548 0
-145 -547 0
-146 549 0
-548 549 0
-146 -548 0
-147 550 0
-549 550 0
-147 -549 0
-148 551 0
-550 551 0
-148 -550 0
-149 552 0
-551 552 0
-149 -551 0
-150 553 0
-552 553 0
-150 -552 0
-151 -553 0
17 48 89 152 153 154 155 156 157 158 159 160 161 162 163 0
-17 554 0
-48 555 0
-554 555 0
-48 -554 0
-89 556 0
-555 556 0
-89 -555 0
-152 557 0
-556 557 0
-152 -556 0
-153 558 0
-557 558 0
-153 -557 0
-154 559 0
-558 559 0
-154 -558 0
-155 560 0
-559 560 0
-155 -559 0
-156 561 0
-560 561 0
-156 -560 0
-157 562 0
-561 562 0
-157 -561 0
-158 563 0
-562 563 0
-158 -562 0
-159 564 0
-563 564 0
-159 -563 0
-160 565 0
-564 565 0
-160 -564 0
-161 566 0
-565 566 0
-161 -565 0
-162 567 0
-566 567 0
-162 -566 0
-163 -567 0
32 49 103 164 165 166 167 168 169 170 171 172 173 174 175 0
-32 568 0
-49 569 0
-568 569 0
-49 -568 0
-103 570 0
-569 570 0
-103 -569 0
-164 571 0
-570 571 0
-164 -570 0
-165 572 0
-571 572 0
-165 -571 0
-166 573 0
-572 573 0
-166 -572 0
-167 574 0
-573 574 0
-167 -573 0
-168 575 0
-574 575 0
-168 -574 0
-169 576 0
-575 576 0
-169 -575 0
-170 577 0
-576 577 0
-170 -576 0
-171 578 0
-577 578 0
-171 -577 0
-172 579 0
-578 579 0
-172 -578 0
-173 580 0
-579 580 0
-173 -579 0
-174 581 0
-580 581 0
-174 -580 0
-175 -581 0
3 18 33 46 75 89 103 176 177 178 179 180 181 182 183 184 185 186 187 188 189 190 191 192 193 194 195 196 197 198 199 0
-3 582 0
-18 583 0
-582 583 0
-18 -582 0
-33 584 0
-583 584 0
-33 -583 0
-46 585 0
-584 585 0
-46 -584 0
-75 586 0
-585 586 0
-75 -585 0
-89 587 0
-586 587 0
-89 -586 0
-103 588 0
-587 588 0
-103 -587 0
-176 589 0
-588 589 0
-176 -588 0
-177 590 0
-589 590 0
-177 -589 0
-178 591 0
-590 591 0
-178 -590 0
-179 592 0
-591 592 0
-179 -591 0
-180 593 0
-592 593 0
-180 -592 0
-181 594 0
-593 594 0
-181 -593 0
-182 595 0
-594 595 0
-182 -594 0
-183 596 0
-595 596 0
-183 -595 0
-184 597 0
-596 597 0
-184 -596 0
-185 598 0
-597 598 0
-185 -597 0
-186 599 0
-598 599 0
-186 -598 0
-187 600 0
-599 600 0
-187 -599 0
-188 601 0
-600 601 0
-188 -600 0
-189 602 0
-601 602 0
-189 -601 0
-190 603 0
-602 603 0
-190 -602 0
-191 604 0
-603 604 0
-191 -603 0
-192 605 0
-604 605 0
-192 -604 0
-193 606 0
-605 606 0
-193 -605 0
-194 607 0
-606 607 0
-194 -606 0
-195 608 0
-607 608 0
-195 -607 0
-196 609 0
-608 609 0
-196 -608 0
-197 610 0
-609 610 0
-197 -609 0
-198 611 0
-610 611 0
-198 -610 0
-199 -611 0
3 47 74 200 201 202 203 204 205 206 207 208 209 210 211 0
-3 612 0
-47 613 0
-612 613 0
-47 -612 0
-74 614 0
-613 614 0
-74 -613 0
-200 615 0
-614 615 0
-200 -614 0
-201 616 0
-615 616 0
-201 -615 0
-202 617 0
-616 617 0
-202 -616 0
-203 618 0
-617 618 0
-203 -617 0
-204 619 0
-618 619 0
-204 -618 0
-205 620 0
-619 620 0
-205 -619 0
-206 621 0
-620 621 0
-206 -620 0
-207 622 0
-621 622 0
-207 -621 0
-208 623 0
-622 623 0
-208 -622 0
-209 624 0
-623 624 0
-209 -623 0
-210 625 0
-624 625 0
-210 -624 0
-211 -625 0
18 48 88 212 213 214 215 216 217 218 219 220 221 222 223 0
-18 626 0
-48 627 0
-626 627 0
-48 -626 0
-88 628 0
-627 628 0
-88 -627 0
-212 629 0
-628 629 0
-212 -628 0
-213 630 0
-629 630 0
-213 -629 0
-214 631 0
-630 631 0
-214 -630 0
-215 632 0
-631 632 0
-215 -631 0
-216 633 0
-632 633 0
-216 -632 0
-217 634 0
-633 634 0
-217 -633 0
-218 635 0
-634 635 0
-218 -634 0
-219 636 0
-635 636 0
-219 -635 0
-220 637 0
-636 637 0
-220 -636 0
-221 638 0
-637 638 0
-221 -637 0
-222 639 0
-638 639 0
-222 -638 0
-223 -639 0
33 49 102 224 225 226 227 228 229 230 231 232 233 234 235 0
-33 640 0
-49 641 0
-640 641 0
-49 -640 0
-102 642 0
-641 642 0
-102 -641 0
-224 643 0
-642 643 0
-224 -642 0
-225 644 0
-643 644 0
-225 -643 0
-226 645 0
-644 645 0
-226 -644 0
-227 646 0
-645 646 0
-227 -645 0
-228 647 0
-646 647 0
-228 -646 0
-229 648 0
-647 648 0
-229 -647 0
-230 649 0
-648 649 0
-230 -648 0
-231 650 0
-649 650 0
-231 -649 0
-232 651 0
-650 651 0
-232 -650 0
-233 652 0
-651 652 0
-233 -651 0
-234 653 0
-652 653 0
-234 -652 0
-235 -653 0
4 19 34 50 76 90 104 116 140 152 164 176 200 212 224 236 237 238 239 240 241 242 243 244 245 246 247 248 249 250 251 0
-4 654 0
-19 655 0
-654 655 0
-19 -654 0
-34 656 0
-655 656 0
-34 -655 0
-50 657 0
-656 657 0
-50 -656 0
-76 658 0
-657 658 0
-76 -657 0
-90 659 0
-658 659 0
-90 -658 0
-104 660 0
-659 660 0
-104 -659 0
-116 661 0
-660 661 0
-116 -660 0
-140 662 0
-661 662 0
-140 -661 0
-152 663 0
-662 663 0
-152 -662 0
-164 664 0
-663 664 0
-164 -663 0
-176 665 0
-664 665 0
-176 -664 0
-200 666 0
-665 666 0
-200 -665 0
-212 667 0
-666 667 0
-212 -666 0
-224 668 0
-667 668 0
-224 -667 0
-236 669 0
-668 669 0
-236 -668 0
-237 670 0
-669 670 0
-237 -669 0
-238 671 0
-670 671 0
-238 -670 0
-239 672 0
-671 672 0
-239 -671 0
-240 673 0
-672 673 0
-240 -672 0
-241 674 0
-673 674 0
-241 -673 0
-242 675 0
-674 675 0
-242 -674 0
-243 676 0
-675 676 0
-243 -675 0
-244 677 0
-676 677 0
-244 -676 0
-245 678 0
-677 678 0
-245 -677 0
-246 679 0
-678 679 0
-246 -678 0
-247 680 0
-679 680 0
-247 -679 0
-248 681 0
-680 681 0
-248 -680 0
-249 682 0
-681 682 0
-249 -681 0
-250 683 0
-682 683 0
-250 -682 0
-251 -683 0
4 51 77 117 141 177 201 252 253 254 255 256 257 258 259 0
-4 684 0
-51 685 0
-684 685 0
-51 -684 0
-77 686 0
-685 686 0
-77 -685 0
-117 687 0
-686 687 0
-117 -686 0
-141 688 0
-687 688 0
-141 -687 0
-177 689 0
-688 689 0
-177 -688 0
-201 690 0
-689 690 0
-201 -689 0
-252 691 0
-690 691 0
-252 -690 0
-253 692 0
-691 692 0
-253 -691 0
-254 693 0
-692 693 0
-254 -692 0
-255 694 0
-693 694 0
-255 -693 0
-256 695 0
-694 695 0
-256 -694 0
-257 696 0
-695 696 0
-257 -695 0
-258 697 0
-696 697 0
-258 -696 0
-259 -697 0
19 52 91 118 153 178 213 260 261 262 263 264 265 266 267 0
-19 698 0
-52 699 0
-698 699 0
-52 -698 0
-91 700 0
-699 700 0
-91 -699 0
-118 701 0
-700 701 0
-118 -700 0
-153 702 0
-701 702 0
-153 -701 0
-178 703 0
-702 703 0
-178 -702 0
-213 704 0
-703 704 0
-213 -703 0
-260 705 0
-704 705 0
-260 -704 0
-261 706 0
-705 706 0
-261 -705 0
-262 707 0
-706 707 0
-262 -706 0
-263 708 0
-707 708 0
-263 -707 0
-264 709 0
-708 709 0
-264 -708 0
-265 710 0
-709 710 0
-265 -709 0
-266 711 0
-710 711 0
-266 -710 0
-267 -711 0
34 53 105 119 165 179 225 268 269 270 271 272 273 274 275 0
-34 712 0
-53 713 0
-712 713 0
-53 -712 0
-105 714 0
-713 714 0
-105 -713 0
-119 715 0
-714 715 0
-119 -714 0
-165 716 0
-715 716 0
-165 -715 0
-179 717 0
-716 717 0
-179 -716 0
-225 718 0
-717 718 0
-225 -717 0
-268 719 0
-718 719 0
-268 -718 0
-269 720 0
-719 720 0
-269 -719 0
-270 721 0
-720 721 0
-270 -720 0
-271 722 0
-721 722 0
-271 -721 0
-272 723 0
-722 723 0
-272 -722 0
-273 724 0
-723 724 0
-273 -723 0
-274 725 0
-724 725 0
-274 -724 0
-275 -725 0
5 20 35 50 77 91 105 120 142 154 166 180 202 214 226 276 277 278 279 280 281 282 283 284 285 286 287 288 289 290 291 0
-5 726 0
-20 727 0
-726 727 0
-20 -726 0
-35 728 0
-727 728 0
-35 -727 0
-50 729 0
-728 729 0
-50 -728 0
-77 730 0
-729 730 0
-77 -729 0
-91 731 0
-730 731 0
-91 -730 0
-105 732 0
-731 732 0
-105 -731 0
-120 733 0
-732 733 0
-120 -732 0
-142 734 0
-733 734 0
-142 -733 0
-154 735 0
-734 735 0
-154 -734 0
-166 736 0
-735 736 0
-166 -735 0
-180 737 0
-736 737 0
-180 -736 0
-202 738 0
-737 738 0
-202 -737 0
-214 739 0
-738 739 0
-214 -738 0
-226 740 0
-739 740 0
-226 -739 0
-276 741 0
-740 741 0
-276 -740 0
-277 742 0
-741 742 0
-277 -741 0
-278 743 0
-742 743 0
-278 -742 0
-279 744 0
-743 744 0
-279 -743 0
-280 745 0
-744 745 0
-280 -744 0
-281 746 0
-745 746 0
-281 -745 0
-282 747 0
-746 747 0
-282 -746 0
-283 748 0
-747 748 0
-283 -747 0
-284 749 0
-748 749 0
-284 -748 0
-285 750 0
-749 750 0
-285 -749 0
-286 751 0
-750 751 0
-286 -750 0
-287 752 0
-751 752 0
-287 -751 0
-288 753 0
-752 753 0
-288 -752 0
-289 754 0
-753 754 0
-289 -753 0
-290 755 0
-754 755 0
-290 -754 0
-291 -755 0
5 51 76 121 143 181 203 292 293 294 295 296 297 298 299 0
-5 756 0
-51 757 0
-756 757 0
-51 -756 0
-76 758 0
-757 758 0
-76 -757 0
-121 759 0
-758 759 0
-121 -758 0
-143 760 0
-759 760 0
-143 -759 0
-181 761 0
-760 761 0
-181 -760 0
-203 762 0
-761 762 0
-203 -761 0
-292 763 0
-762 763 0
-292 -762 0
-293 764 0
-763 764 0
-293 -763 0
-294 765 0
-764 765 0
-294 -764 0
-295 766 0
-765 766 0
-295 -765 0
-296 767 0
-766 767 0
-296 -766 0
-297 768 0
-767 768 0
-297 -767 0
-298 769 0
-768 769 0
-298 -768 0
-299 -769 0
20 52 90 122 155 182 215 300 301 302 303 304 305 306 307 0
-20 770 0
-52 771 0
-770 771 0
-52 -770 0
-90 772 0
-771 772 0
-90 -771 0
-122 773 0
-772 773 0
-122 -772 0
-155 774 0
-773 774 0
-155 -773 0
-182 775 0
-774 775 0
-182 -774 0
-215 776 0
-775 776 0
-215 -775 0
-300 777 0
-776 777 0
-300 -776 0
-301 778 0
-777 778 0
-301 -777 0
-302 779 0
-778 779 0
-302 -778 0
-303 780 0
-779 780 0
-303 -779 0
-304 781 0
-780 781 0
-304 -780 0
-305 782 0
-781 782 0
-305 -781 0
-306 783 0
-782 783 0
-306 -782 0
-307 -783 0
35 53 104 123 167 183 227 308 309 310 311 312 313 314 315 0
-35 784 0
-53 785 0
-784 785 0
-53 -784 0
-104 786 0
-785 786 0
-104 -785 0
-123 787 0
-786 787 0
-123 -786 0
-167 788 0
-787 788 0
-167 -787 0
-183 789 0
-788 789 0
-183 -788 0
-227 790 0
-789 790 0
-227 -789 0
-308 791 0
-790 791 0
-308 -790 0
-309 792 0
-791 792 0
-309 -791 0
-310 793 0
-792 793 0
-310 -792 0
-311 794 0
-793 794 0
-311 -793 0
-312 795 0
-794 795 0
-312 -794 0
-313 796 0
-795 796 0
-313 -795 0
-314 797 0
-796 797 0
-314 -796 0
-315 -797 0
6 21 36 54 78 92 106 116 141 153 165 180 203 215 227 316 317 318 319 320 321 322 323 324 325 326 327 328 329 330 331 0
-6 798 0
-21 799 0
-798 799 0
-21 -798 0
-36 800 0
-799 800 0
-36 -799 0
-54 801 0
-800 801 0
-54 -800 0
-78 802 0
-801 802 0
-78 -801 0
-92 803 0
-802 803 0
-92 -802 0
-106 804 0
-803 804 0
-106 -803 0
-116 805 0
-804 805 0
-116 -804 0
-141 806 0
-805 806 0
-141 -805 0
-153 807 0
-806 807 0
-153 -806 0
-165 808 0
-807 808 0
-165 -807 0
-180 809 0
-808 809 0
-180 -808 0
-203 810 0
-809 810 0
-203 -809 0
-215 811 0
-810 811 0
-215 -810 0
-227 812 0
-811 812 0
-227 -811 0
-316 813 0
-812 813 0
-316 -812 0
-317 814 0
-813 814 0
-317 -813 0
-318 815 0
-814 815 0
-318 -814 0
-319 816 0
-815 816 0
-319 -815 0
-320 817 0
-816 817 0
-320 -816 0
-321 818 0
-817 818 0
-321 -817 0
-322 819 0
-818 819 0
-322 -818 0
-323 820 0
-819 820 0
-323 -819 0
-324 821 0
-820 821 0
-324 -820 0
-325 822 0
-821 822 0
-325 -821 0
-326 823 0
-822 823 0
-326 -822 0
-327 824 0
-823 824 0
-327 -823 0
-328 825 0
-824 825 0
-328 -824 0
-329 826 0
-825 826 0
-329 -825 0
-330 827 0
-826 827 0
-330 -826 0
-331 -827 0
6 55 79 117 140 181 202 332 333 334 335 336 337 338 339 0
-6 828 0
-55 829 0
-828 829 0
-55 -828 0
-79 830 0
-829 830 0
-79 -829 0
-117 831 0
-830 831 0
-117 -830 0
-140 832 0
-831 832 0
-140 -831 0
-181 833 0
-832 833 0
-181 -832 0
-202 834 0
-833 834 0
-202 -833 0
-332 835 0
-834 835 0
-332 -834 0
-333 836 0
-835 836 0
-333 -835 0
-334 837 0
-836 837 0
-334 -836 0
-335 838 0
-837 838 0
-335 -837 0
-336 839 0
-838 839 0
-336 -838 0
-337 840 0
-839 840 0
-337 -839 0
-338 841 0
-840 841 0
-338 -840 0
-339 -841 0
21 56 93 118 152 182 214 340 341 342 343 344 345 346 347 0
-21 842 0
-56 843 0
-842 843 0
-56 -842 0
-93 844 0
-843 844 0
-93 -843 0
-118 845 0
-844 845 0
-118 -844 0
-152 846 0
-845 846 0
-152 -845 0
-182 847 0
-846 847 0
-182 -846 0
-214 848 0
-847 848 0
-214 -847 0
-340 849 0
-848 849 0
-340 -848 0
-341 850 0
-849 850 0
-341 -849 0
-342 851 0
-850 851 0
-342 -850 0
-343 852 0
-851 852 0
-343 -851 0
-344 853 0
-852 853 0
-344 -852 0
-345 854 0
-853 854 0
-345 -853 0
-346 855 0
-854 855 0
-346 -854 0
-347 -855 0
36 57 107 119 164 183 226 348 349 350 351 352 353 354 355 0
-36 856 0
-57 857 0
-856 857 0
-57 -856 0
-107 858 0
-857 858 0
-107 -857 0
-119 859 0
-858 859 0
-119 -858 0
-164 860 0
-859 860 0
-164 -859 0
-183 861 0
-860 861 0
-183 -860 0
-226 862 0
-861 862 0
-226 -861 0
-348 863 0
-862 863 0
-348 -862 0
-349 864 0
-863 864 0
-349 -863 0
-350 865 0
-864 865 0
-350 -864 0
-351 866 0
-865 866 0
-351 -865 0
-352 867 0
-866 867 0
-352 -866 0
-353 868 0
-867 868 0
-353 -867 0
-354 869 0
-868 869 0
-354 -868 0
-355 -869 0
7 22 37 54 79 93 107 120 143 155 167 176 201 213 225 356 357 358 359 360 361 362 363 364 365 366 367 368 369 370 371 0
-7 870 0
-22 871 0
-870 871 0
-22 -870 0
-37 872 0
-871 872 0
-37 -871 0
-54 873 0
-872 873 0
-54 -872 0
-79 874 0
-873 874 0
-79 -873 0
-93 875 0
-874 875 0
-93 -874 0
-107 876 0
-875 876 0
-107 -875 0
-120 877 0
-876 877 0
-120 -876 0
-143 878 0
-877 878 0
-143 -877 0
-155 879 0
-878 879 0
-155 -878 0
-167 880 0
-879 880 0
-167 -879 0
-176 881 0
-880 881 0
-176 -880 0
-201 882 0
-881 882 0
-201 -881 0
-213 883 0
-882 883 0
-213 -882 0
-225 884 0
-883 884 0
-225 -883 0
-356 885 0
-884 885 0
-356 -884 0
-357 886 0
-885 886 0
-357 -885 0
-358 887 0
-886 887 0
-358 -886 0
-359 888 0
-887 888 0
-359 -887 0
-360 889 0
-888 889 0
-360 -888 0
-361 890 0
-889 890 0
-361 -889 0
-362 891 0
-890 891 0
-362 -890 0
-363 892 0
-891 892 0
-363 -891 0
-364 893 0
-892 893 0
-364 -892 0
-365 894 0
-893 894 0
-365 -893 0
-366 895 0
-894 895 0
-366 -894 0
-367 896 0
-895 896 0
-367 -895 0
-368 897 0
-896 897 0
-368 -896 0
-369 898 0
-897 898 0
-369 -897 0
-370 899 0
-898 899 0
-370 -898 0
-371 -899 0
7 55 78 121 142 177 200 372 373 374 375 376 377 378 379 0
-7 900 0
-55 901 0
-900 901 0
-55 -900 0
-78 902 0
-901 902 0
-78 -901 0
-121 903 0
-902 903 0
-121 -902 0
-142 904 0
-903 904 0
-142 -903 0
-177 905 0
-904 905 0
-177 -904 0
-200 906 0
-905 906 0
-200 -905 0
-372 907 0
-906 907 0
-372 -906 0
-373 908 0
-907 908 0
-373 -907 0
-374 909 0
-908 909 0
-374 -908 0
-375 910 0
-909 910 0
-375 -909 0
-376 911 0
-910 911 0
-376 -910 0
-377 912 0
-911 912 0
-377 -911 0
-378 913 0
-912 913 0
-378 -912 0
-379 -913 0
22 56 92 122 154 178 212 380 381 382 383 384 385 386 387 0
-22 914 0
-56 915 0
-914 915 0
-56 -914 0
-92 916 0
-915 916 0
-92 -915 0
-122 917 0
-916 917 0
-122 -916 0
-154 918 0
-917 918 0
-154 -917 0
-178 919 0
-918 919 0
-178 -918 0
-212 920 0
-919 920 0
-212 -919 0
-380 921 0
-920 921 0
-380 -920 0
-381 922 0
-921 922 0
-381 -921 0
-382 923 0
-922 923 0
-382 -922 0
-383 924 0
-923 924 0
-383 -923 0
-384 925 0
-924 925 0
-384 -924 0
-385 926 0
-925 926 0
-385 -925 0
-386 927 0
-926 927 0
-386 -926 0
-387 -927 0
37 57 106 123 166 179 224 388 389 390 391 392 393 394 395 0
-37 928 0
-57 929 0
-928 929 0
-57 -928 0
-106 930 0
-929 930 0
-106 -929 0
-123 931 0
-930 931 0
-123 -930 0
-166 932 0
-931 932 0
-166 -931 0
-179 933 0
-932 933 0
-179 -932 0
-224 934 0
-933 934 0
-224 -933 0
-388 935 0
-934 935 0
-388 -934 0
-389 936 0
-935 936 0
-389 -935 0
-390 937 0
-936 937 0
-390 -936 0
-391 938 0
-937 938 0
-391 -937 0
-392 939 0
-938 939 0
-392 -938 0
-393 940 0
-939 940 0
-393 -939 0
-394 941 0
-940 941 0
-394 -940 0
-395 -941 0
8 23 38 58 80 94 108 124 144 156 168 184 204 216 228 236 252 260 268 276 292 300 308 316 332 340 348 356 372 380 388 0
-8 942 0
-23 943 0
-942 943 0
-23 -942 0
-38 944 0
-943 944 0
-38 -943 0
-58 945 0
-944 945 0
-58 -944 0
-80 946 0
-945 946 0
-80 -945 0
-94 947 0
-946 947 0
-94 -946 0
-108 948 0
-947 948 0
-108 -947 0
-124 949 0
-948 949 0
-124 -948 0
-144 950 0
-949 950 0
-144 -949 0
-156 951 0
-950 951 0
-156 -950 0
-168 952 0
-951 952 0
-168 -951 0
-184 953 0
-952 953 0
-184 -952 0
-204 954 0
-953 954 0
-204 -953 0
-216 955 0
-954 955 0
-216 -954 0
-228 956 0
-955 956 0
-228 -955 0
-236 957 0
-956 957 0
-236 -956 0
-252 958 0
-957 958 0
-252 -957 0
-260 959 0
-958 959 0
-260 -958 0
-268 960 0
-959 960 0
-268 -959 0
-276 961 0
-960 961 0
-276 -960 0
-292 962 0
-961 962 0
-292 -961 0
-300 963 0
-962 963 0
-300 -962 0
-308 964 0
-963 964 0
-308 -963 0
-316 965 0
-964 965 0
-316 -964 0
-332 966 0
-965 966 0
-332 -965 0
-340 967 0
-966 967 0
-340 -966 0
-348 968 0
-967 968 0
-348 -967 0
-356 969 0
-968 969 0
-356 -968 0
-372 970 0
-969 970 0
-372 -969 0
-380 971 0
-970 971 0
-380 -970 0
-388 -971 0
8 59 81 125 145 185 205 237 253 277 293 317 333 357 373 0
-8 972 0
-59 973 0
-972 973 0
-59 -972 0
-81 974 0
-973 974 0
-81 -973 0
-125 975 0
-974 975 0
-125 -974 0
-145 976 0
-975 976 0
-145 -975 0
-185 977 0
-976 977 0
-185 -976 0
-205 978 0
-977 978 0
-205 -977 0
-237 979 0
-978 979 0
-237 -978 0
-253 980 0
-979 980 0
-253 -979 0
-277 981 0
-980 981 0
-277 -980 0
-293 982 0
-981 982 0
-293 -981 0
-317 983 0
-982 983 0
-317 -982 0
-333 984 0
-983 984 0
-333 -983 0
-357 985 0
-984 985 0
-357 -984 0
-373 -985 0
23 60 95 126 157 186 217 238 261 278 301 318 341 358 381 0
-23 986 0
-60 987 0
-986 987 0
-60 -986 0
-95 988 0
-987 988 0
-95 -987 0
-126 989 0
-988 989 0
-126 -988 0
-157 990 0
-989 990 0
-157 -989 0
-186 991 0
-990 991 0
-186 -990 0
-217 992 0
-991 992 0
-217 -991 0
-238 993 0
-992 993 0
-238 -992 0
-261 994 0
-993 994 0
-261 -993 0
-278 995 0
-994 995 0
-278 -994 0
-301 996 0
-995 996 0
-301 -995 0
-318 997 0
-996 997 0
-318 -996 0
-341 998 0
-997 998 0
-341 -997 0
-358 999 0
-998 999 0
-358 -998 0
-381 -999 0
38 61 109 127 169 187 229 239 269 279 309 319 349 359 389 0
-38 1000 0
-61 1001 0
-1000 1001 0
-61 -1000 0
-109 1002 0
-1001 1002 0
-109 -1001 0
-127 1003 0
-1002 1003 0
-127 -1002 0
-169 1004 0
-1003 1004 0
-169 -1003 0
-187 1005 0
-1004 1005 0
-187 -1004 0
-229 1006 0
-1005 1006 0
-229 -1005 0
-239 1007 0
-1006 1007 0
-239 -1006 0
-269 1008 0
-1007 1008 0
-269 -1007 0
-279 1009 0
-1008 1009 0
-279 -1008 0
-309 1010 0
-1009 1010 0
-309 -1009 0
-319 1011 0
-1010 1011 0
-319 -1010 0
-349 1012 0
-1011 1012 0
-349 -1011 0
-359 1013 0
-1012 1013 0
-359 -1012 0
-389 -1013 0
9 24 39 58 81 95 109 128 146 158 170 188 206 218 230 240 254 262 270 280 294 302 310 320 334 342 350 360 374 382 390 0
-9 1014 0
-24 1015 0
-1014 1015 0
-24 -1014 0
-39 1016 0
-1015 1016 0
-39 -1015 0
-58 1017 0
-1016 1017 0
-58 -1016 0
-81 1018 0
-1017 1018 0
-81 -1017 0
-95 1019 0
-1018 1019 0
-95 -1018 0
-109 1020 0
-1019 1020 0
-109 -1019 0
-128 1021 0
-1020 1021 0
-128 -1020 0
-146 1022 0
-1021 1022 0
-146 -1021 0
-158 1023 0
-1022 1023 0
-158 -1022 0
-170 1024 0
-1023 1024 0
-170 -1023 0
-188 1025 0
-1024 1025 0
-188 -1024 0
-206 1026 0
-1025 1026 0
-206 -1025 0
-218 1027 0
-1026 1027 0
-218 -1026 0
-230 1028 0
-1027 1028 0
-230 -1027 0
-240 1029 0
-1028 1029 0
-240 -1028 0
-254 1030 0
-1029 1030 0
-254 -1029 0
-262 1031 0
-1030 1031 0
-262 -1030 0
-270 1032 0
-1031 1032 0
-270 -1031 0
-280 1033 0
-1032 1033 0
-280 -1032 0
-294 1034 0
-1033 1034 0
-294 -1033 0
-302 1035 0
-1034 1035 0
-302 -1034 0
-310 1036 0
-1035 1036 0
-310 -1035 0
-320 1037 0
-1036 1037 0
-320 -1036 0
-334 1038 0
-1037 1038 0
-334 -1037 0
-342 1039 0
-1038 1039 0
-342 -1038 0
-350 1040 0
-1039 1040 0
-350 -1039 0
-360 1041 0
-1040 1041 0
-360 -1040 0
-374 1042 0
-1041 1042 0
-374 -1041 0
-382 1043 0
-1042 1043 0
-382 -1042 0
-390 -1043 0
9 59 80 129 147 189 207 241 255 281 295 321 335 361 375 0
-9 1044 0
-59 1045 0
-1044 1045 0
-59 -1044 0
-80 1046 0
-1045 1046 0
-80 -1045 0
-129 1047 0
-1046 1047 0
-129 -1046 0
-147 1048 0
-1047 1048 0
-147 -1047 0
-189 1049 0
-1048 1049 0
-189 -1048 0
-207 1050 0
-1049 1050 0
-207 -1049 0
-241 1051 0
-1050 1051 0
-241 -1050 0
-255 1052 0
-1051 1052 0
-255 -1051 0
-281 1053 0
-1052 1053 0
-281 -1052 0
-295 1054 0
-1053 1054 0
-295 -1053 0
-321 1055 0
-1054 1055 0
-321 -1054 0
-335 1056 0
-1055 1056 0
-335 -1055 0
-361 1057 0
-1056 1057 0
-361 -1056 0
-375 -1057 0
24 60 94 130 159 190 219 242 263 282 303 322 343 362 383 0
-24 1058 0
-60 1059 0
-1058 1059 0
-60 -1058 0
-94 1060 0
-1059 1060 0
-94 -1059 0
-130 1061 0
-1060 1061 0
-130 -1060 0
-159 1062 0
-1061 1062 0
-159 -1061 0
-190 1063 0
-1062 1063 0
-190 -1062 0
-219 1064 0
-1063 1064 0
-219 -1063 0
-242 1065 0
-1064 1065 0
-242 -1064 0
-263 1066 0
-1065 1066 0
-263 -1065 0
-282 1067 0
-1066 1067 0
-282 -1066 0
-303 1068 0
-1067 1068 0
-303 -1067 0
-322 1069 0
-1068 1069 0
-322 -1068 0
-343 1070 0
-1069 1070 0
-343 -1069 0
-362 1071 0
-1070 1071 0
-362 -1070 0
-383 -1071 0
39 61 108 131 171 191 231 243 271 283 311 323 351 363 391 0
-39 1072 0
-61 1073 0
-1072 1073 0
-61 -1072 0
-108 1074 0
-1073 1074 0
-108 -1073 0
-131 1075 0
-1074 1075 0
-131 -1074 0
-171 1076 0
-1075 1076 0
-171 -1075 0
-191 1077 0
-1076 1077 0
-191 -1076 0
-231 1078 0
-1077 1078 0
-231 -1077 0
-243 1079 0
-1078 1079 0
-243 -1078 0
-271 1080 0
-1079 1080 0
-271 -1079 0
-283 1081 0
-1080 1081 0
-283 -1080 0
-311 1082 0
-1081 1082 0
-311 -1081 0
-323 1083 0
-1082 1083 0
-323 -1082 0
-351 1084 0
-1083 1084 0
-351 -1083 0
-363 1085 0
-1084 1085 0
-363 -1084 0
-391 -1085 0
10 25 40 62 82 96 110 124 145 157 169 188 207 219 231 244 256 264 272 284 296 304 312 324 336 344 352 364 376 384 392 0
-10 1086 0
-25 1087 0
-1086 1087 0
-25 -1086 0
-40 1088 0
-1087 1088 0
-40 -1087 0
-62 1089 0
-1088 1089 0
-62 -1088 0
-82 1090 0
-1089 1090 0
-82 -1089 0
-96 1091 0
-1090 1091 0
-96 -1090 0
-110 1092 0
-1091 1092 0
-110 -1091 0
-124 1093 0
-1092 1093 0
-124 -1092 0
-145 1094 0
-1093 1094 0
-145 -1093 0
-157 1095 0
-1094 1095 0
-157 -1094 0
-169 1096 0
-1095 1096 0
-169 -1095 0
-188 1097 0
-1096 1097 0
-188 -1096 0
-207 1098 0
-1097 1098 0
-207 -1097 0
-219 1099 0
-1098 1099 0
-219 -1098 0
-231 1100 0
-1099 1100 0
-231 -1099 0
-244 1101 0
-1100 1101 0
-244 -1100 0
-256 1102 0
-1101 1102 0
-256 -1101 0
-264 1103 0
-1102 1103 0
-264 -1102 0
-272 1104 0
-1103 1104 0
-272 -1103 0
-284 1105 0
-1104 1105 0
-284 -1104 0
-296 1106 0
-1105 1106 0
-296 -1105 0
-304 1107 0
-1106 1107 0
-304 -1106 0
-312 1108 0
-1107 1108 0
-312 -1107 0
-324 1109 0
-1108 1109 0
-324 -1108 0
-336 1110 0
-1109 1110 0
-336 -1109 0
-344 1111 0
-1110 1111 0
-344 -1110 0
-352 1112 0
-1111 1112 0
-352 -1111 0
-364 1113 0
-1112 1113 0
-364 -1112 0
-376 1114 0
-1113 1114 0
-376 -1113 0
-384 1115 0
-1114 1115 0
-384 -1114 0
-392 -1115 0
10 63 83 125 144 189 206 245 257 285 297 325 337 365 377 0
-10 1116 0
-63 1117 0
-1116 1117 0
-63 -1116 0
-83 1118 0
-1117 1118 0
-83 -1117 0
-125 1119 0
-1118 1119 0
-125 -1118 0
-144 1120 0
-1119 1120 0
-144 -1119 0
-189 1121 0
-1120 1121 0
-189 -1120 0
-206 1122 0
-1121 1122 0
-206 -1121 0
-245 1123 0
-1122 1123 0
-245 -1122 0
-257 1124 0
-1123 1124 0
-257 -1123 0
-285 1125 0
-1124 1125 0
-285 -1124 0
-297 1126 0
-1125 1126 0
-297 -1125 0
-325 1127 0
-1126 1127 0
-325 -1126 0
-337 1128 0
-1127 1128 0
-337 -1127 0
-365 1129 0
-1128 1129 0
-365 -1128 0
-377 -1129 0
25 64 97 126 156 190 218 246 265 286 305 326 345 366 385 0
-25 1130 0
-64 1131 0
-1130 1131 0
-64 -1130 0
-97 1132 0
-1131 1132 0
-97 -1131 0
-126 1133 0
-1132 1133 0
-126 -1132 0
-156 1134 0
-1133 1134 0
-156 -1133 0
-190 1135 0
-1134 1135 0
-190 -1134 0
-218 1136 0
-1135 1136 0
-218 -1135 0
-246 1137 0
-1136 1137 0
-246 -1136 0
-265 1138 0
-1137 1138 0
-265 -1137 0
-286 1139 0
-1138 1139 0
-286 -1138 0
-305 1140 0
-1139 1140 0
-305 -1139 0
-326 1141 0
-1140 1141 0
-326 -1140 0
-345 1142 0
-1141 1142 0
-345 -1141 0
-366 1143 0
-1142 1143 0
-366 -1142 0
-385 -1143 0
40 65 111 127 168 191 230 247 273 287 313 327 353 367 393 0
-40 1144 0
-65 1145 0
-1144 1145 0
-65 -1144 0
-111 1146 0
-1145 1146 0
-111 -1145 0
-127 1147 0
-1146 1147 0
-127 -1146 0
-168 1148 0
-1147 1148 0
-168 -1147 0
-191 1149 0
-1148 1149 0
-191 -1148 0
-230 1150 0
-1149 1150 0
-230 -1149 0
-247 1151 0
-1150 1151 0
-247 -1150 0
-273 1152 0
-1151 1152 0
-273 -1151 0
-287 1153 0
-1152 1153 0
-287 -1152 0
-313 1154 0
-1153 1154 0
-313 -1153 0
-327 1155 0
-1154 1155 0
-327 -1154 0
-353 1156 0
-1155 1156 0
-353 -1155 0
-367 1157 0
-1156 1157 0
-367 -1156 0
-393 -1157 0
11 26 41 62 83 97 111 128 147 159 171 184 205 217 229 248 258 266 274 288 298 306 314 328 338 346 354 368 378 386 394 0
-11 1158 0
-26 1159 0
-1158 1159 0
-26 -1158 0
-41 1160 0
-1159 1160 0
-41 -1159 0
-62 1161 0
-1160 1161 0
-62 -1160 0
-83 1162 0
-1161 1162 0
-83 -1161 0
-97 1163 0
-1162 1163 0
-97 -1162 0
-111 1164 0
-1163 1164 0
-111 -1163 0
-128 1165 0
-1164 1165 0
-128 -1164 0
-147 1166 0
-1165 1166 0
-147 -1165 0
-159 1167 0
-1166 1167 0
-159 -1166 0
-171 1168 0
-1167 1168 0
-171 -1167 0
-184 1169 0
-1168 1169 0
-184 -1168 0
-205 1170 0
-1169 1170 0
-205 -1169 0
-217 1171 0
-1170 1171 0
-217 -1170 0
-229 1172 0
-1171 1172 0
-229 -1171 0
-248 1173 0
-1172 1173 0
-248 -1172 0
-258 1174 0
-1173 1174 0
-258 -1173 0
-266 1175 0
-1174 1175 0
-266 -1174 0
-274 1176 0
-1175 1176 0
-274 -1175 0
-288 1177 0
-1176 1177 0
-288 -1176 0
-298 1178 0
-1177 1178 0
-298 -1177 0
-306 1179 0
-1178 1179 0
-306 -1178 0
-314 1180 0
-1179 1180 0
-314 -1179 0
-328 1181 0
-1180 1181 0
-328 -1180 0
-338 1182 0
-1181 1182 0
-338 -1181 0
-346 1183 0
-1182 1183 0
-346 -1182 0
-354 1184 0
-1183 1184 0
-354 -1183 0
-368 1185 0
-1184 1185 0
-368 -1184 0
-378 1186 0
-1185 1186 0
-378 -1185 0
-386 1187 0
-1186 1187 0
-386 -1186 0
-394 -1187 0
11 63 82 129 146 185 204 249 259 289 299 329 339 369 379 0
-11 1188 0
-63 1189 0
-1188 1189 0
-63 -1188 0
-82 1190 0
-1189 1190 0
-82 -1189 0
-129 1191 0
-1190 1191 0
-129 -1190 0
-146 1192 0
-1191 1192 0
-146 -1191 0
-185 1193 0
-1192 1193 0
-185 -1192 0
-204 1194 0
-1193 1194 0
-204 -1193 0
-249 1195 0
-1194 1195 0
-249 -1194 0
-259 1196 0
-1195 1196 0
-259 -1195 0
-289 1197 0
-1196 1197 0
-289 -1196 0
-299 1198 0
-1197 1198 0
-299 -1197 0
-329 1199 0
-1198 1199 0
-329 -1198 0
-339 1200 0
-1199 1200 0
-339 -1199 0
-369 1201 0
-1200 1201 0
-369 -1200 0
-379 -1201 0
26 64 96 130 158 186 216 250 267 290 307 330 347 370 387 0
-26 1202 0
-64 1203 0
-1202 1203 0
-64 -1202 0
-96 1204 0
-1203 1204 0
-96 -1203 0
-130 1205 0
-1204 1205 0
-130 -1204 0
-158 1206 0
-1205 1206 0
-158 -1205 0
-186 1207 0
-1206 1207 0
-186 -1206 0
-216 1208 0
-1207 1208 0
-216 -1207 0
-250 1209 0
-1208 1209 0
-250 -1208 0
-267 1210 0
-1209 1210 0
-267 -1209 0
-290 1211 0
-1210 1211 0
-290 -1210 0
-307 1212 0
-1211 1212 0
-307 -1211 0
-330 1213 0
-1212 1213 0
-330 -1212 0
-347 1214 0
-1213 1214 0
-347 -1213 0
-370 1215 0
-1214 1215 0
-370 -1214 0
-387 -1215 0
41 65 110 131 170 187 228 251 275 291 315 331 355 371 395 0
-41 1216 0
-65 1217 0
-1216 1217 0
-65 -1216 0
-110 1218 0
-1217 1218 0
-110 -1217 0
-131 1219 0
-1218 1219 0
-131 -1218 0
-170 1220 0
-1219 1220 0
-170 -1219 0
-187 1221 0
-1220 1221 0
-187 -1220 0
-228 1222 0
-1221 1222 0
-228 -1221 0
-251 1223 0
-1222 1223 0
-251 -1222 0
-275 1224 0
-1223 1224 0
-275 -1223 0
-291 1225 0
-1224 1225 0
-291 -1224 0
-315 1226 0
-1225 1226 0
-315 -1225 0
-331 1227 0
-1226 1227 0
-331 -1226 0
-355 1228 0
-1227 1228 0
-355 -1227 0
-371 1229 0
-1228 1229 0
-371 -1228 0
-395 -1229 0
12 27 42 66 84 98 112 132 148 160 172 192 208 220 232 236 253 261 269 280 295 303 311 324 337 345 353 368 379 387 395 0
-12 1230 0
-27 1231 0
-1230 1231 0
-27 -1230 0
-42 1232 0
-1231 1232 0
-42 -1231 0
-66 1233 0
-1232 1233 0
-66 -1232 0
-84 1234 0
-1233 1234 0
-84 -1233 0
-98 1235 0
-1234 1235 0
-98 -1234 0
-112 1236 0
-1235 1236 0
-112 -1235 0
-132 1237 0
-1236 1237 0
-132 -1236 0
-148 1238 0
-1237 1238 0
-148 -1237 0
-160 1239 0
-1238 1239 0
-160 -1238 0
-172 1240 0
-1239 1240 0
-172 -1239 0
-192 1241 0
-1240 1241 0
-192 -1240 0
-208 1242 0
-1241 1242 0
-208 -1241 0
-220 1243 0
-1242 1243 0
-220 -1242 0
-232 1244 0
-1243 1244 0
-232 -1243 0
-236 1245 0
-1244 1245 0
-236 -1244 0
-253 1246 0
-1245 1246 0
-253 -1245 0
-261 1247 0
-1246 1247 0
-261 -1246 0
-269 1248 0
-1247 1248 0
-269 -1247 0
-280 1249 0
-1248 1249 0
-280 -1248 0
-295 1250 0
-1249 1250 0
-295 -1249 0
-303 1251 0
-1250 1251 0
-303 -1250 0
-311 1252 0
-1251 1252 0
-311 -1251 0
-324 1253 0
-1252 1253 0
-324 -1252 0
-337 1254 0
-1253 1254 0
-337 -1253 0
-345 1255 0
-1254 1255 0
-345 -1254 0
-353 1256 0
-1255 1256 0
-353 -1255 0
-368 1257 0
-1256 1257 0
-368 -1256 0
-379 1258 0
-1257 1258 0
-379 -1257 0
-387 1259 0
-1258 1259 0
-387 -1258 0
-395 -1259 0
12 67 85 133 149 193 209 237 252 281 294 325 336 369 378 0
-12 1260 0
-67 1261 0
-1260 1261 0
-67 -1260 0
-85 1262 0
-1261 1262 0
-85 -1261 0
-133 1263 0
-1262 1263 0
-133 -1262 0
-149 1264 0
-1263 1264 0
-149 -1263 0
-193 1265 0
-1264 1265 0
-193 -1264 0
-209 1266 0
-1265 1266 0
-209 -1265 0
-237 1267 0
-1266 1267 0
-237 -1266 0
-252 1268 0
-1267 1268 0
-252 -1267 0
-281 1269 0
-1268 1269 0
-281 -1268 0
-294 1270 0
-1269 1270 0
-294 -1269 0
-325 1271 0
-1270 1271 0
-325 -1270 0
-336 1272 0
-1271 1272 0
-336 -1271 0
-369 1273 0
-1272 1273 0
-369 -1272 0
-378 -1273 0
27 68 99 134 161 194 221 238 260 282 302 326 344 370 386 0
-27 1274 0
-68 1275 0
-1274 1275 0
-68 -1274 0
-99 1276 0
-1275 1276 0
-99 -1275 0
-134 1277 0
-1276 1277 0
-134 -1276 0
-161 1278 0
-1277 1278 0
-161 -1277 0
-194 1279 0
-1278 1279 0
-194 -1278 0
-221 1280 0
-1279 1280 0
-221 -1279 0
-238 1281 0
-1280 1281 0
-238 -1280 0
-260 1282 0
-1281 1282 0
-260 -1281 0
-282 1283 0
-1282 1283 0
-282 -1282 0
-302 1284 0
-1283 1284 0
-302 -1283 0
-326 1285 0
-1284 1285 0
-326 -1284 0
-344 1286 0
-1285 1286 0
-344 -1285 0
-370 1287 0
-1286 1287 0
-370 -1286 0
-386 -1287 0
42 69 113 135 173 195 233 239 268 283 310 327 352 371 394 0
-42 1288 0
-69 1289 0
-1288 1289 0
-69 -1288 0
-113 1290 0
-1289 1290 0
-113 -1289 0
-135 1291 0
-1290 1291 0
-135 -1290 0
-173 1292 0
-1291 1292 0
-173 -1291 0
-195 1293 0
-1292 1293 0
-195 -1292 0
-233 1294 0
-1293 1294 0
-233 -1293 0
-239 1295 0
-1294 1295 0
-239 -1294 0
-268 1296 0
-1295 1296 0
-268 -1295 0
-283 1297 0
-1296 1297 0
-283 -1296 0
-310 1298 0
-1297 1298 0
-310 -1297 0
-327 1299 0
-1298 1299 0
-327 -1298 0
-352 1300 0
-1299 1300 0
-352 -1299 0
-371 1301 0
-1300 1301 0
-371 -1300 0
-394 -1301 0
13 28 43 66 85 99 113 136 150 162 174 196 210 222 234 240 255 263 271 276 293 301 309 328 339 347 355 364 377 385 393 0
-13 1302 0
-28 1303 0
-1302 1303 0
-28 -1302 0
-43 1304 0
-1303 1304 0
-43 -1303 0
-66 1305 0
-1304 1305 0
-66 -1304 0
-85 1306 0
-1305 1306 0
-85 -1305 0
-99 1307 0
-1306 1307 0
-99 -1306 0
-113 1308 0
-1307 1308 0
-113 -1307 0
-136 1309 0
-1308 1309 0
-136 -1308 0
-150 1310 0
-1309 1310 0
-150 -1309 0
-162 1311 0
-1310 1311 0
-162 -1310 0
-174 1312 0
-1311 1312 0
-174 -1311 0
-196 1313 0
-1312 1313 0
-196 -1312 0
-210 1314 0
-1313 1314 0
-210 -1313 0
-222 1315 0
-1314 1315 0
-222 -1314 0
-234 1316 0
-1315 1316 0
-234 -1315 0
-240 1317 0
-1316 1317 0
-240 -1316 0
-255 1318 0
-1317 1318 0
-255 -1317 0
-263 1319 0
-1318 1319 0
-263 -1318 0
-271 1320 0
-1319 1320 0
-271 -1319 0
-276 1321 0
-1320 1321 0
-276 -1320 0
-293 1322 0
-1321 1322 0
-293 -1321 0
-301 1323 0
-1322 1323 0
-301 -1322 0
-309 1324 0
-1323 1324 0
-309 -1323 0
-328 1325 0
-1324 1325 0
-328 -1324 0
-339 1326 0
-1325 1326 0
-339 -1325 0
-347 1327 0
-1326 1327 0
-347 -1326 0
-355 1328 0
-1327 1328 0
-355 -1327 0
-364 1329 0
-1328 1329 0
-364 -1328 0
-377 1330 0
-1329 1330 0
-377 -1329 0
-385 1331 0
-1330 1331 0
-385 -1330 0
-393 -1331 0
13 67 84 137 151 197 211 241 254 277 292 329 338 365 376 0
-13 1332 0
-67 1333 0
-1332 1333 0
-67 -1332 0
-84 1334 0
-1333 1334 0
-84 -1333 0
-137 1335 0
-1334 1335 0
-137 -1334 0
-151 1336 0
-1335 1336 0
-151 -1335 0
-197 1337 0
-1336 1337 0
-197 -1336 0
-211 1338 0
-1337 1338 0
-211 -1337 0
-241 1339 0
-1338 1339 0
-241 -1338 0
-254 1340 0
-1339 1340 0
-254 -1339 0
-277 1341 0
-1340 1341 0
-277 -1340 0
-292 1342 0
-1341 1342 0
-292 -1341 0
-329 1343 0
-1342 1343 0
-329 -1342 0
-338 1344 0
-1343 1344 0
-338 -1343 0
-365 1345 0
-1344 1345 0
-365 -1344 0
-376 -1345 0
28 68 98 138 163 198 223 242 262 278 300 330 346 366 384 0
-28 1346 0
-68 1347 0
-1346 1347 0
-68 -1346 0
-98 1348 0
-1347 1348 0
-98 -1347 0
-138 1349 0
-1348 1349 0
-138 -1348 0
-163 1350 0
-1349 1350 0
-163 -1349 0
-198 1351 0
-1350 1351 0
-198 -1350 0
-223 1352 0
-1351 1352 0
-223 -1351 0
-242 1353 0
-1352 1353 0
-242 -1352 0
-262 1354 0
-1353 1354 0
-262 -1353 0
-278 1355 0
-1354 1355 0
-278 -1354 0
-300 1356 0
-1355 1356 0
-300 -1355 0
-330 1357 0
-1356 1357 0
-330 -1356 0
-346 1358 0
-1357 1358 0
-346 -1357 0
-366 1359 0
-1358 1359 0
-366 -1358 0
-384 -1359 0
43 69 112 139 175 199 235 243 270 279 308 331 354 367 392 0
-43 1360 0
-69 1361 0
-1360 1361 0
-69 -1360 0
-112 1362 0
-1361 1362 0
-112 -1361 0
-139 1363 0
-1362 1363 0
-139 -1362 0
-175 1364 0
-1363 1364 0
-175 -1363 0
-199 1365 0
-1364 1365 0
-199 -1364 0
-235 1366 0
-1365 1366 0
-235 -1365 0
-243 1367 0
-1366 1367 0
-243 -1366 0
-270 1368 0
-1367 1368 0
-270 -1367 0
-279 1369 0
-1368 1369 0
-279 -1368 0
-308 1370 0
-1369 1370 0
-308 -1369 0
-331 1371 0
-1370 1371 0
-331 -1370 0
-354 1372 0
-1371 1372 0
-354 -1371 0
-367 1373 0
-1372 1373 0
-367 -1372 0
-392 -1373 0
14 29 44 70 86 100 114 132 149 161 173 196 211 223 235 244 257 265 273 288 299 307 315 316 333 341 349 360 375 383 391 0
-14 1374 0
-29 1375 0
-1374 1375 0
-29 -1374 0
-44 1376 0
-1375 1376 0
-44 -1375 0
-70 1377 0
-1376 1377 0
-70 -1376 0
-86 1378 0
-1377 1378 0
-86 -1377 0
-100 1379 0
-1378 1379 0
-100 -1378 0
-114 1380 0
-1379 1380 0
-114 -1379 0
-132 1381 0
-1380 1381 0
-132 -1380 0
-149 1382 0
-1381 1382 0
-149 -1381 0
-161 1383 0
-1382 1383 0
-161 -1382 0
-173 1384 0
-1383 1384 0
-173 -1383 0
-196 1385 0
-1384 1385 0
-196 -1384 0
-211 1386 0
-1385 1386 0
-211 -1385 0
-223 1387 0
-1386 1387 0
-223 -1386 0
-235 1388 0
-1387 1388 0
-235 -1387 0
-244 1389 0
-1388 1389 0
-244 -1388 0
-257 1390 0
-1389 1390 0
-257 -1389 0
-265 1391 0
-1390 1391 0
-265 -1390 0
-273 1392 0
-1391 1392 0
-273 -1391 0
-288 1393 0
-1392 1393 0
-288 -1392 0
-299 1394 0
-1393 1394 0
-299 -1393 0
-307 1395 0
-1394 1395 0
-307 -1394 0
-315 1396 0
-1395 1396 0
-315 -1395 0
-316 1397 0
-1396 1397 0
-316 -1396 0
-333 1398 0
-1397 1398 0
-333 -1397 0
-341 1399 0
-1398 1399 0
-341 -1398 0
-349 1400 0
-1399 1400 0
-349 -1399 0
-360 1401 0
-1400 1401 0
-360 -1400 0
-375 1402 0
-1401 1402 0
-375 -1401 0
-383 1403 0
-1402 1403 0
-383 -1402 0
-391 -1403 0
14 71 87 133 148 197 210 245 256 289 298 317 332 361 374 0
-14 1404 0
-71 1405 0
-1404 1405 0
-71 -1404 0
-87 1406 0
-1405 1406 0
-87 -1405 0
-133 1407 0
-1406 1407 0
-133 -1406 0
-148 1408 0
-1407 1408 0
-148 -1407 0
-197 1409 0
-1408 1409 0
-197 -1408 0
-210 1410 0
-1409 1410 0
-210 -1409 0
-245 1411 0
-1410 1411 0
-245 -1410 0
-256 1412 0
-1411 1412 0
-256 -1411 0
-289 1413 0
-1412 1413 0
-289 -1412 0
-298 1414 0
-1413 1414 0
-298 -1413 0
-317 1415 0
-1414 1415 0
-317 -1414 0
-332 1416 0
-1415 1416 0
-332 -1415 0
-361 1417 0
-1416 1417 0
-361 -1416 0
-374 -1417 0
29 72 101 134 160 198 222 246 264 290 306 318 340 362 382 0
-29 1418 0
-72 1419 0
-1418 1419 0
-72 -1418 0
-101 1420 0
-1419 1420 0
-101 -1419 0
-134 1421 0
-1420 1421 0
-134 -1420 0
-160 1422 0
-1421 1422 0
-160 -1421 0
-198 1423 0
-1422 1423 0
-198 -1422 0
-222 1424 0
-1423 1424 0
-222 -1423 0
-246 1425 0
-1424 1425 0
-246 -1424 0
-264 1426 0
-1425 1426 0
-264 -1425 0
-290 1427 0
-1426 1427 0
-290 -1426 0
-306 1428 0
-1427 1428 0
-306 -1427 0
-318 1429 0
-1428 1429 0
-318 -1428 0
-340 1430 0
-1429 1430 0
-340 -1429 0
-362 1431 0
-1430 1431 0
-362 -1430 0
-382 -1431 0
44 73 115 135 172 199 234 247 272 291 314 319 348 363 390 0
-44 1432 0
-73 1433 0
-1432 1433 0
-73 -1432 0
-115 1434 0
-1433 1434 0
-115 -1433 0
-135 1435 0
-1434 1435 0
-135 -1434 0
-172 1436 0
-1435 1436 0
-172 -1435 0
-199 1437 0
-1436 1437 0
-199 -1436 0
-234 1438 0
-1437 1438 0
-234 -1437 0
-247 1439 0
-1438 1439 0
-247 -1438 0
-272 1440 0
-1439 1440 0
-272 -1439 0
-291 1441 0
-1440 1441 0
-291 -1440 0
-314 1442 0
-1441 1442 0
-314 -1441 0
-319 1443 0
-1442 1443 0
-319 -1442 0
-348 1444 0
-1443 1444 0
-348 -1443 0
-363 1445 0
-1444 1445 0
-363 -1444 0
-390 -1445 0
15 30 45 70 87 101 115 136 151 163 175 192 209 221 233 248 259 267 275 284 297 305 313 320 335 343 351 356 373 381 389 0
-15 1446 0
-30 1447 0
-1446 1447 0
-30 -1446 0
-45 1448 0
-1447 1448 0
-45 -1447 0
-70 1449 0
-1448 1449 0
-70 -1448 0
-87 1450 0
-1449 1450 0
-87 -1449 0
-101 1451 0
-1450 1451 0
-101 -1450 0
-115 1452 0
-1451 1452 0
-115 -1451 0
-136 1453 0
-1452 1453 0
-136 -1452 0
-151 1454 0
-1453 1454 0
-151 -1453 0
-163 1455 0
-1454 1455 0
-163 -1454 0
-175 1456 0
-1455 1456 0
-175 -1455 0
-192 1457 0
-1456 1457 0
-192 -1456 0
-209 1458 0
-1457 1458 0
-209 -1457 0
-221 1459 0
-1458 1459 0
-221 -1458 0
-233 1460 0
-1459 1460 0
-233 -1459 0
-248 1461 0
-1460 1461 0
-248 -1460 0
-259 1462 0
-1461 1462 0
-259 -1461 0
-267 1463 0
-1462 1463 0
-267 -1462 0
-275 1464 0
-1463 1464 0
-275 -1463 0
-284 1465 0
-1464 1465 0
-284 -1464 0
-297 1466 0
-1465 1466 0
-297 -1465 0
-305 1467 0
-1466 1467 0
-305 -1466 0
-313 1468 0
-1467 1468 0
-313 -1467 0
-320 1469 0
-1468 1469 0
-320 -1468 0
-335 1470 0
-1469 1470 0
-335 -1469 0
-343 1471 0
-1470 1471 0
-343 -1470 0
-351 1472 0
-1471 1472 0
-351 -1471 0
-356 1473 0
-1472 1473 0
-356 -1472 0
-373 1474 0
-1473 1474 0
-373 -1473 0
-381 1475 0
-1474 1475 0
-381 -1474 0
-389 -1475 0
15 71 86 137 150 193 208 249 258 285 296 321 334 357 372 0
-15 1476 0
-71 1477 0
-1476 1477 0
-71 -1476 0
-86 1478 0
-1477 1478 0
-86 -1477 0
-137 1479 0
-1478 1479 0
-137 -1478 0
-150 1480 0
-1479 1480 0
-150 -1479 0
-193 1481 0
-1480 1481 0
-193 -1480 0
-208 1482 0
-1481 1482 0
-208 -1481 0
-249 1483 0
-1482 1483 0
-249 -1482 0
-258 1484 0
-1483 1484 0
-258 -1483 0
-285 1485 0
-1484 1485 0
-285 -1484 0
-296 1486 0
-1485 1486 0
-296 -1485 0
-321 1487 0
-1486 1487 0
-321 -1486 0
-334 1488 0
-1487 1488 0
-334 -1487 0
-357 1489 0
-1488 1489 0
-357 -1488 0
-372 -1489 0
30 72 100 138 162 194 220 250 266 286 304 322 342 358 380 0
-30 1490 0
-72 1491 0
-1490 1491 0
-72 -1490 0
-100 1492 0
-1491 1492 0
-100 -1491 0
-138 1493 0
-1492 1493 0
-138 -1492 0
-162 1494 0
-1493 1494 0
-162 -1493 0
-194 1495 0
-1494 1495 0
-194 -1494 0
-220 1496 0
-1495 1496 0
-220 -1495 0
-250 1497 0
-1496 1497 0
-250 -1496 0
-266 1498 0
-1497 1498 0
-266 -1497 0
-286 1499 0
-1498 1499 0
-286 -1498 0
-304 1500 0
-1499 1500 0
-304 -1499 0
-322 1501 0
-1500 1501 0
-322 -1500 0
-342 1502 0
-1501 1502 0
-342 -1501 0
-358 1503 0
-1502 1503 0
-358 -1502 0
-380 -1503 0
45 73 114 139 174 195 232 251 274 287 312 323 350 359 388 0
-45 1504 0
-73 1505 0
-1504 1505 0
-73 -1504 0
-114 1506 0
-1505 1506 0
-114 -1505 0
-139 1507 0
-1506 1507 0
-139 -1506 0
-174 1508 0
-1507 1508 0
-174 -1507 0
-195 1509 0
-1508 1509 0
-195 -1508 0
-232 1510 0
-1509 1510 0
-232 -1509 0
-251 1511 0
-1510 1511 0
-251 -1510 0
-274 1512 0
-1511 1512 0
-274 -1511 0
-287 1513 0
-1512 1513 0
-287 -1512 0
-312 1514 0
-1513 1514 0
-312 -1513 0
-323 1515 0
-1514 1515 0
-323 -1514 0
-350 1516 0
-1515 1516 0
-350 -1515 0
-359 1517 0
-1516 1517 0
-359 -1516 0
-388 -1517 0
