p cnf 1261 2790
1 2 3 4 5 6 7 8 9 10 11 12 13 14 15 0
-1 332 0
-2 333 0
-332 333 0
-2 -332 0
-3 334 0
-333 334 0
-3 -333 0
-4 335 0
-334 335 0
-4 -334 0
-5 336 0
-335 336 0
-5 -335 0
-6 337 0
-336 337 0
-6 -336 0
-7 338 0
-337 338 0
-7 -337 0
-8 339 0
-338 339 0
-8 -338 0
-9 340 0
-339 340 0
-9 -339 0
-10 341 0
-340 341 0
-10 -340 0
-11 342 0
-341 342 0
-11 -341 0
-12 343 0
-342 343 0
-12 -342 0
-13 344 0
-343 344 0
-13 -343 0
-14 345 0
-344 345 0
-14 -344 0
-15 -345 0
16 17 18 19 20 21 22 23 24 25 26 27 28 29 30 0
-16 346 0
-17 347 0
-346 347 0
-17 -346 0
-18 348 0
-347 348 0
-18 -347 0
-19 349 0
-348 349 0
-19 -348 0
-20 350 0
-349 350 0
-20 -349 0
-21 351 0
-350 351 0
-21 -350 0
-22 352 0
-351 352 0
-22 -351 0
-23 353 0
-352 353 0
-23 -352 0
-24 354 0
-353 354 0
-24 -353 0
-25 355 0
-354 355 0
-25 -354 0
-26 356 0
-355 356 0
-26 -355 0
-27 357 0
-356 357 0
-27 -356 0
-28 358 0
-357 358 0
-28 -357 0
-29 359 0
-358 359 0
-29 -358 0
-30 -359 0
31 32 33 34 35 36 37 38 39 40 41 42 43 44 45 0
-31 360 0
-32 361 0
-360 361 0
-32 -360 0
-33 362 0
-361 362 0
-33 -361 0
-34 363 0
-362 363 0
-34 -362 0
-35 364 0
-363 364 0
-35 -363 0
-36 365 0
-364 365 0
-36 -364 0
-37 366 0
-365 366 0
-37 -365 0
-38 367 0
-366 367 0
-38 -366 0
-39 368 0
-367 368 0
-39 -367 0
-40 369 0
-368 369 0
-40 -368 0
-41 370 0
-369 370 0
-41 -369 0
-42 371 0
-370 371 0
-42 -370 0
-43 372 0
-371 372 0
-43 -371 0
-44 373 0
-372 373 0
-44 -372 0
-45 -373 0
1 16 31 46 47 48 49 50 51 52 53 54 55 56 57 0
-1 374 0
-16 375 0
-374 375 0
-16 -374 0
-31 376 0
-375 376 0
-31 -375 0
-46 377 0
-376 377 0
-46 -376 0
-47 378 0
-377 378 0
-47 -377 0
-48 379 0
-378 379 0
-48 -378 0
-49 380 0
-379 380 0
-49 -379 0
-50 381 0
-380 381 0
-50 -380 0
-51 382 0
-381 382 0
-51 -381 0
-52 383 0
-382 383 0
-52 -382 0
-53 384 0
-383 384 0
-53 -383 0
-54 385 0
-384 385 0
-54 -384 0
-55 386 0
-385 386 0
-55 -385 0
-56 387 0
-386 387 0
-56 -386 0
-57 -387 0
1 58 59 60 61 62 63 64 65 66 67 68 69 70 71 0
-1 388 0
-58 389 0
-388 389 0
-58 -388 0
-59 390 0
-389 390 0
-59 -389 0
-60 391 0
-390 391 0
-60 -390 0
-61 392 0
-391 392 0
-61 -391 0
-62 393 0
-392 393 0
-62 -392 0
-63 394 0
-393 394 0
-63 -393 0
-64 395 0
-394 395 0
-64 -394 0
-65 396 0
-395 396 0
-65 -395 0
-66 397 0
-396 397 0
-66 -396 0
-67 398 0
-397 398 0
-67 -397 0
-68 399 0
-398 399 0
-68 -398 0
-69 400 0
-399 400 0
-69 -399 0
-70 401 0
-400 401 0
-70 -400 0
-71 -401 0
16 72 73 74 75 76 77 78 79 80 81 82 83 84 85 0
-16 402 0
-72 403 0
-402 403 0
-72 -402 0
-73 404 0
-403 404 0
-73 -403 0
-74 405 0
-404 405 0
-74 -404 0
-75 406 0
-405 406 0
-75 -405 0
-76 407 0
-406 407 0
-76 -406 0
-77 408 0
-407 408 0
-77 -407 0
-78 409 0
-408 409 0
-78 -408 0
-79 410 0
-409 410 0
-79 -409 0
-80 411 0
-410 411 0
-80 -410 0
-81 412 0
-411 412 0
-81 -411 0
-82 413 0
-412 413 0
-82 -412 0
-83 414 0
-413 414 0
-83 -413 0
-84 415 0
-414 415 0
-84 -414 0
-85 -415 0
31 86 87 88 89 90 91 92 93 94 95 96 97 98 99 0
-31 416 0
-86 417 0
-416 417 0
-86 -416 0
-87 418 0
-417 418 0
-87 -417 0
-88 419 0
-418 419 0
-88 -418 0
-89 420 0
-419 420 0
-89 -419 0
-90 421 0
-420 421 0
-90 -420 0
-91 422 0
-421 422 0
-91 -421 0
-92 423 0
-422 423 0
-92 -422 0
-93 424 0
-423 424 0
-93 -423 0
-94 425 0
-424 425 0
-94 -424 0
-95 426 0
-425 426 0
-95 -425 0
-96 427 0
-426 427 0
-96 -426 0
-97 428 0
-427 428 0
-97 -427 0
-98 429 0
-428 429 0
-98 -428 0
-99 -429 0
2 17 32 100 101 102 103 104 105 106 107 108 109 110 111 0
-2 430 0
-17 431 0
-430 431 0
-17 -430 0
-32 432 0
-431 432 0
-32 -431 0
-100 433 0
-432 433 0
-100 -432 0
-101 434 0
-433 434 0
-101 -433 0
-102 435 0
-434 435 0
-102 -434 0
-103 436 0
-435 436 0
-103 -435 0
-104 437 0
-436 437 0
-104 -436 0
-105 438 0
-437 438 0
-105 -437 0
-106 439 0
-438 439 0
-106 -438 0
-107 440 0
-439 440 0
-107 -439 0
-108 441 0
-440 441 0
-108 -440 0
-109 442 0
-441 442 0
-109 -441 0
-110 443 0
-442 443 0
-110 -442 0
-111 -443 0
2 72 86 112 113 114 115 116 117 118 119 120 121 122 123 0
-2 444 0
-72 445 0
-444 445 0
-72 -444 0
-86 446 0
-445 446 0
-86 -445 0
-112 447 0
-446 447 0
-112 -446 0
-113 448 0
-447 448 0
-113 -447 0
-114 449 0
-448 449 0
-114 -448 0
-115 450 0
-449 450 0
-115 -449 0
-116 451 0
-450 451 0
-116 -450 0
-117 452 0
-451 452 0
-117 -451 0
-118 453 0
-452 453 0
-118 -452 0
-119 454 0
-453 454 0
-119 -453 0
-120 455 0
-454 455 0
-120 -454 0
-121 456 0
-455 456 0
-121 -455 0
-122 457 0
-456 457 0
-122 -456 0
-123 -457 0
17 58 87 124 125 126 127 128 129 130 131 132 133 134 135 0
-17 458 0
-58 459 0
-458 459 0
-58 -458 0
-87 460 0
-459 460 0
-87 -459 0
-124 461 0
-460 461 0
-124 -460 0
-125 462 0
-461 462 0
-125 -461 0
-126 463 0
-462 463 0
-126 -462 0
-127 464 0
-463 464 0
-127 -463 0
-128 465 0
-464 465 0
-128 -464 0
-129 466 0
-465 466 0
-129 -465 0
-130 467 0
-466 467 0
-130 -466 0
-131 468 0
-467 468 0
-131 -467 0
-132 469 0
-468 469 0
-132 -468 0
-133 470 0
-469 470 0
-133 -469 0
-134 471 0
-470 471 0
-134 -470 0
-135 -471 0
32 59 73 136 137 138 139 140 141 142 143 144 145 146 147 0
-32 472 0
-59 473 0
-472 473 0
-59 -472 0
-73 474 0
-473 474 0
-73 -473 0
-136 475 0
-474 475 0
-136 -474 0
-137 476 0
-475 476 0
-137 -475 0
-138 477 0
-476 477 0
-138 -476 0
-139 478 0
-477 478 0
-139 -477 0
-140 479 0
-478 479 0
-140 -478 0
-141 480 0
-479 480 0
-141 -479 0
-142 481 0
-480 481 0
-142 -480 0
-143 482 0
-481 482 0
-143 -481 0
-144 483 0
-482 483 0
-144 -482 0
-145 484 0
-483 484 0
-145 -483 0
-146 485 0
-484 485 0
-146 -484 0
-147 -485 0
3 18 33 148 149 150 151 152 153 154 155 156 157 158 159 0
-3 486 0
-18 487 0
-486 487 0
-18 -486 0
-33 488 0
-487 488 0
-33 -487 0
-148 489 0
-488 489 0
-148 -488 0
-149 490 0
-489 490 0
-149 -489 0
-150 491 0
-490 491 0
-150 -490 0
-151 492 0
-491 492 0
-151 -491 0
-152 493 0
-492 493 0
-152 -492 0
-153 494 0
-493 494 0
-153 -493 0
-154 495 0
-494 495 0
-154 -494 0
-155 496 0
-495 496 0
-155 -495 0
-156 497 0
-496 497 0
-156 -496 0
-157 498 0
-497 498 0
-157 -497 0
-158 499 0
-498 499 0
-158 -498 0
-159 -499 0
3 73 87 160 161 162 163 164 165 166 167 168 169 170 171 0
-3 500 0
-73 501 0
-500 501 0
-73 -500 0
-87 502 0
-501 502 0
-87 -501 0
-160 503 0
-502 503 0
-160 -502 0
-161 504 0
-503 504 0
-161 -503 0
-162 505 0
-504 505 0
-162 -504 0
-163 506 0
-505 506 0
-163 -505 0
-164 507 0
-506 507 0
-164 -506 0
-165 508 0
-507 508 0
-165 -507 0
-166 509 0
-508 509 0
-166 -508 0
-167 510 0
-509 510 0
-167 -509 0
-168 511 0
-510 511 0
-168 -510 0
-169 512 0
-511 512 0
-169 -511 0
-170 513 0
-512 513 0
-170 -512 0
-171 -513 0
18 59 86 172 173 174 175 176 177 178 179 180 181 182 183 0
-18 514 0
-59 515 0
-514 515 0
-59 -514 0
-86 516 0
-515 516 0
-86 -515 0
-172 517 0
-516 517 0
-172 -516 0
-173 518 0
-517 518 0
-173 -517 0
-174 519 0
-518 519 0
-174 -518 0
-175 520 0
-519 520 0
-175 -519 0
-176 521 0
-520 521 0
-176 -520 0
-177 522 0
-521 522 0
-177 -521 0
-178 523 0
-522 523 0
-178 -522 0
-179 524 0
-523 524 0
-179 -523 0
-180 525 0
-524 525 0
-180 -524 0
-181 526 0
-525 526 0
-181 -525 0
-182 527 0
-526 527 0
-182 -526 0
-183 -527 0
33 58 72 184 185 186 187 188 189 190 191 192 193 194 195 0
-33 528 0
-58 529 0
-528 529 0
-58 -528 0
-72 530 0
-529 530 0
-72 -529 0
-184 531 0
-530 531 0
-184 -530 0
-185 532 0
-531 532 0
-185 -531 0
-186 533 0
-532 533 0
-186 -532 0
-187 534 0
-533 534 0
-187 -533 0
-188 535 0
-534 535 0
-188 -534 0
-189 536 0
-535 536 0
-189 -535 0
-190 537 0
-536 537 0
-190 -536 0
-191 538 0
-537 538 0
-191 -537 0
-192 539 0
-538 539 0
-192 -538 0
-193 540 0
-539 540 0
-193 -539 0
-194 541 0
-540 541 0
-194 -540 0
-195 -541 0
4 19 34 46 60 74 88 100 112 124 136 148 160 172 184 196 197 198 199 200 201 202 203 204 205 206 207 208 209 210 211 0
-4 542 0
-19 543 0
-542 543 0
-19 -542 0
-34 544 0
-543 544 0
-34 -543 0
-46 545 0
-544 545 0
-46 -544 0
-60 546 0
-545 546 0
-60 -545 0
-74 547 0
-546 547 0
-74 -546 0
-88 548 0
-547 548 0
-88 -547 0
-100 549 0
-548 549 0
-100 -548 0
-112 550 0
-549 550 0
-112 -549 0
-124 551 0
-550 551 0
-124 -550 0
-136 552 0
-551 552 0
-136 -551 0
-148 553 0
-552 553 0
-148 -552 0
-160 554 0
-553 554 0
-160 -553 0
-172 555 0
-554 555 0
-172 -554 0
-184 556 0
-555 556 0
-184 -555 0
-196 557 0
-556 557 0
-196 -556 0
-197 558 0
-557 558 0
-197 -557 0
-198 559 0
-558 559 0
-198 -558 0
-199 560 0
-559 560 0
-199 -559 0
-200 561 0
-560 561 0
-200 -560 0
-201 562 0
-561 562 0
-201 -561 0
-202 563 0
-562 563 0
-202 -562 0
-203 564 0
-563 564 0
-203 -563 0
-204 565 0
-564 565 0
-204 -564 0
-205 566 0
-565 566 0
-205 -565 0
-206 567 0
-566 567 0
-206 -566 0
-207 568 0
-567 568 0
-207 -567 0
-208 569 0
-568 569 0
-208 -568 0
-209 570 0
-569 570 0
-209 -569 0
-210 571 0
-570 571 0
-210 -570 0
-211 -571 0
4 47 61 101 113 149 161 212 213 214 215 216 217 218 219 0
-4 572 0
-47 573 0
-572 573 0
-47 -572 0
-61 574 0
-573 574 0
-61 -573 0
-101 575 0
-574 575 0
-101 -574 0
-113 576 0
-575 576 0
-113 -575 0
-149 577 0
-576 577 0
-149 -576 0
-161 578 0
-577 578 0
-161 -577 0
-212 579 0
-578 579 0
-212 -578 0
-213 580 0
-579 580 0
-213 -579 0
-214 581 0
-580 581 0
-214 -580 0
-215 582 0
-581 582 0
-215 -581 0
-216 583 0
-582 583 0
-216 -582 0
-217 584 0
-583 584 0
-217 -583 0
-218 585 0
-584 585 0
-218 -584 0
-219 -585 0
19 48 75 102 125 150 173 220 221 222 223 224 225 226 227 0
-19 586 0
-48 587 0
-586 587 0
-48 -586 0
-75 588 0
-587 588 0
-75 -587 0
-102 589 0
-588 589 0
-102 -588 0
-125 590 0
-589 590 0
-125 -589 0
-150 591 0
-590 591 0
-150 -590 0
-173 592 0
-591 592 0
-173 -591 0
-220 593 0
-592 593 0
-220 -592 0
-221 594 0
-593 594 0
-221 -593 0
-222 595 0
-594 595 0
-222 -594 0
-223 596 0
-595 596 0
-223 -595 0
-224 597 0
-596 597 0
-224 -596 0
-225 598 0
-597 598 0
-225 -597 0
-226 599 0
-598 599 0
-226 -598 0
-227 -599 0
34 49 89 103 137 151 185 228 229 230 231 232 233 234 235 0
-34 600 0
-49 601 0
-600 601 0
-49 -600 0
-89 602 0
-601 602 0
-89 -601 0
-103 603 0
-602 603 0
-103 -602 0
-137 604 0
-603 604 0
-137 -603 0
-151 605 0
-604 605 0
-151 -604 0
-185 606 0
-605 606 0
-185 -605 0
-228 607 0
-606 607 0
-228 -606 0
-229 608 0
-607 608 0
-229 -607 0
-230 609 0
-608 609 0
-230 -608 0
-231 610 0
-609 610 0
-231 -609 0
-232 611 0
-610 611 0
-232 -610 0
-233 612 0
-611 612 0
-233 -611 0
-234 613 0
-612 613 0
-234 -612 0
-235 -613 0
5 20 35 46 61 75 89 236 237 238 239 240 241 242 243 0
-5 614 0
-20 615 0
-614 615 0
-20 -614 0
-35 616 0
-615 616 0
-35 -615 0
-46 617 0
-616 617 0
-46 -616 0
-61 618 0
-617 618 0
-61 -617 0
-75 619 0
-618 619 0
-75 -618 0
-89 620 0
-619 620 0
-89 -619 0
-236 621 0
-620 621 0
-236 -620 0
-237 622 0
-621 622 0
-237 -621 0
-238 623 0
-622 623 0
-238 -622 0
-239 624 0
-623 624 0
-239 -623 0
-240 625 0
-624 625 0
-240 -624 0
-241 626 0
-625 626 0
-241 -625 0
-242 627 0
-626 627 0
-242 -626 0
-243 -627 0
5 47 60 126 138 174 186 244 245 246 247 248 249 250 251 0
-5 628 0
-47 629 0
-628 629 0
-47 -628 0
-60 630 0
-629 630 0
-60 -629 0
-126 631 0
-630 631 0
-126 -630 0
-138 632 0
-631 632 0
-138 -631 0
-174 633 0
-632 633 0
-174 -632 0
-186 634 0
-633 634 0
-186 -633 0
-244 635 0
-634 635 0
-244 -634 0
-245 636 0
-635 636 0
-245 -635 0
-246 637 0
-636 637 0
-246 -636 0
-247 638 0
-637 638 0
-247 -637 0
-248 639 0
-638 639 0
-248 -638 0
-249 640 0
-639 640 0
-249 -639 0
-250 641 0
-640 641 0
-250 -640 0
-251 -641 0
20 48 74 114 139 162 187 252 253 254 255 256 257 258 259 0
-20 642 0
-48 643 0
-642 643 0
-48 -642 0
-74 644 0
-643 644 0
-74 -643 0
-114 645 0
-644 645 0
-114 -644 0
-139 646 0
-645 646 0
-139 -645 0
-162 647 0
-646 647 0
-162 -646 0
-187 648 0
-647 648 0
-187 -647 0
-252 649 0
-648 649 0
-252 -648 0
-253 650 0
-649 650 0
-253 -649 0
-254 651 0
-650 651 0
-254 -650 0
-255 652 0
-651 652 0
-255 -651 0
-256 653 0
-652 653 0
-256 -652 0
-257 654 0
-653 654 0
-257 -653 0
-258 655 0
-654 655 0
-258 -654 0
-259 -655 0
35 49 88 115 127 163 175 260 261 262 263 264 265 266 267 0
-35 656 0
-49 657 0
-656 657 0
-49 -656 0
-88 658 0
-657 658 0
-88 -657 0
-115 659 0
-658 659 0
-115 -658 0
-127 660 0
-659 660 0
-127 -659 0
-163 661 0
-660 661 0
-163 -660 0
-175 662 0
-661 662 0
-175 -661 0
-260 663 0
-662 663 0
-260 -662 0
-261 664 0
-663 664 0
-261 -663 0
-262 665 0
-664 665 0
-262 -664 0
-263 666 0
-665 666 0
-263 -665 0
-264 667 0
-666 667 0
-264 -666 0
-265 668 0
-667 668 0
-265 -667 0
-266 669 0
-668 669 0
-266 -668 0
-267 -669 0
6 21 36 100 113 125 137 268 269 270 271 272 273 274 275 0
-6 670 0
-21 671 0
-670 671 0
-21 -670 0
-36 672 0
-671 672 0
-36 -671 0
-100 673 0
-672 673 0
-100 -672 0
-113 674 0
-673 674 0
-113 -673 0
-125 675 0
-674 675 0
-125 -674 0
-137 676 0
-675 676 0
-137 -675 0
-268 677 0
-676 677 0
-268 -676 0
-269 678 0
-677 678 0
-269 -677 0
-270 679 0
-678 679 0
-270 -678 0
-271 680 0
-679 680 0
-271 -679 0
-272 681 0
-680 681 0
-272 -680 0
-273 682 0
-681 682 0
-273 -681 0
-274 683 0
-682 683 0
-274 -682 0
-275 -683 0
6 76 90 101 112 175 187 276 277 278 279 280 281 282 283 0
-6 684 0
-76 685 0
-684 685 0
-76 -684 0
-90 686 0
-685 686 0
-90 -685 0
-101 687 0
-686 687 0
-101 -686 0
-112 688 0
-687 688 0
-112 -687 0
-175 689 0
-688 689 0
-175 -688 0
-187 690 0
-689 690 0
-187 -689 0
-276 691 0
-690 691 0
-276 -690 0
-277 692 0
-691 692 0
-277 -691 0
-278 693 0
-692 693 0
-278 -692 0
-279 694 0
-693 694 0
-279 -693 0
-280 695 0
-694 695 0
-280 -694 0
-281 696 0
-695 696 0
-281 -695 0
-282 697 0
-696 697 0
-282 -696 0
-283 -697 0
21 62 91 102 124 163 186 284 285 286 287 288 289 290 291 0
-21 698 0
-62 699 0
-698 699 0
-62 -698 0
-91 700 0
-699 700 0
-91 -699 0
-102 701 0
-700 701 0
-102 -700 0
-124 702 0
-701 702 0
-124 -701 0
-163 703 0
-702 703 0
-163 -702 0
-186 704 0
-703 704 0
-186 -703 0
-284 705 0
-704 705 0
-284 -704 0
-285 706 0
-705 706 0
-285 -705 0
-286 707 0
-706 707 0
-286 -706 0
-287 708 0
-707 708 0
-287 -707 0
-288 709 0
-708 709 0
-288 -708 0
-289 710 0
-709 710 0
-289 -709 0
-290 711 0
-710 711 0
-290 -710 0
-291 -711 0
36 63 77 103 136 162 174 292 293 294 295 296 297 298 299 0
-36 712 0
-63 713 0
-712 713 0
-63 -712 0
-77 714 0
-713 714 0
-77 -713 0
-103 715 0
-714 715 0
-103 -714 0
-136 716 0
-715 716 0
-136 -715 0
-162 717 0
-716 717 0
-162 -716 0
-174 718 0
-717 718 0
-174 -717 0
-292 719 0
-718 719 0
-292 -718 0
-293 720 0
-719 720 0
-293 -719 0
-294 721 0
-720 721 0
-294 -720 0
-295 722 0
-721 722 0
-295 -721 0
-296 723 0
-722 723 0
-296 -722 0
-297 724 0
-723 724 0
-297 -723 0
-298 725 0
-724 725 0
-298 -724 0
-299 -725 0
7 22 37 148 161 173 185 300 301 302 303 304 305 306 307 0
-7 726 0
-22 727 0
-726 727 0
-22 -726 0
-37 728 0
-727 728 0
-37 -727 0
-148 729 0
-728 729 0
-148 -728 0
-161 730 0
-729 730 0
-161 -729 0
-173 731 0
-730 731 0
-173 -730 0
-185 732 0
-731 732 0
-185 -731 0
-300 733 0
-732 733 0
-300 -732 0
-301 734 0
-733 734 0
-301 -733 0
-302 735 0
-734 735 0
-302 -734 0
-303 736 0
-735 736 0
-303 -735 0
-304 737 0
-736 737 0
-304 -736 0
-305 738 0
-737 738 0
-305 -737 0
-306 739 0
-738 739 0
-306 -738 0
-307 -739 0
7 77 91 127 139 149 160 308 309 310 311 312 313 314 315 0
-7 740 0
-77 741 0
-740 741 0
-77 -740 0
-91 742 0
-741 742 0
-91 -741 0
-127 743 0
-742 743 0
-127 -742 0
-139 744 0
-743 744 0
-139 -743 0
-149 745 0
-744 745 0
-149 -744 0
-160 746 0
-745 746 0
-160 -745 0
-308 747 0
-746 747 0
-308 -746 0
-309 748 0
-747 748 0
-309 -747 0
-310 749 0
-748 749 0
-310 -748 0
-311 750 0
-749 750 0
-311 -749 0
-312 751 0
-750 751 0
-312 -750 0
-313 752 0
-751 752 0
-313 -751 0
-314 753 0
-752 753 0
-314 -752 0
-315 -753 0
22 63 90 115 138 150 172 316 317 318 319 320 321 322 323 0
-22 754 0
-63 755 0
-754 755 0
-63 -754 0
-90 756 0
-755 756 0
-90 -755 0
-115 757 0
-756 757 0
-115 -756 0
-138 758 0
-757 758 0
-138 -757 0
-150 759 0
-758 759 0
-150 -758 0
-172 760 0
-759 760 0
-172 -759 0
-316 761 0
-760 761 0
-316 -760 0
-317 762 0
-761 762 0
-317 -761 0
-318 763 0
-762 763 0
-318 -762 0
-319 764 0
-763 764 0
-319 -763 0
-320 765 0
-764 765 0
-320 -764 0
-321 766 0
-765 766 0
-321 -765 0
-322 767 0
-766 767 0
-322 -766 0
-323 -767 0
37 62 76 114 126 151 184 324 325 326 327 328 329 330 331 0
-37 768 0
-62 769 0
-768 769 0
-62 -768 0
-76 770 0
-769 770 0
-76 -769 0
-114 771 0
-770 771 0
-114 -770 0
-126 772 0
-771 772 0
-126 -771 0
-151 773 0
-772 773 0
-151 -772 0
-184 774 0
-773 774 0
-184 -773 0
-324 775 0
-774 775 0
-324 -774 0
-325 776 0
-775 776 0
-325 -775 0
-326 777 0
-776 777 0
-326 -776 0
-327 778 0
-777 778 0
-327 -777 0
-328 779 0
-778 779 0
-328 -778 0
-329 780 0
-779 780 0
-329 -779 0
-330 781 0
-780 781 0
-330 -780 0
-331 -781 0
8 23 38 50 64 78 92 104 116 128 140 152 164 176 188 196 212 220 228 236 244 252 260 268 276 284 292 300 308 316 324 0
-8 782 0
-23 783 0
-782 783 0
-23 -782 0
-38 784 0
-783 784 0
-38 -783 0
-50 785 0
-784 785 0
-50 -784 0
-64 786 0
-785 786 0
-64 -785 0
-78 787 0
-786 787 0
-78 -786 0
-92 788 0
-787 788 0
-92 -787 0
-104 789 0
-788 789 0
-104 -788 0
-116 790 0
-789 790 0
-116 -789 0
-128 791 0
-790 791 0
-128 -790 0
-140 792 0
-791 792 0
-140 -791 0
-152 793 0
-792 793 0
-152 -792 0
-164 794 0
-793 794 0
-164 -793 0
-176 795 0
-794 795 0
-176 -794 0
-188 796 0
-795 796 0
-188 -795 0
-196 797 0
-796 797 0
-196 -796 0
-212 798 0
-797 798 0
-212 -797 0
-220 799 0
-798 799 0
-220 -798 0
-228 800 0
-799 800 0
-228 -799 0
-236 801 0
-800 801 0
-236 -800 0
-244 802 0
-801 802 0
-244 -801 0
-252 803 0
-802 803 0
-252 -802 0
-260 804 0
-803 804 0
-260 -803 0
-268 805 0
-804 805 0
-268 -804 0
-276 806 0
-805 806 0
-276 -805 0
-284 807 0
-806 807 0
-284 -806 0
-292 808 0
-807 808 0
-292 -807 0
-300 809 0
-808 809 0
-300 -808 0
-308 810 0
-809 810 0
-308 -809 0
-316 811 0
-810 811 0
-316 -810 0
-324 -811 0
8 51 65 105 117 153 165 197 213 237 245 269 277 301 309 0
-8 812 0
-51 813 0
-812 813 0
-51 -812 0
-65 814 0
-813 814 0
-65 -813 0
-105 815 0
-814 815 0
-105 -814 0
-117 816 0
-815 816 0
-117 -815 0
-153 817 0
-816 817 0
-153 -816 0
-165 818 0
-817 818 0
-165 -817 0
-197 819 0
-818 819 0
-197 -818 0
-213 820 0
-819 820 0
-213 -819 0
-237 821 0
-820 821 0
-237 -820 0
-245 822 0
-821 822 0
-245 -821 0
-269 823 0
-822 823 0
-269 -822 0
-277 824 0
-823 824 0
-277 -823 0
-301 825 0
-824 825 0
-301 -824 0
-309 -825 0
23 52 79 106 129 154 177 198 221 238 253 270 285 302 317 0
-23 826 0
-52 827 0
-826 827 0
-52 -826 0
-79 828 0
-827 828 0
-79 -827 0
-106 829 0
-828 829 0
-106 -828 0
-129 830 0
-829 830 0
-129 -829 0
-154 831 0
-830 831 0
-154 -830 0
-177 832 0
-831 832 0
-177 -831 0
-198 833 0
-832 833 0
-198 -832 0
-221 834 0
-833 834 0
-221 -833 0
-238 835 0
-834 835 0
-238 -834 0
-253 836 0
-835 836 0
-253 -835 0
-270 837 0
-836 837 0
-270 -836 0
-285 838 0
-837 838 0
-285 -837 0
-302 839 0
-838 839 0
-302 -838 0
-317 -839 0
38 53 93 107 141 155 189 199 229 239 261 271 293 303 325 0
-38 840 0
-53 841 0
-840 841 0
-53 -840 0
-93 842 0
-841 842 0
-93 -841 0
-107 843 0
-842 843 0
-107 -842 0
-141 844 0
-843 844 0
-141 -843 0
-155 845 0
-844 845 0
-155 -844 0
-189 846 0
-845 846 0
-189 -845 0
-199 847 0
-846 847 0
-199 -846 0
-229 848 0
-847 848 0
-229 -847 0
-239 849 0
-848 849 0
-239 -848 0
-261 850 0
-849 850 0
-261 -849 0
-271 851 0
-850 851 0
-271 -850 0
-293 852 0
-851 852 0
-293 -851 0
-303 853 0
-852 853 0
-303 -852 0
-325 -853 0
9 24 39 50 65 79 93 200 214 222 230 240 246 254 262 0
-9 854 0
-24 855 0
-854 855 0
-24 -854 0
-39 856 0
-855 856 0
-39 -855 0
-50 857 0
-856 857 0
-50 -856 0
-65 858 0
-857 858 0
-65 -857 0
-79 859 0
-858 859 0
-79 -858 0
-93 860 0
-859 860 0
-93 -859 0
-200 861 0
-860 861 0
-200 -860 0
-214 862 0
-861 862 0
-214 -861 0
-222 863 0
-862 863 0
-222 -862 0
-230 864 0
-863 864 0
-230 -863 0
-240 865 0
-864 865 0
-240 -864 0
-246 866 0
-865 866 0
-246 -865 0
-254 867 0
-866 867 0
-254 -866 0
-262 -867 0
9 51 64 130 142 178 190 201 215 241 247 286 294 318 326 0
-9 868 0
-51 869 0
-868 869 0
-51 -868 0
-64 870 0
-869 870 0
-64 -869 0
-130 871 0
-870 871 0
-130 -870 0
-142 872 0
-871 872 0
-142 -871 0
-178 873 0
-872 873 0
-178 -872 0
-190 874 0
-873 874 0
-190 -873 0
-201 875 0
-874 875 0
-201 -874 0
-215 876 0
-875 876 0
-215 -875 0
-241 877 0
-876 877 0
-241 -876 0
-247 878 0
-877 878 0
-247 -877 0
-286 879 0
-878 879 0
-286 -878 0
-294 880 0
-879 880 0
-294 -879 0
-318 881 0
-880 881 0
-318 -880 0
-326 -881 0
24 52 78 118 143 166 191 202 223 242 255 278 295 310 327 0
-24 882 0
-52 883 0
-882 883 0
-52 -882 0
-78 884 0
-883 884 0
-78 -883 0
-118 885 0
-884 885 0
-118 -884 0
-143 886 0
-885 886 0
-143 -885 0
-166 887 0
-886 887 0
-166 -886 0
-191 888 0
-887 888 0
-191 -887 0
-202 889 0
-888 889 0
-202 -888 0
-223 890 0
-889 890 0
-223 -889 0
-242 891 0
-890 891 0
-242 -890 0
-255 892 0
-891 892 0
-255 -891 0
-278 893 0
-892 893 0
-278 -892 0
-295 894 0
-893 894 0
-295 -893 0
-310 895 0
-894 895 0
-310 -894 0
-327 -895 0
39 53 92 119 131 167 179 203 231 243 263 279 287 311 319 0
-39 896 0
-53 897 0
-896 897 0
-53 -896 0
-92 898 0
-897 898 0
-92 -897 0
-119 899 0
-898 899 0
-119 -898 0
-131 900 0
-899 900 0
-131 -899 0
-167 901 0
-900 901 0
-167 -900 0
-179 902 0
-901 902 0
-179 -901 0
-203 903 0
-902 903 0
-203 -902 0
-231 904 0
-903 904 0
-231 -903 0
-243 905 0
-904 905 0
-243 -904 0
-263 906 0
-905 906 0
-263 -905 0
-279 907 0
-906 907 0
-279 -906 0
-287 908 0
-907 908 0
-287 -907 0
-311 909 0
-908 909 0
-311 -908 0
-319 -909 0
10 25 40 104 117 129 141 204 216 224 232 272 280 288 296 0
-10 910 0
-25 911 0
-910 911 0
-25 -910 0
-40 912 0
-911 912 0
-40 -911 0
-104 913 0
-912 913 0
-104 -912 0
-117 914 0
-913 914 0
-117 -913 0
-129 915 0
-914 915 0
-129 -914 0
-141 916 0
-915 916 0
-141 -915 0
-204 917 0
-916 917 0
-204 -916 0
-216 918 0
-917 918 0
-216 -917 0
-224 919 0
-918 919 0
-224 -918 0
-232 920 0
-919 920 0
-232 -919 0
-272 921 0
-920 921 0
-272 -920 0
-280 922 0
-921 922 0
-280 -921 0
-288 923 0
-922 923 0
-288 -922 0
-296 -923 0
10 80 94 105 116 179 191 205 217 256 264 273 281 320 328 0
-10 924 0
-80 925 0
-924 925 0
-80 -924 0
-94 926 0
-925 926 0
-94 -925 0
-105 927 0
-926 927 0
-105 -926 0
-116 928 0
-927 928 0
-116 -927 0
-179 929 0
-928 929 0
-179 -928 0
-191 930 0
-929 930 0
-191 -929 0
-205 931 0
-930 931 0
-205 -930 0
-217 932 0
-931 932 0
-217 -931 0
-256 933 0
-932 933 0
-256 -932 0
-264 934 0
-933 934 0
-264 -933 0
-273 935 0
-934 935 0
-273 -934 0
-281 936 0
-935 936 0
-281 -935 0
-320 937 0
-936 937 0
-320 -936 0
-328 -937 0
25 66 95 106 128 167 190 206 225 248 265 274 289 312 329 0
-25 938 0
-66 939 0
-938 939 0
-66 -938 0
-95 940 0
-939 940 0
-95 -939 0
-106 941 0
-940 941 0
-106 -940 0
-128 942 0
-941 942 0
-128 -941 0
-167 943 0
-942 943 0
-167 -942 0
-190 944 0
-943 944 0
-190 -943 0
-206 945 0
-944 945 0
-206 -944 0
-225 946 0
-945 946 0
-225 -945 0
-248 947 0
-946 947 0
-248 -946 0
-265 948 0
-947 948 0
-265 -947 0
-274 949 0
-948 949 0
-274 -948 0
-289 950 0
-949 950 0
-289 -949 0
-312 951 0
-950 951 0
-312 -950 0
-329 -951 0
40 67 81 107 140 166 178 207 233 249 257 275 297 313 321 0
-40 952 0
-67 953 0
-952 953 0
-67 -952 0
-81 954 0
-953 954 0
-81 -953 0
-107 955 0
-954 955 0
-107 -954 0
-140 956 0
-955 956 0
-140 -955 0
-166 957 0
-956 957 0
-166 -956 0
-178 958 0
-957 958 0
-178 -957 0
-207 959 0
-958 959 0
-207 -958 0
-233 960 0
-959 960 0
-233 -959 0
-249 961 0
-960 961 0
-249 -960 0
-257 962 0
-961 962 0
-257 -961 0
-275 963 0
-962 963 0
-275 -962 0
-297 964 0
-963 964 0
-297 -963 0
-313 965 0
-964 965 0
-313 -964 0
-321 -965 0
11 26 41 152 165 177 189 208 218 226 234 304 314 322 330 0
-11 966 0
-26 967 0
-966 967 0
-26 -966 0
-41 968 0
-967 968 0
-41 -967 0
-152 969 0
-968 969 0
-152 -968 0
-165 970 0
-969 970 0
-165 -969 0
-177 971 0
-970 971 0
-177 -970 0
-189 972 0
-971 972 0
-189 -971 0
-208 973 0
-972 973 0
-208 -972 0
-218 974 0
-973 974 0
-218 -973 0
-226 975 0
-974 975 0
-226 -974 0
-234 976 0
-975 976 0
-234 -975 0
-304 977 0
-976 977 0
-304 -976 0
-314 978 0
-977 978 0
-314 -977 0
-322 979 0
-978 979 0
-322 -978 0
-330 -979 0
11 81 95 131 143 153 164 209 219 258 266 290 298 305 315 0
-11 980 0
-81 981 0
-980 981 0
-81 -980 0
-95 982 0
-981 982 0
-95 -981 0
-131 983 0
-982 983 0
-131 -982 0
-143 984 0
-983 984 0
-143 -983 0
-153 985 0
-984 985 0
-153 -984 0
-164 986 0
-985 986 0
-164 -985 0
-209 987 0
-986 987 0
-209 -986 0
-219 988 0
-987 988 0
-219 -987 0
-258 989 0
-988 989 0
-258 -988 0
-266 990 0
-989 990 0
-266 -989 0
-290 991 0
-990 991 0
-290 -990 0
-298 992 0
-991 992 0
-298 -991 0
-305 993 0
-992 993 0
-305 -992 0
-315 -993 0
26 67 94 119 142 154 176 210 227 250 267 282 299 306 323 0
-26 994 0
-67 995 0
-994 995 0
-67 -994 0
-94 996 0
-995 996 0
-94 -995 0
-119 997 0
-996 997 0
-119 -996 0
-142 998 0
-997 998 0
-142 -997 0
-154 999 0
-998 999 0
-154 -998 0
-176 1000 0
-999 1000 0
-176 -999 0
-210 1001 0
-1000 1001 0
-210 -1000 0
-227 1002 0
-1001 1002 0
-227 -1001 0
-250 1003 0
-1002 1003 0
-250 -1002 0
-267 1004 0
-1003 1004 0
-267 -1003 0
-282 1005 0
-1004 1005 0
-282 -1004 0
-299 1006 0
-1005 1006 0
-299 -1005 0
-306 1007 0
-1006 1007 0
-306 -1006 0
-323 -1007 0
41 66 80 118 130 155 188 211 235 251 259 283 291 307 331 0
-41 1008 0
-66 1009 0
-1008 1009 0
-66 -1008 0
-80 1010 0
-1009 1010 0
-80 -1009 0
-118 1011 0
-1010 1011 0
-118 -1010 0
-130 1012 0
-1011 1012 0
-130 -1011 0
-155 1013 0
-1012 1013 0
-155 -1012 0
-188 1014 0
-1013 1014 0
-188 -1013 0
-211 1015 0
-1014 1015 0
-211 -1014 0
-235 1016 0
-1015 1016 0
-235 -1015 0
-251 1017 0
-1016 1017 0
-251 -1016 0
-259 1018 0
-1017 1018 0
-259 -1017 0
-283 1019 0
-1018 1019 0
-283 -1018 0
-291 1020 0
-1019 1020 0
-291 -1019 0
-307 1021 0
-1020 1021 0
-307 -1020 0
-331 -1021 0
12 27 42 54 68 82 96 108 120 132 144 156 168 180 192 196 213 221 229 240 247 255 263 272 281 289 297 304 315 323 331 0
-12 1022 0
-27 1023 0
-1022 1023 0
-27 -1022 0
-42 1024 0
-1023 1024 0
-42 -1023 0
-54 1025 0
-1024 1025 0
-54 -1024 0
-68 1026 0
-1025 1026 0
-68 -1025 0
-82 1027 0
-1026 1027 0
-82 -1026 0
-96 1028 0
-1027 1028 0
-96 -1027 0
-108 1029 0
-1028 1029 0
-108 -1028 0
-120 1030 0
-1029 1030 0
-120 -1029 0
-132 1031 0
-1030 1031 0
-132 -1030 0
-144 1032 0
-1031 1032 0
-144 -1031 0
-156 1033 0
-1032 1033 0
-156 -1032 0
-168 1034 0
-1033 1034 0
-168 -1033 0
-180 1035 0
-1034 1035 0
-180 -1034 0
-192 1036 0
-1035 1036 0
-192 -1035 0
-196 1037 0
-1036 1037 0
-196 -1036 0
-213 1038 0
-1037 1038 0
-213 -1037 0
-221 1039 0
-1038 1039 0
-221 -1038 0
-229 1040 0
-1039 1040 0
-229 -1039 0
-240 1041 0
-1040 1041 0
-240 -1040 0
-247 1042 0
-1041 1042 0
-247 -1041 0
-255 1043 0
-1042 1043 0
-255 -1042 0
-263 1044 0
-1043 1044 0
-263 -1043 0
-272 1045 0
-1044 1045 0
-272 -1044 0
-281 1046 0
-1045 1046 0
-281 -1045 0
-289 1047 0
-1046 1047 0
-289 -1046 0
-297 1048 0
-1047 1048 0
-297 -1047 0
-304 1049 0
-1048 1049 0
-304 -1048 0
-315 1050 0
-1049 1050 0
-315 -1049 0
-323 1051 0
-1050 1051 0
-323 -1050 0
-331 -1051 0
12 55 69 109 121 157 169 197 212 241 246 273 280 305 314 0
-12 1052 0
-55 1053 0
-1052 1053 0
-55 -1052 0
-69 1054 0
-1053 1054 0
-69 -1053 0
-109 1055 0
-1054 1055 0
-109 -1054 0
-121 1056 0
-1055 1056 0
-121 -1055 0
-157 1057 0
-1056 1057 0
-157 -1056 0
-169 1058 0
-1057 1058 0
-169 -1057 0
-197 1059 0
-1058 1059 0
-197 -1058 0
-212 1060 0
-1059 1060 0
-212 -1059 0
-241 1061 0
-1060 1061 0
-241 -1060 0
-246 1062 0
-1061 1062 0
-246 -1061 0
-273 1063 0
-1062 1063 0
-273 -1062 0
-280 1064 0
-1063 1064 0
-280 -1063 0
-305 1065 0
-1064 1065 0
-305 -1064 0
-314 -1065 0
27 56 83 110 133 158 181 198 220 242 254 274 288 306 322 0
-27 1066 0
-56 1067 0
-1066 1067 0
-56 -1066 0
-83 1068 0
-1067 1068 0
-83 -1067 0
-110 1069 0
-1068 1069 0
-110 -1068 0
-133 1070 0
-1069 1070 0
-133 -1069 0
-158 1071 0
-1070 1071 0
-158 -1070 0
-181 1072 0
-1071 1072 0
-181 -1071 0
-198 1073 0
-1072 1073 0
-198 -1072 0
-220 1074 0
-1073 1074 0
-220 -1073 0
-242 1075 0
-1074 1075 0
-242 -1074 0
-254 1076 0
-1075 1076 0
-254 -1075 0
-274 1077 0
-1076 1077 0
-274 -1076 0
-288 1078 0
-1077 1078 0
-288 -1077 0
-306 1079 0
-1078 1079 0
-306 -1078 0
-322 -1079 0
42 57 97 111 145 159 193 199 228 243 262 275 296 307 330 0
-42 1080 0
-57 1081 0
-1080 1081 0
-57 -1080 0
-97 1082 0
-1081 1082 0
-97 -1081 0
-111 1083 0
-1082 1083 0
-111 -1082 0
-145 1084 0
-1083 1084 0
-145 -1083 0
-159 1085 0
-1084 1085 0
-159 -1084 0
-193 1086 0
-1085 1086 0
-193 -1085 0
-199 1087 0
-1086 1087 0
-199 -1086 0
-228 1088 0
-1087 1088 0
-228 -1087 0
-243 1089 0
-1088 1089 0
-243 -1088 0
-262 1090 0
-1089 1090 0
-262 -1089 0
-275 1091 0
-1090 1091 0
-275 -1090 0
-296 1092 0
-1091 1092 0
-296 -1091 0
-307 1093 0
-1092 1093 0
-307 -1092 0
-330 -1093 0
13 28 43 54 69 83 97 200 215 223 231 236 245 253 261 0
-13 1094 0
-28 1095 0
-1094 1095 0
-28 -1094 0
-43 1096 0
-1095 1096 0
-43 -1095 0
-54 1097 0
-1096 1097 0
-54 -1096 0
-69 1098 0
-1097 1098 0
-69 -1097 0
-83 1099 0
-1098 1099 0
-83 -1098 0
-97 1100 0
-1099 1100 0
-97 -1099 0
-200 1101 0
-1100 1101 0
-200 -1100 0
-215 1102 0
-1101 1102 0
-215 -1101 0
-223 1103 0
-1102 1103 0
-223 -1102 0
-231 1104 0
-1103 1104 0
-231 -1103 0
-236 1105 0
-1104 1105 0
-236 -1104 0
-245 1106 0
-1105 1106 0
-245 -1105 0
-253 1107 0
-1106 1107 0
-253 -1106 0
-261 -1107 0
13 55 68 134 146 182 194 201 214 237 244 291 299 321 329 0
-13 1108 0
-55 1109 0
-1108 1109 0
-55 -1108 0
-68 1110 0
-1109 1110 0
-68 -1109 0
-134 1111 0
-1110 1111 0
-134 -1110 0
-146 1112 0
-1111 1112 0
-146 -1111 0
-182 1113 0
-1112 1113 0
-182 -1112 0
-194 1114 0
-1113 1114 0
-194 -1113 0
-201 1115 0
-1114 1115 0
-201 -1114 0
-214 1116 0
-1115 1116 0
-214 -1115 0
-237 1117 0
-1116 1117 0
-237 -1116 0
-244 1118 0
-1117 1118 0
-244 -1117 0
-291 1119 0
-1118 1119 0
-291 -1118 0
-299 1120 0
-1119 1120 0
-299 -1119 0
-321 1121 0
-1120 1121 0
-321 -1120 0
-329 -1121 0
28 56 82 122 147 170 195 202 222 238 252 283 298 313 328 0
-28 1122 0
-56 1123 0
-1122 1123 0
-56 -1122 0
-82 1124 0
-1123 1124 0
-82 -1123 0
-122 1125 0
-1124 1125 0
-122 -1124 0
-147 1126 0
-1125 1126 0
-147 -1125 0
-170 1127 0
-1126 1127 0
-170 -1126 0
-195 1128 0
-1127 1128 0
-195 -1127 0
-202 1129 0
-1128 1129 0
-202 -1128 0
-222 1130 0
-1129 1130 0
-222 -1129 0
-238 1131 0
-1130 1131 0
-238 -1130 0
-252 1132 0
-1131 1132 0
-252 -1131 0
-283 1133 0
-1132 1133 0
-283 -1132 0
-298 1134 0
-1133 1134 0
-298 -1133 0
-313 1135 0
-1134 1135 0
-313 -1134 0
-328 -1135 0
43 57 96 123 135 171 183 203 230 239 260 282 290 312 320 0
-43 1136 0
-57 1137 0
-1136 1137 0
-57 -1136 0
-96 1138 0
-1137 1138 0
-96 -1137 0
-123 1139 0
-1138 1139 0
-123 -1138 0
-135 1140 0
-1139 1140 0
-135 -1139 0
-171 1141 0
-1140 1141 0
-171 -1140 0
-183 1142 0
-1141 1142 0
-183 -1141 0
-203 1143 0
-1142 1143 0
-203 -1142 0
-230 1144 0
-1143 1144 0
-230 -1143 0
-239 1145 0
-1144 1145 0
-239 -1144 0
-260 1146 0
-1145 1146 0
-260 -1145 0
-282 1147 0
-1146 1147 0
-282 -1146 0
-290 1148 0
-1147 1148 0
-290 -1147 0
-312 1149 0
-1148 1149 0
-312 -1148 0
-320 -1149 0
14 29 44 108 121 133 145 204 217 225 233 268 277 285 293 0
-14 1150 0
-29 1151 0
-1150 1151 0
-29 -1150 0
-44 1152 0
-1151 1152 0
-44 -1151 0
-108 1153 0
-1152 1153 0
-108 -1152 0
-121 1154 0
-1153 1154 0
-121 -1153 0
-133 1155 0
-1154 1155 0
-133 -1154 0
-145 1156 0
-1155 1156 0
-145 -1155 0
-204 1157 0
-1156 1157 0
-204 -1156 0
-217 1158 0
-1157 1158 0
-217 -1157 0
-225 1159 0
-1158 1159 0
-225 -1158 0
-233 1160 0
-1159 1160 0
-233 -1159 0
-268 1161 0
-1160 1161 0
-268 -1160 0
-277 1162 0
-1161 1162 0
-277 -1161 0
-285 1163 0
-1162 1163 0
-285 -1162 0
-293 -1163 0
14 84 98 109 120 183 195 205 216 259 267 269 276 319 327 0
-14 1164 0
-84 1165 0
-1164 1165 0
-84 -1164 0
-98 1166 0
-1165 1166 0
-98 -1165 0
-109 1167 0
-1166 1167 0
-109 -1166 0
-120 1168 0
-1167 1168 0
-120 -1167 0
-183 1169 0
-1168 1169 0
-183 -1168 0
-195 1170 0
-1169 1170 0
-195 -1169 0
-205 1171 0
-1170 1171 0
-205 -1170 0
-216 1172 0
-1171 1172 0
-216 -1171 0
-259 1173 0
-1172 1173 0
-259 -1172 0
-267 1174 0
-1173 1174 0
-267 -1173 0
-269 1175 0
-1174 1175 0
-269 -1174 0
-276 1176 0
-1175 1176 0
-276 -1175 0
-319 1177 0
-1176 1177 0
-319 -1176 0
-327 -1177 0
29 70 99 110 132 171 194 206 224 251 266 270 284 311 326 0
-29 1178 0
-70 1179 0
-1178 1179 0
-70 -1178 0
-99 1180 0
-1179 1180 0
-99 -1179 0
-110 1181 0
-1180 1181 0
-110 -1180 0
-132 1182 0
-1181 1182 0
-132 -1181 0
-171 1183 0
-1182 1183 0
-171 -1182 0
-194 1184 0
-1183 1184 0
-194 -1183 0
-206 1185 0
-1184 1185 0
-206 -1184 0
-224 1186 0
-1185 1186 0
-224 -1185 0
-251 1187 0
-1186 1187 0
-251 -1186 0
-266 1188 0
-1187 1188 0
-266 -1187 0
-270 1189 0
-1188 1189 0
-270 -1188 0
-284 1190 0
-1189 1190 0
-284 -1189 0
-311 1191 0
-1190 1191 0
-311 -1190 0
-326 -1191 0
44 71 85 111 144 170 182 207 232 250 258 271 292 310 318 0
-44 1192 0
-71 1193 0
-1192 1193 0
-71 -1192 0
-85 1194 0
-1193 1194 0
-85 -1193 0
-111 1195 0
-1194 1195 0
-111 -1194 0
-144 1196 0
-1195 1196 0
-144 -1195 0
-170 1197 0
-1196 1197 0
-170 -1196 0
-182 1198 0
-1197 1198 0
-182 -1197 0
-207 1199 0
-1198 1199 0
-207 -1198 0
-232 1200 0
-1199 1200 0
-232 -1199 0
-250 1201 0
-1200 1201 0
-250 -1200 0
-258 1202 0
-1201 1202 0
-258 -1201 0
-271 1203 0
-1202 1203 0
-271 -1202 0
-292 1204 0
-1203 1204 0
-292 -1203 0
-310 1205 0
-1204 1205 0
-310 -1204 0
-318 -1205 0
15 30 45 156 169 181 193 208 219 227 235 300 309 317 325 0
-15 1206 0
-30 1207 0
-1206 1207 0
-30 -1206 0
-45 1208 0
-1207 1208 0
-45 -1207 0
-156 1209 0
-1208 1209 0
-156 -1208 0
-169 1210 0
-1209 1210 0
-169 -1209 0
-181 1211 0
-1210 1211 0
-181 -1210 0
-193 1212 0
-1211 1212 0
-193 -1211 0
-208 1213 0
-1212 1213 0
-208 -1212 0
-219 1214 0
-1213 1214 0
-219 -1213 0
-227 1215 0
-1214 1215 0
-227 -1214 0
-235 1216 0
-1215 1216 0
-235 -1215 0
-300 1217 0
-1216 1217 0
-300 -1216 0
-309 1218 0
-1217 1218 0
-309 -1217 0
-317 1219 0
-1218 1219 0
-317 -1218 0
-325 -1219 0
15 85 99 135 147 157 168 209 218 257 265 287 295 301 308 0
-15 1220 0
-85 1221 0
-1220 1221 0
-85 -1220 0
-99 1222 0
-1221 1222 0
-99 -1221 0
-135 1223 0
-1222 1223 0
-135 -1222 0
-147 1224 0
-1223 1224 0
-147 -1223 0
-157 1225 0
-1224 1225 0
-157 -1224 0
-168 1226 0
-1225 1226 0
-168 -1225 0
-209 1227 0
-1226 1227 0
-209 -1226 0
-218 1228 0
-1227 1228 0
-218 -1227 0
-257 1229 0
-1228 1229 0
-257 -1228 0
-265 1230 0
-1229 1230 0
-265 -1229 0
-287 1231 0
-1230 1231 0
-287 -1230 0
-295 1232 0
-1231 1232 0
-295 -1231 0
-301 1233 0
-1232 1233 0
-301 -1232 0
-308 -1233 0
30 71 98 123 146 158 180 210 226 249 264 279 294 302 316 0
-30 1234 0
-71 1235 0
-1234 1235 0
-71 -1234 0
-98 1236 0
-1235 1236 0
-98 -1235 0
-123 1237 0
-1236 1237 0
-123 -1236 0
-146 1238 0
-1237 1238 0
-146 -1237 0
-158 1239 0
-1238 1239 0
-158 -1238 0
-180 1240 0
-1239 1240 0
-180 -1239 0
-210 1241 0
-1240 1241 0
-210 -1240 0
-226 1242 0
-1241 1242 0
-226 -1241 0
-249 1243 0
-1242 1243 0
-249 -1242 0
-264 1244 0
-1243 1244 0
-264 -1243 0
-279 1245 0
-1244 1245 0
-279 -1244 0
-294 1246 0
-1245 1246 0
-294 -1245 0
-302 1247 0
-1246 1247 0
-302 -1246 0
-316 -1247 0
45 70 84 122 134 159 192 211 234 248 256 278 286 303 324 0
-45 1248 0
-70 1249 0
-1248 1249 0
-70 -1248 0
-84 1250 0
-1249 1250 0
-84 -1249 0
-122 1251 0
-1250 1251 0
-122 -1250 0
-134 1252 0
-1251 1252 0
-134 -1251 0
-159 1253 0
-1252 1253 0
-159 -1252 0
-192 1254 0
-1253 1254 0
-192 -1253 0
-211 1255 0
-1254 1255 0
-211 -1254 0
-234 1256 0
-1255 1256 0
-234 -1255 0
-248 1257 0
-1256 1257 0
-248 -1256 0
-256 1258 0
-1257 1258 0
-256 -1257 0
-278 1259 0
-1258 1259 0
-278 -1258 0
-286 1260 0
-1259 1260 0
-286 -1259 0
-303 1261 0
-1260 1261 0
-303 -1260 0
-324 -1261 0
