p cnf 45 90
1 2 3 0
-1 16 0
-2 17 0
-16 17 0
-2 -16 0
-3 -17 0
4 5 6 0
-4 18 0
-5 19 0
-18 19 0
-5 -18 0
-6 -19 0
7 8 9 0
-7 20 0
-8 21 0
-20 21 0
-8 -20 0
-9 -21 0
1 4 7 0
-1 22 0
-4 23 0
-22 23 0
-4 -22 0
-7 -23 0
1 10 11 0
-1 24 0
-10 25 0
-24 25 0
-10 -24 0
-11 -25 0
4 12 13 0
-4 26 0
-12 27 0
-26 27 0
-12 -26 0
-13 -27 0
7 14 15 0
-7 28 0
-14 29 0
-28 29 0
-14 -28 0
-15 -29 0
2 5 8 0
-2 30 0
-5 31 0
-30 31 0
-5 -30 0
-8 -31 0
2 12 14 0
-2 32 0
-12 33 0
-32 33 0
-12 -32 0
-14 -33 0
5 10 15 0
-5 34 0
-10 35 0
-34 35 0
-10 -34 0
-15 -35 0
8 11 13 0
-8 36 0
-11 37 0
-36 37 0
-11 -36 0
-13 -37 0
3 6 9 0
-3 38 0
-6 39 0
-38 39 0
-6 -38 0
-9 -39 0
3 13 15 0
-3 40 0
-13 41 0
-40 41 0
-13 -40 0
-15 -41 0
6 11 14 0
-6 42 0
-11 43 0
-42 43 0
-11 -42 0
-14 -43 0
9 10 12 0
-9 44 0
-10 45 0
-44 45 0
-10 -44 0
-12 -45 0
