p cnf 1197 2646
1 2 3 4 5 6 7 8 9 10 11 12 13 14 15 0
-1 316 0
-2 317 0
-316 317 0
-2 -316 0
-3 318 0
-317 318 0
-3 -317 0
-4 319 0
-318 319 0
-4 -318 0
-5 320 0
-319 320 0
-5 -319 0
-6 321 0
-320 321 0
-6 -320 0
-7 322 0
-321 322 0
-7 -321 0
-8 323 0
-322 323 0
-8 -322 0
-9 324 0
-323 324 0
-9 -323 0
-10 325 0
-324 325 0
-10 -324 0
-11 326 0
-325 326 0
-11 -325 0
-12 327 0
-326 327 0
-12 -326 0
-13 328 0
-327 328 0
-13 -327 0
-14 329 0
-328 329 0
-14 -328 0
-15 -329 0
16 17 18 19 20 21 22 23 24 25 26 27 28 29 30 0
-16 330 0
-17 331 0
-330 331 0
-17 -330 0
-18 332 0
-331 332 0
-18 -331 0
-19 333 0
-332 333 0
-19 -332 0
-20 334 0
-333 334 0
-20 -333 0
-21 335 0
-334 335 0
-21 -334 0
-22 336 0
-335 336 0
-22 -335 0
-23 337 0
-336 337 0
-23 -336 0
-24 338 0
-337 338 0
-24 -337 0
-25 339 0
-338 339 0
-25 -338 0
-26 340 0
-339 340 0
-26 -339 0
-27 341 0
-340 341 0
-27 -340 0
-28 342 0
-341 342 0
-28 -341 0
-29 343 0
-342 343 0
-29 -342 0
-30 -343 0
31 32 33 34 35 36 37 38 39 40 41 42 43 44 45 0
-31 344 0
-32 345 0
-344 345 0
-32 -344 0
-33 346 0
-345 346 0
-33 -345 0
-34 347 0
-346 347 0
-34 -346 0
-35 348 0
-347 348 0
-35 -347 0
-36 349 0
-348 349 0
-36 -348 0
-37 350 0
-349 350 0
-37 -349 0
-38 351 0
-350 351 0
-38 -350 0
-39 352 0
-351 352 0
-39 -351 0
-40 353 0
-352 353 0
-40 -352 0
-41 354 0
-353 354 0
-41 -353 0
-42 355 0
-354 355 0
-42 -354 0
-43 356 0
-355 356 0
-43 -355 0
-44 357 0
-356 357 0
-44 -356 0
-45 -357 0
1 16 31 46 47 48 49 50 51 52 53 54 55 56 57 0
-1 358 0
-16 359 0
-358 359 0
-16 -358 0
-31 360 0
-359 360 0
-31 -359 0
-46 361 0
-360 361 0
-46 -360 0
-47 362 0
-361 362 0
-47 -361 0
-48 363 0
-362 363 0
-48 -362 0
-49 364 0
-363 364 0
-49 -363 0
-50 365 0
-364 365 0
-50 -364 0
-51 366 0
-365 366 0
-51 -365 0
-52 367 0
-366 367 0
-52 -366 0
-53 368 0
-367 368 0
-53 -367 0
-54 369 0
-368 369 0
-54 -368 0
-55 370 0
-369 370 0
-55 -369 0
-56 371 0
-370 371 0
-56 -370 0
-57 -371 0
1 58 59 60 61 62 63 64 65 66 67 68 69 70 71 0
-1 372 0
-58 373 0
-372 373 0
-58 -372 0
-59 374 0
-373 374 0
-59 -373 0
-60 375 0
-374 375 0
-60 -374 0
-61 376 0
-375 376 0
-61 -375 0
-62 377 0
-376 377 0
-62 -376 0
-63 378 0
-377 378 0
-63 -377 0
-64 379 0
-378 379 0
-64 -378 0
-65 380 0
-379 380 0
-65 -379 0
-66 381 0
-380 381 0
-66 -380 0
-67 382 0
-381 382 0
-67 -381 0
-68 383 0
-382 383 0
-68 -382 0
-69 384 0
-383 384 0
-69 -383 0
-70 385 0
-384 385 0
-70 -384 0
-71 -385 0
16 72 73 74 75 76 77 78 79 80 81 82 83 84 85 0
-16 386 0
-72 387 0
-386 387 0
-72 -386 0
-73 388 0
-387 388 0
-73 -387 0
-74 389 0
-388 389 0
-74 -388 0
-75 390 0
-389 390 0
-75 -389 0
-76 391 0
-390 391 0
-76 -390 0
-77 392 0
-391 392 0
-77 -391 0
-78 393 0
-392 393 0
-78 -392 0
-79 394 0
-393 394 0
-79 -393 0
-80 395 0
-394 395 0
-80 -394 0
-81 396 0
-395 396 0
-81 -395 0
-82 397 0
-396 397 0
-82 -396 0
-83 398 0
-397 398 0
-83 -397 0
-84 399 0
-398 399 0
-84 -398 0
-85 -399 0
31 86 87 88 89 90 91 92 93 94 95 96 97 98 99 0
-31 400 0
-86 401 0
-400 401 0
-86 -400 0
-87 402 0
-401 402 0
-87 -401 0
-88 403 0
-402 403 0
-88 -402 0
-89 404 0
-403 404 0
-89 -403 0
-90 405 0
-404 405 0
-90 -404 0
-91 406 0
-405 406 0
-91 -405 0
-92 407 0
-406 407 0
-92 -406 0
-93 408 0
-407 408 0
-93 -407 0
-94 409 0
-408 409 0
-94 -408 0
-95 410 0
-409 410 0
-95 -409 0
-96 411 0
-410 411 0
-96 -410 0
-97 412 0
-411 412 0
-97 -411 0
-98 413 0
-412 413 0
-98 -412 0
-99 -413 0
2 17 32 100 101 102 103 104 105 106 107 108 109 110 111 0
-2 414 0
-17 415 0
-414 415 0
-17 -414 0
-32 416 0
-415 416 0
-32 -415 0
-100 417 0
-416 417 0
-100 -416 0
-101 418 0
-417 418 0
-101 -417 0
-102 419 0
-418 419 0
-102 -418 0
-103 420 0
-419 420 0
-103 -419 0
-104 421 0
-420 421 0
-104 -420 0
-105 422 0
-421 422 0
-105 -421 0
-106 423 0
-422 423 0
-106 -422 0
-107 424 0
-423 424 0
-107 -423 0
-108 425 0
-424 425 0
-108 -424 0
-109 426 0
-425 426 0
-109 -425 0
-110 427 0
-426 427 0
-110 -426 0
-111 -427 0
2 72 86 112 113 114 115 116 117 118 119 120 121 122 123 0
-2 428 0
-72 429 0
-428 429 0
-72 -428 0
-86 430 0
-429 430 0
-86 -429 0
-112 431 0
-430 431 0
-112 -430 0
-113 432 0
-431 432 0
-113 -431 0
-114 433 0
-432 433 0
-114 -432 0
-115 434 0
-433 434 0
-115 -433 0
-116 435 0
-434 435 0
-116 -434 0
-117 436 0
-435 436 0
-117 -435 0
-118 437 0
-436 437 0
-118 -436 0
-119 438 0
-437 438 0
-119 -437 0
-120 439 0
-438 439 0
-120 -438 0
-121 440 0
-439 440 0
-121 -439 0
-122 441 0
-440 441 0
-122 -440 0
-123 -441 0
17 58 87 124 125 126 127 128 129 130 131 132 133 134 135 0
-17 442 0
-58 443 0
-442 443 0
-58 -442 0
-87 444 0
-443 444 0
-87 -443 0
-124 445 0
-444 445 0
-124 -444 0
-125 446 0
-445 446 0
-125 -445 0
-126 447 0
-446 447 0
-126 -446 0
-127 448 0
-447 448 0
-127 -447 0
-128 449 0
-448 449 0
-128 -448 0
-129 450 0
-449 450 0
-129 -449 0
-130 451 0
-450 451 0
-130 -450 0
-131 452 0
-451 452 0
-131 -451 0
-132 453 0
-452 453 0
-132 -452 0
-133 454 0
-453 454 0
-133 -453 0
-134 455 0
-454 455 0
-134 -454 0
-135 -455 0
32 59 73 136 137 138 139 140 141 142 143 144 145 146 147 0
-32 456 0
-59 457 0
-456 457 0
-59 -456 0
-73 458 0
-457 458 0
-73 -457 0
-136 459 0
-458 459 0
-136 -458 0
-137 460 0
-459 460 0
-137 -459 0
-138 461 0
-460 461 0
-138 -460 0
-139 462 0
-461 462 0
-139 -461 0
-140 463 0
-462 463 0
-140 -462 0
-141 464 0
-463 464 0
-141 -463 0
-142 465 0
-464 465 0
-142 -464 0
-143 466 0
-465 466 0
-143 -465 0
-144 467 0
-466 467 0
-144 -466 0
-145 468 0
-467 468 0
-145 -467 0
-146 469 0
-468 469 0
-146 -468 0
-147 -469 0
3 18 33 148 149 150 151 152 153 154 155 156 157 158 159 0
-3 470 0
-18 471 0
-470 471 0
-18 -470 0
-33 472 0
-471 472 0
-33 -471 0
-148 473 0
-472 473 0
-148 -472 0
-149 474 0
-473 474 0
-149 -473 0
-150 475 0
-474 475 0
-150 -474 0
-151 476 0
-475 476 0
-151 -475 0
-152 477 0
-476 477 0
-152 -476 0
-153 478 0
-477 478 0
-153 -477 0
-154 479 0
-478 479 0
-154 -478 0
-155 480 0
-479 480 0
-155 -479 0
-156 481 0
-480 481 0
-156 -480 0
-157 482 0
-481 482 0
-157 -481 0
-158 483 0
-482 483 0
-158 -482 0
-159 -483 0
3 73 87 160 161 162 163 164 165 166 167 168 169 170 171 0
-3 484 0
-73 485 0
-484 485 0
-73 -484 0
-87 486 0
-485 486 0
-87 -485 0
-160 487 0
-486 487 0
-160 -486 0
-161 488 0
-487 488 0
-161 -487 0
-162 489 0
-488 489 0
-162 -488 0
-163 490 0
-489 490 0
-163 -489 0
-164 491 0
-490 491 0
-164 -490 0
-165 492 0
-491 492 0
-165 -491 0
-166 493 0
-492 493 0
-166 -492 0
-167 494 0
-493 494 0
-167 -493 0
-168 495 0
-494 495 0
-168 -494 0
-169 496 0
-495 496 0
-169 -495 0
-170 497 0
-496 497 0
-170 -496 0
-171 -497 0
18 59 86 172 173 174 175 176 177 178 179 180 181 182 183 0
-18 498 0
-59 499 0
-498 499 0
-59 -498 0
-86 500 0
-499 500 0
-86 -499 0
-172 501 0
-500 501 0
-172 -500 0
-173 502 0
-501 502 0
-173 -501 0
-174 503 0
-502 503 0
-174 -502 0
-175 504 0
-503 504 0
-175 -503 0
-176 505 0
-504 505 0
-176 -504 0
-177 506 0
-505 506 0
-177 -505 0
-178 507 0
-506 507 0
-178 -506 0
-179 508 0
-507 508 0
-179 -507 0
-180 509 0
-508 509 0
-180 -508 0
-181 510 0
-509 510 0
-181 -509 0
-182 511 0
-510 511 0
-182 -510 0
-183 -511 0
33 58 72 184 185 186 187 188 189 190 191 192 193 194 195 0
-33 512 0
-58 513 0
-512 513 0
-58 -512 0
-72 514 0
-513 514 0
-72 -513 0
-184 515 0
-514 515 0
-184 -514 0
-185 516 0
-515 516 0
-185 -515 0
-186 517 0
-516 517 0
-186 -516 0
-187 518 0
-517 518 0
-187 -517 0
-188 519 0
-518 519 0
-188 -518 0
-189 520 0
-519 520 0
-189 -519 0
-190 521 0
-520 521 0
-190 -520 0
-191 522 0
-521 522 0
-191 -521 0
-192 523 0
-522 523 0
-192 -522 0
-193 524 0
-523 524 0
-193 -523 0
-194 525 0
-524 525 0
-194 -524 0
-195 -525 0
4 19 34 46 60 74 88 100 112 124 136 148 160 172 184 0
-4 526 0
-19 527 0
-526 527 0
-19 -526 0
-34 528 0
-527 528 0
-34 -527 0
-46 529 0
-528 529 0
-46 -528 0
-60 530 0
-529 530 0
-60 -529 0
-74 531 0
-530 531 0
-74 -530 0
-88 532 0
-531 532 0
-88 -531 0
-100 533 0
-532 533 0
-100 -532 0
-112 534 0
-533 534 0
-112 -533 0
-124 535 0
-534 535 0
-124 -534 0
-136 536 0
-535 536 0
-136 -535 0
-148 537 0
-536 537 0
-148 -536 0
-160 538 0
-537 538 0
-160 -537 0
-172 539 0
-538 539 0
-172 -538 0
-184 -539 0
4 47 61 101 113 149 161 196 197 198 199 200 201 202 203 0
-4 540 0
-47 541 0
-540 541 0
-47 -540 0
-61 542 0
-541 542 0
-61 -541 0
-101 543 0
-542 543 0
-101 -542 0
-113 544 0
-543 544 0
-113 -543 0
-149 545 0
-544 545 0
-149 -544 0
-161 546 0
-545 546 0
-161 -545 0
-196 547 0
-546 547 0
-196 -546 0
-197 548 0
-547 548 0
-197 -547 0
-198 549 0
-548 549 0
-198 -548 0
-199 550 0
-549 550 0
-199 -549 0
-200 551 0
-550 551 0
-200 -550 0
-201 552 0
-551 552 0
-201 -551 0
-202 553 0
-552 553 0
-202 -552 0
-203 -553 0
19 48 75 102 125 150 173 204 205 206 207 208 209 210 211 0
-19 554 0
-48 555 0
-554 555 0
-48 -554 0
-75 556 0
-555 556 0
-75 -555 0
-102 557 0
-556 557 0
-102 -556 0
-125 558 0
-557 558 0
-125 -557 0
-150 559 0
-558 559 0
-150 -558 0
-173 560 0
-559 560 0
-173 -559 0
-204 561 0
-560 561 0
-204 -560 0
-205 562 0
-561 562 0
-205 -561 0
-206 563 0
-562 563 0
-206 -562 0
-207 564 0
-563 564 0
-207 -563 0
-208 565 0
-564 565 0
-208 -564 0
-209 566 0
-565 566 0
-209 -565 0
-210 567 0
-566 567 0
-210 -566 0
-211 -567 0
34 49 89 103 137 151 185 212 213 214 215 216 217 218 219 0
-34 568 0
-49 569 0
-568 569 0
-49 -568 0
-89 570 0
-569 570 0
-89 -569 0
-103 571 0
-570 571 0
-103 -570 0
-137 572 0
-571 572 0
-137 -571 0
-151 573 0
-572 573 0
-151 -572 0
-185 574 0
-573 574 0
-185 -573 0
-212 575 0
-574 575 0
-212 -574 0
-213 576 0
-575 576 0
-213 -575 0
-214 577 0
-576 577 0
-214 -576 0
-215 578 0
-577 578 0
-215 -577 0
-216 579 0
-578 579 0
-216 -578 0
-217 580 0
-579 580 0
-217 -579 0
-218 581 0
-580 581 0
-218 -580 0
-219 -581 0
5 20 35 46 61 75 89 220 221 222 223 224 225 226 227 0
-5 582 0
-20 583 0
-582 583 0
-20 -582 0
-35 584 0
-583 584 0
-35 -583 0
-46 585 0
-584 585 0
-46 -584 0
-61 586 0
-585 586 0
-61 -585 0
-75 587 0
-586 587 0
-75 -586 0
-89 588 0
-587 588 0
-89 -587 0
-220 589 0
-588 589 0
-220 -588 0
-221 590 0
-589 590 0
-221 -589 0
-222 591 0
-590 591 0
-222 -590 0
-223 592 0
-591 592 0
-223 -591 0
-224 593 0
-592 593 0
-224 -592 0
-225 594 0
-593 594 0
-225 -593 0
-226 595 0
-594 595 0
-226 -594 0
-227 -595 0
5 47 60 126 138 174 186 228 229 230 231 232 233 234 235 0
-5 596 0
-47 597 0
-596 597 0
-47 -596 0
-60 598 0
-597 598 0
-60 -597 0
-126 599 0
-598 599 0
-126 -598 0
-138 600 0
-599 600 0
-138 -599 0
-174 601 0
-600 601 0
-174 -600 0
-186 602 0
-601 602 0
-186 -601 0
-228 603 0
-602 603 0
-228 -602 0
-229 604 0
-603 604 0
-229 -603 0
-230 605 0
-604 605 0
-230 -604 0
-231 606 0
-605 606 0
-231 -605 0
-232 607 0
-606 607 0
-232 -606 0
-233 608 0
-607 608 0
-233 -607 0
-234 609 0
-608 609 0
-234 -608 0
-235 -609 0
20 48 74 114 139 162 187 236 237 238 239 240 241 242 243 0
-20 610 0
-48 611 0
-610 611 0
-48 -610 0
-74 612 0
-611 612 0
-74 -611 0
-114 613 0
-612 613 0
-114 -612 0
-139 614 0
-613 614 0
-139 -613 0
-162 615 0
-614 615 0
-162 -614 0
-187 616 0
-615 616 0
-187 -615 0
-236 617 0
-616 617 0
-236 -616 0
-237 618 0
-617 618 0
-237 -617 0
-238 619 0
-618 619 0
-238 -618 0
-239 620 0
-619 620 0
-239 -619 0
-240 621 0
-620 621 0
-240 -620 0
-241 622 0
-621 622 0
-241 -621 0
-242 623 0
-622 623 0
-242 -622 0
-243 -623 0
35 49 88 115 127 163 175 244 245 246 247 248 249 250 251 0
-35 624 0
-49 625 0
-624 625 0
-49 -624 0
-88 626 0
-625 626 0
-88 -625 0
-115 627 0
-626 627 0
-115 -626 0
-127 628 0
-627 628 0
-127 -627 0
-163 629 0
-628 629 0
-163 -628 0
-175 630 0
-629 630 0
-175 -629 0
-244 631 0
-630 631 0
-244 -630 0
-245 632 0
-631 632 0
-245 -631 0
-246 633 0
-632 633 0
-246 -632 0
-247 634 0
-633 634 0
-247 -633 0
-248 635 0
-634 635 0
-248 -634 0
-249 636 0
-635 636 0
-249 -635 0
-250 637 0
-636 637 0
-250 -636 0
-251 -637 0
6 21 36 100 113 125 137 252 253 254 255 256 257 258 259 0
-6 638 0
-21 639 0
-638 639 0
-21 -638 0
-36 640 0
-639 640 0
-36 -639 0
-100 641 0
-640 641 0
-100 -640 0
-113 642 0
-641 642 0
-113 -641 0
-125 643 0
-642 643 0
-125 -642 0
-137 644 0
-643 644 0
-137 -643 0
-252 645 0
-644 645 0
-252 -644 0
-253 646 0
-645 646 0
-253 -645 0
-254 647 0
-646 647 0
-254 -646 0
-255 648 0
-647 648 0
-255 -647 0
-256 649 0
-648 649 0
-256 -648 0
-257 650 0
-649 650 0
-257 -649 0
-258 651 0
-650 651 0
-258 -650 0
-259 -651 0
6 76 90 101 112 175 187 260 261 262 263 264 265 266 267 0
-6 652 0
-76 653 0
-652 653 0
-76 -652 0
-90 654 0
-653 654 0
-90 -653 0
-101 655 0
-654 655 0
-101 -654 0
-112 656 0
-655 656 0
-112 -655 0
-175 657 0
-656 657 0
-175 -656 0
-187 658 0
-657 658 0
-187 -657 0
-260 659 0
-658 659 0
-260 -658 0
-261 660 0
-659 660 0
-261 -659 0
-262 661 0
-660 661 0
-262 -660 0
-263 662 0
-661 662 0
-263 -661 0
-264 663 0
-662 663 0
-264 -662 0
-265 664 0
-663 664 0
-265 -663 0
-266 665 0
-664 665 0
-266 -664 0
-267 -665 0
21 62 91 102 124 163 186 268 269 270 271 272 273 274 275 0
-21 666 0
-62 667 0
-666 667 0
-62 -666 0
-91 668 0
-667 668 0
-91 -667 0
-102 669 0
-668 669 0
-102 -668 0
-124 670 0
-669 670 0
-124 -669 0
-163 671 0
-670 671 0
-163 -670 0
-186 672 0
-671 672 0
-186 -671 0
-268 673 0
-672 673 0
-268 -672 0
-269 674 0
-673 674 0
-269 -673 0
-270 675 0
-674 675 0
-270 -674 0
-271 676 0
-675 676 0
-271 -675 0
-272 677 0
-676 677 0
-272 -676 0
-273 678 0
-677 678 0
-273 -677 0
-274 679 0
-678 679 0
-274 -678 0
-275 -679 0
36 63 77 103 136 162 174 276 277 278 279 280 281 282 283 0
-36 680 0
-63 681 0
-680 681 0
-63 -680 0
-77 682 0
-681 682 0
-77 -681 0
-103 683 0
-682 683 0
-103 -682 0
-136 684 0
-683 684 0
-136 -683 0
-162 685 0
-684 685 0
-162 -684 0
-174 686 0
-685 686 0
-174 -685 0
-276 687 0
-686 687 0
-276 -686 0
-277 688 0
-687 688 0
-277 -687 0
-278 689 0
-688 689 0
-278 -688 0
-279 690 0
-689 690 0
-279 -689 0
-280 691 0
-690 691 0
-280 -690 0
-281 692 0
-691 692 0
-281 -691 0
-282 693 0
-692 693 0
-282 -692 0
-283 -693 0
7 22 37 148 161 173 185 284 285 286 287 288 289 290 291 0
-7 694 0
-22 695 0
-694 695 0
-22 -694 0
-37 696 0
-695 696 0
-37 -695 0
-148 697 0
-696 697 0
-148 -696 0
-161 698 0
-697 698 0
-161 -697 0
-173 699 0
-698 699 0
-173 -698 0
-185 700 0
-699 700 0
-185 -699 0
-284 701 0
-700 701 0
-284 -700 0
-285 702 0
-701 702 0
-285 -701 0
-286 703 0
-702 703 0
-286 -702 0
-287 704 0
-703 704 0
-287 -703 0
-288 705 0
-704 705 0
-288 -704 0
-289 706 0
-705 706 0
-289 -705 0
-290 707 0
-706 707 0
-290 -706 0
-291 -707 0
7 77 91 127 139 149 160 292 293 294 295 296 297 298 299 0
-7 708 0
-77 709 0
-708 709 0
-77 -708 0
-91 710 0
-709 710 0
-91 -709 0
-127 711 0
-710 711 0
-127 -710 0
-139 712 0
-711 712 0
-139 -711 0
-149 713 0
-712 713 0
-149 -712 0
-160 714 0
-713 714 0
-160 -713 0
-292 715 0
-714 715 0
-292 -714 0
-293 716 0
-715 716 0
-293 -715 0
-294 717 0
-716 717 0
-294 -716 0
-295 718 0
-717 718 0
-295 -717 0
-296 719 0
-718 719 0
-296 -718 0
-297 720 0
-719 720 0
-297 -719 0
-298 721 0
-720 721 0
-298 -720 0
-299 -721 0
22 63 90 115 138 150 172 300 301 302 303 304 305 306 307 0
-22 722 0
-63 723 0
-722 723 0
-63 -722 0
-90 724 0
-723 724 0
-90 -723 0
-115 725 0
-724 725 0
-115 -724 0
-138 726 0
-725 726 0
-138 -725 0
-150 727 0
-726 727 0
-150 -726 0
-172 728 0
-727 728 0
-172 -727 0
-300 729 0
-728 729 0
-300 -728 0
-301 730 0
-729 730 0
-301 -729 0
-302 731 0
-730 731 0
-302 -730 0
-303 732 0
-731 732 0
-303 -731 0
-304 733 0
-732 733 0
-304 -732 0
-305 734 0
-733 734 0
-305 -733 0
-306 735 0
-734 735 0
-306 -734 0
-307 -735 0
37 62 76 114 126 151 184 308 309 310 311 312 313 314 315 0
-37 736 0
-62 737 0
-736 737 0
-62 -736 0
-76 738 0
-737 738 0
-76 -737 0
-114 739 0
-738 739 0
-114 -738 0
-126 740 0
-739 740 0
-126 -739 0
-151 741 0
-740 741 0
-151 -740 0
-184 742 0
-741 742 0
-184 -741 0
-308 743 0
-742 743 0
-308 -742 0
-309 744 0
-743 744 0
-309 -743 0
-310 745 0
-744 745 0
-310 -744 0
-311 746 0
-745 746 0
-311 -745 0
-312 747 0
-746 747 0
-312 -746 0
-313 748 0
-747 748 0
-313 -747 0
-314 749 0
-748 749 0
-314 -748 0
-315 -749 0
8 23 38 50 64 78 92 104 116 128 140 152 164 176 188 0
-8 750 0
-23 751 0
-750 751 0
-23 -750 0
-38 752 0
-751 752 0
-38 -751 0
-50 753 0
-752 753 0
-50 -752 0
-64 754 0
-753 754 0
-64 -753 0
-78 755 0
-754 755 0
-78 -754 0
-92 756 0
-755 756 0
-92 -755 0
-104 757 0
-756 757 0
-104 -756 0
-116 758 0
-757 758 0
-116 -757 0
-128 759 0
-758 759 0
-128 -758 0
-140 760 0
-759 760 0
-140 -759 0
-152 761 0
-760 761 0
-152 -760 0
-164 762 0
-761 762 0
-164 -761 0
-176 763 0
-762 763 0
-176 -762 0
-188 -763 0
8 51 65 105 117 153 165 204 212 236 244 268 276 300 308 0
-8 764 0
-51 765 0
-764 765 0
-51 -764 0
-65 766 0
-765 766 0
-65 -765 0
-105 767 0
-766 767 0
-105 -766 0
-117 768 0
-767 768 0
-117 -767 0
-153 769 0
-768 769 0
-153 -768 0
-165 770 0
-769 770 0
-165 -769 0
-204 771 0
-770 771 0
-204 -770 0
-212 772 0
-771 772 0
-212 -771 0
-236 773 0
-772 773 0
-236 -772 0
-244 774 0
-773 774 0
-244 -773 0
-268 775 0
-774 775 0
-268 -774 0
-276 776 0
-775 776 0
-276 -775 0
-300 777 0
-776 777 0
-300 -776 0
-308 -777 0
23 52 79 106 129 154 177 196 213 228 245 260 277 292 309 0
-23 778 0
-52 779 0
-778 779 0
-52 -778 0
-79 780 0
-779 780 0
-79 -779 0
-106 781 0
-780 781 0
-106 -780 0
-129 782 0
-781 782 0
-129 -781 0
-154 783 0
-782 783 0
-154 -782 0
-177 784 0
-783 784 0
-177 -783 0
-196 785 0
-784 785 0
-196 -784 0
-213 786 0
-785 786 0
-213 -785 0
-228 787 0
-786 787 0
-228 -786 0
-245 788 0
-787 788 0
-245 -787 0
-260 789 0
-788 789 0
-260 -788 0
-277 790 0
-789 790 0
-277 -789 0
-292 791 0
-790 791 0
-292 -790 0
-309 -791 0
38 53 93 107 141 155 189 197 205 229 237 261 269 293 301 0
-38 792 0
-53 793 0
-792 793 0
-53 -792 0
-93 794 0
-793 794 0
-93 -793 0
-107 795 0
-794 795 0
-107 -794 0
-141 796 0
-795 796 0
-141 -795 0
-155 797 0
-796 797 0
-155 -796 0
-189 798 0
-797 798 0
-189 -797 0
-197 799 0
-798 799 0
-197 -798 0
-205 800 0
-799 800 0
-205 -799 0
-229 801 0
-800 801 0
-229 -800 0
-237 802 0
-801 802 0
-237 -801 0
-261 803 0
-802 803 0
-261 -802 0
-269 804 0
-803 804 0
-269 -803 0
-293 805 0
-804 805 0
-293 -804 0
-301 -805 0
9 24 39 50 65 79 93 252 262 270 278 284 294 302 310 0
-9 806 0
-24 807 0
-806 807 0
-24 -806 0
-39 808 0
-807 808 0
-39 -807 0
-50 809 0
-808 809 0
-50 -808 0
-65 810 0
-809 810 0
-65 -809 0
-79 811 0
-810 811 0
-79 -810 0
-93 812 0
-811 812 0
-93 -811 0
-252 813 0
-812 813 0
-252 -812 0
-262 814 0
-813 814 0
-262 -813 0
-270 815 0
-814 815 0
-270 -814 0
-278 816 0
-815 816 0
-278 -815 0
-284 817 0
-816 817 0
-284 -816 0
-294 818 0
-817 818 0
-294 -817 0
-302 819 0
-818 819 0
-302 -818 0
-310 -819 0
9 51 64 130 142 178 190 206 214 238 246 253 263 285 295 0
-9 820 0
-51 821 0
-820 821 0
-51 -820 0
-64 822 0
-821 822 0
-64 -821 0
-130 823 0
-822 823 0
-130 -822 0
-142 824 0
-823 824 0
-142 -823 0
-178 825 0
-824 825 0
-178 -824 0
-190 826 0
-825 826 0
-190 -825 0
-206 827 0
-826 827 0
-206 -826 0
-214 828 0
-827 828 0
-214 -827 0
-238 829 0
-828 829 0
-238 -828 0
-246 830 0
-829 830 0
-246 -829 0
-253 831 0
-830 831 0
-253 -830 0
-263 832 0
-831 832 0
-263 -831 0
-285 833 0
-832 833 0
-285 -832 0
-295 -833 0
24 52 78 118 143 166 191 198 215 230 247 254 271 286 303 0
-24 834 0
-52 835 0
-834 835 0
-52 -834 0
-78 836 0
-835 836 0
-78 -835 0
-118 837 0
-836 837 0
-118 -836 0
-143 838 0
-837 838 0
-143 -837 0
-166 839 0
-838 839 0
-166 -838 0
-191 840 0
-839 840 0
-191 -839 0
-198 841 0
-840 841 0
-198 -840 0
-215 842 0
-841 842 0
-215 -841 0
-230 843 0
-842 843 0
-230 -842 0
-247 844 0
-843 844 0
-247 -843 0
-254 845 0
-844 845 0
-254 -844 0
-271 846 0
-845 846 0
-271 -845 0
-286 847 0
-846 847 0
-286 -846 0
-303 -847 0
39 53 92 119 131 167 179 199 207 231 239 255 279 287 311 0
-39 848 0
-53 849 0
-848 849 0
-53 -848 0
-92 850 0
-849 850 0
-92 -849 0
-119 851 0
-850 851 0
-119 -850 0
-131 852 0
-851 852 0
-131 -851 0
-167 853 0
-852 853 0
-167 -852 0
-179 854 0
-853 854 0
-179 -853 0
-199 855 0
-854 855 0
-199 -854 0
-207 856 0
-855 856 0
-207 -855 0
-231 857 0
-856 857 0
-231 -856 0
-239 858 0
-857 858 0
-239 -857 0
-255 859 0
-858 859 0
-255 -858 0
-279 860 0
-859 860 0
-279 -859 0
-287 861 0
-860 861 0
-287 -860 0
-311 -861 0
10 25 40 104 117 129 141 220 232 240 248 288 296 304 312 0
-10 862 0
-25 863 0
-862 863 0
-25 -862 0
-40 864 0
-863 864 0
-40 -863 0
-104 865 0
-864 865 0
-104 -864 0
-117 866 0
-865 866 0
-117 -865 0
-129 867 0
-866 867 0
-129 -866 0
-141 868 0
-867 868 0
-141 -867 0
-220 869 0
-868 869 0
-220 -868 0
-232 870 0
-869 870 0
-232 -869 0
-240 871 0
-870 871 0
-240 -870 0
-248 872 0
-871 872 0
-248 -871 0
-288 873 0
-872 873 0
-288 -872 0
-296 874 0
-873 874 0
-296 -873 0
-304 875 0
-874 875 0
-304 -874 0
-312 -875 0
10 80 94 105 116 179 191 208 216 221 233 272 280 289 297 0
-10 876 0
-80 877 0
-876 877 0
-80 -876 0
-94 878 0
-877 878 0
-94 -877 0
-105 879 0
-878 879 0
-105 -878 0
-116 880 0
-879 880 0
-116 -879 0
-179 881 0
-880 881 0
-179 -880 0
-191 882 0
-881 882 0
-191 -881 0
-208 883 0
-882 883 0
-208 -882 0
-216 884 0
-883 884 0
-216 -883 0
-221 885 0
-884 885 0
-221 -884 0
-233 886 0
-885 886 0
-233 -885 0
-272 887 0
-886 887 0
-272 -886 0
-280 888 0
-887 888 0
-280 -887 0
-289 889 0
-888 889 0
-289 -888 0
-297 -889 0
25 66 95 106 128 167 190 200 217 222 241 264 281 290 305 0
-25 890 0
-66 891 0
-890 891 0
-66 -890 0
-95 892 0
-891 892 0
-95 -891 0
-106 893 0
-892 893 0
-106 -892 0
-128 894 0
-893 894 0
-128 -893 0
-167 895 0
-894 895 0
-167 -894 0
-190 896 0
-895 896 0
-190 -895 0
-200 897 0
-896 897 0
-200 -896 0
-217 898 0
-897 898 0
-217 -897 0
-222 899 0
-898 899 0
-222 -898 0
-241 900 0
-899 900 0
-241 -899 0
-264 901 0
-900 901 0
-264 -900 0
-281 902 0
-901 902 0
-281 -901 0
-290 903 0
-902 903 0
-290 -902 0
-305 -903 0
40 67 81 107 140 166 178 201 209 223 249 265 273 291 313 0
-40 904 0
-67 905 0
-904 905 0
-67 -904 0
-81 906 0
-905 906 0
-81 -905 0
-107 907 0
-906 907 0
-107 -906 0
-140 908 0
-907 908 0
-140 -907 0
-166 909 0
-908 909 0
-166 -908 0
-178 910 0
-909 910 0
-178 -909 0
-201 911 0
-910 911 0
-201 -910 0
-209 912 0
-911 912 0
-209 -911 0
-223 913 0
-912 913 0
-223 -912 0
-249 914 0
-913 914 0
-249 -913 0
-265 915 0
-914 915 0
-265 -914 0
-273 916 0
-915 916 0
-273 -915 0
-291 917 0
-916 917 0
-291 -916 0
-313 -917 0
11 26 41 152 165 177 189 224 234 242 250 256 266 274 282 0
-11 918 0
-26 919 0
-918 919 0
-26 -918 0
-41 920 0
-919 920 0
-41 -919 0
-152 921 0
-920 921 0
-152 -920 0
-165 922 0
-921 922 0
-165 -921 0
-177 923 0
-922 923 0
-177 -922 0
-189 924 0
-923 924 0
-189 -923 0
-224 925 0
-924 925 0
-224 -924 0
-234 926 0
-925 926 0
-234 -925 0
-242 927 0
-926 927 0
-242 -926 0
-250 928 0
-927 928 0
-250 -927 0
-256 929 0
-928 929 0
-256 -928 0
-266 930 0
-929 930 0
-266 -929 0
-274 931 0
-930 931 0
-274 -930 0
-282 -931 0
11 81 95 131 143 153 164 210 218 225 235 257 267 306 314 0
-11 932 0
-81 933 0
-932 933 0
-81 -932 0
-95 934 0
-933 934 0
-95 -933 0
-131 935 0
-934 935 0
-131 -934 0
-143 936 0
-935 936 0
-143 -935 0
-153 937 0
-936 937 0
-153 -936 0
-164 938 0
-937 938 0
-164 -937 0
-210 939 0
-938 939 0
-210 -938 0
-218 940 0
-939 940 0
-218 -939 0
-225 941 0
-940 941 0
-225 -940 0
-235 942 0
-941 942 0
-235 -941 0
-257 943 0
-942 943 0
-257 -942 0
-267 944 0
-943 944 0
-267 -943 0
-306 945 0
-944 945 0
-306 -944 0
-314 -945 0
26 67 94 119 142 154 176 202 219 226 243 258 275 298 315 0
-26 946 0
-67 947 0
-946 947 0
-67 -946 0
-94 948 0
-947 948 0
-94 -947 0
-119 949 0
-948 949 0
-119 -948 0
-142 950 0
-949 950 0
-142 -949 0
-154 951 0
-950 951 0
-154 -950 0
-176 952 0
-951 952 0
-176 -951 0
-202 953 0
-952 953 0
-202 -952 0
-219 954 0
-953 954 0
-219 -953 0
-226 955 0
-954 955 0
-226 -954 0
-243 956 0
-955 956 0
-243 -955 0
-258 957 0
-956 957 0
-258 -956 0
-275 958 0
-957 958 0
-275 -957 0
-298 959 0
-958 959 0
-298 -958 0
-315 -959 0
41 66 80 118 130 155 188 203 211 227 251 259 283 299 307 0
-41 960 0
-66 961 0
-960 961 0
-66 -960 0
-80 962 0
-961 962 0
-80 -961 0
-118 963 0
-962 963 0
-118 -962 0
-130 964 0
-963 964 0
-130 -963 0
-155 965 0
-964 965 0
-155 -964 0
-188 966 0
-965 966 0
-188 -965 0
-203 967 0
-966 967 0
-203 -966 0
-211 968 0
-967 968 0
-211 -967 0
-227 969 0
-968 969 0
-227 -968 0
-251 970 0
-969 970 0
-251 -969 0
-259 971 0
-970 971 0
-259 -970 0
-283 972 0
-971 972 0
-283 -971 0
-299 973 0
-972 973 0
-299 -972 0
-307 -973 0
12 27 42 54 68 82 96 108 120 132 144 156 168 180 192 0
-12 974 0
-27 975 0
-974 975 0
-27 -974 0
-42 976 0
-975 976 0
-42 -975 0
-54 977 0
-976 977 0
-54 -976 0
-68 978 0
-977 978 0
-68 -977 0
-82 979 0
-978 979 0
-82 -978 0
-96 980 0
-979 980 0
-96 -979 0
-108 981 0
-980 981 0
-108 -980 0
-120 982 0
-981 982 0
-120 -981 0
-132 983 0
-982 983 0
-132 -982 0
-144 984 0
-983 984 0
-144 -983 0
-156 985 0
-984 985 0
-156 -984 0
-168 986 0
-985 986 0
-168 -985 0
-180 987 0
-986 987 0
-180 -986 0
-192 -987 0
12 55 69 109 121 157 169 205 213 239 247 273 281 307 315 0
-12 988 0
-55 989 0
-988 989 0
-55 -988 0
-69 990 0
-989 990 0
-69 -989 0
-109 991 0
-990 991 0
-109 -990 0
-121 992 0
-991 992 0
-121 -991 0
-157 993 0
-992 993 0
-157 -992 0
-169 994 0
-993 994 0
-169 -993 0
-205 995 0
-994 995 0
-205 -994 0
-213 996 0
-995 996 0
-213 -995 0
-239 997 0
-996 997 0
-239 -996 0
-247 998 0
-997 998 0
-247 -997 0
-273 999 0
-998 999 0
-273 -998 0
-281 1000 0
-999 1000 0
-281 -999 0
-307 1001 0
-1000 1001 0
-307 -1000 0
-315 -1001 0
27 56 83 110 133 158 181 197 212 231 246 265 280 299 314 0
-27 1002 0
-56 1003 0
-1002 1003 0
-56 -1002 0
-83 1004 0
-1003 1004 0
-83 -1003 0
-110 1005 0
-1004 1005 0
-110 -1004 0
-133 1006 0
-1005 1006 0
-133 -1005 0
-158 1007 0
-1006 1007 0
-158 -1006 0
-181 1008 0
-1007 1008 0
-181 -1007 0
-197 1009 0
-1008 1009 0
-197 -1008 0
-212 1010 0
-1009 1010 0
-212 -1009 0
-231 1011 0
-1010 1011 0
-231 -1010 0
-246 1012 0
-1011 1012 0
-246 -1011 0
-265 1013 0
-1012 1013 0
-265 -1012 0
-280 1014 0
-1013 1014 0
-280 -1013 0
-299 1015 0
-1014 1015 0
-299 -1014 0
-314 -1015 0
42 57 97 111 145 159 193 196 204 230 238 264 272 298 306 0
-42 1016 0
-57 1017 0
-1016 1017 0
-57 -1016 0
-97 1018 0
-1017 1018 0
-97 -1017 0
-111 1019 0
-1018 1019 0
-111 -1018 0
-145 1020 0
-1019 1020 0
-145 -1019 0
-159 1021 0
-1020 1021 0
-159 -1020 0
-193 1022 0
-1021 1022 0
-193 -1021 0
-196 1023 0
-1022 1023 0
-196 -1022 0
-204 1024 0
-1023 1024 0
-204 -1023 0
-230 1025 0
-1024 1025 0
-230 -1024 0
-238 1026 0
-1025 1026 0
-238 -1025 0
-264 1027 0
-1026 1027 0
-264 -1026 0
-272 1028 0
-1027 1028 0
-272 -1027 0
-298 1029 0
-1028 1029 0
-298 -1028 0
-306 -1029 0
13 28 43 54 69 83 97 256 267 275 283 288 297 305 313 0
-13 1030 0
-28 1031 0
-1030 1031 0
-28 -1030 0
-43 1032 0
-1031 1032 0
-43 -1031 0
-54 1033 0
-1032 1033 0
-54 -1032 0
-69 1034 0
-1033 1034 0
-69 -1033 0
-83 1035 0
-1034 1035 0
-83 -1034 0
-97 1036 0
-1035 1036 0
-97 -1035 0
-256 1037 0
-1036 1037 0
-256 -1036 0
-267 1038 0
-1037 1038 0
-267 -1037 0
-275 1039 0
-1038 1039 0
-275 -1038 0
-283 1040 0
-1039 1040 0
-283 -1039 0
-288 1041 0
-1040 1041 0
-288 -1040 0
-297 1042 0
-1041 1042 0
-297 -1041 0
-305 1043 0
-1042 1043 0
-305 -1042 0
-313 -1043 0
13 55 68 134 146 182 194 207 215 237 245 257 266 289 296 0
-13 1044 0
-55 1045 0
-1044 1045 0
-55 -1044 0
-68 1046 0
-1045 1046 0
-68 -1045 0
-134 1047 0
-1046 1047 0
-134 -1046 0
-146 1048 0
-1047 1048 0
-146 -1047 0
-182 1049 0
-1048 1049 0
-182 -1048 0
-194 1050 0
-1049 1050 0
-194 -1049 0
-207 1051 0
-1050 1051 0
-207 -1050 0
-215 1052 0
-1051 1052 0
-215 -1051 0
-237 1053 0
-1052 1053 0
-237 -1052 0
-245 1054 0
-1053 1054 0
-245 -1053 0
-257 1055 0
-1054 1055 0
-257 -1054 0
-266 1056 0
-1055 1056 0
-266 -1055 0
-289 1057 0
-1056 1057 0
-289 -1056 0
-296 -1057 0
28 56 82 122 147 170 195 199 214 229 244 258 274 290 304 0
-28 1058 0
-56 1059 0
-1058 1059 0
-56 -1058 0
-82 1060 0
-1059 1060 0
-82 -1059 0
-122 1061 0
-1060 1061 0
-122 -1060 0
-147 1062 0
-1061 1062 0
-147 -1061 0
-170 1063 0
-1062 1063 0
-170 -1062 0
-195 1064 0
-1063 1064 0
-195 -1063 0
-199 1065 0
-1064 1065 0
-199 -1064 0
-214 1066 0
-1065 1066 0
-214 -1065 0
-229 1067 0
-1066 1067 0
-229 -1066 0
-244 1068 0
-1067 1068 0
-244 -1067 0
-258 1069 0
-1068 1069 0
-258 -1068 0
-274 1070 0
-1069 1070 0
-274 -1069 0
-290 1071 0
-1070 1071 0
-290 -1070 0
-304 -1071 0
43 57 96 123 135 171 183 198 206 228 236 259 282 291 312 0
-43 1072 0
-57 1073 0
-1072 1073 0
-57 -1072 0
-96 1074 0
-1073 1074 0
-96 -1073 0
-123 1075 0
-1074 1075 0
-123 -1074 0
-135 1076 0
-1075 1076 0
-135 -1075 0
-171 1077 0
-1076 1077 0
-171 -1076 0
-183 1078 0
-1077 1078 0
-183 -1077 0
-198 1079 0
-1078 1079 0
-198 -1078 0
-206 1080 0
-1079 1080 0
-206 -1079 0
-228 1081 0
-1080 1081 0
-228 -1080 0
-236 1082 0
-1081 1082 0
-236 -1081 0
-259 1083 0
-1082 1083 0
-259 -1082 0
-282 1084 0
-1083 1084 0
-282 -1083 0
-291 1085 0
-1084 1085 0
-291 -1084 0
-312 -1085 0
14 29 44 108 121 133 145 224 235 243 251 284 295 303 311 0
-14 1086 0
-29 1087 0
-1086 1087 0
-29 -1086 0
-44 1088 0
-1087 1088 0
-44 -1087 0
-108 1089 0
-1088 1089 0
-108 -1088 0
-121 1090 0
-1089 1090 0
-121 -1089 0
-133 1091 0
-1090 1091 0
-133 -1090 0
-145 1092 0
-1091 1092 0
-145 -1091 0
-224 1093 0
-1092 1093 0
-224 -1092 0
-235 1094 0
-1093 1094 0
-235 -1093 0
-243 1095 0
-1094 1095 0
-243 -1094 0
-251 1096 0
-1095 1096 0
-251 -1095 0
-284 1097 0
-1096 1097 0
-284 -1096 0
-295 1098 0
-1097 1098 0
-295 -1097 0
-303 1099 0
-1098 1099 0
-303 -1098 0
-311 -1099 0
14 84 98 109 120 183 195 209 217 225 234 269 277 285 294 0
-14 1100 0
-84 1101 0
-1100 1101 0
-84 -1100 0
-98 1102 0
-1101 1102 0
-98 -1101 0
-109 1103 0
-1102 1103 0
-109 -1102 0
-120 1104 0
-1103 1104 0
-120 -1103 0
-183 1105 0
-1104 1105 0
-183 -1104 0
-195 1106 0
-1105 1106 0
-195 -1105 0
-209 1107 0
-1106 1107 0
-209 -1106 0
-217 1108 0
-1107 1108 0
-217 -1107 0
-225 1109 0
-1108 1109 0
-225 -1108 0
-234 1110 0
-1109 1110 0
-234 -1109 0
-269 1111 0
-1110 1111 0
-269 -1110 0
-277 1112 0
-1111 1112 0
-277 -1111 0
-285 1113 0
-1112 1113 0
-285 -1112 0
-294 -1113 0
29 70 99 110 132 171 194 201 216 226 242 261 276 286 302 0
-29 1114 0
-70 1115 0
-1114 1115 0
-70 -1114 0
-99 1116 0
-1115 1116 0
-99 -1115 0
-110 1117 0
-1116 1117 0
-110 -1116 0
-132 1118 0
-1117 1118 0
-132 -1117 0
-171 1119 0
-1118 1119 0
-171 -1118 0
-194 1120 0
-1119 1120 0
-194 -1119 0
-201 1121 0
-1120 1121 0
-201 -1120 0
-216 1122 0
-1121 1122 0
-216 -1121 0
-226 1123 0
-1122 1123 0
-226 -1122 0
-242 1124 0
-1123 1124 0
-242 -1123 0
-261 1125 0
-1124 1125 0
-261 -1124 0
-276 1126 0
-1125 1126 0
-276 -1125 0
-286 1127 0
-1126 1127 0
-286 -1126 0
-302 -1127 0
44 71 85 111 144 170 182 200 208 227 250 260 268 287 310 0
-44 1128 0
-71 1129 0
-1128 1129 0
-71 -1128 0
-85 1130 0
-1129 1130 0
-85 -1129 0
-111 1131 0
-1130 1131 0
-111 -1130 0
-144 1132 0
-1131 1132 0
-144 -1131 0
-170 1133 0
-1132 1133 0
-170 -1132 0
-182 1134 0
-1133 1134 0
-182 -1133 0
-200 1135 0
-1134 1135 0
-200 -1134 0
-208 1136 0
-1135 1136 0
-208 -1135 0
-227 1137 0
-1136 1137 0
-227 -1136 0
-250 1138 0
-1137 1138 0
-250 -1137 0
-260 1139 0
-1138 1139 0
-260 -1138 0
-268 1140 0
-1139 1140 0
-268 -1139 0
-287 1141 0
-1140 1141 0
-287 -1140 0
-310 -1141 0
15 30 45 156 169 181 193 220 233 241 249 252 263 271 279 0
-15 1142 0
-30 1143 0
-1142 1143 0
-30 -1142 0
-45 1144 0
-1143 1144 0
-45 -1143 0
-156 1145 0
-1144 1145 0
-156 -1144 0
-169 1146 0
-1145 1146 0
-169 -1145 0
-181 1147 0
-1146 1147 0
-181 -1146 0
-193 1148 0
-1147 1148 0
-193 -1147 0
-220 1149 0
-1148 1149 0
-220 -1148 0
-233 1150 0
-1149 1150 0
-233 -1149 0
-241 1151 0
-1150 1151 0
-241 -1150 0
-249 1152 0
-1151 1152 0
-249 -1151 0
-252 1153 0
-1152 1153 0
-252 -1152 0
-263 1154 0
-1153 1154 0
-263 -1153 0
-271 1155 0
-1154 1155 0
-271 -1154 0
-279 -1155 0
15 85 99 135 147 157 168 211 219 221 232 253 262 301 309 0
-15 1156 0
-85 1157 0
-1156 1157 0
-85 -1156 0
-99 1158 0
-1157 1158 0
-99 -1157 0
-135 1159 0
-1158 1159 0
-135 -1158 0
-147 1160 0
-1159 1160 0
-147 -1159 0
-157 1161 0
-1160 1161 0
-157 -1160 0
-168 1162 0
-1161 1162 0
-168 -1161 0
-211 1163 0
-1162 1163 0
-211 -1162 0
-219 1164 0
-1163 1164 0
-219 -1163 0
-221 1165 0
-1164 1165 0
-221 -1164 0
-232 1166 0
-1165 1166 0
-232 -1165 0
-253 1167 0
-1166 1167 0
-253 -1166 0
-262 1168 0
-1167 1168 0
-262 -1167 0
-301 1169 0
-1168 1169 0
-301 -1168 0
-309 -1169 0
30 71 98 123 146 158 180 203 218 222 240 254 270 293 308 0
-30 1170 0
-71 1171 0
-1170 1171 0
-71 -1170 0
-98 1172 0
-1171 1172 0
-98 -1171 0
-123 1173 0
-1172 1173 0
-123 -1172 0
-146 1174 0
-1173 1174 0
-146 -1173 0
-158 1175 0
-1174 1175 0
-158 -1174 0
-180 1176 0
-1175 1176 0
-180 -1175 0
-203 1177 0
-1176 1177 0
-203 -1176 0
-218 1178 0
-1177 1178 0
-218 -1177 0
-222 1179 0
-1178 1179 0
-222 -1178 0
-240 1180 0
-1179 1180 0
-240 -1179 0
-254 1181 0
-1180 1181 0
-254 -1180 0
-270 1182 0
-1181 1182 0
-270 -1181 0
-293 1183 0
-1182 1183 0
-293 -1182 0
-308 -1183 0
45 70 84 122 134 159 192 202 210 223 248 255 278 292 300 0
-45 1184 0
-70 1185 0
-1184 1185 0
-70 -1184 0
-84 1186 0
-1185 1186 0
-84 -1185 0
-122 1187 0
-1186 1187 0
-122 -1186 0
-134 1188 0
-1187 1188 0
-134 -1187 0
-159 1189 0
-1188 1189 0
-159 -1188 0
-192 1190 0
-1189 1190 0
-192 -1189 0
-202 1191 0
-1190 1191 0
-202 -1190 0
-210 1192 0
-1191 1192 0
-210 -1191 0
-223 1193 0
-1192 1193 0
-223 -1192 0
-248 1194 0
-1193 1194 0
-248 -1193 0
-255 1195 0
-1194 1195 0
-255 -1194 0
-278 1196 0
-1195 1196 0
-278 -1195 0
-292 1197 0
-1196 1197 0
-292 -1196 0
-300 -1197 0
